<?xml version="1.0"?>
<VTKFile type="UnstructuredGrid" version="0.1" byte_order="LittleEndian">
<UnstructuredGrid>
<Piece NumberOfPoints="30361" NumberOfCells="10615">
<Points>
<DataArray type="Float64" NumberOfComponents="3" format="ascii">
-0.5 -0.5 0 -0.45499733535830861 -0.46532613235895959 0 -0.43501891104991458 -0.5 0 -0.5 -0.5 0 -0.45499733535830861 -0.46532613235895959 0 -0.47001126156763162 -0.44805068314367852 0 -0.45322142309163221 -0.44583753990851671 0 -0.44157210364247218 -0.43609289850525029 0 -0.43483715215483709 -0.45369047118926631 0 -0.45499733535830861 -0.46532613235895959 0 -0.45322142309163221 -0.44583753990851671 0 -0.43483715215483709 -0.45369047118926631 0 -0.45499733535830861 -0.46532613235895959 0 -0.47001126156763162 -0.44805068314367852 0 -0.45499733535830861 -0.46532613235895959 0 -0.45322142309163221 -0.44583753990851671 0 -0.47001126156763162 -0.44805068314367852 0 -0.45322142309163221 -0.44583753990851671 0 -0.47001126156763162 -0.44805068314367852 0 -0.46928731790478451 -0.4340949366224931 0 -0.47001126156763162 -0.44805068314367852 0 -0.48502518777695453 -0.43077523392839739 0 -0.5 -0.5 0 -0.47001126156763162 -0.44805068314367852 0 -0.50000000000000178 -0.44346003540298767 0 -0.47001126156763162 -0.44805068314367852 0 -0.48502518777695453 -0.43077523392839739 0 -0.46928731790478451 -0.4340949366224931 0 -0.47001126156763162 -0.44805068314367852 0 -0.50000000000000178 -0.44346003540298767 0 -0.48502518777695453 -0.43077523392839739 0 -0.48502518777695453 -0.43077523392839739 0 -0.49999999999999811 -0.41354479037480618 0 -0.50000000000000178 -0.44346003540298767 0 -0.48502518777695453 -0.43077523392839739 0 -0.50000000000000178 -0.44346003540298767 0 -0.48502518777695453 -0.43077523392839739 0 -0.49999999999999811 -0.41354479037480618 0 -0.48502518777695453 -0.43077523392839739 0 -0.49999999999999811 -0.41354479037480618 0 -0.49069254893016978 -0.41672147797216819 0 -0.49999999999999811 -0.41354479037480618 0 -0.49069254893016978 -0.41672147797216819 0 -0.49136152324382693 -0.40345811864848052 0 -0.49069254893016978 -0.41672147797216819 0 -0.47305911730809441 -0.42063906486880359 0 -0.46109304683923252 -0.41050289580921162 0 -0.49069254893016978 -0.41672147797216819 0 -0.46109304683923252 -0.41050289580921162 0 -0.49069254893016978 -0.41672147797216819 0 -0.47832051903786832 -0.3982345185454923 0 -0.46109304683923252 -0.41050289580921162 0 -0.48502518777695453 -0.43077523392839739 0 -0.47305911730809441 -0.42063906486880359 0 -0.46928731790478451 -0.4340949366224931 0 -0.48502518777695453 -0.43077523392839739 0 -0.49069254893016978 -0.41672147797216819 0 -0.47305911730809441 -0.42063906486880359 0 -0.48502518777695453 -0.43077523392839739 0 -0.47305911730809441 -0.42063906486880359 0 -0.5 -0.38582890228422961 0 -0.4683661890952438 -0.3794945364610402 0 -0.47906179951004269 -0.36184646878828042 0 -0.5 -0.38582890228422961 0 -0.47832051903786832 -0.3982345185454923 0 -0.4683661890952438 -0.3794945364610402 0 -0.49069254893016978 -0.41672147797216819 0 -0.49136152324382693 -0.40345811864848052 0 -0.47832051903786832 -0.3982345185454923 0 -0.49999999999999811 -0.41354479037480618 0 -0.5 -0.38582890228422961 0 -0.49136152324382693 -0.40345811864848052 0 -0.5 -0.38582890228422961 0 -0.49136152324382693 -0.40345811864848052 0 -0.47832051903786832 -0.3982345185454923 0 -0.4683661890952438 -0.3794945364610402 0 -0.44201632684367381 -0.37468782789898819 0 -0.47832051903786832 -0.3982345185454923 0 -0.4683661890952438 -0.3794945364610402 0 -0.45712795293829522 -0.39195601736049179 0 -0.4683661890952438 -0.3794945364610402 0 -0.45712795293829522 -0.39195601736049179 0 -0.44201632684367381 -0.37468782789898819 0 -0.47832051903786832 -0.3982345185454923 0 -0.45712795293829522 -0.39195601736049179 0 -0.46109304683923252 -0.41050289580921162 0 -0.43861745849936867 -0.39146436818900998 0 -0.46109304683923252 -0.41050289580921162 0 -0.45712795293829522 -0.39195601736049179 0 -0.43861745849936867 -0.39146436818900998 0 -0.46109304683923252 -0.41050289580921162 0 -0.43815346412145439 -0.40568350123033919 0 -0.43861745849936867 -0.39146436818900998 0 -0.46109304683923252 -0.41050289580921162 0 -0.45712795293829522 -0.39195601736049179 0 -0.43861745849936867 -0.39146436818900998 0 -0.44201632684367381 -0.37468782789898819 0 -0.45322142309163221 -0.44583753990851671 0 -0.46928731790478451 -0.4340949366224931 0 -0.45695926055369379 -0.42751421042101939 0 -0.47305911730809441 -0.42063906486880359 0 -0.46928731790478451 -0.4340949366224931 0 -0.45695926055369379 -0.42751421042101939 0 -0.47305911730809441 -0.42063906486880359 0 -0.45695926055369379 -0.42751421042101939 0 -0.46109304683923252 -0.41050289580921162 0 -0.45695926055369379 -0.42751421042101939 0 -0.46109304683923252 -0.41050289580921162 0 -0.44565464878411859 -0.42010409363139067 0 -0.47305911730809441 -0.42063906486880359 0 -0.46109304683923252 -0.41050289580921162 0 -0.43815346412145439 -0.40568350123033919 0 -0.46109304683923252 -0.41050289580921162 0 -0.43815346412145439 -0.40568350123033919 0 -0.46109304683923252 -0.41050289580921162 0 -0.44565464878411859 -0.42010409363139067 0 -0.43815346412145439 -0.40568350123033919 0 -0.44565464878411859 -0.42010409363139067 0 -0.43049536876374023 -0.42072696219113209 0 -0.45695926055369379 -0.42751421042101939 0 -0.44565464878411859 -0.42010409363139067 0 -0.44157210364247218 -0.43609289850525029 0 -0.44565464878411859 -0.42010409363139067 0 -0.44157210364247218 -0.43609289850525029 0 -0.43049536876374023 -0.42072696219113209 0 -0.45322142309163221 -0.44583753990851671 0 -0.45695926055369379 -0.42751421042101939 0 -0.44157210364247218 -0.43609289850525029 0 -0.44157210364247218 -0.43609289850525029 0 -0.43049536876374023 -0.42072696219113209 0 -0.42453930322323519 -0.43830636220068492 0 -0.43049536876374023 -0.42072696219113209 0 -0.41559530754905588 -0.4271104797956749 0 -0.42453930322323519 -0.43830636220068492 0 -0.43815346412145439 -0.40568350123033919 0 -0.43049536876374023 -0.42072696219113209 0 -0.41521388140367649 -0.40086410665146582 0 -0.41559530754905588 -0.4271104797956749 0 -0.41521388140367649 -0.40086410665146582 0 -0.39728073787689611 -0.421175342766137 0 -0.43049536876374023 -0.42072696219113209 0 -0.41559530754905588 -0.4271104797956749 0 -0.41521388140367649 -0.40086410665146582 0 -0.41083191039029671 -0.43661910757289962 0 -0.41559530754905588 -0.4271104797956749 0 -0.39728073787689611 -0.421175342766137 0 -0.41083191039029671 -0.43661910757289962 0 -0.41559530754905588 -0.4271104797956749 0 -0.42453930322323519 -0.43830636220068492 0 -0.43861745849936867 -0.39146436818900998 0 -0.44201632684367381 -0.37468782789898819 0 -0.41614187015950432 -0.37242584056880929 0 -0.43861745849936867 -0.39146436818900998 0 -0.42025694456147139 -0.38353256968356458 0 -0.41614187015950432 -0.37242584056880929 0 -0.43861745849936867 -0.39146436818900998 0 -0.41614187015950432 -0.37242584056880929 0 -0.43861745849936867 -0.39146436818900998 0 -0.42535752928223391 -0.3930737402819694 0 -0.42025694456147139 -0.38353256968356458 0 -0.43815346412145439 -0.40568350123033919 0 -0.42535752928223391 -0.3930737402819694 0 -0.41521388140367649 -0.40086410665146582 0 -0.43815346412145439 -0.40568350123033919 0 -0.41521388140367649 -0.40086410665146582 0 -0.43815346412145439 -0.40568350123033919 0 -0.43861745849936867 -0.39146436818900998 0 -0.42535752928223391 -0.3930737402819694 0 -0.41521388140367649 -0.40086410665146582 0 -0.41409449936390819 -0.38679526480476623 0 -0.40344057331977312 -0.38718040368656259 0 -0.42535752928223391 -0.3930737402819694 0 -0.41521388140367649 -0.40086410665146582 0 -0.41409449936390819 -0.38679526480476623 0 -0.42535752928223391 -0.3930737402819694 0 -0.42025694456147139 -0.38353256968356458 0 -0.41409449936390819 -0.38679526480476623 0 -0.42025694456147139 -0.38353256968356458 0 -0.41409449936390819 -0.38679526480476623 0 -0.41389585847065402 -0.38102547603600262 0 -0.41409449936390819 -0.38679526480476623 0 -0.40726855353931851 -0.37909107475457782 0 -0.40344057331977312 -0.38718040368656259 0 -0.41409449936390819 -0.38679526480476623 0 -0.41389585847065402 -0.38102547603600262 0 -0.40726855353931851 -0.37909107475457782 0 -0.40726855353931851 -0.37909107475457782 0 -0.4134344515931595 -0.37641072822083038 0 -0.40794530584453342 -0.37242565588136528 0 -0.41389585847065402 -0.38102547603600262 0 -0.40726855353931851 -0.37909107475457782 0 -0.4134344515931595 -0.37641072822083038 0 -0.42025694456147139 -0.38353256968356458 0 -0.4134344515931595 -0.37641072822083038 0 -0.41614187015950432 -0.37242584056880929 0 -0.42025694456147139 -0.38353256968356458 0 -0.41389585847065402 -0.38102547603600262 0 -0.4134344515931595 -0.37641072822083038 0 -0.39579225819096192 -0.38299387147655101 0 -0.39227429868589869 -0.39604471207259201 0 -0.38781703839341708 -0.37367077362211992 0 -0.39629066176023792 -0.3770567872828724 0 -0.39579225819096192 -0.38299387147655101 0 -0.38781703839341708 -0.37367077362211992 0 -0.39629066176023792 -0.3770567872828724 0 -0.40086934846939448 -0.38037288974239142 0 -0.39579225819096192 -0.38299387147655101 0 -0.39629066176023792 -0.3770567872828724 0 -0.40155469553668088 -0.37554231151139289 0 -0.39655193130877969 -0.37278219250639022 0 -0.40726855353931851 -0.37909107475457782 0 -0.40086934846939448 -0.38037288974239142 0 -0.40344057331977312 -0.38718040368656259 0 -0.39629066176023792 -0.3770567872828724 0 -0.40155469553668088 -0.37554231151139289 0 -0.40086934846939448 -0.38037288974239142 0 -0.40726855353931851 -0.37909107475457782 0 -0.40155469553668088 -0.37554231151139289 0 -0.40794530584453342 -0.37242565588136528 0 -0.40726855353931851 -0.37909107475457782 0 -0.40155469553668088 -0.37554231151139289 0 -0.40086934846939448 -0.38037288974239142 0 -0.40086934846939448 -0.38037288974239142 0 -0.40344057331977312 -0.38718040368656259 0 -0.39579225819096192 -0.38299387147655101 0 -0.40344057331977312 -0.38718040368656259 0 -0.39579225819096192 -0.38299387147655101 0 -0.39227429868589869 -0.39604471207259201 0 -0.41521388140367649 -0.40086410665146582 0 -0.39227429868589869 -0.39604471207259201 0 -0.39728073787689611 -0.421175342766137 0 -0.41521388140367649 -0.40086410665146582 0 -0.40344057331977312 -0.38718040368656259 0 -0.39227429868589869 -0.39604471207259201 0 -0.41521388140367649 -0.40086410665146582 0 -0.39227429868589869 -0.39604471207259201 0 -0.39227429868589869 -0.39604471207259201 0 -0.37773521780237879 -0.41121743826212293 0 -0.37053113879795357 -0.39147667488635662 0 -0.39227429868589869 -0.39604471207259201 0 -0.37053113879795357 -0.39147667488635662 0 -0.39227429868589869 -0.39604471207259201 0 -0.38392463227039259 -0.38530846629421162 0 -0.37053113879795357 -0.39147667488635662 0 -0.39227429868589869 -0.39604471207259201 0 -0.38392463227039259 -0.38530846629421162 0 -0.38781703839341708 -0.37367077362211992 0 -0.38392463227039259 -0.38530846629421162 0 -0.36635630559020071 -0.38610855199716482 0 -0.39227429868589869 -0.39604471207259201 0 -0.38781703839341708 -0.37367077362211992 0 -0.38392463227039259 -0.38530846629421162 0 -0.3794529730400425 -0.37316012731830972 0 -0.37407448771197321 -0.37888912123151791 0 -0.38392463227039259 -0.38530846629421162 0 -0.38781703839341708 -0.37367077362211992 0 -0.3794529730400425 -0.37316012731830972 0 -0.39728073787689611 -0.421175342766137 0 -0.38792125669294197 -0.42990305577824339 0 -0.39818173361529557 -0.44388428327228169 0 -0.39728073787689611 -0.421175342766137 0 -0.40228717706789258 -0.4463059734596822 0 -0.39728073787689611 -0.421175342766137 0 -0.39818173361529557 -0.44388428327228169 0 -0.40228717706789258 -0.4463059734596822 0 -0.41083191039029671 -0.43661910757289962 0 -0.39728073787689611 -0.421175342766137 0 -0.40228717706789258 -0.4463059734596822 0 -0.39227429868589869 -0.39604471207259201 0 -0.39728073787689611 -0.421175342766137 0 -0.39227429868589869 -0.39604471207259201 0 -0.39728073787689611 -0.421175342766137 0 -0.37773521780237879 -0.41121743826212293 0 -0.39728073787689611 -0.421175342766137 0 -0.37773521780237879 -0.41121743826212293 0 -0.38319126457039399 -0.42310081664886862 0 -0.37773521780237879 -0.41121743826212293 0 -0.38319126457039399 -0.42310081664886862 0 -0.37415926423024681 -0.43192514332593818 0 -0.38792125669294197 -0.42990305577824339 0 -0.39818173361529557 -0.44388428327228169 0 -0.37415926423024681 -0.43192514332593818 0 -0.38319126457039399 -0.42310081664886862 0 -0.38792125669294197 -0.42990305577824339 0 -0.37415926423024681 -0.43192514332593818 0 -0.39728073787689611 -0.421175342766137 0 -0.38319126457039399 -0.42310081664886862 0 -0.38792125669294197 -0.42990305577824339 0 -0.39818173361529557 -0.44388428327228169 0 -0.37415926423024681 -0.43192514332593818 0 -0.38881730581487289 -0.44744326646541838 0 -0.39818173361529557 -0.44388428327228169 0 -0.37415926423024681 -0.43192514332593818 0 -0.38881730581487289 -0.44744326646541838 0 -0.37397601483264731 -0.45497387712448412 0 -0.36317758539534228 -0.44468915328851749 0 -0.38881730581487289 -0.44744326646541838 0 -0.36317758539534228 -0.44468915328851749 0 -0.37415926423024681 -0.43192514332593818 0 -0.38881730581487289 -0.44744326646541838 0 -0.36317758539534228 -0.44468915328851749 0 -0.38881730581487289 -0.44744326646541838 0 -0.40228717706789258 -0.4463059734596822 0 -0.41445702623440361 -0.45019737964231921 0 -0.38881730581487289 -0.44744326646541838 0 -0.41445702623440361 -0.45019737964231921 0 -0.38881730581487289 -0.44744326646541838 0 -0.40270281088678128 -0.46081258386829138 0 -0.41445702623440361 -0.45019737964231921 0 -0.38881730581487289 -0.44744326646541838 0 -0.39818173361529557 -0.44388428327228169 0 -0.40228717706789258 -0.4463059734596822 0 -0.40270281088678128 -0.46081258386829138 0 -0.38841067197091661 -0.46174923105119731 0 -0.40055246232597269 -0.47653114698157889 0 -0.38881730581487289 -0.44744326646541838 0 -0.40270281088678128 -0.46081258386829138 0 -0.38841067197091661 -0.46174923105119731 0 -0.38841067197091661 -0.46174923105119731 0 -0.37472347169017689 -0.47100256596926399 0 -0.37397601483264731 -0.45497387712448412 0 -0.38881730581487289 -0.44744326646541838 0 -0.38841067197091661 -0.46174923105119731 0 -0.37397601483264731 -0.45497387712448412 0 -0.38582847392901432 -0.5 0 -0.40055246232597269 -0.47653114698157889 0 -0.37472347169017689 -0.47100256596926399 0 -0.38841067197091661 -0.46174923105119731 0 -0.40055246232597269 -0.47653114698157889 0 -0.37472347169017689 -0.47100256596926399 0 -0.40055246232597269 -0.47653114698157889 0 -0.43501891104991458 -0.5 0 -0.42233687393977187 -0.4678209325600754 0 -0.45499733535830861 -0.46532613235895959 0 -0.43501891104991458 -0.5 0 -0.42233687393977187 -0.4678209325600754 0 -0.38582847392901432 -0.5 0 -0.40055246232597269 -0.47653114698157889 0 -0.43501891104991458 -0.5 0 -0.45499733535830861 -0.46532613235895959 0 -0.42233687393977187 -0.4678209325600754 0 -0.43483715215483709 -0.45369047118926631 0 -0.42233687393977187 -0.4678209325600754 0 -0.43483715215483709 -0.45369047118926631 0 -0.41445702623440361 -0.45019737964231921 0 -0.43483715215483709 -0.45369047118926631 0 -0.42453930322323519 -0.43830636220068492 0 -0.41445702623440361 -0.45019737964231921 0 -0.44157210364247218 -0.43609289850525029 0 -0.43483715215483709 -0.45369047118926631 0 -0.42453930322323519 -0.43830636220068492 0 -0.41083191039029671 -0.43661910757289962 0 -0.42453930322323519 -0.43830636220068492 0 -0.41445702623440361 -0.45019737964231921 0 -0.41083191039029671 -0.43661910757289962 0 -0.40228717706789258 -0.4463059734596822 0 -0.41445702623440361 -0.45019737964231921 0 -0.40270281088678128 -0.46081258386829138 0 -0.42233687393977187 -0.4678209325600754 0 -0.41445702623440361 -0.45019737964231921 0 -0.40270281088678128 -0.46081258386829138 0 -0.40055246232597269 -0.47653114698157889 0 -0.42233687393977187 -0.4678209325600754 0 -0.45126299731172131 -0.26940749503537931 0 -0.43382769287326461 -0.25670329331724201 0 -0.45565513259471319 -0.24608344980165911 0 -0.45126299731172131 -0.26940749503537931 0 -0.44016937207764512 -0.28903546187058871 0 -0.42513905441541888 -0.27576665514869209 0 -0.45126299731172131 -0.26940749503537931 0 -0.47470166361424759 -0.26059829007448349 0 -0.47097616968895262 -0.28637478651546822 0 -0.45126299731172131 -0.26940749503537931 0 -0.47470166361424759 -0.26059829007448349 0 -0.45565513259471319 -0.24608344980165911 0 -0.47470166361424759 -0.26059829007448349 0 -0.5 -0.27496534992192317 0 -0.5 -0.24724946183134669 0 -0.47470166361424759 -0.26059829007448349 0 -0.5 -0.27496534992192317 0 -0.47097616968895262 -0.28637478651546822 0 -0.5 -0.27496534992192317 0 -0.48716559351587629 -0.2944011564078014 0 -0.5 -0.30268123801249991 0 -0.5 -0.27496534992192317 0 -0.47097616968895262 -0.28637478651546822 0 -0.48716559351587629 -0.2944011564078014 0 -0.48716559351587629 -0.2944011564078014 0 -0.5 -0.30268123801249991 0 -0.48427713586500543 -0.31013939433606069 0 -0.47097616968895262 -0.28637478651546822 0 -0.48716559351587629 -0.2944011564078014 0 -0.48427713586500543 -0.31013939433606069 0 -0.47097616968895262 -0.28637478651546822 0 -0.48427713586500543 -0.31013939433606069 0 -0.4545943926302034 -0.30738237438797339 0 -0.48427713586500543 -0.31013939433606069 0 -0.4545943926302034 -0.30738237438797339 0 -0.45126299731172131 -0.26940749503537931 0 -0.47097616968895262 -0.28637478651546822 0 -0.44016937207764512 -0.28903546187058871 0 -0.47097616968895262 -0.28637478651546822 0 -0.4545943926302034 -0.30738237438797339 0 -0.44016937207764512 -0.28903546187058871 0 -0.4545943926302034 -0.30738237438797339 0 -0.44016937207764512 -0.28903546187058871 0 -0.42491164939540149 -0.30462535443988598 0 -0.4545943926302034 -0.30738237438797339 0 -0.42491164939540149 -0.30462535443988598 0 -0.4545943926302034 -0.30738237438797339 0 -0.46012670478550233 -0.32653640232595149 0 -0.43559043134953551 -0.32662396083570561 0 -0.4545943926302034 -0.30738237438797339 0 -0.43559043134953551 -0.32662396083570561 0 -0.42491164939540149 -0.30462535443988598 0 -0.44946521969230152 -0.34071053285277558 0 -0.46012670478550233 -0.32653640232595149 0 -0.43559043134953551 -0.32662396083570561 0 -0.44946521969230152 -0.34071053285277558 0 -0.43509735757302592 -0.34899013347715691 0 -0.43559043134953551 -0.32662396083570561 0 -0.46639072642010582 -0.34300689760355058 0 -0.46012670478550233 -0.32653640232595149 0 -0.47868391529921162 -0.33127703842583511 0 -0.44946521969230152 -0.34071053285277558 0 -0.46639072642010582 -0.34300689760355058 0 -0.46012670478550233 -0.32653640232595149 0 -0.48427713586500543 -0.31013939433606069 0 -0.4545943926302034 -0.30738237438797339 0 -0.46012670478550233 -0.32653640232595149 0 -0.48427713586500543 -0.31013939433606069 0 -0.46012670478550233 -0.32653640232595149 0 -0.47868391529921162 -0.33127703842583511 0 -0.5 -0.30268123801249991 0 -0.48427713586500543 -0.31013939433606069 0 -0.5 -0.33039712610307648 0 -0.48427713586500543 -0.31013939433606069 0 -0.5 -0.33039712610307648 0 -0.47868391529921162 -0.33127703842583511 0 -0.5 -0.33039712610307648 0 -0.47868391529921162 -0.33127703842583511 0 -0.48543057873042772 -0.34558672434054621 0 -0.46639072642010582 -0.34300689760355058 0 -0.47868391529921162 -0.33127703842583511 0 -0.48543057873042772 -0.34558672434054621 0 -0.46639072642010582 -0.34300689760355058 0 -0.48543057873042772 -0.34558672434054621 0 -0.47906179951004269 -0.36184646878828042 0 -0.5 -0.35811301419365299 0 -0.48543057873042772 -0.34558672434054621 0 -0.47906179951004269 -0.36184646878828042 0 -0.5 -0.33039712610307648 0 -0.5 -0.35811301419365299 0 -0.48543057873042772 -0.34558672434054621 0 -0.5 -0.38582890228422961 0 -0.5 -0.35811301419365299 0 -0.47906179951004269 -0.36184646878828042 0 -0.4683661890952438 -0.3794945364610402 0 -0.47906179951004269 -0.36184646878828042 0 -0.45355487522640042 -0.35836268022409301 0 -0.4683661890952438 -0.3794945364610402 0 -0.45355487522640042 -0.35836268022409301 0 -0.44201632684367381 -0.37468782789898819 0 -0.46639072642010582 -0.34300689760355058 0 -0.47906179951004269 -0.36184646878828042 0 -0.45355487522640042 -0.35836268022409301 0 -0.44946521969230152 -0.34071053285277558 0 -0.46639072642010582 -0.34300689760355058 0 -0.45355487522640042 -0.35836268022409301 0 -0.45355487522640042 -0.35836268022409301 0 -0.44189777651741552 -0.36215328638550459 0 -0.43509735757302592 -0.34899013347715691 0 -0.44946521969230152 -0.34071053285277558 0 -0.45355487522640042 -0.35836268022409301 0 -0.43509735757302592 -0.34899013347715691 0 -0.44189777651741552 -0.36215328638550459 0 -0.44201632684367381 -0.37468782789898819 0 -0.43233207922781453 -0.3617791316716934 0 -0.45355487522640042 -0.35836268022409301 0 -0.44189777651741552 -0.36215328638550459 0 -0.44201632684367381 -0.37468782789898819 0 -0.44201632684367381 -0.37468782789898819 0 -0.41566646459210371 -0.36988111933693618 0 -0.44201632684367381 -0.37468782789898819 0 -0.42379446383127711 -0.36512375370726041 0 -0.43233207922781453 -0.3617791316716934 0 -0.44201632684367381 -0.37468782789898819 0 -0.42379446383127711 -0.36512375370726041 0 -0.41566646459210371 -0.36988111933693618 0 -0.44201632684367381 -0.37468782789898819 0 -0.41566646459210371 -0.36988111933693618 0 -0.41614187015950432 -0.37242584056880929 0 -0.42379446383127711 -0.36512375370726041 0 -0.43233207922781453 -0.3617791316716934 0 -0.42003915035799871 -0.35590016290171422 0 -0.44189777651741552 -0.36215328638550459 0 -0.43233207922781453 -0.3617791316716934 0 -0.43509735757302592 -0.34899013347715691 0 -0.43509735757302592 -0.34899013347715691 0 -0.42003915035799871 -0.35590016290171422 0 -0.41924619449999551 -0.33932621488117498 0 -0.43233207922781453 -0.3617791316716934 0 -0.43509735757302592 -0.34899013347715691 0 -0.42003915035799871 -0.35590016290171422 0 -0.42003915035799871 -0.35590016290171422 0 -0.41093236205545408 -0.35830985706644491 0 -0.41686332124838282 -0.36241353787551661 0 -0.42003915035799871 -0.35590016290171422 0 -0.40721063147823988 -0.34930565166508148 0 -0.41924619449999551 -0.33932621488117498 0 -0.42003915035799871 -0.35590016290171422 0 -0.40721063147823988 -0.34930565166508148 0 -0.41093236205545408 -0.35830985706644491 0 -0.40789451095845702 -0.3632700460319998 0 -0.41592424007624113 -0.3657496097887481 0 -0.41566646459210371 -0.36988111933693618 0 -0.41093236205545408 -0.35830985706644491 0 -0.40789451095845702 -0.3632700460319998 0 -0.41686332124838282 -0.36241353787551661 0 -0.40789451095845702 -0.3632700460319998 0 -0.41592424007624113 -0.3657496097887481 0 -0.41686332124838282 -0.36241353787551661 0 -0.42379446383127711 -0.36512375370726041 0 -0.42003915035799871 -0.35590016290171422 0 -0.41686332124838282 -0.36241353787551661 0 -0.42379446383127711 -0.36512375370726041 0 -0.41592424007624113 -0.3657496097887481 0 -0.41686332124838282 -0.36241353787551661 0 -0.42379446383127711 -0.36512375370726041 0 -0.41592424007624113 -0.3657496097887481 0 -0.41566646459210371 -0.36988111933693618 0 -0.4134344515931595 -0.37641072822083038 0 -0.41614187015950432 -0.37242584056880929 0 -0.41337748211774639 -0.37253431768870232 0 -0.41566646459210371 -0.36988111933693618 0 -0.41614187015950432 -0.37242584056880929 0 -0.41337748211774639 -0.37253431768870232 0 -0.41566646459210371 -0.36988111933693618 0 -0.41337748211774639 -0.37253431768870232 0 -0.40794530584453342 -0.37242565588136528 0 -0.4134344515931595 -0.37641072822083038 0 -0.41337748211774639 -0.37253431768870232 0 -0.40794530584453342 -0.37242565588136528 0 -0.41566646459210371 -0.36988111933693618 0 -0.40794530584453342 -0.37242565588136528 0 -0.38931660234053361 -0.36507441077488428 0 -0.40789451095845702 -0.3632700460319998 0 -0.41566646459210371 -0.36988111933693618 0 -0.38931660234053361 -0.36507441077488428 0 -0.40794530584453342 -0.37242565588136528 0 -0.39655193130877969 -0.37278219250639022 0 -0.38931660234053361 -0.36507441077488428 0 -0.40789451095845702 -0.3632700460319998 0 -0.38931660234053361 -0.36507441077488428 0 -0.39873887479657821 -0.35786060857950353 0 -0.40155469553668088 -0.37554231151139289 0 -0.40794530584453342 -0.37242565588136528 0 -0.39655193130877969 -0.37278219250639022 0 -0.41566646459210371 -0.36988111933693618 0 -0.38931660234053361 -0.36507441077488428 0 -0.41093236205545408 -0.35830985706644491 0 -0.40789451095845702 -0.3632700460319998 0 -0.39873887479657821 -0.35786060857950353 0 -0.39629066176023792 -0.3770567872828724 0 -0.39655193130877969 -0.37278219250639022 0 -0.38781703839341708 -0.37367077362211992 0 -0.39655193130877969 -0.37278219250639022 0 -0.38781703839341708 -0.37367077362211992 0 -0.38931660234053361 -0.36507441077488428 0 -0.38781703839341708 -0.37367077362211992 0 -0.3785620016289567 -0.36383750892161698 0 -0.38335977810093441 -0.35129683517164811 0 -0.38781703839341708 -0.37367077362211992 0 -0.38335977810093441 -0.35129683517164811 0 -0.38781703839341708 -0.37367077362211992 0 -0.38931660234053361 -0.36507441077488428 0 -0.38335977810093441 -0.35129683517164811 0 -0.3794529730400425 -0.37316012731830972 0 -0.37231883435517488 -0.36978963878897331 0 -0.37407448771197321 -0.37888912123151791 0 -0.38781703839341708 -0.37367077362211992 0 -0.3785620016289567 -0.36383750892161698 0 -0.3794529730400425 -0.37316012731830972 0 -0.3785620016289567 -0.36383750892161698 0 -0.3794529730400425 -0.37316012731830972 0 -0.37231883435517488 -0.36978963878897331 0 -0.38335977810093441 -0.35129683517164811 0 -0.37900122435627959 -0.33787376197161462 0 -0.36768890734720572 -0.34730220271656659 0 -0.3785620016289567 -0.36383750892161698 0 -0.38335977810093441 -0.35129683517164811 0 -0.37100504436174991 -0.35758722712395591 0 -0.38931660234053361 -0.36507441077488428 0 -0.38335977810093441 -0.35129683517164811 0 -0.39873887479657821 -0.35786060857950353 0 -0.38335977810093441 -0.35129683517164811 0 -0.39381332827654181 -0.343490983166787 0 -0.37900122435627959 -0.33787376197161462 0 -0.38335977810093441 -0.35129683517164811 0 -0.39873887479657821 -0.35786060857950353 0 -0.39381332827654181 -0.343490983166787 0 -0.40721063147823988 -0.34930565166508148 0 -0.41093236205545408 -0.35830985706644491 0 -0.39873887479657821 -0.35786060857950353 0 -0.40721063147823988 -0.34930565166508148 0 -0.39873887479657821 -0.35786060857950353 0 -0.39381332827654181 -0.343490983166787 0 -0.40721063147823988 -0.34930565166508148 0 -0.40499599490583449 -0.33648215274605692 0 -0.39381332827654181 -0.343490983166787 0 -0.40499599490583449 -0.33648215274605692 0 -0.3930001973775209 -0.3274724615200576 0 -0.41170962289687441 -0.32281545249718319 0 -0.40499599490583449 -0.33648215274605692 0 -0.39381332827654181 -0.343490983166787 0 -0.3930001973775209 -0.3274724615200576 0 -0.39381332827654181 -0.343490983166787 0 -0.37900122435627959 -0.33787376197161462 0 -0.3930001973775209 -0.3274724615200576 0 -0.37900122435627959 -0.33787376197161462 0 -0.37586069795964983 -0.32020750788381758 0 -0.3930001973775209 -0.3274724615200576 0 -0.37586069795964983 -0.32020750788381758 0 -0.3930001973775209 -0.3274724615200576 0 -0.3952289061605993 -0.30186833449179867 0 -0.3930001973775209 -0.3274724615200576 0 -0.41170962289687441 -0.32281545249718319 0 -0.3952289061605993 -0.30186833449179867 0 -0.40499599490583449 -0.33648215274605692 0 -0.41170962289687441 -0.32281545249718319 0 -0.41924619449999551 -0.33932621488117498 0 -0.40721063147823988 -0.34930565166508148 0 -0.40499599490583449 -0.33648215274605692 0 -0.41924619449999551 -0.33932621488117498 0 -0.43509735757302592 -0.34899013347715691 0 -0.41924619449999551 -0.33932621488117498 0 -0.43559043134953551 -0.32662396083570561 0 -0.41170962289687441 -0.32281545249718319 0 -0.41924619449999551 -0.33932621488117498 0 -0.43559043134953551 -0.32662396083570561 0 -0.41170962289687441 -0.32281545249718319 0 -0.43559043134953551 -0.32662396083570561 0 -0.42491164939540149 -0.30462535443988598 0 -0.44016937207764512 -0.28903546187058871 0 -0.41553076608108391 -0.28817920830109572 0 -0.42513905441541888 -0.27576665514869209 0 -0.44016937207764512 -0.28903546187058871 0 -0.42491164939540149 -0.30462535443988598 0 -0.41553076608108391 -0.28817920830109572 0 -0.41553076608108391 -0.28817920830109572 0 -0.39825899977696072 -0.28294959762517691 0 -0.40947661466047769 -0.27482984623043211 0 -0.41170962289687441 -0.32281545249718319 0 -0.42491164939540149 -0.30462535443988598 0 -0.3952289061605993 -0.30186833449179867 0 -0.42491164939540149 -0.30462535443988598 0 -0.3952289061605993 -0.30186833449179867 0 -0.42491164939540149 -0.30462535443988598 0 -0.41553076608108391 -0.28817920830109572 0 -0.3952289061605993 -0.30186833449179867 0 -0.3952289061605993 -0.30186833449179867 0 -0.36554616292579722 -0.29911131454371143 0 -0.37586069795964983 -0.32020750788381758 0 -0.3952289061605993 -0.30186833449179867 0 -0.36554616292579722 -0.29911131454371143 0 -0.3952289061605993 -0.30186833449179867 0 -0.37940908193033429 -0.27951729968825217 0 -0.36554616292579722 -0.29911131454371143 0 -0.3952289061605993 -0.30186833449179867 0 -0.39825899977696072 -0.28294959762517691 0 -0.37940908193033429 -0.27951729968825217 0 -0.41553076608108391 -0.28817920830109572 0 -0.3952289061605993 -0.30186833449179867 0 -0.39825899977696072 -0.28294959762517691 0 -0.39825899977696072 -0.28294959762517691 0 -0.37940908193033429 -0.27951729968825217 0 -0.39975276902384449 -0.26384806037317909 0 -0.39825899977696072 -0.28294959762517691 0 -0.39975276902384449 -0.26384806037317909 0 -0.40947661466047769 -0.27482984623043211 0 -0.3798691870371621 -0.26743854683358909 0 -0.37940908193033429 -0.27951729968825217 0 -0.39975276902384449 -0.26384806037317909 0 -0.37940908193033429 -0.27951729968825217 0 -0.39975276902384449 -0.26384806037317909 0 -0.3798691870371621 -0.26743854683358909 0 -0.38537906654109738 -0.25730631106907409 0 -0.39975276902384449 -0.26384806037317909 0 -0.38537906654109738 -0.25730631106907409 0 -0.3704976171975809 -0.26259216695593213 0 -0.3735524722519119 -0.2468406780476422 0 -0.38537906654109738 -0.25730631106907409 0 -0.3735524722519119 -0.2468406780476422 0 -0.38396733288674828 -0.24698654330016909 0 -0.3798691870371621 -0.26743854683358909 0 -0.38537906654109738 -0.25730631106907409 0 -0.3704976171975809 -0.26259216695593213 0 -0.38537906654109738 -0.25730631106907409 0 -0.39579060811689748 -0.25349181186906511 0 -0.38396733288674828 -0.24698654330016909 0 -0.39579060811689748 -0.25349181186906511 0 -0.4102728076128202 -0.25422181955125028 0 -0.39344006745953131 -0.24265550434530131 0 -0.38537906654109738 -0.25730631106907409 0 -0.39579060811689748 -0.25349181186906511 0 -0.39975276902384449 -0.26384806037317909 0 -0.39579060811689748 -0.25349181186906511 0 -0.39975276902384449 -0.26384806037317909 0 -0.4102728076128202 -0.25422181955125028 0 -0.39975276902384449 -0.26384806037317909 0 -0.4102728076128202 -0.25422181955125028 0 -0.42009645611735469 -0.2481788210581061 0 -0.39975276902384449 -0.26384806037317909 0 -0.42009645611735469 -0.2481788210581061 0 -0.39975276902384449 -0.26384806037317909 0 -0.41709354157510259 -0.26441420891727418 0 -0.42009645611735469 -0.2481788210581061 0 -0.39975276902384449 -0.26384806037317909 0 -0.41709354157510259 -0.26441420891727418 0 -0.40947661466047769 -0.27482984623043211 0 -0.41709354157510259 -0.26441420891727418 0 -0.40947661466047769 -0.27482984623043211 0 -0.42513905441541888 -0.27576665514869209 0 -0.41553076608108391 -0.28817920830109572 0 -0.40947661466047769 -0.27482984623043211 0 -0.42513905441541888 -0.27576665514869209 0 -0.41709354157510259 -0.26441420891727418 0 -0.42513905441541888 -0.27576665514869209 0 -0.43382769287326461 -0.25670329331724201 0 -0.45126299731172131 -0.26940749503537931 0 -0.42513905441541888 -0.27576665514869209 0 -0.43382769287326461 -0.25670329331724201 0 -0.41709354157510259 -0.26441420891727418 0 -0.43382769287326461 -0.25670329331724201 0 -0.42009645611735469 -0.2481788210581061 0 -0.32068615860631311 -0.25149172888279969 0 -0.33311484699120808 -0.26017735413418619 0 -0.32908128871583731 -0.23863994323843479 0 -0.32184581071178298 -0.2595605578678577 0 -0.32545046100789798 -0.26614711419345177 0 -0.33311484699120808 -0.26017735413418619 0 -0.32184581071178298 -0.2595605578678577 0 -0.31616446970649498 -0.26329208123100928 0 -0.32545046100789798 -0.26614711419345177 0 -0.32184581071178298 -0.2595605578678577 0 -0.32068615860631311 -0.25149172888279969 0 -0.33311484699120808 -0.26017735413418619 0 -0.32184581071178298 -0.2595605578678577 0 -0.32068615860631311 -0.25149172888279969 0 -0.31381311724700078 -0.25669451089784162 0 -0.32068615860631311 -0.25149172888279969 0 -0.31294828940832142 -0.25008585841527259 0 -0.31381311724700078 -0.25669451089784162 0 -0.31616446970649498 -0.26329208123100928 0 -0.31466075437434599 -0.26594939609843582 0 -0.32545046100789798 -0.26614711419345177 0 -0.31381311724700078 -0.25669451089784162 0 -0.31616446970649498 -0.26329208123100928 0 -0.31466075437434599 -0.26594939609843582 0 -0.32184581071178298 -0.2595605578678577 0 -0.31381311724700078 -0.25669451089784162 0 -0.31616446970649498 -0.26329208123100928 0 -0.31616446970649498 -0.26329208123100928 0 -0.31466075437434599 -0.26594939609843582 0 -0.31466075437434599 -0.26594939609843582 0 -0.33017770598966673 -0.27775148423662221 0 -0.31512081706474432 -0.2830039543827958 0 -0.31466075437434599 -0.26594939609843582 0 -0.32545046100789798 -0.26614711419345177 0 -0.33017770598966673 -0.27775148423662221 0 -0.31466075437434599 -0.26594939609843582 0 -0.33017770598966673 -0.27775148423662221 0 -0.32545046100789798 -0.26614711419345177 0 -0.33017770598966673 -0.27775148423662221 0 -0.33982408257023178 -0.26929295637547102 0 -0.33017770598966673 -0.27775148423662221 0 -0.33982408257023178 -0.26929295637547102 0 -0.3442112135435087 -0.27988811343469838 0 -0.33982408257023178 -0.26929295637547102 0 -0.33311484699120808 -0.26017735413418619 0 -0.35134409828982632 -0.2610807621711016 0 -0.32545046100789798 -0.26614711419345177 0 -0.33982408257023178 -0.26929295637547102 0 -0.33311484699120808 -0.26017735413418619 0 -0.33311484699120808 -0.26017735413418619 0 -0.35134409828982632 -0.2610807621711016 0 -0.35164653719306671 -0.2499052475159535 0 -0.35134409828982632 -0.2610807621711016 0 -0.35717720283071441 -0.26080002323697671 0 -0.35412909056243069 -0.27069791309678348 0 -0.35134409828982632 -0.2610807621711016 0 -0.35717720283071441 -0.26080002323697671 0 -0.35164653719306671 -0.2499052475159535 0 -0.35717720283071441 -0.26080002323697671 0 -0.36445888761529488 -0.2483872973195369 0 -0.35164653719306671 -0.2499052475159535 0 -0.35717720283071441 -0.26080002323697671 0 -0.3643074004929534 -0.27392889608150772 0 -0.36445888761529488 -0.2483872973195369 0 -0.3643074004929534 -0.27392889608150772 0 -0.36445888761529488 -0.2483872973195369 0 -0.3704976171975809 -0.26259216695593213 0 -0.3643074004929534 -0.27392889608150772 0 -0.36445888761529488 -0.2483872973195369 0 -0.3704976171975809 -0.26259216695593213 0 -0.3735524722519119 -0.2468406780476422 0 -0.36445888761529488 -0.2483872973195369 0 -0.3704976171975809 -0.26259216695593213 0 -0.3735524722519119 -0.2468406780476422 0 -0.37940908193033429 -0.27951729968825217 0 -0.3643074004929534 -0.27392889608150772 0 -0.35766296807393178 -0.28427625469677631 0 -0.3798691870371621 -0.26743854683358909 0 -0.37940908193033429 -0.27951729968825217 0 -0.3643074004929534 -0.27392889608150772 0 -0.3798691870371621 -0.26743854683358909 0 -0.3704976171975809 -0.26259216695593213 0 -0.3643074004929534 -0.27392889608150772 0 -0.3643074004929534 -0.27392889608150772 0 -0.35412909056243069 -0.27069791309678348 0 -0.35766296807393178 -0.28427625469677631 0 -0.35412909056243069 -0.27069791309678348 0 -0.3442112135435087 -0.27988811343469838 0 -0.35766296807393178 -0.28427625469677631 0 -0.35717720283071441 -0.26080002323697671 0 -0.3643074004929534 -0.27392889608150772 0 -0.35412909056243069 -0.27069791309678348 0 -0.33982408257023178 -0.26929295637547102 0 -0.35134409828982632 -0.2610807621711016 0 -0.35412909056243069 -0.27069791309678348 0 -0.33982408257023178 -0.26929295637547102 0 -0.35412909056243069 -0.27069791309678348 0 -0.3442112135435087 -0.27988811343469838 0 -0.35766296807393178 -0.28427625469677631 0 -0.36554616292579722 -0.29911131454371143 0 -0.33586341969099498 -0.29635429459562401 0 -0.3442112135435087 -0.27988811343469838 0 -0.35766296807393178 -0.28427625469677631 0 -0.33586341969099498 -0.29635429459562401 0 -0.37940908193033429 -0.27951729968825217 0 -0.35766296807393178 -0.28427625469677631 0 -0.36554616292579722 -0.29911131454371143 0 -0.36554616292579722 -0.29911131454371143 0 -0.33586341969099498 -0.29635429459562401 0 -0.35871844743103448 -0.31820910388981027 0 -0.36554616292579722 -0.29911131454371143 0 -0.33586341969099498 -0.29635429459562401 0 -0.33586341969099498 -0.29635429459562401 0 -0.33931189349559743 -0.31867559249330912 0 -0.35871844743103448 -0.31820910388981027 0 -0.33586341969099498 -0.29635429459562401 0 -0.32457834648906358 -0.31238058984956152 0 -0.33931189349559743 -0.31867559249330912 0 -0.33017770598966673 -0.27775148423662221 0 -0.3442112135435087 -0.27988811343469838 0 -0.33586341969099498 -0.29635429459562401 0 -0.33586341969099498 -0.29635429459562401 0 -0.31512081706474432 -0.2830039543827958 0 -0.31758123480644618 -0.29877607354596653 0 -0.33017770598966673 -0.27775148423662221 0 -0.33586341969099498 -0.29635429459562401 0 -0.31512081706474432 -0.2830039543827958 0 -0.31758123480644618 -0.29877607354596653 0 -0.32457834648906358 -0.31238058984956152 0 -0.30809508834059118 -0.30982236099569099 0 -0.33586341969099498 -0.29635429459562401 0 -0.31758123480644618 -0.29877607354596653 0 -0.32457834648906358 -0.31238058984956152 0 -0.32457834648906358 -0.31238058984956152 0 -0.31612560456200473 -0.32095131720168918 0 -0.30809508834059118 -0.30982236099569099 0 -0.32457834648906358 -0.31238058984956152 0 -0.31612560456200473 -0.32095131720168918 0 -0.32887716284930651 -0.32766331666785148 0 -0.31612560456200473 -0.32095131720168918 0 -0.31558585397385391 -0.33267964362009361 0 -0.32887716284930651 -0.32766331666785148 0 -0.31558585397385391 -0.33267964362009361 0 -0.32615046071188042 -0.34004205787514941 0 -0.3156197825769978 -0.34695193450551198 0 -0.31558585397385391 -0.33267964362009361 0 -0.32615046071188042 -0.34004205787514941 0 -0.32887716284930651 -0.32766331666785148 0 -0.32615046071188042 -0.34004205787514941 0 -0.34006283588562392 -0.34014425452756902 0 -0.32887716284930651 -0.32766331666785148 0 -0.34006283588562392 -0.34014425452756902 0 -0.33961711974117781 -0.32933997452610292 0 -0.35007576804375651 -0.33108453456106179 0 -0.34006283588562392 -0.34014425452756902 0 -0.33961711974117781 -0.32933997452610292 0 -0.32887716284930651 -0.32766331666785148 0 -0.33961711974117781 -0.32933997452610292 0 -0.33931189349559743 -0.31867559249330912 0 -0.35007576804375651 -0.33108453456106179 0 -0.33961711974117781 -0.32933997452610292 0 -0.32887716284930651 -0.32766331666785148 0 -0.33931189349559743 -0.31867559249330912 0 -0.32457834648906358 -0.31238058984956152 0 -0.32887716284930651 -0.32766331666785148 0 -0.33931189349559743 -0.31867559249330912 0 -0.33931189349559743 -0.31867559249330912 0 -0.35871844743103448 -0.31820910388981027 0 -0.35007576804375651 -0.33108453456106179 0 -0.37586069795964983 -0.32020750788381758 0 -0.35871844743103448 -0.31820910388981027 0 -0.36438034455516372 -0.33654987960757338 0 -0.37586069795964983 -0.32020750788381758 0 -0.36554616292579722 -0.29911131454371143 0 -0.35871844743103448 -0.31820910388981027 0 -0.37900122435627959 -0.33787376197161462 0 -0.37586069795964983 -0.32020750788381758 0 -0.36438034455516372 -0.33654987960757338 0 -0.37900122435627959 -0.33787376197161462 0 -0.36438034455516372 -0.33654987960757338 0 -0.36768890734720572 -0.34730220271656659 0 -0.36438034455516372 -0.33654987960757338 0 -0.3547939280050596 -0.3446343472414013 0 -0.36768890734720572 -0.34730220271656659 0 -0.35871844743103448 -0.31820910388981027 0 -0.36438034455516372 -0.33654987960757338 0 -0.35007576804375651 -0.33108453456106179 0 -0.36438034455516372 -0.33654987960757338 0 -0.35007576804375651 -0.33108453456106179 0 -0.3547939280050596 -0.3446343472414013 0 -0.34006283588562392 -0.34014425452756902 0 -0.35007576804375651 -0.33108453456106179 0 -0.3547939280050596 -0.3446343472414013 0 -0.34006283588562392 -0.34014425452756902 0 -0.34618964596280483 -0.35524156516682348 0 -0.3547939280050596 -0.3446343472414013 0 -0.34618964596280483 -0.35524156516682348 0 -0.35891522145773408 -0.35786534263070241 0 -0.3547939280050596 -0.3446343472414013 0 -0.35891522145773408 -0.35786534263070241 0 -0.3547939280050596 -0.3446343472414013 0 -0.36768890734720572 -0.34730220271656659 0 -0.38335977810093441 -0.35129683517164811 0 -0.37100504436174991 -0.35758722712395591 0 -0.36768890734720572 -0.34730220271656659 0 -0.35891522145773408 -0.35786534263070241 0 -0.37100504436174991 -0.35758722712395591 0 -0.36768890734720572 -0.34730220271656659 0 -0.3785620016289567 -0.36383750892161698 0 -0.37100504436174991 -0.35758722712395591 0 -0.37231883435517488 -0.36978963878897331 0 -0.37100504436174991 -0.35758722712395591 0 -0.37231883435517488 -0.36978963878897331 0 -0.36283534482257479 -0.36730639851362379 0 -0.35891522145773408 -0.35786534263070241 0 -0.37100504436174991 -0.35758722712395591 0 -0.36283534482257479 -0.36730639851362379 0 -0.37231883435517488 -0.36978963878897331 0 -0.36283534482257479 -0.36730639851362379 0 -0.36603434758673709 -0.37670354622716928 0 -0.36283534482257479 -0.36730639851362379 0 -0.35801043618394518 -0.37438503280913388 0 -0.36603434758673709 -0.37670354622716928 0 -0.35801043618394518 -0.37438503280913388 0 -0.35072818499010749 -0.36750760350180861 0 -0.35069833972098258 -0.37682838129836871 0 -0.36283534482257479 -0.36730639851362379 0 -0.35801043618394518 -0.37438503280913388 0 -0.35072818499010749 -0.36750760350180861 0 -0.34618964596280483 -0.35524156516682348 0 -0.35891522145773408 -0.35786534263070241 0 -0.35072818499010749 -0.36750760350180861 0 -0.35891522145773408 -0.35786534263070241 0 -0.36283534482257479 -0.36730639851362379 0 -0.35072818499010749 -0.36750760350180861 0 -0.34618964596280483 -0.35524156516682348 0 -0.35072818499010749 -0.36750760350180861 0 -0.33856283486035971 -0.36493844554318849 0 -0.35072818499010749 -0.36750760350180861 0 -0.35069833972098258 -0.37682838129836871 0 -0.34065692200991238 -0.3761138652490944 0 -0.35072818499010749 -0.36750760350180861 0 -0.33856283486035971 -0.36493844554318849 0 -0.34065692200991238 -0.3761138652490944 0 -0.33856283486035971 -0.36493844554318849 0 -0.32784972786138539 -0.3711842967845797 0 -0.34065692200991238 -0.3761138652490944 0 -0.32986405152640458 -0.36160267683198871 0 -0.33856283486035971 -0.36493844554318849 0 -0.32784972786138539 -0.3711842967845797 0 -0.32986405152640458 -0.36160267683198871 0 -0.33856283486035971 -0.36493844554318849 0 -0.33212293788816483 -0.35267565031053799 0 -0.34618964596280483 -0.35524156516682348 0 -0.33856283486035971 -0.36493844554318849 0 -0.33212293788816483 -0.35267565031053799 0 -0.34006283588562392 -0.34014425452756902 0 -0.34618964596280483 -0.35524156516682348 0 -0.33212293788816483 -0.35267565031053799 0 -0.32615046071188042 -0.34004205787514941 0 -0.34006283588562392 -0.34014425452756902 0 -0.33212293788816483 -0.35267565031053799 0 -0.33212293788816483 -0.35267565031053799 0 -0.3156197825769978 -0.34695193450551198 0 -0.31952129090008441 -0.35868464246467707 0 -0.32986405152640458 -0.36160267683198871 0 -0.33212293788816483 -0.35267565031053799 0 -0.31952129090008441 -0.35868464246467707 0 -0.32615046071188042 -0.34004205787514941 0 -0.33212293788816483 -0.35267565031053799 0 -0.3156197825769978 -0.34695193450551198 0 -0.3156197825769978 -0.34695193450551198 0 -0.31952129090008441 -0.35868464246467707 0 -0.30518243343560392 -0.35375020434394361 0 -0.31952129090008441 -0.35868464246467707 0 -0.31535800104862222 -0.37306179368211212 0 -0.30701445888495188 -0.3657895158743471 0 -0.31952129090008441 -0.35868464246467707 0 -0.31535800104862222 -0.37306179368211212 0 -0.32784972786138539 -0.3711842967845797 0 -0.31535800104862222 -0.37306179368211212 0 -0.32784972786138539 -0.3711842967845797 0 -0.32167944670518639 -0.3796260032919675 0 -0.32986405152640458 -0.36160267683198871 0 -0.31952129090008441 -0.35868464246467707 0 -0.32784972786138539 -0.3711842967845797 0 -0.30701445888495188 -0.3657895158743471 0 -0.30518243343560392 -0.35375020434394361 0 -0.29489022169616919 -0.36790874208762991 0 -0.30701445888495188 -0.3657895158743471 0 -0.29489022169616919 -0.36790874208762991 0 -0.30554266143553932 -0.3757824739846804 0 -0.31535800104862222 -0.37306179368211212 0 -0.30701445888495188 -0.3657895158743471 0 -0.30554266143553932 -0.3757824739846804 0 -0.31952129090008441 -0.35868464246467707 0 -0.30701445888495188 -0.3657895158743471 0 -0.30518243343560392 -0.35375020434394361 0 -0.3156197825769978 -0.34695193450551198 0 -0.30518243343560392 -0.35375020434394361 0 -0.30490539912442288 -0.33777101067469278 0 -0.30518243343560392 -0.35375020434394361 0 -0.29078269746611729 -0.34664133094664312 0 -0.29489022169616919 -0.36790874208762991 0 -0.30518243343560392 -0.35375020434394361 0 -0.29078269746611729 -0.34664133094664312 0 -0.30490539912442288 -0.33777101067469278 0 -0.29078269746611729 -0.34664133094664312 0 -0.29489022169616919 -0.36790874208762991 0 -0.29078269746611729 -0.34664133094664312 0 -0.29489022169616919 -0.36790874208762991 0 -0.27988841565855599 -0.35976217949334771 0 -0.29489022169616919 -0.36790874208762991 0 -0.27928201128947461 -0.37434936764466498 0 -0.27988841565855599 -0.35976217949334771 0 -0.27928201128947461 -0.37434936764466498 0 -0.2667339147329304 -0.36661144503063781 0 -0.26350706773530552 -0.35934311302756311 0 -0.27928201128947461 -0.37434936764466498 0 -0.26350706773530552 -0.35934311302756311 0 -0.27928201128947461 -0.37434936764466498 0 -0.27988841565855599 -0.35976217949334771 0 -0.26350706773530552 -0.35934311302756311 0 -0.2667339147329304 -0.36661144503063781 0 -0.2569926830630177 -0.37069877755075231 0 -0.2667339147329304 -0.36661144503063781 0 -0.2569926830630177 -0.37069877755075231 0 -0.26350706773530552 -0.35934311302756311 0 -0.26350706773530552 -0.35934311302756311 0 -0.26060586214839282 -0.34554658198202842 0 -0.2477321241811366 -0.34433685841046102 0 -0.26350706773530552 -0.35934311302756311 0 -0.2477321241811366 -0.34433685841046102 0 -0.2569926830630177 -0.37069877755075231 0 -0.26350706773530552 -0.35934311302756311 0 -0.2477321241811366 -0.34433685841046102 0 -0.2569926830630177 -0.37069877755075231 0 -0.2477321241811366 -0.34433685841046102 0 -0.26060586214839282 -0.34554658198202842 0 -0.2477321241811366 -0.34433685841046102 0 -0.26350706773530552 -0.35934311302756311 0 -0.26060586214839282 -0.34554658198202842 0 -0.27241303254988131 -0.35015749660778739 0 -0.27988841565855599 -0.35976217949334771 0 -0.26350706773530552 -0.35934311302756311 0 -0.27241303254988131 -0.35015749660778739 0 -0.29078269746611729 -0.34664133094664312 0 -0.27241303254988131 -0.35015749660778739 0 -0.27415929147303919 -0.33752221125759568 0 -0.29078269746611729 -0.34664133094664312 0 -0.27988841565855599 -0.35976217949334771 0 -0.27241303254988131 -0.35015749660778739 0 -0.26060586214839282 -0.34554658198202842 0 -0.27241303254988131 -0.35015749660778739 0 -0.27415929147303919 -0.33752221125759568 0 -0.27415929147303919 -0.33752221125759568 0 -0.26256470890018307 -0.33164362506927209 0 -0.27236328243869562 -0.32217809652159918 0 -0.26060586214839282 -0.34554658198202842 0 -0.27415929147303919 -0.33752221125759568 0 -0.26256470890018307 -0.33164362506927209 0 -0.25360466359699402 -0.33812743718912103 0 -0.25119928445706091 -0.32649581112233161 0 -0.24592133829819629 -0.34261430936151172 0 -0.26060586214839282 -0.34554658198202842 0 -0.26256470890018307 -0.33164362506927209 0 -0.25360466359699402 -0.33812743718912103 0 -0.26256470890018307 -0.33164362506927209 0 -0.25360466359699402 -0.33812743718912103 0 -0.25119928445706091 -0.32649581112233161 0 -0.26060586214839282 -0.34554658198202842 0 -0.25360466359699402 -0.33812743718912103 0 -0.2477321241811366 -0.34433685841046102 0 -0.25238894168445941 -0.31468470390647502 0 -0.25119928445706091 -0.32649581112233161 0 -0.26433691001896081 -0.31745956095507583 0 -0.26256470890018307 -0.33164362506927209 0 -0.25119928445706091 -0.32649581112233161 0 -0.26433691001896081 -0.31745956095507583 0 -0.27415929147303919 -0.33752221125759568 0 -0.28753597388018698 -0.31388339061295262 0 -0.27415929147303919 -0.33752221125759568 0 -0.27236328243869562 -0.32217809652159918 0 -0.28753597388018698 -0.31388339061295262 0 -0.26433691001896081 -0.31745956095507583 0 -0.27236328243869562 -0.32217809652159918 0 -0.27321952792110832 -0.3103816947130994 0 -0.26256470890018307 -0.33164362506927209 0 -0.26433691001896081 -0.31745956095507583 0 -0.27236328243869562 -0.32217809652159918 0 -0.27236328243869562 -0.32217809652159918 0 -0.28753597388018698 -0.31388339061295262 0 -0.27321952792110832 -0.3103816947130994 0 -0.27415929147303919 -0.33752221125759568 0 -0.28753597388018698 -0.31388339061295262 0 -0.28667517323606539 -0.32537391980565628 0 -0.28753597388018698 -0.31388339061295262 0 -0.28667517323606539 -0.32537391980565628 0 -0.3018367140185112 -0.32269822479566701 0 -0.28667517323606539 -0.32537391980565628 0 -0.29604999596127918 -0.33312112155566481 0 -0.3018367140185112 -0.32269822479566701 0 -0.29078269746611729 -0.34664133094664312 0 -0.28667517323606539 -0.32537391980565628 0 -0.29078269746611729 -0.34664133094664312 0 -0.28667517323606539 -0.32537391980565628 0 -0.29604999596127918 -0.33312112155566481 0 -0.29078269746611729 -0.34664133094664312 0 -0.27415929147303919 -0.33752221125759568 0 -0.28667517323606539 -0.32537391980565628 0 -0.29604999596127918 -0.33312112155566481 0 -0.30490539912442288 -0.33777101067469278 0 -0.3018367140185112 -0.32269822479566701 0 -0.29078269746611729 -0.34664133094664312 0 -0.29604999596127918 -0.33312112155566481 0 -0.30490539912442288 -0.33777101067469278 0 -0.31558585397385391 -0.33267964362009361 0 -0.3156197825769978 -0.34695193450551198 0 -0.30490539912442288 -0.33777101067469278 0 -0.31558585397385391 -0.33267964362009361 0 -0.30490539912442288 -0.33777101067469278 0 -0.3018367140185112 -0.32269822479566701 0 -0.28753597388018698 -0.31388339061295262 0 -0.3018367140185112 -0.32269822479566701 0 -0.30809508834059118 -0.30982236099569099 0 -0.31612560456200473 -0.32095131720168918 0 -0.31558585397385391 -0.33267964362009361 0 -0.3018367140185112 -0.32269822479566701 0 -0.31612560456200473 -0.32095131720168918 0 -0.3018367140185112 -0.32269822479566701 0 -0.30809508834059118 -0.30982236099569099 0 -0.31758123480644618 -0.29877607354596653 0 -0.30809508834059118 -0.30982236099569099 0 -0.30091265628733471 -0.2902445699683095 0 -0.28753597388018698 -0.31388339061295262 0 -0.30809508834059118 -0.30982236099569099 0 -0.30091265628733471 -0.2902445699683095 0 -0.31512081706474432 -0.2830039543827958 0 -0.31758123480644618 -0.29877607354596653 0 -0.30091265628733471 -0.2902445699683095 0 -0.30091265628733471 -0.2902445699683095 0 -0.28457987420737763 -0.28450638715755389 0 -0.28365900275885569 -0.29896945798195612 0 -0.30091265628733471 -0.2902445699683095 0 -0.28457987420737763 -0.28450638715755389 0 -0.2942580358448445 -0.27416710810296241 0 -0.28753597388018698 -0.31388339061295262 0 -0.30091265628733471 -0.2902445699683095 0 -0.28365900275885569 -0.29896945798195612 0 -0.28753597388018698 -0.31388339061295262 0 -0.30091265628733471 -0.2902445699683095 0 -0.28753597388018698 -0.31388339061295262 0 -0.28365900275885569 -0.29896945798195612 0 -0.27321952792110832 -0.3103816947130994 0 -0.28365900275885569 -0.29896945798195612 0 -0.27321952792110832 -0.3103816947130994 0 -0.27204698149827111 -0.29583124745786499 0 -0.27321952792110832 -0.3103816947130994 0 -0.25980395241129389 -0.3052293999795761 0 -0.27204698149827111 -0.29583124745786499 0 -0.26433691001896081 -0.31745956095507583 0 -0.27321952792110832 -0.3103816947130994 0 -0.25980395241129389 -0.3052293999795761 0 -0.25980395241129389 -0.3052293999795761 0 -0.25513348154379539 -0.29198821224966232 0 -0.27204698149827111 -0.29583124745786499 0 -0.25238894168445941 -0.31468470390647502 0 -0.26433691001896081 -0.31745956095507583 0 -0.25980395241129389 -0.3052293999795761 0 -0.25513348154379539 -0.29198821224966232 0 -0.24573780153207311 -0.30515155295211571 0 -0.25980395241129389 -0.3052293999795761 0 -0.25513348154379539 -0.29198821224966232 0 -0.24573780153207311 -0.30515155295211571 0 -0.25238894168445941 -0.31468470390647502 0 -0.25980395241129389 -0.3052293999795761 0 -0.24573780153207311 -0.30515155295211571 0 -0.25513348154379539 -0.29198821224966232 0 -0.25972803611435918 -0.27985668427586557 0 -0.2431338091174006 -0.28688427624883261 0 -0.25513348154379539 -0.29198821224966232 0 -0.27240695879105092 -0.28260055425080532 0 -0.25972803611435918 -0.27985668427586557 0 -0.25513348154379539 -0.29198821224966232 0 -0.27240695879105092 -0.28260055425080532 0 -0.27204698149827111 -0.29583124745786499 0 -0.28457987420737763 -0.28450638715755389 0 -0.28365900275885569 -0.29896945798195612 0 -0.27204698149827111 -0.29583124745786499 0 -0.28457987420737763 -0.28450638715755389 0 -0.27240695879105092 -0.28260055425080532 0 -0.27204698149827111 -0.29583124745786499 0 -0.28457987420737763 -0.28450638715755389 0 -0.27240695879105092 -0.28260055425080532 0 -0.28064883963618759 -0.26860717982351401 0 -0.27240695879105092 -0.28260055425080532 0 -0.28064883963618759 -0.26860717982351401 0 -0.26370995688662691 -0.26810697382788451 0 -0.27240695879105092 -0.28260055425080532 0 -0.25972803611435918 -0.27985668427586557 0 -0.26370995688662691 -0.26810697382788451 0 -0.25972803611435918 -0.27985668427586557 0 -0.26370995688662691 -0.26810697382788451 0 -0.24631074532448111 -0.27423716680131499 0 -0.26370995688662691 -0.26810697382788451 0 -0.25126462904132602 -0.25750798126147112 0 -0.24631074532448111 -0.27423716680131499 0 -0.26370995688662691 -0.26810697382788451 0 -0.25126462904132602 -0.25750798126147112 0 -0.26201370851686367 -0.25655145022029963 0 -0.25126462904132602 -0.25750798126147112 0 -0.26201370851686367 -0.25655145022029963 0 -0.26032213834395679 -0.24259596805267519 0 -0.26201370851686367 -0.25655145022029963 0 -0.27275810979554538 -0.25799487773916768 0 -0.26032213834395679 -0.24259596805267519 0 -0.27275810979554538 -0.25799487773916768 0 -0.28730573851921898 -0.25460085868817028 0 -0.26032213834395679 -0.24259596805267519 0 -0.28064883963618759 -0.26860717982351401 0 -0.26370995688662691 -0.26810697382788451 0 -0.27275810979554538 -0.25799487773916768 0 -0.26370995688662691 -0.26810697382788451 0 -0.26201370851686367 -0.25655145022029963 0 -0.27275810979554538 -0.25799487773916768 0 -0.28064883963618759 -0.26860717982351401 0 -0.27275810979554538 -0.25799487773916768 0 -0.28305029960985739 -0.26150781121281202 0 -0.27275810979554538 -0.25799487773916768 0 -0.28730573851921898 -0.25460085868817028 0 -0.28305029960985739 -0.26150781121281202 0 -0.28730573851921898 -0.25460085868817028 0 -0.29148851048847763 -0.26482832860039601 0 -0.28305029960985739 -0.26150781121281202 0 -0.28064883963618759 -0.26860717982351401 0 -0.29148851048847763 -0.26482832860039601 0 -0.28305029960985739 -0.26150781121281202 0 -0.28457987420737763 -0.28450638715755389 0 -0.28064883963618759 -0.26860717982351401 0 -0.2942580358448445 -0.27416710810296241 0 -0.28064883963618759 -0.26860717982351401 0 -0.29148851048847763 -0.26482832860039601 0 -0.2942580358448445 -0.27416710810296241 0 -0.31466075437434599 -0.26594939609843582 0 -0.29148851048847763 -0.26482832860039601 0 -0.2942580358448445 -0.27416710810296241 0 -0.31466075437434599 -0.26594939609843582 0 -0.31512081706474432 -0.2830039543827958 0 -0.30091265628733471 -0.2902445699683095 0 -0.31466075437434599 -0.26594939609843582 0 -0.30091265628733471 -0.2902445699683095 0 -0.31466075437434599 -0.26594939609843582 0 -0.30091265628733471 -0.2902445699683095 0 -0.2942580358448445 -0.27416710810296241 0 -0.31466075437434599 -0.26594939609843582 0 -0.28730573851921898 -0.25460085868817028 0 -0.31466075437434599 -0.26594939609843582 0 -0.29481027856235648 -0.25085125885305398 0 -0.31466075437434599 -0.26594939609843582 0 -0.28730573851921898 -0.25460085868817028 0 -0.29481027856235648 -0.25085125885305398 0 -0.31466075437434599 -0.26594939609843582 0 -0.28730573851921898 -0.25460085868817028 0 -0.29148851048847763 -0.26482832860039601 0 -0.31381311724700078 -0.25669451089784162 0 -0.31466075437434599 -0.26594939609843582 0 -0.30773797393502123 -0.25340296906161758 0 -0.31466075437434599 -0.26594939609843582 0 -0.29481027856235648 -0.25085125885305398 0 -0.30773797393502123 -0.25340296906161758 0 -0.31294828940832142 -0.25008585841527259 0 -0.31381311724700078 -0.25669451089784162 0 -0.30773797393502123 -0.25340296906161758 0 -0.29481027856235648 -0.25085125885305398 0 -0.30773797393502123 -0.25340296906161758 0 -0.30187293197059478 -0.2462704357486917 0 -0.38582847392901432 -0.5 0 -0.32040193249426568 -0.49999999999999689 0 -0.35205324693797269 -0.48028203242468193 0 -0.33368363296990611 -0.46050682140703852 0 -0.3375378649758119 -0.44193504011161677 0 -0.35322193569429272 -0.45901115754274718 0 -0.33368363296990611 -0.46050682140703852 0 -0.3375378649758119 -0.44193504011161677 0 -0.31026943399621321 -0.44753725130409883 0 -0.3375378649758119 -0.44193504011161677 0 -0.32386913108487281 -0.42631862632434792 0 -0.31026943399621321 -0.44753725130409883 0 -0.33368363296990611 -0.46050682140703852 0 -0.31533568324523981 -0.4737686256520478 0 -0.31026943399621321 -0.44753725130409883 0 -0.31533568324523981 -0.4737686256520478 0 -0.31026943399621321 -0.44753725130409883 0 -0.33368363296990611 -0.46050682140703852 0 -0.31533568324523981 -0.4737686256520478 0 -0.35205324693797269 -0.48028203242468193 0 -0.31533568324523981 -0.4737686256520478 0 -0.32040193249426568 -0.49999999999999689 0 -0.35205324693797269 -0.48028203242468193 0 -0.31533568324523981 -0.4737686256520478 0 -0.32040193249426568 -0.49999999999999689 0 -0.38582847392901432 -0.5 0 -0.35205324693797269 -0.48028203242468193 0 -0.37472347169017689 -0.47100256596926399 0 -0.35205324693797269 -0.48028203242468193 0 -0.37472347169017689 -0.47100256596926399 0 -0.35322193569429272 -0.45901115754274718 0 -0.37472347169017689 -0.47100256596926399 0 -0.37397601483264731 -0.45497387712448412 0 -0.35322193569429272 -0.45901115754274718 0 -0.33368363296990611 -0.46050682140703852 0 -0.35205324693797269 -0.48028203242468193 0 -0.35322193569429272 -0.45901115754274718 0 -0.3375378649758119 -0.44193504011161677 0 -0.35322193569429272 -0.45901115754274718 0 -0.36317758539534228 -0.44468915328851749 0 -0.3375378649758119 -0.44193504011161677 0 -0.36317758539534228 -0.44468915328851749 0 -0.37397601483264731 -0.45497387712448412 0 -0.35322193569429272 -0.45901115754274718 0 -0.36317758539534228 -0.44468915328851749 0 -0.36317758539534228 -0.44468915328851749 0 -0.37415926423024681 -0.43192514332593818 0 -0.350136794845198 -0.41996600337959472 0 -0.37415926423024681 -0.43192514332593818 0 -0.350136794845198 -0.41996600337959472 0 -0.37773521780237879 -0.41121743826212293 0 -0.37415926423024681 -0.43192514332593818 0 -0.36094603687103449 -0.40615949502404231 0 -0.37415926423024681 -0.43192514332593818 0 -0.350136794845198 -0.41996600337959472 0 -0.36094603687103449 -0.40615949502404231 0 -0.350136794845198 -0.41996600337959472 0 -0.36094603687103449 -0.40615949502404231 0 -0.34325107162780788 -0.40369075637224222 0 -0.3375378649758119 -0.44193504011161677 0 -0.36317758539534228 -0.44468915328851749 0 -0.350136794845198 -0.41996600337959472 0 -0.36635630559020071 -0.38610855199716482 0 -0.37053113879795357 -0.39147667488635662 0 -0.34878797891000879 -0.38690863770011952 0 -0.37053113879795357 -0.39147667488635662 0 -0.34878797891000879 -0.38690863770011952 0 -0.38392463227039259 -0.38530846629421162 0 -0.37407448771197321 -0.37888912123151791 0 -0.36635630559020071 -0.38610855199716482 0 -0.38392463227039259 -0.38530846629421162 0 -0.36635630559020071 -0.38610855199716482 0 -0.37053113879795357 -0.39147667488635662 0 -0.35801043618394518 -0.37438503280913388 0 -0.36603434758673709 -0.37670354622716928 0 -0.35773481749951708 -0.38009955157232728 0 -0.36603434758673709 -0.37670354622716928 0 -0.36635630559020071 -0.38610855199716482 0 -0.35773481749951708 -0.38009955157232728 0 -0.36603434758673709 -0.37670354622716928 0 -0.37407448771197321 -0.37888912123151791 0 -0.36635630559020071 -0.38610855199716482 0 -0.37231883435517488 -0.36978963878897331 0 -0.36603434758673709 -0.37670354622716928 0 -0.37407448771197321 -0.37888912123151791 0 -0.37773521780237879 -0.41121743826212293 0 -0.37053113879795357 -0.39147667488635662 0 -0.36094603687103449 -0.40615949502404231 0 -0.37053113879795357 -0.39147667488635662 0 -0.36094603687103449 -0.40615949502404231 0 -0.34878797891000879 -0.38690863770011952 0 -0.36094603687103449 -0.40615949502404231 0 -0.34878797891000879 -0.38690863770011952 0 -0.34325107162780788 -0.40369075637224222 0 -0.36635630559020071 -0.38610855199716482 0 -0.34878797891000879 -0.38690863770011952 0 -0.36635630559020071 -0.38610855199716482 0 -0.34878797891000879 -0.38690863770011952 0 -0.35773481749951708 -0.38009955157232728 0 -0.34878797891000879 -0.38690863770011952 0 -0.35069833972098258 -0.37682838129836871 0 -0.34065692200991238 -0.3761138652490944 0 -0.34878797891000879 -0.38690863770011952 0 -0.35069833972098258 -0.37682838129836871 0 -0.35773481749951708 -0.38009955157232728 0 -0.35801043618394518 -0.37438503280913388 0 -0.35069833972098258 -0.37682838129836871 0 -0.35773481749951708 -0.38009955157232728 0 -0.34878797891000879 -0.38690863770011952 0 -0.3238928624181151 -0.38804239546436642 0 -0.34878797891000879 -0.38690863770011952 0 -0.34065692200991238 -0.3761138652490944 0 -0.32946212447843831 -0.38284845407666612 0 -0.34878797891000879 -0.38690863770011952 0 -0.32946212447843831 -0.38284845407666612 0 -0.3238928624181151 -0.38804239546436642 0 -0.34878797891000879 -0.38690863770011952 0 -0.32946212447843831 -0.38284845407666612 0 -0.32784972786138539 -0.3711842967845797 0 -0.34065692200991238 -0.3761138652490944 0 -0.32946212447843831 -0.38284845407666612 0 -0.34878797891000879 -0.38690863770011952 0 -0.34325107162780788 -0.40369075637224222 0 -0.3238928624181151 -0.38804239546436642 0 -0.34325107162780788 -0.40369075637224222 0 -0.3238928624181151 -0.38804239546436642 0 -0.32611432546014912 -0.4080068634332511 0 -0.3238928624181151 -0.38804239546436642 0 -0.32611432546014912 -0.4080068634332511 0 -0.30209185607509992 -0.39604772348690792 0 -0.32611432546014912 -0.4080068634332511 0 -0.30209185607509992 -0.39604772348690792 0 -0.32946212447843831 -0.38284845407666612 0 -0.3238928624181151 -0.38804239546436642 0 -0.32167944670518639 -0.3796260032919675 0 -0.3238928624181151 -0.38804239546436642 0 -0.31309414350673692 -0.38113776393034821 0 -0.32167944670518639 -0.3796260032919675 0 -0.31535800104862222 -0.37306179368211212 0 -0.31309414350673692 -0.38113776393034821 0 -0.32167944670518639 -0.3796260032919675 0 -0.32784972786138539 -0.3711842967845797 0 -0.32946212447843831 -0.38284845407666612 0 -0.32167944670518639 -0.3796260032919675 0 -0.3375378649758119 -0.44193504011161677 0 -0.350136794845198 -0.41996600337959472 0 -0.32386913108487281 -0.42631862632434792 0 -0.350136794845198 -0.41996600337959472 0 -0.34325107162780788 -0.40369075637224222 0 -0.32611432546014912 -0.4080068634332511 0 -0.350136794845198 -0.41996600337959472 0 -0.32611432546014912 -0.4080068634332511 0 -0.32386913108487281 -0.42631862632434792 0 -0.350136794845198 -0.41996600337959472 0 -0.32611432546014912 -0.4080068634332511 0 -0.32611432546014912 -0.4080068634332511 0 -0.31417329167453067 -0.41222306056908969 0 -0.32386913108487281 -0.42631862632434792 0 -0.31417329167453067 -0.41222306056908969 0 -0.32386913108487281 -0.42631862632434792 0 -0.30520318474718672 -0.42130587695614963 0 -0.32611432546014912 -0.4080068634332511 0 -0.31417329167453067 -0.41222306056908969 0 -0.3068828787750581 -0.40060528695868952 0 -0.32386913108487281 -0.42631862632434792 0 -0.30520318474718672 -0.42130587695614963 0 -0.31026943399621321 -0.44753725130409883 0 -0.30520318474718672 -0.42130587695614963 0 -0.31026943399621321 -0.44753725130409883 0 -0.30520318474718672 -0.42130587695614963 0 -0.29030265977959552 -0.42555752897340637 0 -0.31026943399621321 -0.44753725130409883 0 -0.30520318474718672 -0.42130587695614963 0 -0.30013693549815967 -0.39507450260820071 0 -0.31417329167453067 -0.41222306056908969 0 -0.30520318474718672 -0.42130587695614963 0 -0.3068828787750581 -0.40060528695868952 0 -0.30520318474718672 -0.42130587695614963 0 -0.2917034943819774 -0.40941216710104422 0 -0.30013693549815967 -0.39507450260820071 0 -0.2917034943819774 -0.40941216710104422 0 -0.2818254572129098 -0.41228406307169169 0 -0.29030265977959552 -0.42555752897340637 0 -0.30520318474718672 -0.42130587695614963 0 -0.2917034943819774 -0.40941216710104422 0 -0.29030265977959552 -0.42555752897340637 0 -0.2917034943819774 -0.40941216710104422 0 -0.2818254572129098 -0.41228406307169169 0 -0.28362079263208018 -0.40470449922089119 0 -0.2818254572129098 -0.41228406307169169 0 -0.29030265977959552 -0.42555752897340637 0 -0.2765640922935787 -0.42034519644837681 0 -0.29030265977959552 -0.42555752897340637 0 -0.28489921456036582 -0.43901079979940888 0 -0.31026943399621321 -0.44753725130409883 0 -0.29030265977959552 -0.42555752897340637 0 -0.27572335981497459 -0.42775073367161409 0 -0.28489921456036582 -0.43901079979940888 0 -0.3238928624181151 -0.38804239546436642 0 -0.29899774592622141 -0.38917615322861648 0 -0.29489022169616919 -0.36790874208762991 0 -0.29899774592622141 -0.38917615322861648 0 -0.29489022169616919 -0.36790874208762991 0 -0.30554266143553932 -0.3757824739846804 0 -0.29899774592622141 -0.38917615322861648 0 -0.3238928624181151 -0.38804239546436642 0 -0.31309414350673692 -0.38113776393034821 0 -0.29899774592622141 -0.38917615322861648 0 -0.31309414350673692 -0.38113776393034821 0 -0.30554266143553932 -0.3757824739846804 0 -0.29899774592622141 -0.38917615322861648 0 -0.31535800104862222 -0.37306179368211212 0 -0.31309414350673692 -0.38113776393034821 0 -0.30554266143553932 -0.3757824739846804 0 -0.29899774592622141 -0.38917615322861648 0 -0.29505695484364108 -0.3893556222617699 0 -0.3238928624181151 -0.38804239546436642 0 -0.29899774592622141 -0.38917615322861648 0 -0.30209185607509992 -0.39604772348690792 0 -0.30520318474718672 -0.42130587695614963 0 -0.30013693549815967 -0.39507450260820071 0 -0.3068828787750581 -0.40060528695868952 0 -0.32611432546014912 -0.4080068634332511 0 -0.30209185607509992 -0.39604772348690792 0 -0.3068828787750581 -0.40060528695868952 0 -0.30013693549815967 -0.39507450260820071 0 -0.29505695484364108 -0.3893556222617699 0 -0.29899774592622141 -0.38917615322861648 0 -0.30013693549815967 -0.39507450260820071 0 -0.29505695484364108 -0.3893556222617699 0 -0.30013693549815967 -0.39507450260820071 0 -0.29372401739274351 -0.39188195050800578 0 -0.29899774592622141 -0.38917615322861648 0 -0.30013693549815967 -0.39507450260820071 0 -0.30209185607509992 -0.39604772348690792 0 -0.29899774592622141 -0.38917615322861648 0 -0.30013693549815967 -0.39507450260820071 0 -0.30209185607509992 -0.39604772348690792 0 -0.3068828787750581 -0.40060528695868952 0 -0.30013693549815967 -0.39507450260820071 0 -0.30209185607509992 -0.39604772348690792 0 -0.3068828787750581 -0.40060528695868952 0 -0.30013693549815967 -0.39507450260820071 0 -0.30209185607509992 -0.39604772348690792 0 -0.2917034943819774 -0.40941216710104422 0 -0.30013693549815967 -0.39507450260820071 0 -0.29066444935722557 -0.39941511932392038 0 -0.2917034943819774 -0.40941216710104422 0 -0.29066444935722557 -0.39941511932392038 0 -0.28362079263208018 -0.40470449922089119 0 -0.29066444935722557 -0.39941511932392038 0 -0.28362079263208018 -0.40470449922089119 0 -0.28318395819436148 -0.39687379485918139 0 -0.30013693549815967 -0.39507450260820071 0 -0.29066444935722557 -0.39941511932392038 0 -0.29372401739274351 -0.39188195050800578 0 -0.29066444935722557 -0.39941511932392038 0 -0.28318395819436148 -0.39687379485918139 0 -0.29372401739274351 -0.39188195050800578 0 -0.28318395819436148 -0.39687379485918139 0 -0.29372401739274351 -0.39188195050800578 0 -0.29505695484364108 -0.3893556222617699 0 -0.30013693549815967 -0.39507450260820071 0 -0.29372401739274351 -0.39188195050800578 0 -0.29505695484364108 -0.3893556222617699 0 -0.27928201128947461 -0.37434936764466498 0 -0.29505695484364108 -0.3893556222617699 0 -0.29489022169616919 -0.36790874208762991 0 -0.27928201128947461 -0.37434936764466498 0 -0.29505695484364108 -0.3893556222617699 0 -0.29489022169616919 -0.36790874208762991 0 -0.29899774592622141 -0.38917615322861648 0 -0.29505695484364108 -0.3893556222617699 0 -0.29505695484364108 -0.3893556222617699 0 -0.2648891157342762 -0.39072950704885878 0 -0.27928201128947461 -0.37434936764466498 0 -0.2667339147329304 -0.36661144503063781 0 -0.2648891157342762 -0.39072950704885878 0 -0.27928201128947461 -0.37434936764466498 0 -0.29505695484364108 -0.3893556222617699 0 -0.2648891157342762 -0.39072950704885878 0 -0.28318395819436148 -0.39687379485918139 0 -0.29505695484364108 -0.3893556222617699 0 -0.2648891157342762 -0.39072950704885878 0 -0.28318395819436148 -0.39687379485918139 0 -0.27072660401392667 -0.40553735174861799 0 -0.2648891157342762 -0.39072950704885878 0 -0.27072660401392667 -0.40553735174861799 0 -0.2648891157342762 -0.39072950704885878 0 -0.28362079263208018 -0.40470449922089119 0 -0.28318395819436148 -0.39687379485918139 0 -0.27072660401392667 -0.40553735174861799 0 -0.2648891157342762 -0.39072950704885878 0 -0.25137723173812071 -0.40721725773393558 0 -0.24840627583016731 -0.3914801581946013 0 -0.27072660401392667 -0.40553735174861799 0 -0.2648891157342762 -0.39072950704885878 0 -0.25137723173812071 -0.40721725773393558 0 -0.2648891157342762 -0.39072950704885878 0 -0.24840627583016731 -0.3914801581946013 0 -0.2569926830630177 -0.37069877755075231 0 -0.2648891157342762 -0.39072950704885878 0 -0.2569926830630177 -0.37069877755075231 0 -0.2648891157342762 -0.39072950704885878 0 -0.24840627583016731 -0.3914801581946013 0 -0.2667339147329304 -0.36661144503063781 0 -0.2569926830630177 -0.37069877755075231 0 -0.2648891157342762 -0.39072950704885878 0 -0.27572335981497459 -0.42775073367161409 0 -0.26158046213950048 -0.44258651250133663 0 -0.27600023246686201 -0.44080098894629932 0 -0.27572335981497459 -0.42775073367161409 0 -0.27600023246686201 -0.44080098894629932 0 -0.28489921456036582 -0.43901079979940888 0 -0.29030265977959552 -0.42555752897340637 0 -0.27572335981497459 -0.42775073367161409 0 -0.2765640922935787 -0.42034519644837681 0 -0.27072660401392667 -0.40553735174861799 0 -0.2765640922935787 -0.42034519644837681 0 -0.2818254572129098 -0.41228406307169169 0 -0.27072660401392667 -0.40553735174861799 0 -0.2765640922935787 -0.42034519644837681 0 -0.2818254572129098 -0.41228406307169169 0 -0.28362079263208018 -0.40470449922089119 0 -0.27072660401392667 -0.40553735174861799 0 -0.27572335981497459 -0.42775073367161409 0 -0.2765640922935787 -0.42034519644837681 0 -0.26535276886338011 -0.41702497210144501 0 -0.27072660401392667 -0.40553735174861799 0 -0.2765640922935787 -0.42034519644837681 0 -0.26535276886338011 -0.41702497210144501 0 -0.25137723173812071 -0.40721725773393558 0 -0.26535276886338011 -0.41702497210144501 0 -0.25237255645629941 -0.42427432090468031 0 -0.27072660401392667 -0.40553735174861799 0 -0.25137723173812071 -0.40721725773393558 0 -0.26535276886338011 -0.41702497210144501 0 -0.27572335981497459 -0.42775073367161409 0 -0.25237255645629941 -0.42427432090468031 0 -0.27572335981497459 -0.42775073367161409 0 -0.25237255645629941 -0.42427432090468031 0 -0.26158046213950048 -0.44258651250133663 0 -0.27572335981497459 -0.42775073367161409 0 -0.26535276886338011 -0.41702497210144501 0 -0.25237255645629941 -0.42427432090468031 0 -0.25237255645629941 -0.42427432090468031 0 -0.26158046213950048 -0.44258651250133663 0 -0.24077052714778949 -0.44806323331073489 0 -0.26158046213950048 -0.44258651250133663 0 -0.26183972692968588 -0.4637276261637121 0 -0.24077052714778949 -0.44806323331073489 0 -0.26158046213950048 -0.44258651250133663 0 -0.26183972692968588 -0.4637276261637121 0 -0.28179789335260708 -0.45385590981283758 0 -0.26183972692968588 -0.4637276261637121 0 -0.28179789335260708 -0.45385590981283758 0 -0.27820464534178108 -0.4777416352855644 0 -0.26158046213950048 -0.44258651250133663 0 -0.27600023246686201 -0.44080098894629932 0 -0.28179789335260708 -0.45385590981283758 0 -0.27600023246686201 -0.44080098894629932 0 -0.28489921456036582 -0.43901079979940888 0 -0.28179789335260708 -0.45385590981283758 0 -0.28489921456036582 -0.43901079979940888 0 -0.28179789335260708 -0.45385590981283758 0 -0.31026943399621321 -0.44753725130409883 0 -0.28179789335260708 -0.45385590981283758 0 -0.29623358484168011 -0.47058068441090972 0 -0.27820464534178108 -0.4777416352855644 0 -0.28179789335260708 -0.45385590981283758 0 -0.31026943399621321 -0.44753725130409883 0 -0.29623358484168011 -0.47058068441090972 0 -0.31533568324523981 -0.4737686256520478 0 -0.31026943399621321 -0.44753725130409883 0 -0.29623358484168011 -0.47058068441090972 0 -0.31533568324523981 -0.4737686256520478 0 -0.32040193249426568 -0.49999999999999689 0 -0.29556026827255921 -0.5 0 -0.31533568324523981 -0.4737686256520478 0 -0.29623358484168011 -0.47058068441090972 0 -0.29556026827255921 -0.5 0 -0.29623358484168011 -0.47058068441090972 0 -0.29556026827255921 -0.5 0 -0.27820464534178108 -0.4777416352855644 0 -0.29556026827255921 -0.5 0 -0.2707186040508528 -0.5 0 -0.27820464534178108 -0.4777416352855644 0 -0.2707186040508528 -0.5 0 -0.27820464534178108 -0.4777416352855644 0 -0.25909779013795903 -0.48377255872183522 0 -0.26183972692968588 -0.4637276261637121 0 -0.27820464534178108 -0.4777416352855644 0 -0.25909779013795903 -0.48377255872183522 0 -0.26183972692968588 -0.4637276261637121 0 -0.25909779013795903 -0.48377255872183522 0 -0.23884903453832909 -0.47739353215989988 0 -0.2707186040508528 -0.5 0 -0.25909779013795903 -0.48377255872183522 0 -0.2458769398291463 -0.5 0 -0.2458769398291463 -0.5 0 -0.23884903453832909 -0.47739353215989988 0 -0.22103527560743971 -0.5 0 -0.25909779013795903 -0.48377255872183522 0 -0.2458769398291463 -0.5 0 -0.23884903453832909 -0.47739353215989988 0 -0.23884903453832909 -0.47739353215989988 0 -0.22381457233718899 -0.46527930654411492 0 -0.21713759898600929 -0.48221641734037241 0 -0.23884903453832909 -0.47739353215989988 0 -0.22103527560743971 -0.5 0 -0.21713759898600929 -0.48221641734037241 0 -0.26183972692968588 -0.4637276261637121 0 -0.23884903453832909 -0.47739353215989988 0 -0.24077052714778949 -0.44806323331073489 0 -0.23884903453832909 -0.47739353215989988 0 -0.24077052714778949 -0.44806323331073489 0 -0.22381457233718899 -0.46527930654411492 0 -0.24077052714778949 -0.44806323331073489 0 -0.22381457233718899 -0.46527930654411492 0 -0.21460676744418269 -0.44178358782603011 0 -0.21460676744418269 -0.44178358782603011 0 -0.2077672489334953 -0.45736949783940101 0 -0.19247990126625031 -0.45006781637235282 0 -0.22381457233718899 -0.46527930654411492 0 -0.2077672489334953 -0.45736949783940101 0 -0.19933278978745411 -0.47232835160080611 0 -0.22381457233718899 -0.46527930654411492 0 -0.21460676744418269 -0.44178358782603011 0 -0.2077672489334953 -0.45736949783940101 0 -0.2077672489334953 -0.45736949783940101 0 -0.19247990126625031 -0.45006781637235282 0 -0.19933278978745411 -0.47232835160080611 0 -0.19247990126625031 -0.45006781637235282 0 -0.19933278978745411 -0.47232835160080611 0 -0.17920005691137911 -0.46219074752109929 0 -0.21460676744418269 -0.44178358782603011 0 -0.19247990126625031 -0.45006781637235282 0 -0.19383006991488799 -0.43387093670056343 0 -0.21713759898600929 -0.48221641734037241 0 -0.19933278978745411 -0.47232835160080611 0 -0.1961936113857333 -0.50000000000000322 0 -0.22103527560743971 -0.5 0 -0.21713759898600929 -0.48221641734037241 0 -0.1961936113857333 -0.50000000000000322 0 -0.22381457233718899 -0.46527930654411492 0 -0.21713759898600929 -0.48221641734037241 0 -0.19933278978745411 -0.47232835160080611 0 -0.19933278978745411 -0.47232835160080611 0 -0.1961936113857333 -0.50000000000000322 0 -0.1758446126163288 -0.48120609619765448 0 -0.1961936113857333 -0.50000000000000322 0 -0.17006373010570541 -0.5 0 -0.1758446126163288 -0.48120609619765448 0 -0.1961936113857333 -0.50000000000000322 0 -0.1758446126163288 -0.48120609619765448 0 -0.1566045076188429 -0.4849683985517893 0 -0.17006373010570541 -0.5 0 -0.14393384882567739 -0.5 0 -0.1566045076188429 -0.4849683985517893 0 -0.17006373010570541 -0.5 0 -0.1758446126163288 -0.48120609619765448 0 -0.1566045076188429 -0.4849683985517893 0 -0.1758446126163288 -0.48120609619765448 0 -0.15549561384692601 -0.46241219239530418 0 -0.1758446126163288 -0.48120609619765448 0 -0.15549561384692601 -0.46241219239530418 0 -0.19933278978745411 -0.47232835160080611 0 -0.1758446126163288 -0.48120609619765448 0 -0.17920005691137911 -0.46219074752109929 0 -0.19247990126625031 -0.45006781637235282 0 -0.17604902362457731 -0.44283273702732379 0 -0.19383006991488799 -0.43387093670056343 0 -0.19247990126625031 -0.45006781637235282 0 -0.17920005691137911 -0.46219074752109929 0 -0.17604902362457731 -0.44283273702732379 0 -0.17604902362457731 -0.44283273702732379 0 -0.15699599985773419 -0.43969212997830398 0 -0.15549561384692601 -0.46241219239530418 0 -0.1758446126163288 -0.48120609619765448 0 -0.17920005691137911 -0.46219074752109929 0 -0.15549561384692601 -0.46241219239530418 0 -0.17920005691137911 -0.46219074752109929 0 -0.17604902362457731 -0.44283273702732379 0 -0.15549561384692601 -0.46241219239530418 0 -0.15549561384692601 -0.46241219239530418 0 -0.13106334748952589 -0.46257543358923092 0 -0.13768473269957709 -0.48122370416598781 0 -0.15549561384692601 -0.46241219239530418 0 -0.13514661507752321 -0.44361828859295382 0 -0.15699599985773419 -0.43969212997830398 0 -0.15549561384692601 -0.46241219239530418 0 -0.13514661507752321 -0.44361828859295382 0 -0.13514661507752321 -0.44361828859295382 0 -0.13106334748952589 -0.46257543358923092 0 -0.1168072558488123 -0.44350779806132717 0 -0.15549561384692601 -0.46241219239530418 0 -0.13514661507752321 -0.44361828859295382 0 -0.13106334748952589 -0.46257543358923092 0 -0.13106334748952589 -0.46257543358923092 0 -0.13768473269957709 -0.48122370416598781 0 -0.1179663789000434 -0.47955419494461449 0 -0.13768473269957709 -0.48122370416598781 0 -0.14393384882567739 -0.5 0 -0.11780396754564949 -0.5 0 -0.1566045076188429 -0.4849683985517893 0 -0.13768473269957709 -0.48122370416598781 0 -0.14393384882567739 -0.5 0 -0.1566045076188429 -0.4849683985517893 0 -0.15549561384692601 -0.46241219239530418 0 -0.13768473269957709 -0.48122370416598781 0 -0.1528148859079243 -0.40199267773988728 0 -0.14389895151870241 -0.38897566193552141 0 -0.13683832574797561 -0.40031049418342429 0 -0.1528148859079243 -0.40199267773988728 0 -0.14389895151870241 -0.38897566193552141 0 -0.16643805294779929 -0.39278538568487192 0 -0.14389895151870241 -0.38897566193552141 0 -0.16643805294779929 -0.39278538568487192 0 -0.15055595951532319 -0.37172568876586792 0 -0.14389895151870241 -0.38897566193552141 0 -0.13074009998159811 -0.37629925186394392 0 -0.15055595951532319 -0.37172568876586792 0 -0.14389895151870241 -0.38897566193552141 0 -0.13074009998159811 -0.37629925186394392 0 -0.12600638501159381 -0.39074047337513301 0 -0.13683832574797561 -0.40031049418342429 0 -0.1300178123684532 -0.41366683254813658 0 -0.11659324107873791 -0.40277679752632989 0 -0.13683832574797561 -0.40031049418342429 0 -0.12600638501159381 -0.39074047337513301 0 -0.11659324107873791 -0.40277679752632989 0 -0.14389895151870241 -0.38897566193552141 0 -0.13683832574797561 -0.40031049418342429 0 -0.12600638501159381 -0.39074047337513301 0 -0.13683832574797561 -0.40031049418342429 0 -0.1300178123684532 -0.41366683254813658 0 -0.149787543380274 -0.4189401058552043 0 -0.13514661507752321 -0.44361828859295382 0 -0.1300178123684532 -0.41366683254813658 0 -0.149787543380274 -0.4189401058552043 0 -0.13514661507752321 -0.44361828859295382 0 -0.1300178123684532 -0.41366683254813658 0 -0.1147976163081203 -0.42482438479060342 0 -0.15699599985773419 -0.43969212997830398 0 -0.13514661507752321 -0.44361828859295382 0 -0.149787543380274 -0.4189401058552043 0 -0.1528148859079243 -0.40199267773988728 0 -0.13683832574797561 -0.40031049418342429 0 -0.149787543380274 -0.4189401058552043 0 -0.1528148859079243 -0.40199267773988728 0 -0.149787543380274 -0.4189401058552043 0 -0.16470808836557649 -0.41122304076686739 0 -0.149787543380274 -0.4189401058552043 0 -0.16470808836557649 -0.41122304076686739 0 -0.1719178685420196 -0.42325594515000348 0 -0.15699599985773419 -0.43969212997830398 0 -0.149787543380274 -0.4189401058552043 0 -0.1719178685420196 -0.42325594515000348 0 -0.17604902362457731 -0.44283273702732379 0 -0.15699599985773419 -0.43969212997830398 0 -0.1719178685420196 -0.42325594515000348 0 -0.17604902362457731 -0.44283273702732379 0 -0.18309066682131109 -0.42790052773779458 0 -0.19383006991488799 -0.43387093670056343 0 -0.17604902362457731 -0.44283273702732379 0 -0.1719178685420196 -0.42325594515000348 0 -0.18309066682131109 -0.42790052773779458 0 -0.1719178685420196 -0.42325594515000348 0 -0.18309066682131109 -0.42790052773779458 0 -0.1838258296773809 -0.41584162254540602 0 -0.18309066682131109 -0.42790052773779458 0 -0.1838258296773809 -0.41584162254540602 0 -0.19160437903813221 -0.42373364558864413 0 -0.16470808836557649 -0.41122304076686739 0 -0.1719178685420196 -0.42325594515000348 0 -0.18232014638027361 -0.4138450826038772 0 -0.16470808836557649 -0.41122304076686739 0 -0.18232014638027361 -0.4138450826038772 0 -0.1719178685420196 -0.42325594515000348 0 -0.1838258296773809 -0.41584162254540602 0 -0.18232014638027361 -0.4138450826038772 0 -0.1838258296773809 -0.41584162254540602 0 -0.18232014638027361 -0.4138450826038772 0 -0.18232014638027361 -0.4138450826038772 0 -0.18442769233550499 -0.40114638997524471 0 -0.19500406466346751 -0.40847824574454422 0 -0.18442769233550499 -0.40114638997524471 0 -0.16643805294779929 -0.39278538568487192 0 -0.1794005203903771 -0.38726644684420858 0 -0.18232014638027361 -0.4138450826038772 0 -0.18442769233550499 -0.40114638997524471 0 -0.16643805294779929 -0.39278538568487192 0 -0.18232014638027361 -0.4138450826038772 0 -0.16643805294779929 -0.39278538568487192 0 -0.18442769233550499 -0.40114638997524471 0 -0.1794005203903771 -0.38726644684420858 0 -0.19108902427856 -0.38652008927568732 0 -0.16470808836557649 -0.41122304076686739 0 -0.18232014638027361 -0.4138450826038772 0 -0.16643805294779929 -0.39278538568487192 0 -0.1528148859079243 -0.40199267773988728 0 -0.16470808836557649 -0.41122304076686739 0 -0.16643805294779929 -0.39278538568487192 0 -0.16643805294779929 -0.39278538568487192 0 -0.17182699578836971 -0.37526244438941708 0 -0.15055595951532319 -0.37172568876586792 0 -0.16643805294779929 -0.39278538568487192 0 -0.15055595951532319 -0.37172568876586792 0 -0.17182699578836971 -0.37526244438941708 0 -0.1794005203903771 -0.38726644684420858 0 -0.18378974597799269 -0.37678671381044732 0 -0.16643805294779929 -0.39278538568487192 0 -0.17182699578836971 -0.37526244438941708 0 -0.1794005203903771 -0.38726644684420858 0 -0.1794005203903771 -0.38726644684420858 0 -0.18378974597799269 -0.37678671381044732 0 -0.19108902427856 -0.38652008927568732 0 -0.19108902427856 -0.38652008927568732 0 -0.20861602257800971 -0.39099718583374832 0 -0.20034895886359819 -0.36874128774403803 0 -0.18378974597799269 -0.37678671381044732 0 -0.19108902427856 -0.38652008927568732 0 -0.20034895886359819 -0.36874128774403803 0 -0.18442769233550499 -0.40114638997524471 0 -0.20861602257800971 -0.39099718583374832 0 -0.20861602257800971 -0.39099718583374832 0 -0.19500406466346751 -0.40847824574454422 0 -0.20567094973894881 -0.41732149537081259 0 -0.18442769233550499 -0.40114638997524471 0 -0.20861602257800971 -0.39099718583374832 0 -0.19500406466346751 -0.40847824574454422 0 -0.18442769233550499 -0.40114638997524471 0 -0.19108902427856 -0.38652008927568732 0 -0.20861602257800971 -0.39099718583374832 0 -0.20861602257800971 -0.39099718583374832 0 -0.20567094973894881 -0.41732149537081259 0 -0.2306338105045283 -0.4007965052560275 0 -0.20861602257800971 -0.39099718583374832 0 -0.2157794923220113 -0.37567290952128368 0 -0.20034895886359819 -0.36874128774403803 0 -0.19383006991488799 -0.43387093670056343 0 -0.19160437903813221 -0.42373364558864413 0 -0.20567094973894881 -0.41732149537081259 0 -0.18309066682131109 -0.42790052773779458 0 -0.19383006991488799 -0.43387093670056343 0 -0.19160437903813221 -0.42373364558864413 0 -0.1838258296773809 -0.41584162254540602 0 -0.19160437903813221 -0.42373364558864413 0 -0.20567094973894881 -0.41732149537081259 0 -0.18232014638027361 -0.4138450826038772 0 -0.19500406466346751 -0.40847824574454422 0 -0.20567094973894881 -0.41732149537081259 0 -0.1838258296773809 -0.41584162254540602 0 -0.18232014638027361 -0.4138450826038772 0 -0.20567094973894881 -0.41732149537081259 0 -0.18232014638027361 -0.4138450826038772 0 -0.20567094973894881 -0.41732149537081259 0 -0.20567094973894881 -0.41732149537081259 0 -0.2290217530976241 -0.42079790813774648 0 -0.21460676744418269 -0.44178358782603011 0 -0.19383006991488799 -0.43387093670056343 0 -0.20567094973894881 -0.41732149537081259 0 -0.21460676744418269 -0.44178358782603011 0 -0.20567094973894881 -0.41732149537081259 0 -0.2290217530976241 -0.42079790813774648 0 -0.24077052714778949 -0.44806323331073489 0 -0.21460676744418269 -0.44178358782603011 0 -0.2290217530976241 -0.42079790813774648 0 -0.20567094973894881 -0.41732149537081259 0 -0.2290217530976241 -0.42079790813774648 0 -0.2306338105045283 -0.4007965052560275 0 -0.25137723173812071 -0.40721725773393558 0 -0.25237255645629941 -0.42427432090468031 0 -0.2290217530976241 -0.42079790813774648 0 -0.25137723173812071 -0.40721725773393558 0 -0.2290217530976241 -0.42079790813774648 0 -0.2306338105045283 -0.4007965052560275 0 -0.25237255645629941 -0.42427432090468031 0 -0.24077052714778949 -0.44806323331073489 0 -0.2290217530976241 -0.42079790813774648 0 -0.25237255645629941 -0.42427432090468031 0 -0.2290217530976241 -0.42079790813774648 0 -0.2157794923220113 -0.37567290952128368 0 -0.23280435282051429 -0.38084798169225198 0 -0.2259580070227897 -0.36948901007264828 0 -0.20861602257800971 -0.39099718583374832 0 -0.23280435282051429 -0.38084798169225198 0 -0.20861602257800971 -0.39099718583374832 0 -0.2157794923220113 -0.37567290952128368 0 -0.23280435282051429 -0.38084798169225198 0 -0.20861602257800971 -0.39099718583374832 0 -0.23280435282051429 -0.38084798169225198 0 -0.2306338105045283 -0.4007965052560275 0 -0.23280435282051429 -0.38084798169225198 0 -0.2306338105045283 -0.4007965052560275 0 -0.24840627583016731 -0.3914801581946013 0 -0.25137723173812071 -0.40721725773393558 0 -0.2306338105045283 -0.4007965052560275 0 -0.24840627583016731 -0.3914801581946013 0 -0.2569926830630177 -0.37069877755075231 0 -0.23280435282051429 -0.38084798169225198 0 -0.24840627583016731 -0.3914801581946013 0 -0.2569926830630177 -0.37069877755075231 0 -0.23280435282051429 -0.38084798169225198 0 -0.2569926830630177 -0.37069877755075231 0 -0.23280435282051429 -0.38084798169225198 0 -0.23728050715828419 -0.36191148647604782 0 -0.23728050715828419 -0.36191148647604782 0 -0.2259580070227897 -0.36948901007264828 0 -0.21995643929500611 -0.35928078161613419 0 -0.23280435282051429 -0.38084798169225198 0 -0.23728050715828419 -0.36191148647604782 0 -0.2259580070227897 -0.36948901007264828 0 -0.2259580070227897 -0.36948901007264828 0 -0.21995643929500611 -0.35928078161613419 0 -0.21192467067543269 -0.36563527262518619 0 -0.23728050715828419 -0.36191148647604782 0 -0.21995643929500611 -0.35928078161613419 0 -0.2196516824399711 -0.34169818638212679 0 -0.23728050715828419 -0.36191148647604782 0 -0.2477321241811366 -0.34433685841046102 0 -0.2196516824399711 -0.34169818638212679 0 -0.2569926830630177 -0.37069877755075231 0 -0.23728050715828419 -0.36191148647604782 0 -0.2477321241811366 -0.34433685841046102 0 -0.24592133829819629 -0.34261430936151172 0 -0.23634212152035081 -0.318314893654569 0 -0.24592133829819629 -0.34261430936151172 0 -0.23634212152035081 -0.318314893654569 0 -0.22988581569285699 -0.32736017331293471 0 -0.25360466359699402 -0.33812743718912103 0 -0.2477321241811366 -0.34433685841046102 0 -0.24592133829819629 -0.34261430936151172 0 -0.2477321241811366 -0.34433685841046102 0 -0.24592133829819629 -0.34261430936151172 0 -0.2196516824399711 -0.34169818638212679 0 -0.24592133829819629 -0.34261430936151172 0 -0.22988581569285699 -0.32736017331293471 0 -0.25119928445706091 -0.32649581112233161 0 -0.24592133829819629 -0.34261430936151172 0 -0.23634212152035081 -0.318314893654569 0 -0.2477321241811366 -0.34433685841046102 0 -0.24592133829819629 -0.34261430936151172 0 -0.25238894168445941 -0.31468470390647502 0 -0.23634212152035081 -0.318314893654569 0 -0.24573780153207311 -0.30515155295211571 0 -0.25238894168445941 -0.31468470390647502 0 -0.25119928445706091 -0.32649581112233161 0 -0.23634212152035081 -0.318314893654569 0 -0.23634212152035081 -0.318314893654569 0 -0.23329805378597651 -0.31059306534301812 0 -0.22988581569285699 -0.32736017331293471 0 -0.20815242298560849 -0.30668581568125081 0 -0.22988581569285699 -0.32736017331293471 0 -0.23329805378597651 -0.31059306534301812 0 -0.22168406643712191 -0.30246877360654018 0 -0.23634212152035081 -0.318314893654569 0 -0.22988581569285699 -0.32736017331293471 0 -0.23329805378597651 -0.31059306534301812 0 -0.23634212152035081 -0.318314893654569 0 -0.22988581569285699 -0.32736017331293471 0 -0.22988581569285699 -0.32736017331293471 0 -0.2196516824399711 -0.34169818638212679 0 -0.20824292805899 -0.32765521207374809 0 -0.2477321241811366 -0.34433685841046102 0 -0.2196516824399711 -0.34169818638212679 0 -0.24592133829819629 -0.34261430936151172 0 -0.22988581569285699 -0.32736017331293471 0 -0.2196516824399711 -0.34169818638212679 0 -0.22988581569285699 -0.32736017331293471 0 -0.2196516824399711 -0.34169818638212679 0 -0.2196516824399711 -0.34169818638212679 0 -0.20303332610276409 -0.34013658730088209 0 -0.2196516824399711 -0.34169818638212679 0 -0.20824292805899 -0.32765521207374809 0 -0.20303332610276409 -0.34013658730088209 0 -0.20824292805899 -0.32765521207374809 0 -0.19328754915531049 -0.31838480327691859 0 -0.20815242298560849 -0.30668581568125081 0 -0.22988581569285699 -0.32736017331293471 0 -0.20824292805899 -0.32765521207374809 0 -0.20815242298560849 -0.30668581568125081 0 -0.20824292805899 -0.32765521207374809 0 -0.19328754915531049 -0.31838480327691859 0 -0.19530265783276751 -0.33088806572266899 0 -0.19328754915531049 -0.31838480327691859 0 -0.19530265783276751 -0.33088806572266899 0 -0.18484276818684239 -0.32595606206676409 0 -0.20303332610276409 -0.34013658730088209 0 -0.18641496976555699 -0.33857498821963888 0 -0.20303332610276409 -0.34013658730088209 0 -0.19530265783276751 -0.33088806572266899 0 -0.18641496976555699 -0.33857498821963888 0 -0.20824292805899 -0.32765521207374809 0 -0.20303332610276409 -0.34013658730088209 0 -0.19530265783276751 -0.33088806572266899 0 -0.19530265783276751 -0.33088806572266899 0 -0.18641496976555699 -0.33857498821963888 0 -0.18484276818684239 -0.32595606206676409 0 -0.21103338790942369 -0.3537724106041269 0 -0.18641496976555699 -0.33857498821963888 0 -0.20303332610276409 -0.34013658730088209 0 -0.21103338790942369 -0.3537724106041269 0 -0.18641496976555699 -0.33857498821963888 0 -0.19148345556616411 -0.35412096227837597 0 -0.21103338790942369 -0.3537724106041269 0 -0.18641496976555699 -0.33857498821963888 0 -0.19148345556616411 -0.35412096227837597 0 -0.20034895886359819 -0.36874128774403803 0 -0.21103338790942369 -0.3537724106041269 0 -0.18378974597799269 -0.37678671381044732 0 -0.20034895886359819 -0.36874128774403803 0 -0.18189763232548251 -0.36212284349964668 0 -0.19148345556616411 -0.35412096227837597 0 -0.20034895886359819 -0.36874128774403803 0 -0.18189763232548251 -0.36212284349964668 0 -0.20034895886359819 -0.36874128774403803 0 -0.21192467067543269 -0.36563527262518619 0 -0.21103338790942369 -0.3537724106041269 0 -0.20034895886359819 -0.36874128774403803 0 -0.21103338790942369 -0.3537724106041269 0 -0.2157794923220113 -0.37567290952128368 0 -0.20034895886359819 -0.36874128774403803 0 -0.21192467067543269 -0.36563527262518619 0 -0.2157794923220113 -0.37567290952128368 0 -0.2259580070227897 -0.36948901007264828 0 -0.21192467067543269 -0.36563527262518619 0 -0.21995643929500611 -0.35928078161613419 0 -0.21192467067543269 -0.36563527262518619 0 -0.21103338790942369 -0.3537724106041269 0 -0.21995643929500611 -0.35928078161613419 0 -0.21103338790942369 -0.3537724106041269 0 -0.2196516824399711 -0.34169818638212679 0 -0.20303332610276409 -0.34013658730088209 0 -0.21103338790942369 -0.3537724106041269 0 -0.21995643929500611 -0.35928078161613419 0 -0.2196516824399711 -0.34169818638212679 0 -0.21103338790942369 -0.3537724106041269 0 -0.2196516824399711 -0.34169818638212679 0 -0.21103338790942369 -0.3537724106041269 0 -0.25126462904132602 -0.25750798126147112 0 -0.22521830404931231 -0.25761713841664102 0 -0.2429608819307563 -0.24588513863669609 0 -0.25126462904132602 -0.25750798126147112 0 -0.22521830404931231 -0.25761713841664102 0 -0.24631074532448111 -0.27423716680131499 0 -0.25972803611435918 -0.27985668427586557 0 -0.24631074532448111 -0.27423716680131499 0 -0.2431338091174006 -0.28688427624883261 0 -0.22521830404931231 -0.25761713841664102 0 -0.24631074532448111 -0.27423716680131499 0 -0.22897877833179861 -0.2828930624537323 0 -0.22521830404931231 -0.25761713841664102 0 -0.22897877833179861 -0.2828930624537323 0 -0.21479744052507471 -0.27336035318194662 0 -0.22897877833179861 -0.2828930624537323 0 -0.22168406643712191 -0.30246877360654018 0 -0.21207061474409039 -0.28950620154534662 0 -0.22897877833179861 -0.2828930624537323 0 -0.23468026857401439 -0.29681302004262022 0 -0.22168406643712191 -0.30246877360654018 0 -0.22897877833179861 -0.2828930624537323 0 -0.2431338091174006 -0.28688427624883261 0 -0.23468026857401439 -0.29681302004262022 0 -0.24631074532448111 -0.27423716680131499 0 -0.22897877833179861 -0.2828930624537323 0 -0.2431338091174006 -0.28688427624883261 0 -0.2431338091174006 -0.28688427624883261 0 -0.23468026857401439 -0.29681302004262022 0 -0.24573780153207311 -0.30515155295211571 0 -0.25513348154379539 -0.29198821224966232 0 -0.2431338091174006 -0.28688427624883261 0 -0.24573780153207311 -0.30515155295211571 0 -0.23468026857401439 -0.29681302004262022 0 -0.24573780153207311 -0.30515155295211571 0 -0.23329805378597651 -0.31059306534301812 0 -0.23634212152035081 -0.318314893654569 0 -0.24573780153207311 -0.30515155295211571 0 -0.23329805378597651 -0.31059306534301812 0 -0.23634212152035081 -0.318314893654569 0 -0.24573780153207311 -0.30515155295211571 0 -0.22988581569285699 -0.32736017331293471 0 -0.22168406643712191 -0.30246877360654018 0 -0.20815242298560849 -0.30668581568125081 0 -0.23468026857401439 -0.29681302004262022 0 -0.23329805378597651 -0.31059306534301812 0 -0.22168406643712191 -0.30246877360654018 0 -0.22168406643712191 -0.30246877360654018 0 -0.20815242298560849 -0.30668581568125081 0 -0.21207061474409039 -0.28950620154534662 0 -0.19328754915531049 -0.31838480327691859 0 -0.20815242298560849 -0.30668581568125081 0 -0.19108692480586939 -0.30449622969510293 0 -0.20815242298560849 -0.30668581568125081 0 -0.19108692480586939 -0.30449622969510293 0 -0.1964965429898842 -0.29403943306572639 0 -0.19108692480586939 -0.30449622969510293 0 -0.1964965429898842 -0.29403943306572639 0 -0.1852580585130989 -0.29587625637642528 0 -0.1964965429898842 -0.29403943306572639 0 -0.21207061474409039 -0.28950620154534662 0 -0.19944456008736069 -0.27744932593104799 0 -0.1964965429898842 -0.29403943306572639 0 -0.19944456008736069 -0.27744932593104799 0 -0.18719554580999259 -0.28744281508793718 0 -0.1964965429898842 -0.29403943306572639 0 -0.18719554580999259 -0.28744281508793718 0 -0.1852580585130989 -0.29587625637642528 0 -0.20815242298560849 -0.30668581568125081 0 -0.1964965429898842 -0.29403943306572639 0 -0.21207061474409039 -0.28950620154534662 0 -0.22897877833179861 -0.2828930624537323 0 -0.21207061474409039 -0.28950620154534662 0 -0.21479744052507471 -0.27336035318194662 0 -0.21207061474409039 -0.28950620154534662 0 -0.21479744052507471 -0.27336035318194662 0 -0.19944456008736069 -0.27744932593104799 0 -0.21479744052507471 -0.27336035318194662 0 -0.19944456008736069 -0.27744932593104799 0 -0.20827494541281161 -0.25933603756296519 0 -0.19944456008736069 -0.27744932593104799 0 -0.19394633784881291 -0.26225555428415182 0 -0.20827494541281161 -0.25933603756296519 0 -0.19944456008736069 -0.27744932593104799 0 -0.187305387347701 -0.27635124703344982 0 -0.18719554580999259 -0.28744281508793718 0 -0.19944456008736069 -0.27744932593104799 0 -0.19394633784881291 -0.26225555428415182 0 -0.187305387347701 -0.27635124703344982 0 -0.19394633784881291 -0.26225555428415182 0 -0.2015485111905361 -0.24623040446905001 0 -0.18864208797991069 -0.24825930461753229 0 -0.19394633784881291 -0.26225555428415182 0 -0.20827494541281161 -0.25933603756296519 0 -0.2015485111905361 -0.24623040446905001 0 -0.22521830404931231 -0.25761713841664102 0 -0.21479744052507471 -0.27336035318194662 0 -0.20827494541281161 -0.25933603756296519 0 -0.22521830404931231 -0.25761713841664102 0 -0.20827494541281161 -0.25933603756296519 0 -0.21447978296697701 -0.23967145649651861 0 -0.16288128099917931 -0.26051262012737503 0 -0.1784625350745575 -0.26590700609086593 0 -0.17000867495713401 -0.24998188647255079 0 -0.16288128099917931 -0.26051262012737503 0 -0.15007681268776141 -0.25728058536948423 0 -0.1601828239237596 -0.24886824238766611 0 -0.16288128099917931 -0.26051262012737503 0 -0.17000867495713401 -0.24998188647255079 0 -0.1601828239237596 -0.24886824238766611 0 -0.1784625350745575 -0.26590700609086593 0 -0.18864208797991069 -0.24825930461753229 0 -0.1784625350745575 -0.26590700609086593 0 -0.18062580122959371 -0.2381003427811921 0 -0.1784625350745575 -0.26590700609086593 0 -0.18062580122959371 -0.2381003427811921 0 -0.18864208797991069 -0.24825930461753229 0 -0.19394633784881291 -0.26225555428415182 0 -0.1784625350745575 -0.26590700609086593 0 -0.18864208797991069 -0.24825930461753229 0 -0.1784625350745575 -0.26590700609086593 0 -0.18062580122959371 -0.2381003427811921 0 -0.17000867495713401 -0.24998188647255079 0 -0.1784625350745575 -0.26590700609086593 0 -0.16742679296115701 -0.28503903322062091 0 -0.17687859815701271 -0.28626696062877099 0 -0.1784625350745575 -0.26590700609086593 0 -0.17687859815701271 -0.28626696062877099 0 -0.1784625350745575 -0.26590700609086593 0 -0.187305387347701 -0.27635124703344982 0 -0.17687859815701271 -0.28626696062877099 0 -0.1784625350745575 -0.26590700609086593 0 -0.16742679296115701 -0.28503903322062091 0 -0.19394633784881291 -0.26225555428415182 0 -0.1784625350745575 -0.26590700609086593 0 -0.187305387347701 -0.27635124703344982 0 -0.1784625350745575 -0.26590700609086593 0 -0.16418545851579641 -0.27254693394926738 0 -0.16742679296115701 -0.28503903322062091 0 -0.16288128099917931 -0.26051262012737503 0 -0.1784625350745575 -0.26590700609086593 0 -0.16418545851579641 -0.27254693394926738 0 -0.16288128099917931 -0.26051262012737503 0 -0.16418545851579641 -0.27254693394926738 0 -0.15397727058300639 -0.26892181097172763 0 -0.16418545851579641 -0.27254693394926738 0 -0.1537949090395517 -0.28355912726997418 0 -0.15397727058300639 -0.26892181097172763 0 -0.16418545851579641 -0.27254693394926738 0 -0.16742679296115701 -0.28503903322062091 0 -0.1537949090395517 -0.28355912726997418 0 -0.1647482726639008 -0.29615883388868453 0 -0.15048924495646451 -0.30057415910460461 0 -0.1537949090395517 -0.28355912726997418 0 -0.1647482726639008 -0.29615883388868453 0 -0.16742679296115701 -0.28503903322062091 0 -0.1537949090395517 -0.28355912726997418 0 -0.1647482726639008 -0.29615883388868453 0 -0.16742679296115701 -0.28503903322062091 0 -0.17687859815701271 -0.28626696062877099 0 -0.1647482726639008 -0.29615883388868453 0 -0.17687859815701271 -0.28626696062877099 0 -0.17529466123946799 -0.30662691516667617 0 -0.17687859815701271 -0.28626696062877099 0 -0.17529466123946799 -0.30662691516667617 0 -0.17687859815701271 -0.28626696062877099 0 -0.1852580585130989 -0.29587625637642528 0 -0.17529466123946799 -0.30662691516667617 0 -0.187305387347701 -0.27635124703344982 0 -0.17687859815701271 -0.28626696062877099 0 -0.18719554580999259 -0.28744281508793718 0 -0.17687859815701271 -0.28626696062877099 0 -0.18719554580999259 -0.28744281508793718 0 -0.1852580585130989 -0.29587625637642528 0 -0.19108692480586939 -0.30449622969510293 0 -0.1852580585130989 -0.29587625637642528 0 -0.17529466123946799 -0.30662691516667617 0 -0.19328754915531049 -0.31838480327691859 0 -0.19108692480586939 -0.30449622969510293 0 -0.17529466123946799 -0.30662691516667617 0 -0.1647482726639008 -0.29615883388868453 0 -0.15048924495646451 -0.30057415910460461 0 -0.16460542962975111 -0.31488680794146018 0 -0.1647482726639008 -0.29615883388868453 0 -0.17529466123946799 -0.30662691516667617 0 -0.16460542962975111 -0.31488680794146018 0 -0.15048924495646451 -0.30057415910460461 0 -0.16460542962975111 -0.31488680794146018 0 -0.151241888248206 -0.31686196940342543 0 -0.15048924495646451 -0.30057415910460461 0 -0.12989249775874659 -0.31018634961716363 0 -0.151241888248206 -0.31686196940342543 0 -0.15048924495646451 -0.30057415910460461 0 -0.12989249775874659 -0.31018634961716363 0 -0.1351094349408522 -0.28842798104455702 0 -0.12989249775874659 -0.31018634961716363 0 -0.1351094349408522 -0.28842798104455702 0 -0.1130388329823238 -0.28869109316936209 0 -0.15048924495646451 -0.30057415910460461 0 -0.1351094349408522 -0.28842798104455702 0 -0.1537949090395517 -0.28355912726997418 0 -0.1351094349408522 -0.28842798104455702 0 -0.1537949090395517 -0.28355912726997418 0 -0.1397278770585452 -0.26994331009893768 0 -0.1537949090395517 -0.28355912726997418 0 -0.15397727058300639 -0.26892181097172763 0 -0.1397278770585452 -0.26994331009893768 0 -0.1351094349408522 -0.28842798104455702 0 -0.1397278770585452 -0.26994331009893768 0 -0.1244650421410817 -0.2763710788142909 0 -0.1397278770585452 -0.26994331009893768 0 -0.12265410300894999 -0.26203974274332331 0 -0.1244650421410817 -0.2763710788142909 0 -0.13578099065343019 -0.25304605482211701 0 -0.12265410300894999 -0.26203974274332331 0 -0.1170603262867584 -0.2452028081966435 0 -0.1397278770585452 -0.26994331009893768 0 -0.13578099065343019 -0.25304605482211701 0 -0.12265410300894999 -0.26203974274332331 0 -0.13578099065343019 -0.25304605482211701 0 -0.15007681268776141 -0.25728058536948423 0 -0.14791063290864759 -0.24239147380908149 0 -0.1397278770585452 -0.26994331009893768 0 -0.13578099065343019 -0.25304605482211701 0 -0.15007681268776141 -0.25728058536948423 0 -0.15397727058300639 -0.26892181097172763 0 -0.1397278770585452 -0.26994331009893768 0 -0.15007681268776141 -0.25728058536948423 0 -0.16288128099917931 -0.26051262012737503 0 -0.15397727058300639 -0.26892181097172763 0 -0.15007681268776141 -0.25728058536948423 0 -0.16137093823949511 -0.34781153606925419 0 -0.17772232896675899 -0.3473932813244287 0 -0.16900600541763661 -0.34138417005539129 0 -0.16137093823949511 -0.34781153606925419 0 -0.16867477096708591 -0.36086315880972292 0 -0.17772232896675899 -0.3473932813244287 0 -0.17182699578836971 -0.37526244438941708 0 -0.16867477096708591 -0.36086315880972292 0 -0.15055595951532319 -0.37172568876586792 0 -0.16137093823949511 -0.34781153606925419 0 -0.16867477096708591 -0.36086315880972292 0 -0.15055595951532319 -0.37172568876586792 0 -0.17182699578836971 -0.37526244438941708 0 -0.16867477096708591 -0.36086315880972292 0 -0.18189763232548251 -0.36212284349964668 0 -0.17182699578836971 -0.37526244438941708 0 -0.18378974597799269 -0.37678671381044732 0 -0.18189763232548251 -0.36212284349964668 0 -0.19148345556616411 -0.35412096227837597 0 -0.18189763232548251 -0.36212284349964668 0 -0.17772232896675899 -0.3473932813244287 0 -0.16867477096708591 -0.36086315880972292 0 -0.18189763232548251 -0.36212284349964668 0 -0.17772232896675899 -0.3473932813244287 0 -0.19148345556616411 -0.35412096227837597 0 -0.17772232896675899 -0.3473932813244287 0 -0.18641496976555699 -0.33857498821963888 0 -0.17772232896675899 -0.3473932813244287 0 -0.1818563628713048 -0.33814662357313829 0 -0.18641496976555699 -0.33857498821963888 0 -0.18641496976555699 -0.33857498821963888 0 -0.1737107243219233 -0.3269868697045813 0 -0.16882842900688161 -0.32771847881153199 0 -0.18641496976555699 -0.33857498821963888 0 -0.16882842900688161 -0.32771847881153199 0 -0.1818563628713048 -0.33814662357313829 0 -0.18641496976555699 -0.33857498821963888 0 -0.16882842900688161 -0.32771847881153199 0 -0.1818563628713048 -0.33814662357313829 0 -0.18641496976555699 -0.33857498821963888 0 -0.18641496976555699 -0.33857498821963888 0 -0.18484276818684239 -0.32595606206676409 0 -0.1737107243219233 -0.3269868697045813 0 -0.1818563628713048 -0.33814662357313829 0 -0.16882842900688161 -0.32771847881153199 0 -0.1703612297009095 -0.33572937917167239 0 -0.1818563628713048 -0.33814662357313829 0 -0.17423106366954891 -0.34026014365995028 0 -0.1703612297009095 -0.33572937917167239 0 -0.17772232896675899 -0.3473932813244287 0 -0.1818563628713048 -0.33814662357313829 0 -0.17423106366954891 -0.34026014365995028 0 -0.17772232896675899 -0.3473932813244287 0 -0.17423106366954891 -0.34026014365995028 0 -0.16900600541763661 -0.34138417005539129 0 -0.17529466123946799 -0.30662691516667617 0 -0.18484276818684239 -0.32595606206676409 0 -0.1737107243219233 -0.3269868697045813 0 -0.19328754915531049 -0.31838480327691859 0 -0.17529466123946799 -0.30662691516667617 0 -0.18484276818684239 -0.32595606206676409 0 -0.17529466123946799 -0.30662691516667617 0 -0.1737107243219233 -0.3269868697045813 0 -0.16882842900688161 -0.32771847881153199 0 -0.151241888248206 -0.31686196940342543 0 -0.17529466123946799 -0.30662691516667617 0 -0.1737107243219233 -0.3269868697045813 0 -0.16460542962975111 -0.31488680794146018 0 -0.16882842900688161 -0.32771847881153199 0 -0.161927632096004 -0.33436323872800949 0 -0.151241888248206 -0.31686196940342543 0 -0.16460542962975111 -0.31488680794146018 0 -0.16882842900688161 -0.32771847881153199 0 -0.151241888248206 -0.31686196940342543 0 -0.1737107243219233 -0.3269868697045813 0 -0.16460542962975111 -0.31488680794146018 0 -0.16882842900688161 -0.32771847881153199 0 -0.16137093823949511 -0.34781153606925419 0 -0.16900600541763661 -0.34138417005539129 0 -0.161927632096004 -0.33436323872800949 0 -0.16900600541763661 -0.34138417005539129 0 -0.1703612297009095 -0.33572937917167239 0 -0.161927632096004 -0.33436323872800949 0 -0.17423106366954891 -0.34026014365995028 0 -0.16900600541763661 -0.34138417005539129 0 -0.1703612297009095 -0.33572937917167239 0 -0.16882842900688161 -0.32771847881153199 0 -0.1703612297009095 -0.33572937917167239 0 -0.161927632096004 -0.33436323872800949 0 -0.16137093823949511 -0.34781153606925419 0 -0.161927632096004 -0.33436323872800949 0 -0.15178421460683311 -0.33469653098381469 0 -0.161927632096004 -0.33436323872800949 0 -0.15178421460683311 -0.33469653098381469 0 -0.151241888248206 -0.31686196940342543 0 -0.16137093823949511 -0.34781153606925419 0 -0.15178421460683311 -0.33469653098381469 0 -0.14785619249035259 -0.34756680757251912 0 -0.15178421460683311 -0.33469653098381469 0 -0.1390615902925566 -0.33161282547473542 0 -0.14785619249035259 -0.34756680757251912 0 -0.15178421460683311 -0.33469653098381469 0 -0.151241888248206 -0.31686196940342543 0 -0.1390615902925566 -0.33161282547473542 0 -0.12989249775874659 -0.31018634961716363 0 -0.1390615902925566 -0.33161282547473542 0 -0.11879177265037109 -0.3296062949278597 0 -0.12989249775874659 -0.31018634961716363 0 -0.151241888248206 -0.31686196940342543 0 -0.1390615902925566 -0.33161282547473542 0 -0.1390615902925566 -0.33161282547473542 0 -0.1346738660828472 -0.35066599184686381 0 -0.11879177265037109 -0.3296062949278597 0 -0.1390615902925566 -0.33161282547473542 0 -0.1346738660828472 -0.35066599184686381 0 -0.14785619249035259 -0.34756680757251912 0 -0.1346738660828472 -0.35066599184686381 0 -0.11879177265037109 -0.3296062949278597 0 -0.16137093823949511 -0.34781153606925419 0 -0.14785619249035259 -0.34756680757251912 0 -0.15055595951532319 -0.37172568876586792 0 -0.1346738660828472 -0.35066599184686381 0 -0.14785619249035259 -0.34756680757251912 0 -0.15055595951532319 -0.37172568876586792 0 -0.1346738660828472 -0.35066599184686381 0 -0.15055595951532319 -0.37172568876586792 0 -0.13074009998159811 -0.37629925186394392 0 -0.1346738660828472 -0.35066599184686381 0 -0.15055595951532319 -0.37172568876586792 0 -0.13074009998159811 -0.37629925186394392 0 -0.1346738660828472 -0.35066599184686381 0 -0.1171913900207479 -0.36181443128136931 0 -0.13074009998159811 -0.37629925186394392 0 -0.1171913900207479 -0.36181443128136931 0 -0.1112859141038305 -0.3843245180620683 0 -0.1171913900207479 -0.36181443128136931 0 -0.1050333920360039 -0.36516797422295938 0 -0.1112859141038305 -0.3843245180620683 0 -0.1171913900207479 -0.36181443128136931 0 -0.1050333920360039 -0.36516797422295938 0 -0.096498138526941349 -0.3558828994901333 0 -0.1050333920360039 -0.36516797422295938 0 -0.096498138526941349 -0.3558828994901333 0 -0.093575790553250049 -0.3687972805553813 0 -0.1050333920360039 -0.36516797422295938 0 -0.093575790553250049 -0.3687972805553813 0 -0.1006469657824141 -0.37601758011609882 0 -0.1171913900207479 -0.36181443128136931 0 -0.096498138526941349 -0.3558828994901333 0 -0.1171913900207479 -0.36181443128136931 0 -0.096498138526941349 -0.3558828994901333 0 -0.10984960591791711 -0.34512613675480608 0 -0.096498138526941349 -0.3558828994901333 0 -0.10984960591791711 -0.34512613675480608 0 -0.09282724647552594 -0.34753875222685182 0 -0.10984960591791711 -0.34512613675480608 0 -0.09282724647552594 -0.34753875222685182 0 -0.1346738660828472 -0.35066599184686381 0 -0.1171913900207479 -0.36181443128136931 0 -0.10984960591791711 -0.34512613675480608 0 -0.1346738660828472 -0.35066599184686381 0 -0.10984960591791711 -0.34512613675480608 0 -0.11879177265037109 -0.3296062949278597 0 -0.12989249775874659 -0.31018634961716363 0 -0.11879177265037109 -0.3296062949278597 0 -0.10290967921789509 -0.30854659800885581 0 -0.11879177265037109 -0.3296062949278597 0 -0.10290967921789509 -0.30854659800885581 0 -0.098812008727233724 -0.32698466823345163 0 -0.10290967921789509 -0.30854659800885581 0 -0.0866540295543404 -0.31194662083421681 0 -0.11879177265037109 -0.3296062949278597 0 -0.098812008727233724 -0.32698466823345163 0 -0.10290967921789509 -0.30854659800885581 0 -0.10984960591791711 -0.34512613675480608 0 -0.098812008727233724 -0.32698466823345163 0 -0.092715289979689183 -0.33766377522114221 0 -0.10984960591791711 -0.34512613675480608 0 -0.11879177265037109 -0.3296062949278597 0 -0.098812008727233724 -0.32698466823345163 0 -0.10984960591791711 -0.34512613675480608 0 -0.092715289979689183 -0.33766377522114221 0 -0.09282724647552594 -0.34753875222685182 0 -0.092715289979689183 -0.33766377522114221 0 -0.082521912643690937 -0.34038345216160099 0 -0.09282724647552594 -0.34753875222685182 0 -0.098812008727233724 -0.32698466823345163 0 -0.092715289979689183 -0.33766377522114221 0 -0.081062048884021978 -0.32954892984397888 0 -0.092715289979689183 -0.33766377522114221 0 -0.081062048884021978 -0.32954892984397888 0 -0.082521912643690937 -0.34038345216160099 0 -0.081062048884021978 -0.32954892984397888 0 -0.073504023288890968 -0.31754395684523062 0 -0.0866540295543404 -0.31194662083421681 0 -0.098812008727233724 -0.32698466823345163 0 -0.081062048884021978 -0.32954892984397888 0 -0.0866540295543404 -0.31194662083421681 0 -0.081062048884021978 -0.32954892984397888 0 -0.073504023288890968 -0.31754395684523062 0 -0.065794050835562945 -0.32911891455119052 0 -0.073504023288890968 -0.31754395684523062 0 -0.065794050835562945 -0.32911891455119052 0 -0.058646632370782478 -0.3147941633466253 0 -0.082521912643690937 -0.34038345216160099 0 -0.070012102175647711 -0.33978622309531642 0 -0.075804887033134816 -0.34995136769889729 0 -0.081062048884021978 -0.32954892984397888 0 -0.082521912643690937 -0.34038345216160099 0 -0.070012102175647711 -0.33978622309531642 0 -0.081062048884021978 -0.32954892984397888 0 -0.065794050835562945 -0.32911891455119052 0 -0.070012102175647711 -0.33978622309531642 0 -0.065794050835562945 -0.32911891455119052 0 -0.070012102175647711 -0.33978622309531642 0 -0.061880077297741913 -0.33725297854422231 0 -0.070012102175647711 -0.33978622309531642 0 -0.059026301442372607 -0.34514193918190628 0 -0.061880077297741913 -0.33725297854422231 0 -0.070012102175647711 -0.33978622309531642 0 -0.075804887033134816 -0.34995136769889729 0 -0.059026301442372607 -0.34514193918190628 0 -0.075804887033134816 -0.34995136769889729 0 -0.059026301442372607 -0.34514193918190628 0 -0.075804887033134816 -0.34995136769889729 0 -0.057566005940062413 -0.35253640339073949 0 -0.059026301442372607 -0.34514193918190628 0 -0.075804887033134816 -0.34995136769889729 0 -0.064783492341720886 -0.35618142365999611 0 -0.057566005940062413 -0.35253640339073949 0 -0.075804887033134816 -0.34995136769889729 0 -0.057566005940062413 -0.35253640339073949 0 -0.075804887033134816 -0.34995136769889729 0 -0.067412540809923066 -0.36118611236100551 0 -0.076652172047604217 -0.36077588782869968 0 -0.075804887033134816 -0.34995136769889729 0 -0.064783492341720886 -0.35618142365999611 0 -0.067412540809923066 -0.36118611236100551 0 -0.064783492341720886 -0.35618142365999611 0 -0.067412540809923066 -0.36118611236100551 0 -0.058350535583763283 -0.36105181118934188 0 -0.070252941653407508 -0.37106492316359829 0 -0.060546005157337629 -0.3693166505761567 0 -0.065968411336116209 -0.37972676640708952 0 -0.067412540809923066 -0.36118611236100551 0 -0.070252941653407508 -0.37106492316359829 0 -0.060546005157337629 -0.3693166505761567 0 -0.060546005157337629 -0.3693166505761567 0 -0.065968411336116209 -0.37972676640708952 0 -0.070252941653407508 -0.37106492316359829 0 -0.076652172047604217 -0.36077588782869968 0 -0.079520294780843798 -0.37133489381590068 0 -0.067412540809923066 -0.36118611236100551 0 -0.070252941653407508 -0.37106492316359829 0 -0.076652172047604217 -0.36077588782869968 0 -0.079520294780843798 -0.37133489381590068 0 -0.086673400741839782 -0.35703324601440861 0 -0.076652172047604217 -0.36077588782869968 0 -0.079520294780843798 -0.37133489381590068 0 -0.086673400741839782 -0.35703324601440861 0 -0.096498138526941349 -0.3558828994901333 0 -0.093575790553250049 -0.3687972805553813 0 -0.086673400741839782 -0.35703324601440861 0 -0.079520294780843798 -0.37133489381590068 0 -0.093575790553250049 -0.3687972805553813 0 -0.086673400741839782 -0.35703324601440861 0 -0.075804887033134816 -0.34995136769889729 0 -0.09282724647552594 -0.34753875222685182 0 -0.096498138526941349 -0.3558828994901333 0 -0.075804887033134816 -0.34995136769889729 0 -0.086673400741839782 -0.35703324601440861 0 -0.096498138526941349 -0.3558828994901333 0 -0.075804887033134816 -0.34995136769889729 0 -0.09282724647552594 -0.34753875222685182 0 -0.096498138526941349 -0.3558828994901333 0 -0.075804887033134816 -0.34995136769889729 0 -0.082521912643690937 -0.34038345216160099 0 -0.075804887033134816 -0.34995136769889729 0 -0.09282724647552594 -0.34753875222685182 0 -0.075804887033134816 -0.34995136769889729 0 -0.076652172047604217 -0.36077588782869968 0 -0.086673400741839782 -0.35703324601440861 0 -0.1069873194961502 -0.25638851522313499 0 -0.092105886974330684 -0.26490137118823409 0 -0.097556265399133882 -0.24460458119568679 0 -0.1069873194961502 -0.25638851522313499 0 -0.11201116212073201 -0.26982011159435759 0 -0.092105886974330684 -0.26490137118823409 0 -0.1069873194961502 -0.25638851522313499 0 -0.12265410300894999 -0.26203974274332331 0 -0.11201116212073201 -0.26982011159435759 0 -0.1069873194961502 -0.25638851522313499 0 -0.12265410300894999 -0.26203974274332331 0 -0.1170603262867584 -0.2452028081966435 0 -0.11201116212073201 -0.26982011159435759 0 -0.1244650421410817 -0.2763710788142909 0 -0.1130388329823238 -0.28869109316936209 0 -0.12265410300894999 -0.26203974274332331 0 -0.11201116212073201 -0.26982011159435759 0 -0.1244650421410817 -0.2763710788142909 0 -0.11201116212073201 -0.26982011159435759 0 -0.10104586696570141 -0.27772486926045131 0 -0.1130388329823238 -0.28869109316936209 0 -0.11201116212073201 -0.26982011159435759 0 -0.10104586696570141 -0.27772486926045131 0 -0.092105886974330684 -0.26490137118823409 0 -0.1130388329823238 -0.28869109316936209 0 -0.10290967921789509 -0.30854659800885581 0 -0.087027585785419054 -0.2874869010898517 0 -0.10104586696570141 -0.27772486926045131 0 -0.1130388329823238 -0.28869109316936209 0 -0.087027585785419054 -0.2874869010898517 0 -0.1351094349408522 -0.28842798104455702 0 -0.1244650421410817 -0.2763710788142909 0 -0.1130388329823238 -0.28869109316936209 0 -0.12989249775874659 -0.31018634961716363 0 -0.1130388329823238 -0.28869109316936209 0 -0.10290967921789509 -0.30854659800885581 0 -0.10290967921789509 -0.30854659800885581 0 -0.087027585785419054 -0.2874869010898517 0 -0.0866540295543404 -0.31194662083421681 0 -0.07447372864057944 -0.30284150184029079 0 -0.087027585785419054 -0.2874869010898517 0 -0.10290967921789509 -0.30854659800885581 0 -0.0866540295543404 -0.31194662083421681 0 -0.087027585785419054 -0.2874869010898517 0 -0.073504023288890968 -0.31754395684523062 0 -0.0866540295543404 -0.31194662083421681 0 -0.07447372864057944 -0.30284150184029079 0 -0.07447372864057944 -0.30284150184029079 0 -0.058634253011519047 -0.29853086829248471 0 -0.058646632370782478 -0.3147941633466253 0 -0.07447372864057944 -0.30284150184029079 0 -0.067435395511893606 -0.29320463318234719 0 -0.058634253011519047 -0.29853086829248471 0 -0.073504023288890968 -0.31754395684523062 0 -0.07447372864057944 -0.30284150184029079 0 -0.058646632370782478 -0.3147941633466253 0 -0.07447372864057944 -0.30284150184029079 0 -0.067435395511893606 -0.29320463318234719 0 -0.087027585785419054 -0.2874869010898517 0 -0.067435395511893606 -0.29320463318234719 0 -0.087027585785419054 -0.2874869010898517 0 -0.066621329911666208 -0.28043600199532531 0 -0.067435395511893606 -0.29320463318234719 0 -0.066621329911666208 -0.28043600199532531 0 -0.058379528204945748 -0.28576016427732343 0 -0.087027585785419054 -0.2874869010898517 0 -0.071145492352942999 -0.26642720417084759 0 -0.10104586696570141 -0.27772486926045131 0 -0.087027585785419054 -0.2874869010898517 0 -0.092105886974330684 -0.26490137118823409 0 -0.087027585785419054 -0.2874869010898517 0 -0.071145492352942999 -0.26642720417084759 0 -0.092105886974330684 -0.26490137118823409 0 -0.087027585785419054 -0.2874869010898517 0 -0.066621329911666208 -0.28043600199532531 0 -0.071145492352942999 -0.26642720417084759 0 -0.066621329911666208 -0.28043600199532531 0 -0.063613536930875778 -0.26977353045602109 0 -0.059602503856465629 -0.27699725555479893 0 -0.066621329911666208 -0.28043600199532531 0 -0.063613536930875778 -0.26977353045602109 0 -0.071145492352942999 -0.26642720417084759 0 -0.071145492352942999 -0.26642720417084759 0 -0.081499448744838318 -0.25077911335896341 0 -0.069923026280264061 -0.24601117780127829 0 -0.063613536930875778 -0.26977353045602109 0 -0.071145492352942999 -0.26642720417084759 0 -0.055263398920468838 -0.24536750725184209 0 -0.071145492352942999 -0.26642720417084759 0 -0.055263398920468838 -0.24536750725184209 0 -0.071145492352942999 -0.26642720417084759 0 -0.055263398920468838 -0.24536750725184209 0 -0.069923026280264061 -0.24601117780127829 0 -0.081499448744838318 -0.25077911335896341 0 -0.092105886974330684 -0.26490137118823409 0 -0.097556265399133882 -0.24460458119568679 0 -0.071145492352942999 -0.26642720417084759 0 -0.081499448744838318 -0.25077911335896341 0 -0.092105886974330684 -0.26490137118823409 0 -0.035493117770640292 -0.25591521449234778 0 -0.041788141488661737 -0.2617134347786178 0 -0.025887160142282241 -0.25582811065352978 0 -0.041788141488661737 -0.2617134347786178 0 -0.045263346190231313 -0.27172608639049312 0 -0.025887160142282241 -0.25582811065352978 0 -0.045263346190231313 -0.27172608639049312 0 -0.025887160142282241 -0.25582811065352978 0 -0.035493117770640292 -0.25591521449234778 0 -0.025887160142282241 -0.25582811065352978 0 -0.033591187719020039 -0.2474304388597604 0 -0.035493117770640292 -0.25591521449234778 0 -0.042202558685923097 -0.25014625336360552 0 -0.033591187719020039 -0.2474304388597604 0 -0.035493117770640292 -0.25591521449234778 0 -0.041788141488661737 -0.2617134347786178 0 -0.041961226439641848 -0.25600179563573972 0 -0.041788141488661737 -0.2617134347786178 0 -0.047558319686635563 -0.26403187115133497 0 -0.04504550449396684 -0.26615442246980509 0 -0.041788141488661737 -0.2617134347786178 0 -0.048361087813342293 -0.25623227990838793 0 -0.047558319686635563 -0.26403187115133497 0 -0.041788141488661737 -0.2617134347786178 0 -0.041961226439641848 -0.25600179563573972 0 -0.048361087813342293 -0.25623227990838793 0 -0.041961226439641848 -0.25600179563573972 0 -0.042202558685923097 -0.25014625336360552 0 -0.048361087813342293 -0.25623227990838793 0 -0.035493117770640292 -0.25591521449234778 0 -0.041961226439641848 -0.25600179563573972 0 -0.042202558685923097 -0.25014625336360552 0 -0.048361087813342293 -0.25623227990838793 0 -0.055443163640018417 -0.27085669820613778 0 -0.055263398920468838 -0.24536750725184209 0 -0.063613536930875778 -0.26977353045602109 0 -0.055443163640018417 -0.27085669820613778 0 -0.055263398920468838 -0.24536750725184209 0 -0.042202558685923097 -0.25014625336360552 0 -0.048361087813342293 -0.25623227990838793 0 -0.055263398920468838 -0.24536750725184209 0 -0.055443163640018417 -0.27085669820613778 0 -0.055263398920468838 -0.24536750725184209 0 -0.048361087813342293 -0.25623227990838793 0 -0.047558319686635563 -0.26403187115133497 0 -0.055443163640018417 -0.27085669820613778 0 -0.055443163640018417 -0.27085669820613778 0 -0.052210994863402499 -0.27742656582239589 0 -0.045263346190231313 -0.27172608639049312 0 -0.052210994863402499 -0.27742656582239589 0 -0.045263346190231313 -0.27172608639049312 0 -0.048061003996444897 -0.28802706428301439 0 -0.047558319686635563 -0.26403187115133497 0 -0.055443163640018417 -0.27085669820613778 0 -0.046360946608887357 -0.26894780658486372 0 -0.055443163640018417 -0.27085669820613778 0 -0.045263346190231313 -0.27172608639049312 0 -0.046360946608887357 -0.26894780658486372 0 -0.063613536930875778 -0.26977353045602109 0 -0.055443163640018417 -0.27085669820613778 0 -0.059602503856465629 -0.27699725555479893 0 -0.059602503856465629 -0.27699725555479893 0 -0.052210994863402499 -0.27742656582239589 0 -0.058379528204945748 -0.28576016427732343 0 -0.066621329911666208 -0.28043600199532531 0 -0.059602503856465629 -0.27699725555479893 0 -0.058379528204945748 -0.28576016427732343 0 -0.055443163640018417 -0.27085669820613778 0 -0.059602503856465629 -0.27699725555479893 0 -0.052210994863402499 -0.27742656582239589 0 -0.052210994863402499 -0.27742656582239589 0 -0.045263346190231313 -0.27172608639049312 0 -0.045263346190231313 -0.27172608639049312 0 -0.036780035830766909 -0.29319930146584139 0 -0.031045703473770041 -0.27753558046335952 0 -0.045263346190231313 -0.27172608639049312 0 -0.031045703473770041 -0.27753558046335952 0 -0.025887160142282241 -0.25582811065352978 0 -0.041788141488661737 -0.2617134347786178 0 -0.045263346190231313 -0.27172608639049312 0 -0.04504550449396684 -0.26615442246980509 0 -0.045263346190231313 -0.27172608639049312 0 -0.046360946608887357 -0.26894780658486372 0 -0.045263346190231313 -0.27172608639049312 0 -0.04504550449396684 -0.26615442246980509 0 -0.046360946608887357 -0.26894780658486372 0 -0.047558319686635563 -0.26403187115133497 0 -0.04504550449396684 -0.26615442246980509 0 -0.046360946608887357 -0.26894780658486372 0 -0.036780035830766909 -0.29319930146584139 0 -0.048061003996444897 -0.28802706428301439 0 -0.045446516533040368 -0.30522833979499953 0 -0.045263346190231313 -0.27172608639049312 0 -0.036780035830766909 -0.29319930146584139 0 -0.045263346190231313 -0.27172608639049312 0 -0.036780035830766909 -0.29319930146584139 0 -0.048061003996444897 -0.28802706428301439 0 -0.052210994863402499 -0.27742656582239589 0 -0.048061003996444897 -0.28802706428301439 0 -0.058379528204945748 -0.28576016427732343 0 -0.048061003996444897 -0.28802706428301439 0 -0.058379528204945748 -0.28576016427732343 0 -0.058634253011519047 -0.29853086829248471 0 -0.067435395511893606 -0.29320463318234719 0 -0.058379528204945748 -0.28576016427732343 0 -0.058634253011519047 -0.29853086829248471 0 -0.048061003996444897 -0.28802706428301439 0 -0.058634253011519047 -0.29853086829248471 0 -0.045446516533040368 -0.30522833979499953 0 -0.058634253011519047 -0.29853086829248471 0 -0.045446516533040368 -0.30522833979499953 0 -0.058646632370782478 -0.3147941633466253 0 -0.036780035830766909 -0.29319930146584139 0 -0.045446516533040368 -0.30522833979499953 0 -0.028296725471302259 -0.31467251654118961 0 -0.036780035830766909 -0.29319930146584139 0 -0.028296725471302259 -0.31467251654118961 0 -0.036780035830766909 -0.29319930146584139 0 -0.014940556033039121 -0.30323992818399392 0 -0.028296725471302259 -0.31467251654118961 0 -0.014940556033039121 -0.30323992818399392 0 -0.028296725471302259 -0.31467251654118961 0 -0.0083530175945665114 -0.31450370116322368 0 -0.0083530175945665114 -0.31450370116322368 0 9.8945833641651826e-05 -0.2985428542879055 0 -0.00096333077458985751 -0.30819859734120619 0 -0.0083530175945665114 -0.31450370116322368 0 9.8945833641651826e-05 -0.2985428542879055 0 -0.014940556033039121 -0.30323992818399392 0 -0.0083530175945665114 -0.31450370116322368 0 9.8945833641651826e-05 -0.2985428542879055 0 -0.014940556033039121 -0.30323992818399392 0 -0.023642572324058971 -0.28913737104426079 0 9.8945833641651826e-05 -0.2985428542879055 0 -0.014940556033039121 -0.30323992818399392 0 -0.0083530175945665114 -0.31450370116322368 0 -0.0043142377673258247 -0.27435694740148331 0 0.0030262705068856942 -0.29301483925791921 0 -0.0097548180725032518 -0.28727033663782708 0 -0.023642572324058971 -0.28913737104426079 0 9.8945833641651826e-05 -0.2985428542879055 0 -0.023642572324058971 -0.28913737104426079 0 9.8945833641651826e-05 -0.2985428542879055 0 -0.0097548180725032518 -0.28727033663782708 0 -0.0043142377673258247 -0.27435694740148331 0 0.0030262705068856942 -0.29301483925791921 0 -0.0097548180725032518 -0.28727033663782708 0 9.8945833641651826e-05 -0.2985428542879055 0 0.0030262705068856942 -0.29301483925791921 0 -0.036780035830766909 -0.29319930146584139 0 -0.023642572324058971 -0.28913737104426079 0 -0.031045703473770041 -0.27753558046335952 0 -0.036780035830766909 -0.29319930146584139 0 -0.014940556033039121 -0.30323992818399392 0 -0.023642572324058971 -0.28913737104426079 0 -0.0097548180725032518 -0.28727033663782708 0 -0.023642572324058971 -0.28913737104426079 0 -0.018173375271112568 -0.27364937201951439 0 -0.031045703473770041 -0.27753558046335952 0 -0.018173375271112568 -0.27364937201951439 0 -0.025887160142282241 -0.25582811065352978 0 -0.023642572324058971 -0.28913737104426079 0 -0.031045703473770041 -0.27753558046335952 0 -0.018173375271112568 -0.27364937201951439 0 -0.018173375271112568 -0.27364937201951439 0 -0.0043142377673258247 -0.27435694740148331 0 -0.011654746041535741 -0.25569905554504679 0 -0.0097548180725032518 -0.28727033663782708 0 -0.018173375271112568 -0.27364937201951439 0 -0.0043142377673258247 -0.27435694740148331 0 -0.0043142377673258247 -0.27435694740148331 0 -0.011654746041535741 -0.25569905554504679 0 -0.0043142377673258247 -0.27435694740148331 0 -0.0075271723521584009 -0.25566162798943282 0 -0.011654746041535741 -0.25569905554504679 0 -0.0075271723521584009 -0.25566162798943282 0 -0.0070828108830038976 -0.2488615216259579 0 0.0077128033696945118 -0.25552343662526023 0 -0.0075271723521584009 -0.25566162798943282 0 -0.013049978758831109 -0.25215269333395263 0 -0.0070828108830038976 -0.2488615216259579 0 -0.0075271723521584009 -0.25566162798943282 0 -0.011654746041535741 -0.25569905554504679 0 -0.013049978758831109 -0.25215269333395263 0 -0.0075271723521584009 -0.25566162798943282 0 -0.013049978758831109 -0.25215269333395263 0 -0.0075271723521584009 -0.25566162798943282 0 -0.011654746041535741 -0.25569905554504679 0 -0.011654746041535741 -0.25569905554504679 0 -0.013049978758831109 -0.25215269333395263 0 -0.013049978758831109 -0.25215269333395263 0 -0.017760213828408821 -0.24916002876198101 0 -0.011654746041535741 -0.25569905554504679 0 -0.025887160142282241 -0.25582811065352978 0 -0.011654746041535741 -0.25569905554504679 0 -0.013049978758831109 -0.25215269333395263 0 -0.025887160142282241 -0.25582811065352978 0 -0.025887160142282241 -0.25582811065352978 0 -0.017760213828408821 -0.24916002876198101 0 -0.013049978758831109 -0.25215269333395263 0 -0.025887160142282241 -0.25582811065352978 0 -0.017760213828408821 -0.24916002876198101 0 -0.018173375271112568 -0.27364937201951439 0 -0.011654746041535741 -0.25569905554504679 0 -0.025887160142282241 -0.25582811065352978 0 -0.025887160142282241 -0.25582811065352978 0 -0.017760213828408821 -0.24916002876198101 0 -0.033591187719020039 -0.2474304388597604 0 -0.035493117770640292 -0.25591521449234778 0 -0.025887160142282241 -0.25582811065352978 0 -0.039327124846988727 -0.35512143908257299 0 -0.042247715851610447 -0.34033251066491538 0 -0.020801411954712381 -0.33801148345708681 0 -0.039327124846988727 -0.35512143908257299 0 -0.04777737197911687 -0.34910738522371593 0 -0.042247715851610447 -0.34033251066491538 0 -0.039327124846988727 -0.35512143908257299 0 -0.030522681400290741 -0.3563693117146991 0 -0.039237603146700217 -0.37282673402921612 0 -0.030522681400290741 -0.3563693117146991 0 -0.039327124846988727 -0.35512143908257299 0 -0.039237603146700217 -0.37282673402921612 0 -0.030522681400290741 -0.3563693117146991 0 -0.039327124846988727 -0.35512143908257299 0 -0.039237603146700217 -0.37282673402921612 0 -0.052647768091554012 -0.36742410274482962 0 -0.039327124846988727 -0.35512143908257299 0 -0.052647768091554012 -0.36742410274482962 0 -0.039327124846988727 -0.35512143908257299 0 -0.052647768091554012 -0.36742410274482962 0 -0.058350535583763283 -0.36105181118934188 0 -0.039237603146700217 -0.37282673402921612 0 -0.052647768091554012 -0.36742410274482962 0 -0.05447584312803791 -0.3794175506971289 0 -0.052647768091554012 -0.36742410274482962 0 -0.060546005157337629 -0.3693166505761567 0 -0.065968411336116209 -0.37972676640708952 0 -0.052647768091554012 -0.36742410274482962 0 -0.065968411336116209 -0.37972676640708952 0 -0.067412540809923066 -0.36118611236100551 0 -0.060546005157337629 -0.3693166505761567 0 -0.058350535583763283 -0.36105181118934188 0 -0.052647768091554012 -0.36742410274482962 0 -0.060546005157337629 -0.3693166505761567 0 -0.058350535583763283 -0.36105181118934188 0 -0.039327124846988727 -0.35512143908257299 0 -0.057566005940062413 -0.35253640339073949 0 -0.039327124846988727 -0.35512143908257299 0 -0.057566005940062413 -0.35253640339073949 0 -0.04777737197911687 -0.34910738522371593 0 -0.064783492341720886 -0.35618142365999611 0 -0.058350535583763283 -0.36105181118934188 0 -0.057566005940062413 -0.35253640339073949 0 -0.04777737197911687 -0.34910738522371593 0 -0.059026301442372607 -0.34514193918190628 0 -0.042247715851610447 -0.34033251066491538 0 -0.039327124846988727 -0.35512143908257299 0 -0.058350535583763283 -0.36105181118934188 0 -0.057566005940062413 -0.35253640339073949 0 -0.057566005940062413 -0.35253640339073949 0 -0.04777737197911687 -0.34910738522371593 0 -0.059026301442372607 -0.34514193918190628 0 -0.059026301442372607 -0.34514193918190628 0 -0.042247715851610447 -0.34033251066491538 0 -0.059026301442372607 -0.34514193918190628 0 -0.061880077297741913 -0.33725297854422231 0 -0.053163265238240019 -0.33392390910205189 0 -0.059026301442372607 -0.34514193918190628 0 -0.053163265238240019 -0.33392390910205189 0 -0.042247715851610447 -0.34033251066491538 0 -0.065794050835562945 -0.32911891455119052 0 -0.061880077297741913 -0.33725297854422231 0 -0.053163265238240019 -0.33392390910205189 0 -0.053163265238240019 -0.33392390910205189 0 -0.058646632370782478 -0.3147941633466253 0 -0.043709867033960847 -0.32279003809526058 0 -0.065794050835562945 -0.32911891455119052 0 -0.053163265238240019 -0.33392390910205189 0 -0.058646632370782478 -0.3147941633466253 0 -0.045446516533040368 -0.30522833979499953 0 -0.058646632370782478 -0.3147941633466253 0 -0.043709867033960847 -0.32279003809526058 0 -0.045446516533040368 -0.30522833979499953 0 -0.043709867033960847 -0.32279003809526058 0 -0.028296725471302259 -0.31467251654118961 0 -0.043709867033960847 -0.32279003809526058 0 -0.031146097677871951 -0.3300545137041252 0 -0.028296725471302259 -0.31467251654118961 0 -0.043709867033960847 -0.32279003809526058 0 -0.042247715851610447 -0.34033251066491538 0 -0.031146097677871951 -0.3300545137041252 0 -0.053163265238240019 -0.33392390910205189 0 -0.043709867033960847 -0.32279003809526058 0 -0.042247715851610447 -0.34033251066491538 0 -0.042247715851610447 -0.34033251066491538 0 -0.031146097677871951 -0.3300545137041252 0 -0.020801411954712381 -0.33801148345708681 0 -0.031146097677871951 -0.3300545137041252 0 -0.01981341511183753 -0.33614573161653771 0 -0.020801411954712381 -0.33801148345708681 0 -0.020801411954712381 -0.33801148345708681 0 -0.01036260090313864 -0.33804311633869721 0 -0.01644283773625076 -0.34467744033014508 0 -0.020801411954712381 -0.33801148345708681 0 -0.01644283773625076 -0.34467744033014508 0 -0.01981341511183753 -0.33614573161653771 0 -0.020801411954712381 -0.33801148345708681 0 -0.031146097677871951 -0.3300545137041252 0 -0.01981341511183753 -0.33614573161653771 0 -0.028296725471302259 -0.31467251654118961 0 -0.01981341511183753 -0.33614573161653771 0 -0.028296725471302259 -0.31467251654118961 0 -0.0083530175945665114 -0.31450370116322368 0 -0.01981341511183753 -0.33614573161653771 0 -0.028296725471302259 -0.31467251654118961 0 -0.01981341511183753 -0.33614573161653771 0 -0.0083530175945665114 -0.31450370116322368 0 -0.01981341511183753 -0.33614573161653771 0 -0.0083530175945665114 -0.31450370116322368 0 -0.0037921726256449932 -0.32230211066070802 0 -0.00096333077458985751 -0.30819859734120619 0 -0.0083530175945665114 -0.31450370116322368 0 -0.0037921726256449932 -0.32230211066070802 0 -0.0083530175945665114 -0.31450370116322368 0 -0.0037921726256449932 -0.32230211066070802 0 -0.0037921726256449932 -0.32230211066070802 0 -0.01036260090313864 -0.33804311633869721 0 -0.0033729151298831491 -0.33767001452506001 0 -0.020801411954712381 -0.33801148345708681 0 -0.0037921726256449932 -0.32230211066070802 0 -0.01036260090313864 -0.33804311633869721 0 -0.01981341511183753 -0.33614573161653771 0 -0.020801411954712381 -0.33801148345708681 0 -0.0037921726256449932 -0.32230211066070802 0 -0.020801411954712381 -0.33801148345708681 0 -0.0037921726256449932 -0.32230211066070802 0 -0.01036260090313864 -0.33804311633869721 0 -0.0043603798281900471 -0.34761163765168862 0 -0.01644283773625076 -0.34467744033014508 0 -0.0033729151298831491 -0.33767001452506001 0 -0.0043603798281900471 -0.34761163765168862 0 0.0075369586313391926 -0.34167334677909461 0 -0.01036260090313864 -0.33804311633869721 0 -0.0033729151298831491 -0.33767001452506001 0 -0.0043603798281900471 -0.34761163765168862 0 -0.0043603798281900471 -0.34761163765168862 0 -0.0032628494867885452 -0.36023290609258107 0 0.0053729765802733934 -0.35539994747471337 0 -0.0043603798281900471 -0.34761163765168862 0 -0.01644283773625076 -0.34467744033014508 0 -0.0032628494867885452 -0.36023290609258107 0 -0.030522681400290741 -0.3563693117146991 0 -0.0032628494867885452 -0.36023290609258107 0 -0.01644283773625076 -0.34467744033014508 0 -0.030522681400290741 -0.3563693117146991 0 -0.0032628494867885452 -0.36023290609258107 0 -0.020801411954712381 -0.33801148345708681 0 -0.01644283773625076 -0.34467744033014508 0 -0.030522681400290741 -0.3563693117146991 0 -0.039327124846988727 -0.35512143908257299 0 -0.020801411954712381 -0.33801148345708681 0 -0.039327124846988727 -0.35512143908257299 0 -0.020801411954712381 -0.33801148345708681 0 -0.030522681400290741 -0.3563693117146991 0 -0.020801411954712381 -0.33801148345708681 0 -0.030522681400290741 -0.3563693117146991 0 -0.039237603146700217 -0.37282673402921612 0 -0.030522681400290741 -0.3563693117146991 0 -0.020277730524640651 -0.37270784348629371 0 -0.030522681400290741 -0.3563693117146991 0 -0.020277730524640651 -0.37270784348629371 0 -0.0032628494867885452 -0.36023290609258107 0 -0.0032628494867885452 -0.36023290609258107 0 -0.0052878882608816107 -0.38008216763677521 0 0.0059199053988846966 -0.36942765770902131 0 -0.020277730524640651 -0.37270784348629371 0 -0.0032628494867885452 -0.36023290609258107 0 -0.0052878882608816107 -0.38008216763677521 0 -0.020277730524640651 -0.37270784348629371 0 -0.0052878882608816107 -0.38008216763677521 0 -0.020160273816513419 -0.39146056777680788 0 -0.0052878882608816107 -0.38008216763677521 0 -0.020160273816513419 -0.39146056777680788 0 0.0076319772600810026 -0.39363697920987739 0 -0.003534180678366312 -0.39389325875029818 0 -0.020160273816513419 -0.39146056777680788 0 0.0076319772600810026 -0.39363697920987739 0 -0.003534180678366312 -0.39389325875029818 0 -0.02796826597074677 -0.40589025512163829 0 -0.0059583941098304014 -0.40717791751196042 0 -0.020160273816513419 -0.39146056777680788 0 0.0076319772600810026 -0.39363697920987739 0 -0.003534180678366312 -0.39389325875029818 0 -0.0059583941098304014 -0.40717791751196042 0 0.0076319772600810026 -0.39363697920987739 0 -0.003534180678366312 -0.39389325875029818 0 -0.02796826597074677 -0.40589025512163829 0 -0.003534180678366312 -0.39389325875029818 0 -0.020160273816513419 -0.39146056777680788 0 -0.02796826597074677 -0.40589025512163829 0 -0.039237603146700217 -0.37282673402921612 0 -0.020277730524640651 -0.37270784348629371 0 -0.020160273816513419 -0.39146056777680788 0 -0.039237603146700217 -0.37282673402921612 0 -0.020160273816513419 -0.39146056777680788 0 -0.047952524893107702 -0.38928415634373409 0 -0.039237603146700217 -0.37282673402921612 0 -0.047952524893107702 -0.38928415634373409 0 -0.020160273816513419 -0.39146056777680788 0 -0.047952524893107702 -0.38928415634373409 0 -0.020160273816513419 -0.39146056777680788 0 -0.02796826597074677 -0.40589025512163829 0 -0.047952524893107702 -0.38928415634373409 0 -0.02796826597074677 -0.40589025512163829 0 -0.046440782916068478 -0.40506553154263719 0 -0.047952524893107702 -0.38928415634373409 0 -0.047952524893107702 -0.38928415634373409 0 -0.057439989537286802 -0.40720046321219899 0 -0.066572908172710138 -0.38782599396077022 0 -0.057439989537286802 -0.40720046321219899 0 -0.066572908172710138 -0.38782599396077022 0 -0.047952524893107702 -0.38928415634373409 0 -0.057439989537286802 -0.40720046321219899 0 -0.046440782916068478 -0.40506553154263719 0 -0.047952524893107702 -0.38928415634373409 0 -0.057439989537286802 -0.40720046321219899 0 -0.047952524893107702 -0.38928415634373409 0 -0.066572908172710138 -0.38782599396077022 0 -0.047952524893107702 -0.38928415634373409 0 -0.05447584312803791 -0.3794175506971289 0 -0.066572908172710138 -0.38782599396077022 0 -0.039237603146700217 -0.37282673402921612 0 -0.047952524893107702 -0.38928415634373409 0 -0.05447584312803791 -0.3794175506971289 0 -0.052647768091554012 -0.36742410274482962 0 -0.05447584312803791 -0.3794175506971289 0 -0.065968411336116209 -0.37972676640708952 0 -0.05447584312803791 -0.3794175506971289 0 -0.066572908172710138 -0.38782599396077022 0 -0.065968411336116209 -0.37972676640708952 0 -0.048594109976697261 -0.43316753062073521 0 -0.052402351263127228 -0.41788725149297851 0 -0.039946879984807171 -0.44431014596154678 0 -0.048594109976697261 -0.43316753062073521 0 -0.055480716661975502 -0.41939871132778378 0 -0.052402351263127228 -0.41788725149297851 0 -0.048594109976697261 -0.43316753062073521 0 -0.055480716661975502 -0.41939871132778378 0 -0.048594109976697261 -0.43316753062073521 0 -0.05863610647397028 -0.42774823429206699 0 -0.055480716661975502 -0.41939871132778378 0 -0.048594109976697261 -0.43316753062073521 0 -0.05863610647397028 -0.42774823429206699 0 -0.06304072673238105 -0.43524203036524978 0 -0.055480716661975502 -0.41939871132778378 0 -0.066857485475704165 -0.42498463985928919 0 -0.05863610647397028 -0.42774823429206699 0 -0.055480716661975502 -0.41939871132778378 0 -0.066857485475704165 -0.42498463985928919 0 -0.055480716661975502 -0.41939871132778378 0 -0.059569984255956672 -0.41122278534346363 0 -0.066857485475704165 -0.42498463985928919 0 -0.055480716661975502 -0.41939871132778378 0 -0.059569984255956672 -0.41122278534346363 0 -0.052402351263127228 -0.41788725149297851 0 -0.055480716661975502 -0.41939871132778378 0 -0.059569984255956672 -0.41122278534346363 0 -0.057439989537286802 -0.40720046321219899 0 -0.052402351263127228 -0.41788725149297851 0 -0.059569984255956672 -0.41122278534346363 0 -0.057439989537286802 -0.40720046321219899 0 -0.052402351263127228 -0.41788725149297851 0 -0.059569984255956672 -0.41122278534346363 0 -0.057439989537286802 -0.40720046321219899 0 -0.046440782916068478 -0.40506553154263719 0 -0.057439989537286802 -0.40720046321219899 0 -0.052402351263127228 -0.41788725149297851 0 -0.055480716661975502 -0.41939871132778378 0 -0.052402351263127228 -0.41788725149297851 0 -0.02796826597074677 -0.40589025512163829 0 -0.052402351263127228 -0.41788725149297851 0 -0.037073333869344291 -0.41727791785175372 0 -0.02796826597074677 -0.40589025512163829 0 -0.052402351263127228 -0.41788725149297851 0 -0.02796826597074677 -0.40589025512163829 0 -0.046440782916068478 -0.40506553154263719 0 -0.052402351263127228 -0.41788725149297851 0 -0.052402351263127228 -0.41788725149297851 0 -0.037073333869344291 -0.41727791785175372 0 -0.039843869027500013 -0.42379154511837158 0 -0.02796826597074677 -0.40589025512163829 0 -0.037073333869344291 -0.41727791785175372 0 -0.02894632002143389 -0.41482922709892611 0 -0.037073333869344291 -0.41727791785175372 0 -0.032016578807743827 -0.42360793551606091 0 -0.02894632002143389 -0.41482922709892611 0 -0.037073333869344291 -0.41727791785175372 0 -0.032016578807743827 -0.42360793551606091 0 -0.039843869027500013 -0.42379154511837158 0 -0.052402351263127228 -0.41788725149297851 0 -0.039946879984807171 -0.44431014596154678 0 -0.052402351263127228 -0.41788725149297851 0 -0.036831802696855209 -0.43297694727342151 0 -0.039946879984807171 -0.44431014596154678 0 -0.032016578807743827 -0.42360793551606091 0 -0.039843869027500013 -0.42379154511837158 0 -0.036831802696855209 -0.43297694727342151 0 -0.052402351263127228 -0.41788725149297851 0 -0.039843869027500013 -0.42379154511837158 0 -0.036831802696855209 -0.43297694727342151 0 -0.022152914509716969 -0.42624995567864271 0 -0.013622183565576391 -0.4390330740449494 0 -0.031820265834519017 -0.4426810777046315 0 -0.022152914509716969 -0.42624995567864271 0 -0.031820265834519017 -0.4426810777046315 0 -0.036831802696855209 -0.43297694727342151 0 -0.022152914509716969 -0.42624995567864271 0 -0.031820265834519017 -0.4426810777046315 0 -0.032016578807743827 -0.42360793551606091 0 -0.036831802696855209 -0.43297694727342151 0 -0.022152914509716969 -0.42624995567864271 0 -0.022152914509716969 -0.42624995567864271 0 -0.01405422362398602 -0.41796750624306278 0 -0.010733940258167899 -0.42528205298692628 0 -0.02796826597074677 -0.40589025512163829 0 -0.02894632002143389 -0.41482922709892611 0 -0.0059583941098304014 -0.40717791751196042 0 -0.02894632002143389 -0.41482922709892611 0 -0.0059583941098304014 -0.40717791751196042 0 -0.02894632002143389 -0.41482922709892611 0 -0.01405422362398602 -0.41796750624306278 0 -0.0059583941098304014 -0.40717791751196042 0 -0.032016578807743827 -0.42360793551606091 0 -0.022152914509716969 -0.42624995567864271 0 -0.02894632002143389 -0.41482922709892611 0 -0.022152914509716969 -0.42624995567864271 0 -0.02894632002143389 -0.41482922709892611 0 -0.01405422362398602 -0.41796750624306278 0 -0.01405422362398602 -0.41796750624306278 0 -0.0043685205914738819 -0.41814740519699373 0 -0.0059583941098304014 -0.40717791751196042 0 -0.01405422362398602 -0.41796750624306278 0 -0.0043685205914738819 -0.41814740519699373 0 -0.010733940258167899 -0.42528205298692628 0 -0.0043685205914738819 -0.41814740519699373 0 -0.0059583941098304014 -0.40717791751196042 0 0.0065146466026747233 -0.41727532115683019 0 -0.013622183565576391 -0.4390330740449494 0 0.0045758987033663054 -0.43538507038526753 0 -0.001388634309445712 -0.42673228260245971 0 -0.013622183565576391 -0.4390330740449494 0 0.0045758987033663054 -0.43538507038526753 0 -0.010733940258167899 -0.42528205298692628 0 -0.001388634309445712 -0.42673228260245971 0 -0.013622183565576391 -0.4390330740449494 0 -0.022152914509716969 -0.42624995567864271 0 -0.010733940258167899 -0.42528205298692628 0 -0.013622183565576391 -0.4390330740449494 0 -0.0043685205914738819 -0.41814740519699373 0 -0.010733940258167899 -0.42528205298692628 0 -0.001388634309445712 -0.42673228260245971 0 -0.003015963495611233 -0.4447276409504603 0 -0.0036324129274180258 -0.45675011933521431 0 -0.01928882461725533 -0.45123262359488719 0 -0.003015963495611233 -0.4447276409504603 0 -0.013622183565576391 -0.4390330740449494 0 -0.01928882461725533 -0.45123262359488719 0 -0.003015963495611233 -0.4447276409504603 0 -0.013622183565576391 -0.4390330740449494 0 0.0045758987033663054 -0.43538507038526753 0 -0.0036324129274180258 -0.45675011933521431 0 -0.02413053944823176 -0.46552810512964682 0 -0.01818236980768341 -0.47837505966760901 0 -0.0036324129274180258 -0.45675011933521431 0 -0.01818236980768341 -0.47837505966760901 0 -0.0036324129274180258 -0.45675011933521431 0 -0.02413053944823176 -0.46552810512964682 0 -0.01928882461725533 -0.45123262359488719 0 -0.02413053944823176 -0.46552810512964682 0 -0.026792151327723682 -0.45799874069840829 0 -0.01928882461725533 -0.45123262359488719 0 -0.02413053944823176 -0.46552810512964682 0 -0.026792151327723682 -0.45799874069840829 0 -0.037874346923908557 -0.46990242032344282 0 -0.026792151327723682 -0.45799874069840829 0 -0.029830388476303159 -0.45177360426364388 0 -0.01928882461725533 -0.45123262359488719 0 -0.026792151327723682 -0.45799874069840829 0 -0.029830388476303159 -0.45177360426364388 0 -0.034492308644070983 -0.45588141128639897 0 -0.013622183565576391 -0.4390330740449494 0 -0.01928882461725533 -0.45123262359488719 0 -0.031820265834519017 -0.4426810777046315 0 -0.013622183565576391 -0.4390330740449494 0 -0.031820265834519017 -0.4426810777046315 0 -0.029830388476303159 -0.45177360426364388 0 -0.01928882461725533 -0.45123262359488719 0 -0.031820265834519017 -0.4426810777046315 0 -0.0054268575954078968 -0.5 0 -0.01141408643984968 -0.4896389273786545 0 0.0028429897716630921 -0.49191069769729889 0 -0.01141408643984968 -0.4896389273786545 0 -0.0035718678798701189 -0.47790887952836492 0 0.0028429897716630921 -0.49191069769729889 0 -0.0036324129274180258 -0.45675011933521431 0 -0.0035718678798701189 -0.47790887952836492 0 -0.01818236980768341 -0.47837505966760901 0 -0.01141408643984968 -0.4896389273786545 0 -0.0035718678798701189 -0.47790887952836492 0 -0.01818236980768341 -0.47837505966760901 0 -0.02413053944823176 -0.46552810512964682 0 -0.01818236980768341 -0.47837505966760901 0 -0.037874346923908557 -0.46990242032344282 0 -0.0054268575954078968 -0.5 0 -0.01141408643984968 -0.4896389273786545 0 -0.032732326687950071 -0.50000000000000289 0 -0.01818236980768341 -0.47837505966760901 0 -0.032732326687950071 -0.50000000000000289 0 -0.037815721545616798 -0.48476291280159978 0 -0.01141408643984968 -0.4896389273786545 0 -0.01818236980768341 -0.47837505966760901 0 -0.032732326687950071 -0.50000000000000289 0 -0.01818236980768341 -0.47837505966760901 0 -0.032732326687950071 -0.50000000000000289 0 -0.037815721545616798 -0.48476291280159978 0 -0.051151298471770079 -0.47553708401694722 0 -0.049138265836771888 -0.5 0 -0.032732326687950071 -0.50000000000000289 0 -0.037815721545616798 -0.48476291280159978 0 -0.049138265836771888 -0.5 0 -0.01818236980768341 -0.47837505966760901 0 -0.037815721545616798 -0.48476291280159978 0 -0.037874346923908557 -0.46990242032344282 0 -0.037815721545616798 -0.48476291280159978 0 -0.037874346923908557 -0.46990242032344282 0 -0.051151298471770079 -0.47553708401694722 0 -0.051151298471770079 -0.47553708401694722 0 -0.065544204985593754 -0.50000000000000056 0 -0.051151298471770079 -0.47553708401694722 0 -0.049138265836771888 -0.5 0 -0.065544204985593754 -0.50000000000000056 0 -0.039946879984807171 -0.44431014596154678 0 -0.036758391957945821 -0.45107416803389427 0 -0.062152730944306067 -0.44876155047601318 0 -0.039946879984807171 -0.44431014596154678 0 -0.031820265834519017 -0.4426810777046315 0 -0.036831802696855209 -0.43297694727342151 0 -0.039946879984807171 -0.44431014596154678 0 -0.031820265834519017 -0.4426810777046315 0 -0.031820265834519017 -0.4426810777046315 0 -0.036758391957945821 -0.45107416803389427 0 -0.029830388476303159 -0.45177360426364388 0 -0.031820265834519017 -0.4426810777046315 0 -0.036758391957945821 -0.45107416803389427 0 -0.039946879984807171 -0.44431014596154678 0 -0.031820265834519017 -0.4426810777046315 0 -0.036758391957945821 -0.45107416803389427 0 -0.039946879984807171 -0.44431014596154678 0 -0.036758391957945821 -0.45107416803389427 0 -0.029830388476303159 -0.45177360426364388 0 -0.036758391957945821 -0.45107416803389427 0 -0.034492308644070983 -0.45588141128639897 0 -0.037874346923908557 -0.46990242032344282 0 -0.051151298471770079 -0.47553708401694722 0 -0.036758391957945821 -0.45107416803389427 0 -0.037874346923908557 -0.46990242032344282 0 -0.036758391957945821 -0.45107416803389427 0 -0.034492308644070983 -0.45588141128639897 0 -0.051151298471770079 -0.47553708401694722 0 -0.036758391957945821 -0.45107416803389427 0 -0.036758391957945821 -0.45107416803389427 0 -0.034492308644070983 -0.45588141128639897 0 -0.026792151327723682 -0.45799874069840829 0 -0.037874346923908557 -0.46990242032344282 0 -0.034492308644070983 -0.45588141128639897 0 -0.051151298471770079 -0.47553708401694722 0 -0.062152730944306067 -0.44876155047601318 0 -0.070811991794419091 -0.4631774844644575 0 -0.051151298471770079 -0.47553708401694722 0 -0.036758391957945821 -0.45107416803389427 0 -0.062152730944306067 -0.44876155047601318 0 -0.048594109976697261 -0.43316753062073521 0 -0.039946879984807171 -0.44431014596154678 0 -0.062152730944306067 -0.44876155047601318 0 -0.039946879984807171 -0.44431014596154678 0 -0.062152730944306067 -0.44876155047601318 0 -0.048594109976697261 -0.43316753062073521 0 -0.062152730944306067 -0.44876155047601318 0 -0.06304072673238105 -0.43524203036524978 0 -0.062152730944306067 -0.44876155047601318 0 -0.071347350862073805 -0.44274695931904817 0 -0.06304072673238105 -0.43524203036524978 0 -0.062152730944306067 -0.44876155047601318 0 -0.071347350862073805 -0.44274695931904817 0 -0.084358581903804977 -0.45321295499047948 0 -0.062152730944306067 -0.44876155047601318 0 -0.084358581903804977 -0.45321295499047948 0 -0.071347350862073805 -0.44274695931904817 0 -0.078447443737742734 -0.44061635233078777 0 -0.071861648519532639 -0.43443459557196751 0 -0.071347350862073805 -0.44274695931904817 0 -0.084358581903804977 -0.45321295499047948 0 -0.078447443737742734 -0.44061635233078777 0 -0.062152730944306067 -0.44876155047601318 0 -0.070811991794419091 -0.4631774844644575 0 -0.084358581903804977 -0.45321295499047948 0 -0.070811991794419091 -0.4631774844644575 0 -0.084358581903804977 -0.45321295499047948 0 -0.077452601513114588 -0.47799342823231811 0 -0.084358581903804977 -0.45321295499047948 0 -0.08548536256808896 -0.44231861755697299 0 -0.096013663330459464 -0.43930015671780892 0 -0.08548536256808896 -0.44231861755697299 0 -0.096013663330459464 -0.43930015671780892 0 -0.081435574403082342 -0.43214239828854789 0 -0.078447443737742734 -0.44061635233078777 0 -0.08548536256808896 -0.44231861755697299 0 -0.081435574403082342 -0.43214239828854789 0 -0.084358581903804977 -0.45321295499047948 0 -0.078447443737742734 -0.44061635233078777 0 -0.08548536256808896 -0.44231861755697299 0 -0.051151298471770079 -0.47553708401694722 0 -0.065544204985593754 -0.50000000000000056 0 -0.077452601513114588 -0.47799342823231811 0 -0.051151298471770079 -0.47553708401694722 0 -0.070811991794419091 -0.4631774844644575 0 -0.077452601513114588 -0.47799342823231811 0 -0.084358581903804977 -0.45321295499047948 0 -0.077452601513114588 -0.47799342823231811 0 -0.097319701559858973 -0.47635114129408451 0 -0.077452601513114588 -0.47799342823231811 0 -0.091674086265621624 -0.5 0 -0.097319701559858973 -0.47635114129408451 0 -0.065544204985593754 -0.50000000000000056 0 -0.077452601513114588 -0.47799342823231811 0 -0.091674086265621624 -0.5 0 -0.091674086265621624 -0.5 0 -0.1061910335677934 -0.48897633405967478 0 -0.11780396754564949 -0.5 0 -0.091674086265621624 -0.5 0 -0.1061910335677934 -0.48897633405967478 0 -0.097319701559858973 -0.47635114129408451 0 -0.097319701559858973 -0.47635114129408451 0 -0.1179663789000434 -0.47955419494461449 0 -0.1065644328633036 -0.45766435950494749 0 -0.1061910335677934 -0.48897633405967478 0 -0.097319701559858973 -0.47635114129408451 0 -0.1179663789000434 -0.47955419494461449 0 -0.13768473269957709 -0.48122370416598781 0 -0.1179663789000434 -0.47955419494461449 0 -0.11780396754564949 -0.5 0 -0.1061910335677934 -0.48897633405967478 0 -0.1179663789000434 -0.47955419494461449 0 -0.11780396754564949 -0.5 0 -0.096013663330459464 -0.43930015671780892 0 -0.1065644328633036 -0.45766435950494749 0 -0.094623164459985892 -0.43473911503815271 0 -0.084358581903804977 -0.45321295499047948 0 -0.096013663330459464 -0.43930015671780892 0 -0.1065644328633036 -0.45766435950494749 0 -0.1065644328633036 -0.45766435950494749 0 -0.1168072558488123 -0.44350779806132717 0 -0.094623164459985892 -0.43473911503815271 0 -0.1065644328633036 -0.45766435950494749 0 -0.094623164459985892 -0.43473911503815271 0 -0.084358581903804977 -0.45321295499047948 0 -0.1065644328633036 -0.45766435950494749 0 -0.084358581903804977 -0.45321295499047948 0 -0.097319701559858973 -0.47635114129408451 0 -0.1065644328633036 -0.45766435950494749 0 -0.1179663789000434 -0.47955419494461449 0 -0.1065644328633036 -0.45766435950494749 0 -0.13106334748952589 -0.46257543358923092 0 -0.1065644328633036 -0.45766435950494749 0 -0.1168072558488123 -0.44350779806132717 0 -0.13106334748952589 -0.46257543358923092 0 -0.1065644328633036 -0.45766435950494749 0 -0.13106334748952589 -0.46257543358923092 0 -0.1179663789000434 -0.47955419494461449 0 -0.1065644328633036 -0.45766435950494749 0 -0.13514661507752321 -0.44361828859295382 0 -0.1147976163081203 -0.42482438479060342 0 -0.13514661507752321 -0.44361828859295382 0 -0.1168072558488123 -0.44350779806132717 0 -0.1147976163081203 -0.42482438479060342 0 -0.1168072558488123 -0.44350779806132717 0 -0.1147976163081203 -0.42482438479060342 0 -0.094623164459985892 -0.43473911503815271 0 -0.1147976163081203 -0.42482438479060342 0 -0.094448617538717333 -0.40603048098825278 0 -0.1147976163081203 -0.42482438479060342 0 -0.11659324107873791 -0.40277679752632989 0 -0.094448617538717333 -0.40603048098825278 0 -0.1147976163081203 -0.42482438479060342 0 -0.094623164459985892 -0.43473911503815271 0 -0.094448617538717333 -0.40603048098825278 0 -0.1300178123684532 -0.41366683254813658 0 -0.1147976163081203 -0.42482438479060342 0 -0.11659324107873791 -0.40277679752632989 0 -0.12600638501159381 -0.39074047337513301 0 -0.11659324107873791 -0.40277679752632989 0 -0.1112859141038305 -0.3843245180620683 0 -0.11659324107873791 -0.40277679752632989 0 -0.1112859141038305 -0.3843245180620683 0 -0.10375513478946451 -0.39472808605015941 0 -0.13074009998159811 -0.37629925186394392 0 -0.12600638501159381 -0.39074047337513301 0 -0.1112859141038305 -0.3843245180620683 0 -0.1050333920360039 -0.36516797422295938 0 -0.1112859141038305 -0.3843245180620683 0 -0.1006469657824141 -0.37601758011609882 0 -0.093575790553250049 -0.3687972805553813 0 -0.1006469657824141 -0.37601758011609882 0 -0.092692766436572177 -0.38578054762398639 0 -0.1112859141038305 -0.3843245180620683 0 -0.10375513478946451 -0.39472808605015941 0 -0.092692766436572177 -0.38578054762398639 0 -0.1112859141038305 -0.3843245180620683 0 -0.092692766436572177 -0.38578054762398639 0 -0.1112859141038305 -0.3843245180620683 0 -0.1006469657824141 -0.37601758011609882 0 -0.092692766436572177 -0.38578054762398639 0 -0.11659324107873791 -0.40277679752632989 0 -0.094448617538717333 -0.40603048098825278 0 -0.10375513478946451 -0.39472808605015941 0 -0.094448617538717333 -0.40603048098825278 0 -0.10375513478946451 -0.39472808605015941 0 -0.092692766436572177 -0.38578054762398639 0 -0.094448617538717333 -0.40603048098825278 0 -0.074099618769313813 -0.3872365771859031 0 -0.082681896056669174 -0.41181387057135721 0 -0.094448617538717333 -0.40603048098825278 0 -0.074099618769313813 -0.3872365771859031 0 -0.094448617538717333 -0.40603048098825278 0 -0.092692766436572177 -0.38578054762398639 0 -0.074099618769313813 -0.3872365771859031 0 -0.092692766436572177 -0.38578054762398639 0 -0.074099618769313813 -0.3872365771859031 0 -0.079520294780843798 -0.37133489381590068 0 -0.092692766436572177 -0.38578054762398639 0 -0.074099618769313813 -0.3872365771859031 0 -0.079520294780843798 -0.37133489381590068 0 -0.093575790553250049 -0.3687972805553813 0 -0.092692766436572177 -0.38578054762398639 0 -0.079520294780843798 -0.37133489381590068 0 -0.072367188819847689 -0.3856365416173928 0 -0.074099618769313813 -0.3872365771859031 0 -0.070252941653407508 -0.37106492316359829 0 -0.079520294780843798 -0.37133489381590068 0 -0.072367188819847689 -0.3856365416173928 0 -0.079520294780843798 -0.37133489381590068 0 -0.072367188819847689 -0.3856365416173928 0 -0.072367188819847689 -0.3856365416173928 0 -0.071463672289779304 -0.38744299817854783 0 -0.072367188819847689 -0.3856365416173928 0 -0.074099618769313813 -0.3872365771859031 0 -0.074099618769313813 -0.3872365771859031 0 -0.071463672289779304 -0.38744299817854783 0 -0.072367188819847689 -0.3856365416173928 0 -0.074099618769313813 -0.3872365771859031 0 -0.071463672289779304 -0.38744299817854783 0 -0.074099618769313813 -0.3872365771859031 0 -0.071463672289779304 -0.38744299817854783 0 -0.070740627653351706 -0.38888862610456221 0 -0.071463672289779304 -0.38744299817854783 0 -0.070740627653351706 -0.38888862610456221 0 -0.066572908172710138 -0.38782599396077022 0 -0.067276278765636424 -0.38633387162080329 0 -0.065968411336116209 -0.37972676640708952 0 -0.071463672289779304 -0.38744299817854783 0 -0.070740627653351706 -0.38888862610456221 0 -0.065968411336116209 -0.37972676640708952 0 -0.070740627653351706 -0.38888862610456221 0 -0.065968411336116209 -0.37972676640708952 0 -0.070740627653351706 -0.38888862610456221 0 -0.067276278765636424 -0.38633387162080329 0 -0.065968411336116209 -0.37972676640708952 0 -0.070740627653351706 -0.38888862610456221 0 -0.066572908172710138 -0.38782599396077022 0 -0.067276278765636424 -0.38633387162080329 0 -0.070740627653351706 -0.38888862610456221 0 -0.066572908172710138 -0.38782599396077022 0 -0.066572908172710138 -0.38782599396077022 0 -0.067276278765636424 -0.38633387162080329 0 -0.072367188819847689 -0.3856365416173928 0 -0.071463672289779304 -0.38744299817854783 0 -0.065968411336116209 -0.37972676640708952 0 -0.070252941653407508 -0.37106492316359829 0 -0.072367188819847689 -0.3856365416173928 0 -0.065968411336116209 -0.37972676640708952 0 -0.072367188819847689 -0.3856365416173928 0 -0.065968411336116209 -0.37972676640708952 0 -0.074099618769313813 -0.3872365771859031 0 -0.070740627653351706 -0.38888862610456221 0 -0.082681896056669174 -0.41181387057135721 0 -0.059569984255956672 -0.41122278534346363 0 -0.070740627653351706 -0.38888862610456221 0 -0.070977197218489538 -0.41266199620630528 0 -0.070740627653351706 -0.38888862610456221 0 -0.070977197218489538 -0.41266199620630528 0 -0.082681896056669174 -0.41181387057135721 0 -0.059569984255956672 -0.41122278534346363 0 -0.070740627653351706 -0.38888862610456221 0 -0.059569984255956672 -0.41122278534346363 0 -0.057439989537286802 -0.40720046321219899 0 -0.070740627653351706 -0.38888862610456221 0 -0.057439989537286802 -0.40720046321219899 0 -0.070740627653351706 -0.38888862610456221 0 -0.066572908172710138 -0.38782599396077022 0 -0.070740627653351706 -0.38888862610456221 0 -0.082681896056669174 -0.41181387057135721 0 -0.070977197218489538 -0.41266199620630528 0 -0.077909975163263229 -0.4222169102203488 0 -0.082681896056669174 -0.41181387057135721 0 -0.070977197218489538 -0.41266199620630528 0 -0.066857485475704165 -0.42498463985928919 0 -0.077909975163263229 -0.4222169102203488 0 -0.059569984255956672 -0.41122278534346363 0 -0.066857485475704165 -0.42498463985928919 0 -0.059569984255956672 -0.41122278534346363 0 -0.070977197218489538 -0.41266199620630528 0 -0.066857485475704165 -0.42498463985928919 0 -0.05863610647397028 -0.42774823429206699 0 -0.066857485475704165 -0.42498463985928919 0 -0.06304072673238105 -0.43524203036524978 0 -0.066857485475704165 -0.42498463985928919 0 -0.071861648519532639 -0.43443459557196751 0 -0.071347350862073805 -0.44274695931904817 0 -0.06304072673238105 -0.43524203036524978 0 -0.071861648519532639 -0.43443459557196751 0 -0.066857485475704165 -0.42498463985928919 0 -0.06304072673238105 -0.43524203036524978 0 -0.071861648519532639 -0.43443459557196751 0 -0.078447443737742734 -0.44061635233078777 0 -0.071861648519532639 -0.43443459557196751 0 -0.081435574403082342 -0.43214239828854789 0 -0.066857485475704165 -0.42498463985928919 0 -0.071861648519532639 -0.43443459557196751 0 -0.081435574403082342 -0.43214239828854789 0 -0.066857485475704165 -0.42498463985928919 0 -0.081435574403082342 -0.43214239828854789 0 -0.066857485475704165 -0.42498463985928919 0 -0.077909975163263229 -0.4222169102203488 0 -0.081435574403082342 -0.43214239828854789 0 -0.094623164459985892 -0.43473911503815271 0 -0.077909975163263229 -0.4222169102203488 0 -0.082681896056669174 -0.41181387057135721 0 -0.094623164459985892 -0.43473911503815271 0 -0.077909975163263229 -0.4222169102203488 0 -0.081435574403082342 -0.43214239828854789 0 -0.094623164459985892 -0.43473911503815271 0 -0.082681896056669174 -0.41181387057135721 0 -0.096013663330459464 -0.43930015671780892 0 -0.081435574403082342 -0.43214239828854789 0 -0.096013663330459464 -0.43930015671780892 0 -0.094623164459985892 -0.43473911503815271 0 -0.081435574403082342 -0.43214239828854789 0 -0.094623164459985892 -0.43473911503815271 0 -0.094448617538717333 -0.40603048098825278 0 -0.082681896056669174 -0.41181387057135721 0 -0.077415691147650442 -0.087356764097723902 0 -0.078820529964014716 -0.104234746342364 0 -0.094170614473973652 -0.084884437040196714 0 -0.070774609115397819 -0.071776780587102254 0 -0.094170614473973652 -0.084884437040196714 0 -0.070774609115397819 -0.071776780587102254 0 -0.077415691147650442 -0.087356764097723902 0 -0.094170614473973652 -0.084884437040196714 0 -0.093694973213389793 -0.071223682363563939 0 -0.070774609115397819 -0.071776780587102254 0 -0.094170614473973652 -0.084884437040196714 0 -0.093694973213389793 -0.071223682363563939 0 -0.1011403091180668 -0.058586559219914333 0 -0.084132842365942678 -0.060263729852539097 0 -0.093694973213389793 -0.071223682363563939 0 -0.070774609115397819 -0.071776780587102254 0 -0.084132842365942678 -0.060263729852539097 0 -0.070774609115397819 -0.071776780587102254 0 -0.077415691147650442 -0.087356764097723902 0 -0.059079138258505859 -0.085548430870075645 0 -0.077415691147650442 -0.087356764097723902 0 -0.078820529964014716 -0.104234746342364 0 -0.059079138258505859 -0.085548430870075645 0 -0.078820529964014716 -0.104234746342364 0 -0.059079138258505859 -0.085548430870075645 0 -0.054288278153790691 -0.1071032277650306 0 -0.078820529964014716 -0.104234746342364 0 -0.054288278153790691 -0.1071032277650306 0 -0.078724650416178071 -0.12777160782596589 0 -0.078820529964014716 -0.104234746342364 0 -0.099842279844565729 -0.11720184303021119 0 -0.078724650416178071 -0.12777160782596589 0 -0.078820529964014716 -0.104234746342364 0 -0.100785287432595 -0.10137677692249859 0 -0.099842279844565729 -0.11720184303021119 0 -0.078820529964014716 -0.104234746342364 0 -0.100785287432595 -0.10137677692249859 0 -0.094170614473973652 -0.084884437040196714 0 -0.100785287432595 -0.10137677692249859 0 -0.1175666198325495 -0.097992093493291188 0 -0.094170614473973652 -0.084884437040196714 0 -0.100785287432595 -0.10137677692249859 0 -0.099842279844565729 -0.11720184303021119 0 -0.1098432324333211 -0.1098627445612029 0 -0.12117874262357441 -0.1228802647988107 0 -0.1175666198325495 -0.097992093493291188 0 -0.099842279844565729 -0.11720184303021119 0 -0.12117874262357441 -0.1228802647988107 0 -0.12117874262357441 -0.1228802647988107 0 -0.1098432324333211 -0.1098627445612029 0 -0.1175666198325495 -0.097992093493291188 0 -0.099842279844565729 -0.11720184303021119 0 -0.12117874262357441 -0.1228802647988107 0 -0.1098432324333211 -0.1098627445612029 0 -0.100785287432595 -0.10137677692249859 0 -0.1098432324333211 -0.1098627445612029 0 -0.1175666198325495 -0.097992093493291188 0 -0.12117874262357441 -0.1228802647988107 0 -0.1175666198325495 -0.097992093493291188 0 -0.12901620036456471 -0.1044067427398423 0 -0.1175666198325495 -0.097992093493291188 0 -0.11655771516030609 -0.091040560069201776 0 -0.1175666198325495 -0.097992093493291188 0 -0.12901620036456471 -0.1044067427398423 0 -0.1175666198325495 -0.097992093493291188 0 -0.12193385519487029 -0.093809278683967989 0 -0.12901620036456471 -0.1044067427398423 0 -0.1175666198325495 -0.097992093493291188 0 -0.12193385519487029 -0.093809278683967989 0 -0.11655771516030609 -0.091040560069201776 0 -0.12193385519487029 -0.093809278683967989 0 -0.1137118248547051 -0.084428983808366762 0 -0.11655771516030609 -0.091040560069201776 0 -0.1137118248547051 -0.084428983808366762 0 -0.1352034915619196 -0.083290732725167252 0 -0.12193385519487029 -0.093809278683967989 0 -0.1137118248547051 -0.084428983808366762 0 -0.12757390461311161 -0.09178313862446176 0 -0.1137118248547051 -0.084428983808366762 0 -0.1352034915619196 -0.083290732725167252 0 -0.12569715161818781 -0.081556235211049863 0 -0.1175666198325495 -0.097992093493291188 0 -0.11655771516030609 -0.091040560069201776 0 -0.094170614473973652 -0.084884437040196714 0 -0.1137118248547051 -0.084428983808366762 0 -0.117729570908332 -0.076845444409753008 0 -0.12569715161818781 -0.081556235211049863 0 -0.1137118248547051 -0.084428983808366762 0 -0.103845837362828 -0.080564334983353608 0 -0.1107999712872987 -0.077678051395946995 0 -0.1137118248547051 -0.084428983808366762 0 -0.11655771516030609 -0.091040560069201776 0 -0.103845837362828 -0.080564334983353608 0 -0.1137118248547051 -0.084428983808366762 0 -0.1107999712872987 -0.077678051395946995 0 -0.117729570908332 -0.076845444409753008 0 -0.1175666198325495 -0.097992093493291188 0 -0.094170614473973652 -0.084884437040196714 0 -0.11655771516030609 -0.091040560069201776 0 -0.103845837362828 -0.080564334983353608 0 -0.094170614473973652 -0.084884437040196714 0 -0.093694973213389793 -0.071223682363563939 0 -0.103845837362828 -0.080564334983353608 0 -0.094170614473973652 -0.084884437040196714 0 -0.093694973213389793 -0.071223682363563939 0 -0.10867385056267299 -0.070807520166931884 0 -0.1011403091180668 -0.058586559219914333 0 -0.103845837362828 -0.080564334983353608 0 -0.10867385056267299 -0.070807520166931884 0 -0.1107999712872987 -0.077678051395946995 0 -0.093694973213389793 -0.071223682363563939 0 -0.103845837362828 -0.080564334983353608 0 -0.10867385056267299 -0.070807520166931884 0 -0.10867385056267299 -0.070807520166931884 0 -0.1142645041449373 -0.062288723476499129 0 -0.1011403091180668 -0.058586559219914333 0 -0.10867385056267299 -0.070807520166931884 0 -0.12253812900473381 -0.069223876069351875 0 -0.1142645041449373 -0.062288723476499129 0 -0.10867385056267299 -0.070807520166931884 0 -0.1107999712872987 -0.077678051395946995 0 -0.117729570908332 -0.076845444409753008 0 -0.10867385056267299 -0.070807520166931884 0 -0.117729570908332 -0.076845444409753008 0 -0.12253812900473381 -0.069223876069351875 0 -0.117729570908332 -0.076845444409753008 0 -0.12253812900473381 -0.069223876069351875 0 -0.12569715161818781 -0.081556235211049863 0 -0.1142645041449373 -0.062288723476499129 0 -0.11357847880034561 -0.052604885874222032 0 -0.1246716947244178 -0.052980366129674418 0 -0.12253812900473381 -0.069223876069351875 0 -0.1142645041449373 -0.062288723476499129 0 -0.1246716947244178 -0.052980366129674418 0 -0.1142645041449373 -0.062288723476499129 0 -0.11357847880034561 -0.052604885874222032 0 -0.1011403091180668 -0.058586559219914333 0 -0.11357847880034561 -0.052604885874222032 0 -0.1246716947244178 -0.052980366129674418 0 -0.1171527241977675 -0.041821355880244632 0 -0.1171527241977675 -0.041821355880244632 0 -0.12274446968847399 -0.02764697635834272 0 -0.13315669471045841 -0.039537942232458483 0 -0.1246716947244178 -0.052980366129674418 0 -0.1171527241977675 -0.041821355880244632 0 -0.13315669471045841 -0.039537942232458483 0 -0.1171527241977675 -0.041821355880244632 0 -0.1083909445331986 -0.033029046816985291 0 -0.12274446968847399 -0.02764697635834272 0 -0.11357847880034561 -0.052604885874222032 0 -0.1171527241977675 -0.041821355880244632 0 -0.1037871419066765 -0.045183228114067109 0 -0.1171527241977675 -0.041821355880244632 0 -0.1037871419066765 -0.045183228114067109 0 -0.1083909445331986 -0.033029046816985291 0 -0.1037871419066765 -0.045183228114067109 0 -0.1083909445331986 -0.033029046816985291 0 -0.091456120825831613 -0.03396392207090794 0 -0.1037871419066765 -0.045183228114067109 0 -0.090512638912315715 -0.048611688286188018 0 -0.091456120825831613 -0.03396392207090794 0 -0.1037871419066765 -0.045183228114067109 0 -0.1011403091180668 -0.058586559219914333 0 -0.090512638912315715 -0.048611688286188018 0 -0.11357847880034561 -0.052604885874222032 0 -0.1037871419066765 -0.045183228114067109 0 -0.1011403091180668 -0.058586559219914333 0 -0.11082646212385561 -0.019076675578428959 0 -0.1076971159400493 -0.0068600754753500581 0 -0.1265299462566174 -0.0091552116087020938 0 -0.1076971159400493 -0.0068600754753500581 0 -0.1265299462566174 -0.0091552116087020938 0 -0.1180014881981651 0.0050774772644331711 0 -0.11082646212385561 -0.019076675578428959 0 -0.12274446968847399 -0.02764697635834272 0 -0.1265299462566174 -0.0091552116087020938 0 -0.1083909445331986 -0.033029046816985291 0 -0.11082646212385561 -0.019076675578428959 0 -0.12274446968847399 -0.02764697635834272 0 -0.1083909445331986 -0.033029046816985291 0 -0.09562715993214406 -0.017017957810377651 0 -0.091456120825831613 -0.03396392207090794 0 -0.1083909445331986 -0.033029046816985291 0 -0.11082646212385561 -0.019076675578428959 0 -0.09562715993214406 -0.017017957810377651 0 -0.11082646212385561 -0.019076675578428959 0 -0.09562715993214406 -0.017017957810377651 0 -0.1076971159400493 -0.0068600754753500581 0 -0.09562715993214406 -0.017017957810377651 0 -0.1076971159400493 -0.0068600754753500581 0 -0.092656867032008747 -0.0043380744301229441 0 -0.1076971159400493 -0.0068600754753500581 0 -0.092656867032008747 -0.0043380744301229441 0 -0.1025407720975053 0.0033499893110981241 0 -0.080138123164894798 -0.0073693103607884386 0 -0.092656867032008747 -0.0043380744301229441 0 -0.085673454086752934 0.0077646032934569741 0 -0.09562715993214406 -0.017017957810377651 0 -0.080138123164894798 -0.0073693103607884386 0 -0.092656867032008747 -0.0043380744301229441 0 -0.09562715993214406 -0.017017957810377651 0 -0.080138123164894798 -0.0073693103607884386 0 -0.076488778345214031 -0.024057571954176859 0 -0.09562715993214406 -0.017017957810377651 0 -0.076488778345214031 -0.024057571954176859 0 -0.091456120825831613 -0.03396392207090794 0 -0.076488778345214031 -0.024057571954176859 0 -0.060829799344943883 -0.01006761615730146 0 -0.05748811139565007 -0.02960956079320284 0 -0.080138123164894798 -0.0073693103607884386 0 -0.060829799344943883 -0.01006761615730146 0 -0.069162159864054204 0.0026359032753514671 0 -0.080138123164894798 -0.0073693103607884386 0 -0.076488778345214031 -0.024057571954176859 0 -0.060829799344943883 -0.01006761615730146 0 -0.1011403091180668 -0.058586559219914333 0 -0.084132842365942678 -0.060263729852539097 0 -0.090512638912315715 -0.048611688286188018 0 -0.084132842365942678 -0.060263729852539097 0 -0.090512638912315715 -0.048611688286188018 0 -0.072615004063604202 -0.044602269842165837 0 -0.090512638912315715 -0.048611688286188018 0 -0.091456120825831613 -0.03396392207090794 0 -0.072615004063604202 -0.044602269842165837 0 -0.076488778345214031 -0.024057571954176859 0 -0.091456120825831613 -0.03396392207090794 0 -0.072615004063604202 -0.044602269842165837 0 -0.076488778345214031 -0.024057571954176859 0 -0.072615004063604202 -0.044602269842165837 0 -0.05748811139565007 -0.02960956079320284 0 -0.072615004063604202 -0.044602269842165837 0 -0.05748811139565007 -0.02960956079320284 0 -0.070774609115397819 -0.071776780587102254 0 -0.072615004063604202 -0.044602269842165837 0 -0.04737860375682202 -0.058669124134007787 0 -0.070774609115397819 -0.071776780587102254 0 -0.084132842365942678 -0.060263729852539097 0 -0.072615004063604202 -0.044602269842165837 0 -0.04737860375682202 -0.058669124134007787 0 -0.042138088649568382 -0.032976607981331563 0 -0.05748811139565007 -0.02960956079320284 0 -0.072615004063604202 -0.044602269842165837 0 -0.04737860375682202 -0.058669124134007787 0 -0.05748811139565007 -0.02960956079320284 0 -0.04737860375682202 -0.058669124134007787 0 -0.042138088649568382 -0.032976607981331563 0 -0.029829719165362881 -0.039297532375424778 0 -0.042138088649568382 -0.032976607981331563 0 -0.03211599112385146 -0.024325716792259939 0 -0.029829719165362881 -0.039297532375424778 0 -0.04737860375682202 -0.058669124134007787 0 -0.01871283213333489 -0.056334984848182647 0 -0.029829719165362881 -0.039297532375424778 0 -0.060829799344943883 -0.01006761615730146 0 -0.042361218727695972 -0.01461685174423987 0 -0.045903381417340579 -0.003151097283543449 0 -0.060829799344943883 -0.01006761615730146 0 -0.045903381417340579 -0.003151097283543449 0 -0.054696358660004059 0.0051589329570539454 0 -0.060829799344943883 -0.01006761615730146 0 -0.069162159864054204 0.0026359032753514671 0 -0.054696358660004059 0.0051589329570539454 0 -0.060829799344943883 -0.01006761615730146 0 -0.05748811139565007 -0.02960956079320284 0 -0.042361218727695972 -0.01461685174423987 0 -0.042138088649568382 -0.032976607981331563 0 -0.05748811139565007 -0.02960956079320284 0 -0.042361218727695972 -0.01461685174423987 0 -0.05748811139565007 -0.02960956079320284 0 -0.042361218727695972 -0.01461685174423987 0 -0.042138088649568382 -0.032976607981331563 0 -0.03211599112385146 -0.024325716792259939 0 -0.042361218727695972 -0.01461685174423987 0 -0.03211599112385146 -0.024325716792259939 0 -0.042361218727695972 -0.01461685174423987 0 -0.023445244019969249 -0.01333764963212138 0 -0.042361218727695972 -0.01461685174423987 0 -0.045903381417340579 -0.003151097283543449 0 -0.027234326059742409 0.00037585730472358258 0 -0.042361218727695972 -0.01461685174423987 0 -0.027234326059742409 0.00037585730472358258 0 -0.042361218727695972 -0.01461685174423987 0 -0.023445244019969249 -0.01333764963212138 0 -0.027234326059742409 0.00037585730472358258 0 -0.01839154054478408 -0.00065956125568771332 0 -0.02377673107797533 -0.0011325915014671829 0 -0.023445244019969249 -0.01333764963212138 0 -0.01839154054478408 -0.00065956125568771332 0 -0.023445244019969249 -0.01333764963212138 0 -0.01073318287111422 -0.00094344511831280552 0 -0.02377673107797533 -0.0011325915014671829 0 -0.023445244019969249 -0.01333764963212138 0 -0.027234326059742409 0.00037585730472358258 0 -0.02377673107797533 -0.0011325915014671829 0 -0.027234326059742409 0.00037585730472358258 0 -0.023445244019969249 -0.01333764963212138 0 -0.021521117400554471 -0.027413013676229302 0 -0.0078420692447541684 -0.023578723941088849 0 -0.03211599112385146 -0.024325716792259939 0 -0.023445244019969249 -0.01333764963212138 0 -0.021521117400554471 -0.027413013676229302 0 -0.03211599112385146 -0.024325716792259939 0 -0.021521117400554471 -0.027413013676229302 0 -0.029829719165362881 -0.039297532375424778 0 -0.0078420692447541684 -0.023578723941088849 0 0.0013985516642236111 -0.0073630034426261128 0 0.0041110647466055198 -0.019577512634144041 0 -0.021521117400554471 -0.027413013676229302 0 -0.0078420692447541684 -0.023578723941088849 0 -0.016263001505121982 -0.037865607949958691 0 -0.023445244019969249 -0.01333764963212138 0 -0.01073318287111422 -0.00094344511831280552 0 0.0013985516642236111 -0.0073630034426261128 0 -0.01073318287111422 -0.00094344511831280552 0 0.0061287660557067906 0.0082301320146713954 0 0.0013985516642236111 -0.0073630034426261128 0 -0.023445244019969249 -0.01333764963212138 0 -0.0078420692447541684 -0.023578723941088849 0 0.0013985516642236111 -0.0073630034426261128 0 -0.023445244019969249 -0.01333764963212138 0 0.0013985516642236111 -0.0073630034426261128 0 -0.01871283213333489 -0.056334984848182647 0 -0.029829719165362881 -0.039297532375424778 0 -0.016263001505121982 -0.037865607949958691 0 -0.021521117400554471 -0.027413013676229302 0 -0.029829719165362881 -0.039297532375424778 0 -0.016263001505121982 -0.037865607949958691 0 -0.01871283213333489 -0.056334984848182647 0 -0.016263001505121982 -0.037865607949958691 0 -0.0034092695816034801 -0.042703784908867837 0 -0.0078420692447541684 -0.023578723941088849 0 -0.016263001505121982 -0.037865607949958691 0 -0.0034092695816034801 -0.042703784908867837 0 -0.0078420692447541684 -0.023578723941088849 0 -0.0034092695816034801 -0.042703784908867837 0 0.0067621230282496154 -0.02966456223700387 0 -0.01871283213333489 -0.056334984848182647 0 -0.0034092695816034801 -0.042703784908867837 0 0.001558143314480777 -0.059512012927846143 0 -0.01871283213333489 -0.056334984848182647 0 -0.0097036138545029977 -0.075520092910915104 0 0.001558143314480777 -0.059512012927846143 0 -0.0097036138545029977 -0.075520092910915104 0 -0.015672737849459221 -0.090640192018218324 0 0.001564292753361757 -0.097273036926078374 0 -0.015672737849459221 -0.090640192018218324 0 -0.03394714341898325 -0.082480398872486607 0 -0.02333438085343505 -0.1058655271311756 0 -0.0097036138545029977 -0.075520092910915104 0 -0.015672737849459221 -0.090640192018218324 0 -0.03394714341898325 -0.082480398872486607 0 -0.01871283213333489 -0.056334984848182647 0 -0.0097036138545029977 -0.075520092910915104 0 -0.03394714341898325 -0.082480398872486607 0 -0.04737860375682202 -0.058669124134007787 0 -0.01871283213333489 -0.056334984848182647 0 -0.03394714341898325 -0.082480398872486607 0 -0.04737860375682202 -0.058669124134007787 0 -0.03394714341898325 -0.082480398872486607 0 -0.059079138258505859 -0.085548430870075645 0 -0.03394714341898325 -0.082480398872486607 0 -0.059079138258505859 -0.085548430870075645 0 -0.054288278153790691 -0.1071032277650306 0 -0.070774609115397819 -0.071776780587102254 0 -0.04737860375682202 -0.058669124134007787 0 -0.059079138258505859 -0.085548430870075645 0 -0.070774609115397819 -0.071776780587102254 0 -0.04737860375682202 -0.058669124134007787 0 -0.054288278153790691 -0.1071032277650306 0 -0.054470287175093453 -0.13291064265191069 0 -0.078724650416178071 -0.12777160782596589 0 -0.054288278153790691 -0.1071032277650306 0 -0.054470287175093453 -0.13291064265191069 0 -0.032107770886182649 -0.12701965578744259 0 -0.054288278153790691 -0.1071032277650306 0 -0.054470287175093453 -0.13291064265191069 0 -0.03394714341898325 -0.082480398872486607 0 -0.054288278153790691 -0.1071032277650306 0 -0.02333438085343505 -0.1058655271311756 0 -0.054288278153790691 -0.1071032277650306 0 -0.02333438085343505 -0.1058655271311756 0 -0.032107770886182649 -0.12701965578744259 0 -0.02333438085343505 -0.1058655271311756 0 -0.0089878574339946702 -0.12543032152393041 0 -0.02333438085343505 -0.1058655271311756 0 -0.0089878574339946702 -0.12543032152393041 0 -0.032107770886182649 -0.12701965578744259 0 -0.015672737849459221 -0.090640192018218324 0 -0.02333438085343505 -0.1058655271311756 0 0.001564292753361757 -0.097273036926078374 0 -0.02333438085343505 -0.1058655271311756 0 0.0034213182336197468 -0.1141359666180068 0 0.001564292753361757 -0.097273036926078374 0 -0.02333438085343505 -0.1058655271311756 0 -0.0089878574339946702 -0.12543032152393041 0 0.0034213182336197468 -0.1141359666180068 0 -0.0089878574339946702 -0.12543032152393041 0 0.0053586659854457626 -0.14499511591668521 0 -0.0089878574339946702 -0.12543032152393041 0 -0.01730971289890218 -0.14181826188238369 0 0.0053586659854457626 -0.14499511591668521 0 -0.0089878574339946702 -0.12543032152393041 0 -0.01730971289890218 -0.14181826188238369 0 -0.032107770886182649 -0.12701965578744259 0 -0.01730971289890218 -0.14181826188238369 0 -0.032107770886182649 -0.12701965578744259 0 -0.034256108801879903 -0.148989953770225 0 -0.01730971289890218 -0.14181826188238369 0 -0.01382681022667304 -0.15986506926061031 0 -0.034256108801879903 -0.148989953770225 0 -0.01382681022667304 -0.15986506926061031 0 0.0037966650830259709 -0.16360897145393929 0 0.0053586659854457626 -0.14499511591668521 0 -0.01730971289890218 -0.14181826188238369 0 -0.01382681022667304 -0.15986506926061031 0 0.0053586659854457626 -0.14499511591668521 0 -0.01382681022667304 -0.15986506926061031 0 -0.0040505174061042691 -0.1747768553057171 0 0.0037966650830259709 -0.16360897145393929 0 -0.01382681022667304 -0.15986506926061031 0 -0.0040505174061042691 -0.1747768553057171 0 -0.016905856697084842 -0.18129887685040599 0 -0.0040505174061042691 -0.1747768553057171 0 -0.0088737154476816547 -0.18512349771398351 0 -0.00042353034902907998 -0.1899398315756323 0 -0.0088737154476816547 -0.18512349771398351 0 -0.016905856697084842 -0.18129887685040599 0 -0.013923170641712361 -0.1927570181668139 0 -0.0040505174061042691 -0.1747768553057171 0 -0.0088737154476816547 -0.18512349771398351 0 -0.016905856697084842 -0.18129887685040599 0 -0.01382681022667304 -0.15986506926061031 0 -0.016905856697084842 -0.18129887685040599 0 -0.026184471447561041 -0.1773283909378856 0 -0.016905856697084842 -0.18129887685040599 0 -0.029471791574381428 -0.1863783174505444 0 -0.02232480098983957 -0.19240100145614311 0 -0.016905856697084842 -0.18129887685040599 0 -0.026184471447561041 -0.1773283909378856 0 -0.029471791574381428 -0.1863783174505444 0 -0.01382681022667304 -0.15986506926061031 0 -0.03433055772218669 -0.17219527084314021 0 -0.01382681022667304 -0.15986506926061031 0 -0.026184471447561041 -0.1773283909378856 0 -0.03433055772218669 -0.17219527084314021 0 -0.01382681022667304 -0.15986506926061031 0 -0.03433055772218669 -0.17219527084314021 0 -0.034256108801879903 -0.148989953770225 0 -0.03433055772218669 -0.17219527084314021 0 -0.054652296196396187 -0.15871805753879101 0 -0.034256108801879903 -0.148989953770225 0 -0.03433055772218669 -0.17219527084314021 0 -0.04045446326909953 -0.18249676634993869 0 -0.054834305217699622 -0.18452547242567119 0 -0.03433055772218669 -0.17219527084314021 0 -0.054834305217699622 -0.18452547242567119 0 -0.026184471447561041 -0.1773283909378856 0 -0.029471791574381428 -0.1863783174505444 0 -0.04045446326909953 -0.18249676634993869 0 -0.026184471447561041 -0.1773283909378856 0 -0.03433055772218669 -0.17219527084314021 0 -0.04045446326909953 -0.18249676634993869 0 -0.04045446326909953 -0.18249676634993869 0 -0.054834305217699622 -0.18452547242567119 0 -0.046018831724222831 -0.19367744617130009 0 -0.054834305217699622 -0.18452547242567119 0 -0.054652296196396187 -0.15871805753879101 0 -0.03433055772218669 -0.17219527084314021 0 -0.054834305217699622 -0.18452547242567119 0 -0.054652296196396187 -0.15871805753879101 0 -0.054652296196396187 -0.15871805753879101 0 -0.054470287175093453 -0.13291064265191069 0 -0.054652296196396187 -0.15871805753879101 0 -0.054470287175093453 -0.13291064265191069 0 -0.070290831584532976 -0.14695369633001029 0 -0.054652296196396187 -0.15871805753879101 0 -0.054470287175093453 -0.13291064265191069 0 -0.034256108801879903 -0.148989953770225 0 -0.054470287175093453 -0.13291064265191069 0 -0.032107770886182649 -0.12701965578744259 0 -0.034256108801879903 -0.148989953770225 0 -0.015089489177968851 -0.24696872467418449 0 -0.024864186362238281 -0.2221236817724086 0 -0.036412461327737192 -0.2373306365824594 0 -0.017760213828408821 -0.24916002876198101 0 -0.036412461327737192 -0.2373306365824594 0 -0.015089489177968851 -0.24696872467418449 0 -0.024864186362238281 -0.2221236817724086 0 -0.017760213828408821 -0.24916002876198101 0 -0.036412461327737192 -0.2373306365824594 0 -0.033591187719020039 -0.2474304388597604 0 -0.017760213828408821 -0.24916002876198101 0 -0.015089489177968851 -0.24696872467418449 0 -0.036412461327737192 -0.2373306365824594 0 -0.017760213828408821 -0.24916002876198101 0 -0.015089489177968851 -0.24696872467418449 0 -0.015089489177968851 -0.24696872467418449 0 -0.0070828108830038976 -0.2488615216259579 0 -0.001881885382039553 -0.24445819588247239 0 -0.015089489177968851 -0.24696872467418449 0 -0.0087864639851807733 -0.23034617559842629 0 -0.014995090305124069 -0.22995274907135621 0 -0.015089489177968851 -0.24696872467418449 0 -0.0087864639851807733 -0.23034617559842629 0 0.0023598747812821771 -0.2326516880724934 0 -0.013049978758831109 -0.25215269333395263 0 -0.017760213828408821 -0.24916002876198101 0 -0.015089489177968851 -0.24696872467418449 0 -0.015089489177968851 -0.24696872467418449 0 -0.001881885382039553 -0.24445819588247239 0 0.0023598747812821771 -0.2326516880724934 0 -0.015089489177968851 -0.24696872467418449 0 0.0023598747812821771 -0.2326516880724934 0 -0.013049978758831109 -0.25215269333395263 0 -0.015089489177968851 -0.24696872467418449 0 -0.0070828108830038976 -0.2488615216259579 0 -0.013049978758831109 -0.25215269333395263 0 -0.015089489177968851 -0.24696872467418449 0 -0.0070828108830038976 -0.2488615216259579 0 -0.001881885382039553 -0.24445819588247239 0 0.0077128033696945118 -0.25552343662526023 0 -0.0087864639851807733 -0.23034617559842629 0 -0.014995090305124069 -0.22995274907135621 0 -0.011240221695108261 -0.22037241424040549 0 -0.0087864639851807733 -0.23034617559842629 0 -0.003045958614449088 -0.22454262568252861 0 0.0023598747812821771 -0.2326516880724934 0 -0.0087864639851807733 -0.23034617559842629 0 -0.003045958614449088 -0.22454262568252861 0 -0.011240221695108261 -0.22037241424040549 0 -0.003045958614449088 -0.22454262568252861 0 -0.011240221695108261 -0.22037241424040549 0 -0.0038769997414961109 -0.21422467502611309 0 -0.003045958614449088 -0.22454262568252861 0 -0.0038769997414961109 -0.21422467502611309 0 0.0046502749744136568 -0.21863994751338819 0 -0.015089489177968851 -0.24696872467418449 0 -0.014995090305124069 -0.22995274907135621 0 -0.024864186362238281 -0.2221236817724086 0 -0.014995090305124069 -0.22995274907135621 0 -0.011240221695108261 -0.22037241424040549 0 -0.024864186362238281 -0.2221236817724086 0 -0.024864186362238281 -0.2221236817724086 0 -0.036412461327737192 -0.2373306365824594 0 -0.024864186362238281 -0.2221236817724086 0 -0.029276442678097751 -0.21090873614345851 0 -0.039574008052238818 -0.22470928146405031 0 -0.024864186362238281 -0.2221236817724086 0 -0.029276442678097751 -0.21090873614345851 0 -0.01264385835563326 -0.20603175667402079 0 -0.024864186362238281 -0.2221236817724086 0 -0.01264385835563326 -0.20603175667402079 0 -0.029276442678097751 -0.21090873614345851 0 -0.01264385835563326 -0.20603175667402079 0 -0.022367262011005789 -0.20174714473069769 0 -0.011240221695108261 -0.22037241424040549 0 -0.024864186362238281 -0.2221236817724086 0 -0.01264385835563326 -0.20603175667402079 0 -0.024864186362238281 -0.2221236817724086 0 -0.029276442678097751 -0.21090873614345851 0 -0.029276442678097751 -0.21090873614345851 0 -0.022367262011005789 -0.20174714473069769 0 -0.011240221695108261 -0.22037241424040549 0 -0.0038769997414961109 -0.21422467502611309 0 -0.01264385835563326 -0.20603175667402079 0 -0.0038769997414961109 -0.21422467502611309 0 -0.003635495953496444 -0.2049843094023977 0 0.002536162195166944 -0.21032104028401299 0 -0.0038769997414961109 -0.21422467502611309 0 -0.003635495953496444 -0.2049843094023977 0 -0.01264385835563326 -0.20603175667402079 0 -0.01264385835563326 -0.20603175667402079 0 -0.00042353034902907998 -0.1899398315756323 0 -0.013923170641712361 -0.1927570181668139 0 -0.01264385835563326 -0.20603175667402079 0 -0.00042353034902907998 -0.1899398315756323 0 -0.003635495953496444 -0.2049843094023977 0 -0.01264385835563326 -0.20603175667402079 0 -0.00042353034902907998 -0.1899398315756323 0 -0.0088737154476816547 -0.18512349771398351 0 -0.00042353034902907998 -0.1899398315756323 0 -0.013923170641712361 -0.1927570181668139 0 -0.016905856697084842 -0.18129887685040599 0 -0.013923170641712361 -0.1927570181668139 0 -0.02232480098983957 -0.19240100145614311 0 -0.01264385835563326 -0.20603175667402079 0 -0.013923170641712361 -0.1927570181668139 0 -0.022367262011005789 -0.20174714473069769 0 -0.013923170641712361 -0.1927570181668139 0 -0.02232480098983957 -0.19240100145614311 0 -0.022367262011005789 -0.20174714473069769 0 -0.029276442678097751 -0.21090873614345851 0 -0.022367262011005789 -0.20174714473069769 0 -0.03486545297359829 -0.1967027512466985 0 -0.02232480098983957 -0.19240100145614311 0 -0.022367262011005789 -0.20174714473069769 0 -0.03486545297359829 -0.1967027512466985 0 -0.029471791574381428 -0.1863783174505444 0 -0.02232480098983957 -0.19240100145614311 0 -0.03486545297359829 -0.1967027512466985 0 -0.029471791574381428 -0.1863783174505444 0 -0.04045446326909953 -0.18249676634993869 0 -0.03486545297359829 -0.1967027512466985 0 -0.04045446326909953 -0.18249676634993869 0 -0.03486545297359829 -0.1967027512466985 0 -0.03486545297359829 -0.1967027512466985 0 -0.046018831724222831 -0.19367744617130009 0 -0.042477720933466988 -0.20790004355982719 0 -0.04045446326909953 -0.18249676634993869 0 -0.03486545297359829 -0.1967027512466985 0 -0.046018831724222831 -0.19367744617130009 0 -0.054834305217699622 -0.18452547242567119 0 -0.054962196643788083 -0.20265944770850419 0 -0.076112802624755616 -0.19732158018400739 0 -0.054834305217699622 -0.18452547242567119 0 -0.046018831724222831 -0.19367744617130009 0 -0.054962196643788083 -0.20265944770850419 0 -0.054834305217699622 -0.18452547242567119 0 -0.054962196643788083 -0.20265944770850419 0 -0.046018831724222831 -0.19367744617130009 0 -0.054962196643788083 -0.20265944770850419 0 -0.042477720933466988 -0.20790004355982719 0 -0.054962196643788083 -0.20265944770850419 0 -0.055090088069876718 -0.2207934229913372 0 -0.054962196643788083 -0.20265944770850419 0 -0.042477720933466988 -0.20790004355982719 0 -0.055090088069876718 -0.2207934229913372 0 -0.054962196643788083 -0.20265944770850419 0 -0.055090088069876718 -0.2207934229913372 0 -0.067228961375756138 -0.21772988440233551 0 -0.029276442678097751 -0.21090873614345851 0 -0.042477720933466988 -0.20790004355982719 0 -0.039574008052238818 -0.22470928146405031 0 -0.042477720933466988 -0.20790004355982719 0 -0.039574008052238818 -0.22470928146405031 0 -0.055090088069876718 -0.2207934229913372 0 -0.029276442678097751 -0.21090873614345851 0 -0.03486545297359829 -0.1967027512466985 0 -0.042477720933466988 -0.20790004355982719 0 -0.029276442678097751 -0.21090873614345851 0 -0.03486545297359829 -0.1967027512466985 0 -0.029276442678097751 -0.21090873614345851 0 -0.039574008052238818 -0.22470928146405031 0 -0.024864186362238281 -0.2221236817724086 0 -0.036623229668375647 -0.23055513593521151 0 -0.039574008052238818 -0.22470928146405031 0 -0.024864186362238281 -0.2221236817724086 0 -0.036623229668375647 -0.23055513593521151 0 -0.036412461327737192 -0.2373306365824594 0 -0.045048395163663733 -0.2318223858823355 0 -0.039574008052238818 -0.22470928146405031 0 -0.036623229668375647 -0.23055513593521151 0 -0.045048395163663733 -0.2318223858823355 0 -0.039574008052238818 -0.22470928146405031 0 -0.036623229668375647 -0.23055513593521151 0 -0.045048395163663733 -0.2318223858823355 0 -0.036412461327737192 -0.2373306365824594 0 -0.045048395163663733 -0.2318223858823355 0 -0.039574008052238818 -0.22470928146405031 0 -0.055122728844434733 -0.2254216222161293 0 -0.039574008052238818 -0.22470928146405031 0 -0.055090088069876718 -0.2207934229913372 0 -0.055122728844434733 -0.2254216222161293 0 -0.039574008052238818 -0.22470928146405031 0 -0.055090088069876718 -0.2207934229913372 0 -0.045048395163663733 -0.2318223858823355 0 -0.055122728844434733 -0.2254216222161293 0 -0.055263398920468838 -0.24536750725184209 0 -0.055122728844434733 -0.2254216222161293 0 -0.055263398920468838 -0.24536750725184209 0 -0.067019608942519904 -0.23211427889814479 0 -0.055090088069876718 -0.2207934229913372 0 -0.067228961375756138 -0.21772988440233551 0 -0.055122728844434733 -0.2254216222161293 0 -0.067228961375756138 -0.21772988440233551 0 -0.055090088069876718 -0.2207934229913372 0 -0.055122728844434733 -0.2254216222161293 0 -0.067228961375756138 -0.21772988440233551 0 -0.055090088069876718 -0.2207934229913372 0 -0.055122728844434733 -0.2254216222161293 0 -0.045048395163663733 -0.2318223858823355 0 -0.055122728844434733 -0.2254216222161293 0 -0.045048395163663733 -0.2318223858823355 0 -0.055263398920468838 -0.24536750725184209 0 -0.055122728844434733 -0.2254216222161293 0 -0.055263398920468838 -0.24536750725184209 0 -0.045048395163663733 -0.2318223858823355 0 -0.055263398920468838 -0.24536750725184209 0 -0.038788259917458379 -0.24045912649975029 0 -0.042202558685923097 -0.25014625336360552 0 -0.055263398920468838 -0.24536750725184209 0 -0.038788259917458379 -0.24045912649975029 0 -0.045048395163663733 -0.2318223858823355 0 -0.036412461327737192 -0.2373306365824594 0 -0.045048395163663733 -0.2318223858823355 0 -0.038788259917458379 -0.24045912649975029 0 -0.036412461327737192 -0.2373306365824594 0 -0.038788259917458379 -0.24045912649975029 0 -0.036412461327737192 -0.2373306365824594 0 -0.033591187719020039 -0.2474304388597604 0 -0.038788259917458379 -0.24045912649975029 0 -0.036412461327737192 -0.2373306365824594 0 -0.042202558685923097 -0.25014625336360552 0 -0.038788259917458379 -0.24045912649975029 0 -0.033591187719020039 -0.2474304388597604 0 -0.081499448744838318 -0.25077911335896341 0 -0.086196829260224317 -0.23714838188283219 0 -0.097556265399133882 -0.24460458119568679 0 -0.086196829260224317 -0.23714838188283219 0 -0.093784581627795238 -0.22803004657689299 0 -0.097556265399133882 -0.24460458119568679 0 -0.081499448744838318 -0.25077911335896341 0 -0.086196829260224317 -0.23714838188283219 0 -0.07549907752537971 -0.23798651767758799 0 -0.081499448744838318 -0.25077911335896341 0 -0.069923026280264061 -0.24601117780127829 0 -0.07549907752537971 -0.23798651767758799 0 -0.055263398920468838 -0.24536750725184209 0 -0.069923026280264061 -0.24601117780127829 0 -0.067019608942519904 -0.23211427889814479 0 -0.069923026280264061 -0.24601117780127829 0 -0.07549907752537971 -0.23798651767758799 0 -0.067019608942519904 -0.23211427889814479 0 -0.07549907752537971 -0.23798651767758799 0 -0.067019608942519904 -0.23211427889814479 0 -0.081029008912404943 -0.22645392168208631 0 -0.055122728844434733 -0.2254216222161293 0 -0.067019608942519904 -0.23211427889814479 0 -0.067228961375756138 -0.21772988440233551 0 -0.081029008912404943 -0.22645392168208631 0 -0.082310130703783596 -0.21392378617233929 0 -0.067228961375756138 -0.21772988440233551 0 -0.067019608942519904 -0.23211427889814479 0 -0.081029008912404943 -0.22645392168208631 0 -0.067228961375756138 -0.21772988440233551 0 -0.081029008912404943 -0.22645392168208631 0 -0.082310130703783596 -0.21392378617233929 0 -0.093866998687105074 -0.21840150449593679 0 -0.086196829260224317 -0.23714838188283219 0 -0.07549907752537971 -0.23798651767758799 0 -0.081029008912404943 -0.22645392168208631 0 -0.086196829260224317 -0.23714838188283219 0 -0.081029008912404943 -0.22645392168208631 0 -0.093784581627795238 -0.22803004657689299 0 -0.081029008912404943 -0.22645392168208631 0 -0.093866998687105074 -0.21840150449593679 0 -0.093784581627795238 -0.22803004657689299 0 -0.078885520710521878 -0.21032384805023691 0 -0.082310130703783596 -0.21392378617233929 0 -0.097391300031811276 -0.21011768794234409 0 -0.078885520710521878 -0.21032384805023691 0 -0.076112802624755616 -0.19732158018400739 0 -0.097391300031811276 -0.21011768794234409 0 -0.076112802624755616 -0.19732158018400739 0 -0.097391300031811276 -0.21011768794234409 0 -0.082310130703783596 -0.21392378617233929 0 -0.097391300031811276 -0.21011768794234409 0 -0.093866998687105074 -0.21840150449593679 0 -0.082310130703783596 -0.21392378617233929 0 -0.097391300031811276 -0.21011768794234409 0 -0.078885520710521878 -0.21032384805023691 0 -0.082310130703783596 -0.21392378617233929 0 -0.067228961375756138 -0.21772988440233551 0 -0.082310130703783596 -0.21392378617233929 0 -0.067228961375756138 -0.21772988440233551 0 -0.078885520710521878 -0.21032384805023691 0 -0.067228961375756138 -0.21772988440233551 0 -0.078885520710521878 -0.21032384805023691 0 -0.067228961375756138 -0.21772988440233551 0 -0.069297370338705422 -0.2070086900862709 0 -0.054962196643788083 -0.20265944770850419 0 -0.067228961375756138 -0.21772988440233551 0 -0.069297370338705422 -0.2070086900862709 0 -0.078885520710521878 -0.21032384805023691 0 -0.069297370338705422 -0.2070086900862709 0 -0.076112802624755616 -0.19732158018400739 0 -0.054834305217699622 -0.18452547242567119 0 -0.076112802624755616 -0.19732158018400739 0 -0.054962196643788083 -0.20265944770850419 0 -0.069297370338705422 -0.2070086900862709 0 -0.076112802624755616 -0.19732158018400739 0 -0.076112802624755616 -0.19732158018400739 0 -0.1019828545311988 -0.19689429312951379 0 -0.1010866478452084 -0.18192944117676921 0 -0.076112802624755616 -0.19732158018400739 0 -0.1019828545311988 -0.19689429312951379 0 -0.097391300031811276 -0.21011768794234409 0 -0.1019828545311988 -0.19689429312951379 0 -0.11755272286149281 -0.19196295344331221 0 -0.1010866478452084 -0.18192944117676921 0 -0.11755272286149281 -0.19196295344331221 0 -0.11711997661658929 -0.2051386787291824 0 -0.1368486532013676 -0.20015966951602149 0 -0.1019828545311988 -0.19689429312951379 0 -0.11755272286149281 -0.19196295344331221 0 -0.11711997661658929 -0.2051386787291824 0 -0.11711997661658929 -0.2051386787291824 0 -0.1248505811981671 -0.21774003829882541 0 -0.1066651810426546 -0.220193336443579 0 -0.1019828545311988 -0.19689429312951379 0 -0.11711997661658929 -0.2051386787291824 0 -0.097391300031811276 -0.21011768794234409 0 -0.11711997661658929 -0.2051386787291824 0 -0.097391300031811276 -0.21011768794234409 0 -0.1066651810426546 -0.220193336443579 0 -0.11711997661658929 -0.2051386787291824 0 -0.097391300031811276 -0.21011768794234409 0 -0.097391300031811276 -0.21011768794234409 0 -0.093866998687105074 -0.21840150449593679 0 -0.1066651810426546 -0.220193336443579 0 -0.093866998687105074 -0.21840150449593679 0 -0.093784581627795238 -0.22803004657689299 0 -0.1066651810426546 -0.220193336443579 0 -0.093784581627795238 -0.22803004657689299 0 -0.1042867652206651 -0.23191906233392451 0 -0.1066651810426546 -0.220193336443579 0 -0.1042867652206651 -0.23191906233392451 0 -0.1066651810426546 -0.220193336443579 0 -0.1161848124205714 -0.23015990425343649 0 -0.1248505811981671 -0.21774003829882541 0 -0.1161848124205714 -0.23015990425343649 0 -0.13260438446059419 -0.2332294142144036 0 -0.1248505811981671 -0.21774003829882541 0 -0.1066651810426546 -0.220193336443579 0 -0.1161848124205714 -0.23015990425343649 0 -0.1042867652206651 -0.23191906233392451 0 -0.1161848124205714 -0.23015990425343649 0 -0.1170603262867584 -0.2452028081966435 0 -0.1161848124205714 -0.23015990425343649 0 -0.1170603262867584 -0.2452028081966435 0 -0.13260438446059419 -0.2332294142144036 0 -0.1069873194961502 -0.25638851522313499 0 -0.1170603262867584 -0.2452028081966435 0 -0.097556265399133882 -0.24460458119568679 0 -0.1042867652206651 -0.23191906233392451 0 -0.1170603262867584 -0.2452028081966435 0 -0.097556265399133882 -0.24460458119568679 0 -0.093784581627795238 -0.22803004657689299 0 -0.1042867652206651 -0.23191906233392451 0 -0.097556265399133882 -0.24460458119568679 0 -0.087847551174106725 -0.14949823055038719 0 -0.070290831584532976 -0.14695369633001029 0 -0.078504559236605723 -0.16835114276509239 0 -0.087847551174106725 -0.14949823055038719 0 -0.078724650416178071 -0.12777160782596589 0 -0.070290831584532976 -0.14695369633001029 0 -0.087847551174106725 -0.14949823055038719 0 -0.078724650416178071 -0.12777160782596589 0 -0.1057880180875464 -0.13778564974607019 0 -0.054470287175093453 -0.13291064265191069 0 -0.078724650416178071 -0.12777160782596589 0 -0.070290831584532976 -0.14695369633001029 0 -0.054834305217699622 -0.18452547242567119 0 -0.054652296196396187 -0.15871805753879101 0 -0.078504559236605723 -0.16835114276509239 0 -0.054652296196396187 -0.15871805753879101 0 -0.070290831584532976 -0.14695369633001029 0 -0.078504559236605723 -0.16835114276509239 0 -0.054834305217699622 -0.18452547242567119 0 -0.076112802624755616 -0.19732158018400739 0 -0.078504559236605723 -0.16835114276509239 0 -0.076112802624755616 -0.19732158018400739 0 -0.078504559236605723 -0.16835114276509239 0 -0.1010866478452084 -0.18192944117676921 0 -0.087847551174106725 -0.14949823055038719 0 -0.078504559236605723 -0.16835114276509239 0 -0.1057100651637583 -0.16092685396573611 0 -0.078504559236605723 -0.16835114276509239 0 -0.1057100651637583 -0.16092685396573611 0 -0.1010866478452084 -0.18192944117676921 0 -0.1057100651637583 -0.16092685396573611 0 -0.1010866478452084 -0.18192944117676921 0 -0.12942383676082631 -0.17969043632116749 0 -0.11755272286149281 -0.19196295344331221 0 -0.1010866478452084 -0.18192944117676921 0 -0.12942383676082631 -0.17969043632116749 0 -0.1057100651637583 -0.16092685396573611 0 -0.12530128969220111 -0.15128535055998901 0 -0.12942383676082631 -0.17969043632116749 0 -0.1057100651637583 -0.16092685396573611 0 -0.1057880180875464 -0.13778564974607019 0 -0.12530128969220111 -0.15128535055998901 0 -0.087847551174106725 -0.14949823055038719 0 -0.1057100651637583 -0.16092685396573611 0 -0.1057880180875464 -0.13778564974607019 0 -0.099842279844565729 -0.11720184303021119 0 -0.078724650416178071 -0.12777160782596589 0 -0.1057880180875464 -0.13778564974607019 0 -0.099842279844565729 -0.11720184303021119 0 -0.12117874262357441 -0.1228802647988107 0 -0.1057880180875464 -0.13778564974607019 0 -0.12117874262357441 -0.1228802647988107 0 -0.12530128969220111 -0.15128535055998901 0 -0.12117874262357441 -0.1228802647988107 0 -0.1057880180875464 -0.13778564974607019 0 -0.12530128969220111 -0.15128535055998901 0 -0.12117874262357441 -0.1228802647988107 0 -0.14069645163019681 -0.12807464893100429 0 -0.12117874262357441 -0.1228802647988107 0 -0.14069645163019681 -0.12807464893100429 0 -0.12530128969220111 -0.15128535055998901 0 -0.14069645163019681 -0.12807464893100429 0 -0.1602141606368194 -0.13326903306319729 0 -0.15821567885880519 -0.12132925680617131 0 -0.14069645163019681 -0.12807464893100429 0 -0.1602141606368194 -0.13326903306319729 0 -0.14069645163019681 -0.12807464893100429 0 -0.14884231989241159 -0.14945869245511351 0 -0.1602141606368194 -0.13326903306319729 0 -0.14884231989241159 -0.14945869245511351 0 -0.12530128969220111 -0.15128535055998901 0 -0.1400181464202796 -0.16417547360795359 0 -0.14069645163019681 -0.12807464893100429 0 -0.14884231989241159 -0.14945869245511351 0 -0.12530128969220111 -0.15128535055998901 0 -0.12530128969220111 -0.15128535055998901 0 -0.1400181464202796 -0.16417547360795359 0 -0.12942383676082631 -0.17969043632116749 0 -0.12530128969220111 -0.15128535055998901 0 -0.12942383676082631 -0.17969043632116749 0 -0.1400181464202796 -0.16417547360795359 0 -0.12942383676082631 -0.17969043632116749 0 -0.1473539697426364 -0.18173570370464351 0 -0.12942383676082631 -0.17969043632116749 0 -0.1473539697426364 -0.18173570370464351 0 -0.1368486532013676 -0.20015966951602149 0 -0.1473539697426364 -0.18173570370464351 0 -0.15790927281919551 -0.1666529514972252 0 -0.1607056726376023 -0.18025734260179141 0 -0.1400181464202796 -0.16417547360795359 0 -0.1473539697426364 -0.18173570370464351 0 -0.15790927281919551 -0.1666529514972252 0 -0.14884231989241159 -0.14945869245511351 0 -0.1400181464202796 -0.16417547360795359 0 -0.15790927281919551 -0.1666529514972252 0 -0.14884231989241159 -0.14945869245511351 0 -0.15790927281919551 -0.1666529514972252 0 -0.16952974151204681 -0.1538539430241814 0 -0.15790927281919551 -0.1666529514972252 0 -0.16958106831637301 -0.16595680788449199 0 -0.1701625370584329 -0.17514984973002409 0 -0.15790927281919551 -0.1666529514972252 0 -0.16958106831637301 -0.16595680788449199 0 -0.16952974151204681 -0.1538539430241814 0 -0.1473539697426364 -0.18173570370464351 0 -0.1607056726376023 -0.18025734260179141 0 -0.1610870232749089 -0.19183106370656869 0 -0.1607056726376023 -0.18025734260179141 0 -0.16761235233043331 -0.18519400177246401 0 -0.1610870232749089 -0.19183106370656869 0 -0.15790927281919551 -0.1666529514972252 0 -0.1607056726376023 -0.18025734260179141 0 -0.1701625370584329 -0.17514984973002409 0 -0.1607056726376023 -0.18025734260179141 0 -0.1701625370584329 -0.17514984973002409 0 -0.16761235233043331 -0.18519400177246401 0 -0.1701625370584329 -0.17514984973002409 0 -0.16761235233043331 -0.18519400177246401 0 -0.1753523720039708 -0.18244709299876449 0 -0.1753523720039708 -0.18244709299876449 0 -0.18495233353966631 -0.18248701616184471 0 -0.17361875845771149 -0.1928135753546211 0 -0.16761235233043331 -0.18519400177246401 0 -0.1753523720039708 -0.18244709299876449 0 -0.17361875845771149 -0.1928135753546211 0 -0.1753523720039708 -0.18244709299876449 0 -0.17779749111947171 -0.1770636115442927 0 -0.18495233353966631 -0.18248701616184471 0 -0.1701625370584329 -0.17514984973002409 0 -0.17779749111947171 -0.1770636115442927 0 -0.18072272187581689 -0.16817048728653741 0 -0.1701625370584329 -0.17514984973002409 0 -0.1753523720039708 -0.18244709299876449 0 -0.17779749111947171 -0.1770636115442927 0 -0.17779749111947171 -0.1770636115442927 0 -0.18495233353966631 -0.18248701616184471 0 -0.18072272187581689 -0.16817048728653741 0 -0.18495233353966631 -0.18248701616184471 0 -0.18462980968726439 -0.1866327437470516 0 -0.17361875845771149 -0.1928135753546211 0 -0.18495233353966631 -0.18248701616184471 0 -0.18462980968726439 -0.1866327437470516 0 -0.18495233353966631 -0.18248701616184471 0 -0.18462980968726439 -0.1866327437470516 0 -0.18869905457464589 -0.1835770729863713 0 -0.18495233353966631 -0.18248701616184471 0 -0.18072272187581689 -0.16817048728653741 0 -0.18711559969470259 -0.15468035285217091 0 -0.18495233353966631 -0.18248701616184471 0 -0.18711559969470259 -0.15468035285217091 0 -0.18072272187581689 -0.16817048728653741 0 -0.18711559969470259 -0.15468035285217091 0 -0.16952974151204681 -0.1538539430241814 0 -0.16958106831637301 -0.16595680788449199 0 -0.18072272187581689 -0.16817048728653741 0 -0.16952974151204681 -0.1538539430241814 0 -0.16958106831637301 -0.16595680788449199 0 -0.1701625370584329 -0.17514984973002409 0 -0.18072272187581689 -0.16817048728653741 0 -0.18711559969470259 -0.15468035285217091 0 -0.17973186964344201 -0.13846341719539029 0 -0.16952974151204681 -0.1538539430241814 0 -0.18711559969470259 -0.15468035285217091 0 -0.17973186964344201 -0.13846341719539029 0 -0.19386186577641579 -0.1418193014304639 0 -0.17973186964344201 -0.13846341719539029 0 -0.19386186577641579 -0.1418193014304639 0 -0.18681677629379029 -0.1247281405716936 0 -0.17973186964344201 -0.13846341719539029 0 -0.18681677629379029 -0.1247281405716936 0 -0.17168545447429709 -0.1232206062879791 0 -0.17973186964344201 -0.13846341719539029 0 -0.1602141606368194 -0.13326903306319729 0 -0.17168545447429709 -0.1232206062879791 0 -0.17973186964344201 -0.13846341719539029 0 -0.1602141606368194 -0.13326903306319729 0 -0.1602141606368194 -0.13326903306319729 0 -0.17168545447429709 -0.1232206062879791 0 -0.15821567885880519 -0.12132925680617131 0 -0.17973186964344201 -0.13846341719539029 0 -0.1602141606368194 -0.13326903306319729 0 -0.16952974151204681 -0.1538539430241814 0 -0.14884231989241159 -0.14945869245511351 0 -0.1602141606368194 -0.13326903306319729 0 -0.16952974151204681 -0.1538539430241814 0 -0.15007681268776141 -0.25728058536948423 0 -0.14791063290864759 -0.24239147380908149 0 -0.1601828239237596 -0.24886824238766611 0 -0.14791063290864759 -0.24239147380908149 0 -0.1515323733798353 -0.22744319423254941 0 -0.1635064296370497 -0.23772614890988161 0 -0.13578099065343019 -0.25304605482211701 0 -0.1170603262867584 -0.2452028081966435 0 -0.13260438446059419 -0.2332294142144036 0 -0.13578099065343019 -0.25304605482211701 0 -0.14791063290864759 -0.24239147380908149 0 -0.13260438446059419 -0.2332294142144036 0 -0.1248505811981671 -0.21774003829882541 0 -0.13260438446059419 -0.2332294142144036 0 -0.13968047944722559 -0.2175592266363294 0 -0.13260438446059419 -0.2332294142144036 0 -0.1515323733798353 -0.22744319423254941 0 -0.13968047944722559 -0.2175592266363294 0 -0.14791063290864759 -0.24239147380908149 0 -0.13260438446059419 -0.2332294142144036 0 -0.1515323733798353 -0.22744319423254941 0 -0.1533857584764394 -0.2088526428639178 0 -0.13968047944722559 -0.2175592266363294 0 -0.1368486532013676 -0.20015966951602149 0 -0.1515323733798353 -0.22744319423254941 0 -0.1533857584764394 -0.2088526428639178 0 -0.13968047944722559 -0.2175592266363294 0 -0.1248505811981671 -0.21774003829882541 0 -0.13968047944722559 -0.2175592266363294 0 -0.1368486532013676 -0.20015966951602149 0 -0.11711997661658929 -0.2051386787291824 0 -0.1248505811981671 -0.21774003829882541 0 -0.1368486532013676 -0.20015966951602149 0 -0.11711997661658929 -0.2051386787291824 0 -0.1368486532013676 -0.20015966951602149 0 -0.11755272286149281 -0.19196295344331221 0 -0.12942383676082631 -0.17969043632116749 0 -0.1368486532013676 -0.20015966951602149 0 -0.1533857584764394 -0.2088526428639178 0 -0.1368486532013676 -0.20015966951602149 0 -0.1496688511738381 -0.19564476994778779 0 -0.1533857584764394 -0.2088526428639178 0 -0.1496688511738381 -0.19564476994778779 0 -0.1610870232749089 -0.19183106370656869 0 -0.1473539697426364 -0.18173570370464351 0 -0.1368486532013676 -0.20015966951602149 0 -0.1496688511738381 -0.19564476994778779 0 -0.1473539697426364 -0.18173570370464351 0 -0.1496688511738381 -0.19564476994778779 0 -0.1610870232749089 -0.19183106370656869 0 -0.1533857584764394 -0.2088526428639178 0 -0.1610870232749089 -0.19183106370656869 0 -0.1677822363770862 -0.20507897957733559 0 -0.1610870232749089 -0.19183106370656869 0 -0.17361875845771149 -0.1928135753546211 0 -0.1677822363770862 -0.20507897957733559 0 -0.16761235233043331 -0.18519400177246401 0 -0.1610870232749089 -0.19183106370656869 0 -0.17361875845771149 -0.1928135753546211 0 -0.18462980968726439 -0.1866327437470516 0 -0.17361875845771149 -0.1928135753546211 0 -0.18278906738462999 -0.21029367947151839 0 -0.18462980968726439 -0.1866327437470516 0 -0.18278906738462999 -0.21029367947151839 0 -0.17361875845771149 -0.1928135753546211 0 -0.18278906738462999 -0.21029367947151839 0 -0.1677822363770862 -0.20507897957733559 0 -0.18278906738462999 -0.21029367947151839 0 -0.1677822363770862 -0.20507897957733559 0 -0.16803057429174101 -0.22160393649005189 0 -0.1533857584764394 -0.2088526428639178 0 -0.1677822363770862 -0.20507897957733559 0 -0.16803057429174101 -0.22160393649005189 0 -0.1515323733798353 -0.22744319423254941 0 -0.1533857584764394 -0.2088526428639178 0 -0.16803057429174101 -0.22160393649005189 0 -0.1515323733798353 -0.22744319423254941 0 -0.16803057429174101 -0.22160393649005189 0 -0.1635064296370497 -0.23772614890988161 0 -0.16803057429174101 -0.22160393649005189 0 -0.18062580122959371 -0.2381003427811921 0 -0.1635064296370497 -0.23772614890988161 0 -0.18278906738462999 -0.21029367947151839 0 -0.18062580122959371 -0.2381003427811921 0 -0.18278906738462999 -0.21029367947151839 0 -0.18062580122959371 -0.2381003427811921 0 -0.1953625744425885 -0.21685660606735371 0 -0.18278906738462999 -0.21029367947151839 0 -0.16803057429174101 -0.22160393649005189 0 -0.18062580122959371 -0.2381003427811921 0 -0.18062580122959371 -0.2381003427811921 0 -0.17000867495713401 -0.24998188647255079 0 -0.1635064296370497 -0.23772614890988161 0 -0.17000867495713401 -0.24998188647255079 0 -0.1635064296370497 -0.23772614890988161 0 -0.1601828239237596 -0.24886824238766611 0 -0.14791063290864759 -0.24239147380908149 0 -0.1635064296370497 -0.23772614890988161 0 -0.1601828239237596 -0.24886824238766611 0 -0.20827494541281161 -0.25933603756296519 0 -0.21447978296697701 -0.23967145649651861 0 -0.2015485111905361 -0.24623040446905001 0 -0.21447978296697701 -0.23967145649651861 0 -0.2015485111905361 -0.24623040446905001 0 -0.1988216408852638 -0.2306116031441986 0 -0.18864208797991069 -0.24825930461753229 0 -0.1988216408852638 -0.2306116031441986 0 -0.2015485111905361 -0.24623040446905001 0 -0.18864208797991069 -0.24825930461753229 0 -0.1988216408852638 -0.2306116031441986 0 -0.18062580122959371 -0.2381003427811921 0 -0.18864208797991069 -0.24825930461753229 0 -0.1988216408852638 -0.2306116031441986 0 -0.18062580122959371 -0.2381003427811921 0 -0.1988216408852638 -0.2306116031441986 0 -0.1953625744425885 -0.21685660606735371 0 -0.1988216408852638 -0.2306116031441986 0 -0.20900119379061691 -0.21296390167086501 0 -0.1953625744425885 -0.21685660606735371 0 -0.21447978296697701 -0.23967145649651861 0 -0.1988216408852638 -0.2306116031441986 0 -0.21201736257830411 -0.22646342637826741 0 -0.1988216408852638 -0.2306116031441986 0 -0.21201736257830411 -0.22646342637826741 0 -0.20900119379061691 -0.21296390167086501 0 -0.1988216408852638 -0.2306116031441986 0 -0.20900119379061691 -0.21296390167086501 0 -0.21447978296697701 -0.23967145649651861 0 -0.21201736257830411 -0.22646342637826741 0 -0.2258273840328649 -0.227249396419785 0 -0.21764197769992311 -0.2203549796357569 0 -0.21201736257830411 -0.22646342637826741 0 -0.20900119379061691 -0.21296390167086501 0 -0.21764197769992311 -0.2203549796357569 0 -0.21201736257830411 -0.22646342637826741 0 -0.2258273840328649 -0.227249396419785 0 -0.20900119379061691 -0.21296390167086501 0 -0.21242766212454961 -0.19739468352109391 0 -0.22372197039790681 -0.2147431940741103 0 -0.21764197769992311 -0.2203549796357569 0 -0.20900119379061691 -0.21296390167086501 0 -0.22372197039790681 -0.2147431940741103 0 -0.20900119379061691 -0.21296390167086501 0 -0.19687065975454071 -0.20483054774599779 0 -0.21242766212454961 -0.19739468352109391 0 -0.20900119379061691 -0.21296390167086501 0 -0.1953625744425885 -0.21685660606735371 0 -0.19687065975454071 -0.20483054774599779 0 -0.18278906738462999 -0.21029367947151839 0 -0.1953625744425885 -0.21685660606735371 0 -0.19687065975454071 -0.20483054774599779 0 -0.18462980968726439 -0.1866327437470516 0 -0.21242766212454961 -0.19739468352109391 0 -0.18462980968726439 -0.1866327437470516 0 -0.21242766212454961 -0.19739468352109391 0 -0.19389271143790851 -0.18492137902275141 0 -0.18462980968726439 -0.1866327437470516 0 -0.19687065975454071 -0.20483054774599779 0 -0.21242766212454961 -0.19739468352109391 0 -0.18462980968726439 -0.1866327437470516 0 -0.18278906738462999 -0.21029367947151839 0 -0.19687065975454071 -0.20483054774599779 0 -0.21242766212454961 -0.19739468352109391 0 -0.19389271143790851 -0.18492137902275141 0 -0.20631849173888861 -0.18319898400955459 0 -0.21242766212454961 -0.19739468352109391 0 -0.20631849173888861 -0.18319898400955459 0 -0.21971610970000999 -0.18433149097163451 0 -0.21242766212454961 -0.19739468352109391 0 -0.2268996604223654 -0.19332627414887449 0 -0.24008252321878201 -0.20814549904302651 0 -0.21242766212454961 -0.19739468352109391 0 -0.24008252321878201 -0.20814549904302651 0 -0.2268996604223654 -0.19332627414887449 0 -0.24008252321878201 -0.20814549904302651 0 -0.23537234664612 -0.18343342305974319 0 -0.21242766212454961 -0.19739468352109391 0 -0.2268996604223654 -0.19332627414887449 0 -0.21971610970000999 -0.18433149097163451 0 -0.24008252321878201 -0.20814549904302651 0 -0.23537234664612 -0.18343342305974319 0 -0.24878291810700151 -0.17918852569577681 0 -0.24008252321878201 -0.20814549904302651 0 -0.24878291810700151 -0.17918852569577681 0 -0.24008252321878201 -0.20814549904302651 0 -0.24878291810700151 -0.17918852569577681 0 -0.25353669960091152 -0.19282343679274641 0 -0.24008252321878201 -0.20814549904302651 0 -0.25353669960091152 -0.19282343679274641 0 -0.25438680398690172 -0.20251133694302151 0 -0.24008252321878201 -0.20814549904302651 0 -0.25740589514740242 -0.21487995253342729 0 -0.24008252321878201 -0.20814549904302651 0 -0.24471244520990429 -0.22185894557451369 0 -0.25740589514740242 -0.21487995253342729 0 -0.21242766212454961 -0.19739468352109391 0 -0.24008252321878201 -0.20814549904302651 0 -0.22372197039790681 -0.2147431940741103 0 -0.24008252321878201 -0.20814549904302651 0 -0.22372197039790681 -0.2147431940741103 0 -0.2333385381686944 -0.23059107741717991 0 -0.21447978296697701 -0.23967145649651861 0 -0.2258273840328649 -0.227249396419785 0 -0.2333385381686944 -0.23059107741717991 0 -0.22372197039790681 -0.2147431940741103 0 -0.2258273840328649 -0.227249396419785 0 -0.2333385381686944 -0.23059107741717991 0 -0.21764197769992311 -0.2203549796357569 0 -0.22372197039790681 -0.2147431940741103 0 -0.2258273840328649 -0.227249396419785 0 -0.2258273840328649 -0.227249396419785 0 -0.2333385381686944 -0.23059107741717991 0 -0.2333385381686944 -0.23059107741717991 0 -0.24471244520990429 -0.22185894557451369 0 -0.26032213834395679 -0.24259596805267519 0 -0.24008252321878201 -0.20814549904302651 0 -0.2333385381686944 -0.23059107741717991 0 -0.24471244520990429 -0.22185894557451369 0 -0.24008252321878201 -0.20814549904302651 0 -0.2333385381686944 -0.23059107741717991 0 -0.2333385381686944 -0.23059107741717991 0 -0.26032213834395679 -0.24259596805267519 0 -0.2333385381686944 -0.23059107741717991 0 -0.2429608819307563 -0.24588513863669609 0 -0.26032213834395679 -0.24259596805267519 0 -0.22521830404931231 -0.25761713841664102 0 -0.21447978296697701 -0.23967145649651861 0 -0.2333385381686944 -0.23059107741717991 0 -0.22521830404931231 -0.25761713841664102 0 -0.2333385381686944 -0.23059107741717991 0 -0.22521830404931231 -0.25761713841664102 0 -0.2333385381686944 -0.23059107741717991 0 -0.2429608819307563 -0.24588513863669609 0 -0.21248025280728569 -0.1516512957936782 0 -0.20745771998843221 -0.13671327577809381 0 -0.2280986636830741 -0.14869841098449399 0 -0.21248025280728569 -0.1516512957936782 0 -0.20745771998843221 -0.13671327577809381 0 -0.19386186577641579 -0.1418193014304639 0 -0.20745771998843221 -0.13671327577809381 0 -0.2280986636830741 -0.14869841098449399 0 -0.20745771998843221 -0.13671327577809381 0 -0.22990667709078441 -0.1235305701763157 0 -0.21352795006913411 -0.12134470331503359 0 -0.20745771998843221 -0.13671327577809381 0 -0.21352795006913411 -0.12134470331503359 0 -0.18681677629379029 -0.1247281405716936 0 -0.20745771998843221 -0.13671327577809381 0 -0.18681677629379029 -0.1247281405716936 0 -0.20745771998843221 -0.13671327577809381 0 -0.19386186577641579 -0.1418193014304639 0 -0.18681677629379029 -0.1247281405716936 0 -0.18711559969470259 -0.15468035285217091 0 -0.19386186577641579 -0.1418193014304639 0 -0.2001789148181678 -0.15745867600766431 0 -0.21248025280728569 -0.1516512957936782 0 -0.19386186577641579 -0.1418193014304639 0 -0.2001789148181678 -0.15745867600766431 0 -0.18711559969470259 -0.15468035285217091 0 -0.19704935966476869 -0.16854312771933361 0 -0.19148828469207579 -0.1758378033411605 0 -0.18711559969470259 -0.15468035285217091 0 -0.19704935966476869 -0.16854312771933361 0 -0.2001789148181678 -0.15745867600766431 0 -0.18495233353966631 -0.18248701616184471 0 -0.18711559969470259 -0.15468035285217091 0 -0.19148828469207579 -0.1758378033411605 0 -0.19704935966476869 -0.16854312771933361 0 -0.2001789148181678 -0.15745867600766431 0 -0.2096177556436119 -0.1711085238269659 0 -0.18462980968726439 -0.1866327437470516 0 -0.19389271143790851 -0.18492137902275141 0 -0.18869905457464589 -0.1835770729863713 0 -0.19389271143790851 -0.18492137902275141 0 -0.18869905457464589 -0.1835770729863713 0 -0.19148828469207579 -0.1758378033411605 0 -0.18495233353966631 -0.18248701616184471 0 -0.18869905457464589 -0.1835770729863713 0 -0.19148828469207579 -0.1758378033411605 0 -0.19389271143790851 -0.18492137902275141 0 -0.19148828469207579 -0.1758378033411605 0 -0.1989956163382621 -0.17756348592221921 0 -0.19704935966476869 -0.16854312771933361 0 -0.19148828469207579 -0.1758378033411605 0 -0.1989956163382621 -0.17756348592221921 0 -0.19704935966476869 -0.16854312771933361 0 -0.1989956163382621 -0.17756348592221921 0 -0.2096177556436119 -0.1711085238269659 0 -0.19389271143790851 -0.18492137902275141 0 -0.1989956163382621 -0.17756348592221921 0 -0.20631849173888861 -0.18319898400955459 0 -0.1989956163382621 -0.17756348592221921 0 -0.20631849173888861 -0.18319898400955459 0 -0.2096177556436119 -0.1711085238269659 0 -0.20631849173888861 -0.18319898400955459 0 -0.2096177556436119 -0.1711085238269659 0 -0.21971610970000999 -0.18433149097163451 0 -0.2096177556436119 -0.1711085238269659 0 -0.21971610970000999 -0.18433149097163451 0 -0.2242781645722294 -0.17385093141989799 0 -0.21248025280728569 -0.1516512957936782 0 -0.2001789148181678 -0.15745867600766431 0 -0.2096177556436119 -0.1711085238269659 0 -0.21248025280728569 -0.1516512957936782 0 -0.2096177556436119 -0.1711085238269659 0 -0.22254282923608801 -0.1627916110579159 0 -0.22254282923608801 -0.1627916110579159 0 -0.23414178163531679 -0.16758960818323071 0 -0.2280986636830741 -0.14869841098449399 0 -0.2096177556436119 -0.1711085238269659 0 -0.22254282923608801 -0.1627916110579159 0 -0.2242781645722294 -0.17385093141989799 0 -0.22254282923608801 -0.1627916110579159 0 -0.23414178163531679 -0.16758960818323071 0 -0.2242781645722294 -0.17385093141989799 0 -0.23414178163531679 -0.16758960818323071 0 -0.2242781645722294 -0.17385093141989799 0 -0.23537234664612 -0.18343342305974319 0 -0.21971610970000999 -0.18433149097163451 0 -0.2242781645722294 -0.17385093141989799 0 -0.23537234664612 -0.18343342305974319 0 -0.2268996604223654 -0.19332627414887449 0 -0.21971610970000999 -0.18433149097163451 0 -0.23537234664612 -0.18343342305974319 0 -0.23414178163531679 -0.16758960818323071 0 -0.23537234664612 -0.18343342305974319 0 -0.2424310785570786 -0.17437199120942781 0 -0.23537234664612 -0.18343342305974319 0 -0.24878291810700151 -0.17918852569577681 0 -0.2424310785570786 -0.17437199120942781 0 -0.24878291810700151 -0.17918852569577681 0 -0.25038573328596542 -0.17385397743513781 0 -0.23537234664612 -0.18343342305974319 0 -0.2424310785570786 -0.17437199120942781 0 -0.24878291810700151 -0.17918852569577681 0 -0.24878291810700151 -0.17918852569577681 0 -0.25038573328596542 -0.17385397743513781 0 -0.23414178163531679 -0.16758960818323071 0 -0.24873960737771611 -0.1606835461908942 0 -0.2280986636830741 -0.14869841098449399 0 -0.23414178163531679 -0.16758960818323071 0 -0.2424310785570786 -0.17437199120942781 0 -0.24873960737771611 -0.1606835461908942 0 -0.2424310785570786 -0.17437199120942781 0 -0.24873960737771611 -0.1606835461908942 0 -0.25038573328596542 -0.17385397743513781 0 -0.24873960737771611 -0.1606835461908942 0 -0.24703704596412951 -0.14205729643033579 0 -0.2280986636830741 -0.14869841098449399 0 -0.24873960737771611 -0.1606835461908942 0 -0.2280986636830741 -0.14869841098449399 0 -0.21248025280728569 -0.1516512957936782 0 -0.22254282923608801 -0.1627916110579159 0 -0.2280986636830741 -0.14869841098449399 0 -0.20745771998843221 -0.13671327577809381 0 -0.2280986636830741 -0.14869841098449399 0 -0.22990667709078441 -0.1235305701763157 0 -0.24703704596412951 -0.14205729643033579 0 -0.22990667709078441 -0.1235305701763157 0 -0.25040147402828211 -0.1224657960648471 0 -0.24703704596412951 -0.14205729643033579 0 -0.2280986636830741 -0.14869841098449399 0 -0.22990667709078441 -0.1235305701763157 0 -0.24502494955393761 -0.1033284177870743 0 -0.22990667709078441 -0.1235305701763157 0 -0.25040147402828211 -0.1224657960648471 0 -0.24502494955393761 -0.1033284177870743 0 -0.23278232439668439 -0.085187282209638365 0 -0.21756958505593299 -0.098318996521597563 0 -0.24502494955393761 -0.1033284177870743 0 -0.21756958505593299 -0.098318996521597563 0 -0.24502494955393761 -0.1033284177870743 0 -0.22990667709078441 -0.1235305701763157 0 -0.21756958505593299 -0.098318996521597563 0 -0.22990667709078441 -0.1235305701763157 0 -0.21352795006913411 -0.12134470331503359 0 -0.21756958505593299 -0.098318996521597563 0 -0.23997624501907941 -0.071351384363865497 0 -0.25543504127230032 -0.058125386979562522 0 -0.25454941042440249 -0.078488406227004939 0 -0.23997624501907941 -0.071351384363865497 0 -0.23278232439668439 -0.085187282209638365 0 -0.25454941042440249 -0.078488406227004939 0 -0.24502494955393761 -0.1033284177870743 0 -0.23278232439668439 -0.085187282209638365 0 -0.25454941042440249 -0.078488406227004939 0 -0.23278232439668439 -0.085187282209638365 0 -0.21768086346586371 -0.080908547460582139 0 -0.21756958505593299 -0.098318996521597563 0 -0.23278232439668439 -0.085187282209638365 0 -0.22473941388137819 -0.071786594915109178 0 -0.21768086346586371 -0.080908547460582139 0 -0.23997624501907941 -0.071351384363865497 0 -0.23278232439668439 -0.085187282209638365 0 -0.22473941388137819 -0.071786594915109178 0 -0.22473941388137819 -0.071786594915109178 0 -0.2327689956036513 -0.057481871521888703 0 -0.21952786353855591 -0.062315021318125469 0 -0.23997624501907941 -0.071351384363865497 0 -0.22473941388137819 -0.071786594915109178 0 -0.2327689956036513 -0.057481871521888703 0 -0.21009463380032589 -0.069561364250478291 0 -0.21119915902056849 -0.056967043554142872 0 -0.21952786353855591 -0.062315021318125469 0 -0.22473941388137819 -0.071786594915109178 0 -0.21009463380032589 -0.069561364250478291 0 -0.21952786353855591 -0.062315021318125469 0 -0.22473941388137819 -0.071786594915109178 0 -0.21009463380032589 -0.069561364250478291 0 -0.21768086346586371 -0.080908547460582139 0 -0.21009463380032589 -0.069561364250478291 0 -0.20321836019499709 -0.079688499406087313 0 -0.19818378028572409 -0.069293505069820641 0 -0.21009463380032589 -0.069561364250478291 0 -0.20321836019499709 -0.079688499406087313 0 -0.21768086346586371 -0.080908547460582139 0 -0.20321836019499709 -0.079688499406087313 0 -0.19011422055792851 -0.093309575256120839 0 -0.21756958505593299 -0.098318996521597563 0 -0.20321836019499709 -0.079688499406087313 0 -0.21768086346586371 -0.080908547460582139 0 -0.21756958505593299 -0.098318996521597563 0 -0.20321836019499709 -0.079688499406087313 0 -0.1805467373173045 -0.08088924384578057 0 -0.20321836019499709 -0.079688499406087313 0 -0.19011422055792851 -0.093309575256120839 0 -0.1805467373173045 -0.08088924384578057 0 -0.19818378028572409 -0.069293505069820641 0 -0.1805467373173045 -0.08088924384578057 0 -0.1860277807999291 -0.067629781049641985 0 -0.20321836019499709 -0.079688499406087313 0 -0.19818378028572409 -0.069293505069820641 0 -0.1805467373173045 -0.08088924384578057 0 -0.19818378028572409 -0.069293505069820641 0 -0.1860277807999291 -0.067629781049641985 0 -0.18815073595095061 -0.057504239086892603 0 -0.21009463380032589 -0.069561364250478291 0 -0.19818378028572409 -0.069293505069820641 0 -0.19938524429328269 -0.058944541210939498 0 -0.21352795006913411 -0.12134470331503359 0 -0.21756958505593299 -0.098318996521597563 0 -0.20118899207036059 -0.1103542152326282 0 -0.19011422055792851 -0.093309575256120839 0 -0.21756958505593299 -0.098318996521597563 0 -0.19011422055792851 -0.093309575256120839 0 -0.21756958505593299 -0.098318996521597563 0 -0.20118899207036059 -0.1103542152326282 0 -0.19011422055792851 -0.093309575256120839 0 -0.18820166238283831 -0.106596514831323 0 -0.20118899207036059 -0.1103542152326282 0 -0.21352795006913411 -0.12134470331503359 0 -0.20118899207036059 -0.1103542152326282 0 -0.18681677629379029 -0.1247281405716936 0 -0.18820166238283831 -0.106596514831323 0 -0.20118899207036059 -0.1103542152326282 0 -0.18681677629379029 -0.1247281405716936 0 -0.18820166238283831 -0.106596514831323 0 -0.18681677629379029 -0.1247281405716936 0 -0.1780591902696913 -0.1123534465164322 0 -0.1780591902696913 -0.1123534465164322 0 -0.17168545447429709 -0.1232206062879791 0 -0.16607806185875551 -0.1092666000463266 0 -0.18681677629379029 -0.1247281405716936 0 -0.1780591902696913 -0.1123534465164322 0 -0.17168545447429709 -0.1232206062879791 0 -0.17168545447429709 -0.1232206062879791 0 -0.15821567885880519 -0.12132925680617131 0 -0.16607806185875551 -0.1092666000463266 0 -0.15821567885880519 -0.12132925680617131 0 -0.16607806185875551 -0.1092666000463266 0 -0.1504102871249989 -0.1129879086450231 0 -0.15819932327181921 -0.099804358640804919 0 -0.16607806185875551 -0.1092666000463266 0 -0.1504102871249989 -0.1129879086450231 0 -0.15819932327181921 -0.099804358640804919 0 -0.162658856059924 -0.088300153990644142 0 -0.1535232342245493 -0.094084912458410067 0 -0.15819932327181921 -0.099804358640804919 0 -0.1654915737374999 -0.098902631070268837 0 -0.162658856059924 -0.088300153990644142 0 -0.15819932327181921 -0.099804358640804919 0 -0.16607806185875551 -0.1092666000463266 0 -0.1654915737374999 -0.098902631070268837 0 -0.16607806185875551 -0.1092666000463266 0 -0.1654915737374999 -0.098902631070268837 0 -0.17503005375950101 -0.098239411603299673 0 -0.1654915737374999 -0.098902631070268837 0 -0.17503005375950101 -0.098239411603299673 0 -0.162658856059924 -0.088300153990644142 0 -0.1780591902696913 -0.1123534465164322 0 -0.16607806185875551 -0.1092666000463266 0 -0.17503005375950101 -0.098239411603299673 0 -0.18820166238283831 -0.106596514831323 0 -0.1780591902696913 -0.1123534465164322 0 -0.17503005375950101 -0.098239411603299673 0 -0.19011422055792851 -0.093309575256120839 0 -0.18820166238283831 -0.106596514831323 0 -0.17503005375950101 -0.098239411603299673 0 -0.19011422055792851 -0.093309575256120839 0 -0.1805467373173045 -0.08088924384578057 0 -0.162658856059924 -0.088300153990644142 0 -0.19011422055792851 -0.093309575256120839 0 -0.17503005375950101 -0.098239411603299673 0 -0.162658856059924 -0.088300153990644142 0 -0.19011422055792851 -0.093309575256120839 0 -0.162658856059924 -0.088300153990644142 0 -0.1860277807999291 -0.067629781049641985 0 -0.17851307998092769 -0.071258630272193632 0 -0.1788517554640916 -0.061836322814995931 0 -0.1805467373173045 -0.08088924384578057 0 -0.1860277807999291 -0.067629781049641985 0 -0.17851307998092769 -0.071258630272193632 0 -0.1805467373173045 -0.08088924384578057 0 -0.17851307998092769 -0.071258630272193632 0 -0.16867010816395681 -0.071278271450211053 0 -0.17851307998092769 -0.071258630272193632 0 -0.16867010816395681 -0.071278271450211053 0 -0.1788517554640916 -0.061836322814995931 0 -0.1805467373173045 -0.08088924384578057 0 -0.16867010816395681 -0.071278271450211053 0 -0.157875114439612 -0.082089988285473814 0 -0.16867010816395681 -0.071278271450211053 0 -0.16621328741113861 -0.057980148122367937 0 -0.1788517554640916 -0.061836322814995931 0 -0.16867010816395681 -0.071278271450211053 0 -0.15651129496160021 -0.067716308553864873 0 -0.157875114439612 -0.082089988285473814 0 -0.16867010816395681 -0.071278271450211053 0 -0.15651129496160021 -0.067716308553864873 0 -0.16621328741113861 -0.057980148122367937 0 -0.1805467373173045 -0.08088924384578057 0 -0.157875114439612 -0.082089988285473814 0 -0.162658856059924 -0.088300153990644142 0 -0.1805467373173045 -0.08088924384578057 0 -0.157875114439612 -0.082089988285473814 0 -0.157875114439612 -0.082089988285473814 0 -0.14538011052433 -0.07277920043453974 0 -0.1352034915619196 -0.083290732725167252 0 -0.162658856059924 -0.088300153990644142 0 -0.1352034915619196 -0.083290732725167252 0 -0.162658856059924 -0.088300153990644142 0 -0.1468658421579502 -0.091332280022585047 0 -0.1352034915619196 -0.083290732725167252 0 -0.157875114439612 -0.082089988285473814 0 -0.162658856059924 -0.088300153990644142 0 -0.1352034915619196 -0.083290732725167252 0 -0.162658856059924 -0.088300153990644142 0 -0.1468658421579502 -0.091332280022585047 0 -0.1535232342245493 -0.094084912458410067 0 -0.157875114439612 -0.082089988285473814 0 -0.1352034915619196 -0.083290732725167252 0 -0.15651129496160021 -0.067716308553864873 0 -0.14538011052433 -0.07277920043453974 0 -0.14441785426896381 -0.054453934476731768 0 -0.14538011052433 -0.07277920043453974 0 -0.134647347395627 -0.072260795783368095 0 -0.14441785426896381 -0.054453934476731768 0 -0.15651129496160021 -0.067716308553864873 0 -0.157875114439612 -0.082089988285473814 0 -0.14538011052433 -0.07277920043453974 0 -0.12253812900473381 -0.069223876069351875 0 -0.134647347395627 -0.072260795783368095 0 -0.14441785426896381 -0.054453934476731768 0 -0.14538011052433 -0.07277920043453974 0 -0.134647347395627 -0.072260795783368095 0 -0.1352034915619196 -0.083290732725167252 0 -0.12253812900473381 -0.069223876069351875 0 -0.134647347395627 -0.072260795783368095 0 -0.12569715161818781 -0.081556235211049863 0 -0.1137118248547051 -0.084428983808366762 0 -0.1352034915619196 -0.083290732725167252 0 -0.12757390461311161 -0.09178313862446176 0 -0.1352034915619196 -0.083290732725167252 0 -0.12757390461311161 -0.09178313862446176 0 -0.1375260194490717 -0.095896603600053282 0 -0.1468658421579502 -0.091332280022585047 0 -0.1352034915619196 -0.083290732725167252 0 -0.1375260194490717 -0.095896603600053282 0 -0.134647347395627 -0.072260795783368095 0 -0.1352034915619196 -0.083290732725167252 0 -0.12569715161818781 -0.081556235211049863 0 -0.1352034915619196 -0.083290732725167252 0 -0.12569715161818781 -0.081556235211049863 0 -0.12757390461311161 -0.09178313862446176 0 -0.1375260194490717 -0.095896603600053282 0 -0.12901620036456471 -0.1044067427398423 0 -0.12193385519487029 -0.093809278683967989 0 -0.12757390461311161 -0.09178313862446176 0 -0.12901620036456471 -0.1044067427398423 0 -0.13916265109429199 -0.1056769930367846 0 -0.12901620036456471 -0.1044067427398423 0 -0.13609286656752539 -0.11480531163029301 0 -0.1375260194490717 -0.095896603600053282 0 -0.13916265109429199 -0.1056769930367846 0 -0.12901620036456471 -0.1044067427398423 0 -0.12117874262357441 -0.1228802647988107 0 -0.14069645163019681 -0.12807464893100429 0 -0.13609286656752539 -0.11480531163029301 0 -0.12117874262357441 -0.1228802647988107 0 -0.12901620036456471 -0.1044067427398423 0 -0.13609286656752539 -0.11480531163029301 0 -0.13916265109429199 -0.1056769930367846 0 -0.13609286656752539 -0.11480531163029301 0 -0.1504102871249989 -0.1129879086450231 0 -0.14069645163019681 -0.12807464893100429 0 -0.15821567885880519 -0.12132925680617131 0 -0.1504102871249989 -0.1129879086450231 0 -0.14069645163019681 -0.12807464893100429 0 -0.13609286656752539 -0.11480531163029301 0 -0.1504102871249989 -0.1129879086450231 0 -0.15819932327181921 -0.099804358640804919 0 -0.1504102871249989 -0.1129879086450231 0 -0.14732022132272171 -0.098716717020562048 0 -0.15819932327181921 -0.099804358640804919 0 -0.1535232342245493 -0.094084912458410067 0 -0.14732022132272171 -0.098716717020562048 0 -0.1468658421579502 -0.091332280022585047 0 -0.1535232342245493 -0.094084912458410067 0 -0.14732022132272171 -0.098716717020562048 0 -0.1375260194490717 -0.095896603600053282 0 -0.13916265109429199 -0.1056769930367846 0 -0.14732022132272171 -0.098716717020562048 0 -0.1468658421579502 -0.091332280022585047 0 -0.1375260194490717 -0.095896603600053282 0 -0.14732022132272171 -0.098716717020562048 0 -0.13916265109429199 -0.1056769930367846 0 -0.1504102871249989 -0.1129879086450231 0 -0.14732022132272171 -0.098716717020562048 0 -0.1561130154528631 -0.0027060153901822992 0 -0.14041004630894671 -0.023261626033236869 0 -0.1581468588344884 -0.024021766344599651 0 -0.14041004630894671 -0.023261626033236869 0 -0.1484858067312102 -0.036191852394227682 0 -0.1581468588344884 -0.024021766344599651 0 -0.1561130154528631 -0.0027060153901822992 0 -0.1265299462566174 -0.0091552116087020938 0 -0.14041004630894671 -0.023261626033236869 0 -0.12274446968847399 -0.02764697635834272 0 -0.1265299462566174 -0.0091552116087020938 0 -0.14041004630894671 -0.023261626033236869 0 -0.12274446968847399 -0.02764697635834272 0 -0.14041004630894671 -0.023261626033236869 0 -0.13315669471045841 -0.039537942232458483 0 -0.12253812900473381 -0.069223876069351875 0 -0.1246716947244178 -0.052980366129674418 0 -0.14441785426896381 -0.054453934476731768 0 -0.1246716947244178 -0.052980366129674418 0 -0.13315669471045841 -0.039537942232458483 0 -0.14441785426896381 -0.054453934476731768 0 -0.12253812900473381 -0.069223876069351875 0 -0.14441785426896381 -0.054453934476731768 0 -0.15651129496160021 -0.067716308553864873 0 -0.14441785426896381 -0.054453934476731768 0 -0.16621328741113861 -0.057980148122367937 0 -0.14441785426896381 -0.054453934476731768 0 -0.16629757953319391 -0.039683992884111632 0 -0.14041004630894671 -0.023261626033236869 0 -0.13315669471045841 -0.039537942232458483 0 -0.1484858067312102 -0.036191852394227682 0 -0.13315669471045841 -0.039537942232458483 0 -0.14441785426896381 -0.054453934476731768 0 -0.1484858067312102 -0.036191852394227682 0 -0.14441785426896381 -0.054453934476731768 0 -0.1484858067312102 -0.036191852394227682 0 -0.16629757953319391 -0.039683992884111632 0 -0.1484858067312102 -0.036191852394227682 0 -0.16629757953319391 -0.039683992884111632 0 -0.1581468588344884 -0.024021766344599651 0 -0.16629757953319391 -0.039683992884111632 0 -0.16621328741113861 -0.057980148122367937 0 -0.1817453590196749 -0.04991053780498917 0 -0.14441785426896381 -0.054453934476731768 0 -0.16629757953319391 -0.039683992884111632 0 -0.16621328741113861 -0.057980148122367937 0 -0.16621328741113861 -0.057980148122367937 0 -0.1788517554640916 -0.061836322814995931 0 -0.1817453590196749 -0.04991053780498917 0 -0.1817453590196749 -0.04991053780498917 0 -0.18738208979968901 -0.04916191838788584 0 -0.18815073595095061 -0.057504239086892603 0 -0.1817453590196749 -0.04991053780498917 0 -0.18738208979968901 -0.04916191838788584 0 -0.1864517216865583 -0.042129118479007077 0 -0.1788517554640916 -0.061836322814995931 0 -0.1817453590196749 -0.04991053780498917 0 -0.18815073595095061 -0.057504239086892603 0 -0.1860277807999291 -0.067629781049641985 0 -0.1788517554640916 -0.061836322814995931 0 -0.18815073595095061 -0.057504239086892603 0 -0.16629757953319391 -0.039683992884111632 0 -0.18817730479742159 -0.024914051291488069 0 -0.1864517216865583 -0.042129118479007077 0 -0.18118661197973429 -0.038149197595913439 0 -0.18817730479742159 -0.024914051291488069 0 -0.16629757953319391 -0.039683992884111632 0 -0.18118661197973429 -0.038149197595913439 0 -0.18817730479742159 -0.024914051291488069 0 -0.16629757953319391 -0.039683992884111632 0 -0.1817453590196749 -0.04991053780498917 0 -0.18118661197973429 -0.038149197595913439 0 -0.1817453590196749 -0.04991053780498917 0 -0.1864517216865583 -0.042129118479007077 0 -0.18118661197973429 -0.038149197595913439 0 -0.16629757953319391 -0.039683992884111632 0 -0.17790578954347069 -0.020554368641155299 0 -0.18817730479742159 -0.024914051291488069 0 -0.1561130154528631 -0.0027060153901822992 0 -0.17790578954347069 -0.020554368641155299 0 -0.1581468588344884 -0.024021766344599651 0 -0.16629757953319391 -0.039683992884111632 0 -0.17790578954347069 -0.020554368641155299 0 -0.1581468588344884 -0.024021766344599651 0 -0.1561130154528631 -0.0027060153901822992 0 -0.17790578954347069 -0.020554368641155299 0 -0.18817730479742159 -0.024914051291488069 0 -0.18197787751317601 0.002580864069552373 0 -0.17790578954347069 -0.020554368641155299 0 -0.18817730479742159 -0.024914051291488069 0 -0.18197787751317601 0.002580864069552373 0 -0.1561130154528631 -0.0027060153901822992 0 -0.17790578954347069 -0.020554368641155299 0 -0.18197787751317601 0.002580864069552373 0 -0.19873296115495839 -0.01778843952124733 0 -0.20756371374763249 -0.00056276874902053413 0 -0.20091991820746721 0.0086415261327670405 0 -0.19287385479693009 -0.0047544157747348393 0 -0.18817730479742159 -0.024914051291488069 0 -0.18197787751317601 0.002580864069552373 0 -0.19873296115495839 -0.01778843952124733 0 -0.20091991820746721 0.0086415261327670405 0 -0.19287385479693009 -0.0047544157747348393 0 -0.19873296115495839 -0.01778843952124733 0 -0.20091991820746721 0.0086415261327670405 0 -0.18817730479742159 -0.024914051291488069 0 -0.19873296115495839 -0.01778843952124733 0 -0.19287385479693009 -0.0047544157747348393 0 -0.18817730479742159 -0.024914051291488069 0 -0.19873296115495839 -0.01778843952124733 0 -0.19873296115495839 -0.01778843952124733 0 -0.19743991157790519 -0.03341529230799814 0 -0.19873296115495839 -0.01778843952124733 0 -0.21111480707383259 -0.027956633484399699 0 -0.19743991157790519 -0.03341529230799814 0 -0.18817730479742159 -0.024914051291488069 0 -0.19873296115495839 -0.01778843952124733 0 -0.19743991157790519 -0.03341529230799814 0 -0.19873296115495839 -0.01778843952124733 0 -0.21111480707383259 -0.027956633484399699 0 -0.2124298754348202 -0.0085423168451338391 0 -0.21111480707383259 -0.027956633484399699 0 -0.2124298754348202 -0.0085423168451338391 0 -0.2237440669389337 -0.018397933781332459 0 -0.19873296115495839 -0.01778843952124733 0 -0.2124298754348202 -0.0085423168451338391 0 -0.20756371374763249 -0.00056276874902053413 0 -0.2124298754348202 -0.0085423168451338391 0 -0.20756371374763249 -0.00056276874902053413 0 -0.21683052253175161 0.0043572582264946964 0 -0.19873296115495839 -0.01778843952124733 0 -0.2124298754348202 -0.0085423168451338391 0 -0.19818378028572409 -0.069293505069820641 0 -0.19938524429328269 -0.058944541210939498 0 -0.1931805425415721 -0.047103778180654518 0 -0.19818378028572409 -0.069293505069820641 0 -0.1931805425415721 -0.047103778180654518 0 -0.19818378028572409 -0.069293505069820641 0 -0.18815073595095061 -0.057504239086892603 0 -0.1931805425415721 -0.047103778180654518 0 -0.18738208979968901 -0.04916191838788584 0 -0.18815073595095061 -0.057504239086892603 0 -0.1931805425415721 -0.047103778180654518 0 -0.19938524429328269 -0.058944541210939498 0 -0.1931805425415721 -0.047103778180654518 0 -0.19885153868511521 -0.053638356632020337 0 -0.19938524429328269 -0.058944541210939498 0 -0.19885153868511521 -0.053638356632020337 0 -0.20455536118392401 -0.051110398366161568 0 -0.1931805425415721 -0.047103778180654518 0 -0.19614686200085091 -0.049042145094748912 0 -0.19885153868511521 -0.053638356632020337 0 -0.19614686200085091 -0.049042145094748912 0 -0.19885153868511521 -0.053638356632020337 0 -0.20146226130565109 -0.046732137228982007 0 -0.19885153868511521 -0.053638356632020337 0 -0.20146226130565109 -0.046732137228982007 0 -0.20455536118392401 -0.051110398366161568 0 -0.1931805425415721 -0.047103778180654518 0 -0.19614686200085091 -0.049042145094748912 0 -0.19743991157790519 -0.03341529230799814 0 -0.19614686200085091 -0.049042145094748912 0 -0.20146226130565109 -0.046732137228982007 0 -0.19743991157790519 -0.03341529230799814 0 -0.19614686200085091 -0.049042145094748912 0 -0.19743991157790519 -0.03341529230799814 0 -0.18817730479742159 -0.024914051291488069 0 -0.1931805425415721 -0.047103778180654518 0 -0.19743991157790519 -0.03341529230799814 0 -0.1864517216865583 -0.042129118479007077 0 -0.18817730479742159 -0.024914051291488069 0 -0.1931805425415721 -0.047103778180654518 0 -0.18817730479742159 -0.024914051291488069 0 -0.1931805425415721 -0.047103778180654518 0 -0.20146226130565109 -0.046732137228982007 0 -0.19743991157790519 -0.03341529230799814 0 -0.20520735055431211 -0.041339013046826398 0 -0.18738208979968901 -0.04916191838788584 0 -0.1864517216865583 -0.042129118479007077 0 -0.1931805425415721 -0.047103778180654518 0 -0.21111480707383259 -0.027956633484399699 0 -0.21488439532427811 -0.04402830879711498 0 -0.22617828751535179 -0.032358779766231513 0 -0.21111480707383259 -0.027956633484399699 0 -0.21488439532427811 -0.04402830879711498 0 -0.20520735055431211 -0.041339013046826398 0 -0.21111480707383259 -0.027956633484399699 0 -0.19743991157790519 -0.03341529230799814 0 -0.20520735055431211 -0.041339013046826398 0 -0.21488439532427811 -0.04402830879711498 0 -0.20520735055431211 -0.041339013046826398 0 -0.20455536118392401 -0.051110398366161568 0 -0.20146226130565109 -0.046732137228982007 0 -0.20520735055431211 -0.041339013046826398 0 -0.20455536118392401 -0.051110398366161568 0 -0.21488439532427811 -0.04402830879711498 0 -0.20455536118392401 -0.051110398366161568 0 -0.21119915902056849 -0.056967043554142872 0 -0.21488439532427811 -0.04402830879711498 0 -0.21119915902056849 -0.056967043554142872 0 -0.22093389993276019 -0.053206955183117459 0 -0.21119915902056849 -0.056967043554142872 0 -0.21952786353855591 -0.062315021318125469 0 -0.22093389993276019 -0.053206955183117459 0 -0.19938524429328269 -0.058944541210939498 0 -0.20455536118392401 -0.051110398366161568 0 -0.21119915902056849 -0.056967043554142872 0 -0.21009463380032589 -0.069561364250478291 0 -0.19938524429328269 -0.058944541210939498 0 -0.21119915902056849 -0.056967043554142872 0 -0.2327689956036513 -0.057481871521888703 0 -0.2273730786789207 -0.04440016441358155 0 -0.2424102490173701 -0.038790241013241578 0 -0.2327689956036513 -0.057481871521888703 0 -0.21952786353855591 -0.062315021318125469 0 -0.22093389993276019 -0.053206955183117459 0 -0.21488439532427811 -0.04402830879711498 0 -0.22093389993276019 -0.053206955183117459 0 -0.2273730786789207 -0.04440016441358155 0 -0.2327689956036513 -0.057481871521888703 0 -0.22093389993276019 -0.053206955183117459 0 -0.2273730786789207 -0.04440016441358155 0 -0.2273730786789207 -0.04440016441358155 0 -0.22617828751535179 -0.032358779766231513 0 -0.2424102490173701 -0.038790241013241578 0 -0.21488439532427811 -0.04402830879711498 0 -0.2273730786789207 -0.04440016441358155 0 -0.22617828751535179 -0.032358779766231513 0 -0.23997624501907941 -0.071351384363865497 0 -0.2327689956036513 -0.057481871521888703 0 -0.25543504127230032 -0.058125386979562522 0 -0.2327689956036513 -0.057481871521888703 0 -0.2424102490173701 -0.038790241013241578 0 -0.25543504127230032 -0.058125386979562522 0 -0.2124298754348202 -0.0085423168451338391 0 -0.23095668470091199 -0.0047838156192840237 0 -0.21683052253175161 0.0043572582264946964 0 -0.2124298754348202 -0.0085423168451338391 0 -0.23095668470091199 -0.0047838156192840237 0 -0.2237440669389337 -0.018397933781332459 0 -0.23095668470091199 -0.0047838156192840237 0 -0.2237440669389337 -0.018397933781332459 0 -0.23745716205595621 -0.021726497324224651 0 -0.21111480707383259 -0.027956633484399699 0 -0.22617828751535179 -0.032358779766231513 0 -0.2237440669389337 -0.018397933781332459 0 -0.22617828751535179 -0.032358779766231513 0 -0.2237440669389337 -0.018397933781332459 0 -0.23745716205595621 -0.021726497324224651 0 -0.22617828751535179 -0.032358779766231513 0 -0.2424102490173701 -0.038790241013241578 0 -0.23745716205595621 -0.021726497324224651 0 -0.23745716205595621 -0.021726497324224651 0 -0.24554763089679579 -0.01067339633316701 0 -0.25341884400616432 -0.023366065421644339 0 -0.2424102490173701 -0.038790241013241578 0 -0.23745716205595621 -0.021726497324224651 0 -0.25341884400616432 -0.023366065421644339 0 -0.23095668470091199 -0.0047838156192840237 0 -0.23745716205595621 -0.021726497324224651 0 -0.24554763089679579 -0.01067339633316701 0 -0.23095668470091199 -0.0047838156192840237 0 -0.24554763089679579 -0.01067339633316701 0 -0.24461315722809429 0.014085251873885171 0 -0.24554763089679579 -0.01067339633316701 0 -0.26194834628238939 -0.0087506539970179705 0 -0.24461315722809429 0.014085251873885171 0 -0.24554763089679579 -0.01067339633316701 0 -0.26194834628238939 -0.0087506539970179705 0 -0.25341884400616432 -0.023366065421644339 0 -0.26194834628238939 -0.0087506539970179705 0 -0.25341884400616432 -0.023366065421644339 0 -0.27115906840737269 -0.022049440509911891 0 -0.25341884400616432 -0.023366065421644339 0 -0.27115906840737269 -0.022049440509911891 0 -0.26278276677308082 -0.037408831171039693 0 -0.27115906840737269 -0.022049440509911891 0 -0.29166042021656358 -0.02219699689107631 0 -0.27955116418229348 -0.034669910648902888 0 -0.27115906840737269 -0.022049440509911891 0 -0.27984716085930611 -0.0048620945320513118 0 -0.29166042021656358 -0.02219699689107631 0 -0.26194834628238939 -0.0087506539970179705 0 -0.27115906840737269 -0.022049440509911891 0 -0.27984716085930611 -0.0048620945320513118 0 -0.26194834628238939 -0.0087506539970179705 0 -0.27984716085930611 -0.0048620945320513118 0 -0.26643872466142487 0.0076553899482403476 0 -0.27984716085930611 -0.0048620945320513118 0 -0.29166042021656358 -0.02219699689107631 0 -0.30389146441745191 0.003422881365441121 0 -0.29166042021656358 -0.02219699689107631 0 -0.31605930823174949 -0.01753025955390786 0 -0.31335292904635142 -0.034139953119099772 0 -0.29166042021656358 -0.02219699689107631 0 -0.31605930823174949 -0.01753025955390786 0 -0.30389146441745191 0.003422881365441121 0 -0.30973302871848679 -0.050063484705396677 0 -0.29371633222610921 -0.041413890826888983 0 -0.29409169980360111 -0.063151956520155497 0 -0.29166042021656358 -0.02219699689107631 0 -0.29371633222610921 -0.041413890826888983 0 -0.31335292904635142 -0.034139953119099772 0 -0.30973302871848679 -0.050063484705396677 0 -0.29371633222610921 -0.041413890826888983 0 -0.31335292904635142 -0.034139953119099772 0 -0.29166042021656358 -0.02219699689107631 0 -0.29371633222610921 -0.041413890826888983 0 -0.27955116418229348 -0.034669910648902888 0 -0.29371633222610921 -0.041413890826888983 0 -0.27843723328834091 -0.050280393845597578 0 -0.27955116418229348 -0.034669910648902888 0 -0.27843723328834091 -0.050280393845597578 0 -0.27712038878017747 -0.073076580714299649 0 -0.29409169980360111 -0.063151956520155497 0 -0.27843723328834091 -0.050280393845597578 0 -0.29409169980360111 -0.063151956520155497 0 -0.29371633222610921 -0.041413890826888983 0 -0.27843723328834091 -0.050280393845597578 0 -0.29409169980360111 -0.063151956520155497 0 -0.27843723328834091 -0.050280393845597578 0 -0.25543504127230032 -0.058125386979562522 0 -0.27712038878017747 -0.073076580714299649 0 -0.27115906840737269 -0.022049440509911891 0 -0.27955116418229348 -0.034669910648902888 0 -0.26278276677308082 -0.037408831171039693 0 -0.27843723328834091 -0.050280393845597578 0 -0.26278276677308082 -0.037408831171039693 0 -0.27843723328834091 -0.050280393845597578 0 -0.27955116418229348 -0.034669910648902888 0 -0.26278276677308082 -0.037408831171039693 0 -0.2424102490173701 -0.038790241013241578 0 -0.26278276677308082 -0.037408831171039693 0 -0.25543504127230032 -0.058125386979562522 0 -0.2424102490173701 -0.038790241013241578 0 -0.25341884400616432 -0.023366065421644339 0 -0.26278276677308082 -0.037408831171039693 0 -0.27843723328834091 -0.050280393845597578 0 -0.26278276677308082 -0.037408831171039693 0 -0.25543504127230032 -0.058125386979562522 0 -0.25543504127230032 -0.058125386979562522 0 -0.25454941042440249 -0.078488406227004939 0 -0.27712038878017747 -0.073076580714299649 0 -0.24502494955393761 -0.1033284177870743 0 -0.25454941042440249 -0.078488406227004939 0 -0.26780527689956279 -0.09053733941433767 0 -0.25454941042440249 -0.078488406227004939 0 -0.26780527689956279 -0.09053733941433767 0 -0.27712038878017747 -0.073076580714299649 0 -0.26780527689956279 -0.09053733941433767 0 -0.27712038878017747 -0.073076580714299649 0 -0.28985132168735439 -0.089455453290758505 0 -0.24502494955393761 -0.1033284177870743 0 -0.25040147402828211 -0.1224657960648471 0 -0.27248031405194212 -0.108337839052551 0 -0.25040147402828211 -0.1224657960648471 0 -0.27248031405194212 -0.108337839052551 0 -0.26519018078978029 -0.13574888362355181 0 -0.24502494955393761 -0.1033284177870743 0 -0.26780527689956279 -0.09053733941433767 0 -0.27248031405194212 -0.108337839052551 0 -0.24502494955393761 -0.1033284177870743 0 -0.27248031405194212 -0.108337839052551 0 -0.26780527689956279 -0.09053733941433767 0 -0.27248031405194212 -0.108337839052551 0 -0.28985132168735439 -0.089455453290758505 0 -0.27248031405194212 -0.108337839052551 0 -0.26519018078978029 -0.13574888362355181 0 -0.28298701259331649 -0.12849594257210961 0 -0.29993567854994663 -0.11334726031802771 0 -0.28298701259331649 -0.12849594257210961 0 -0.29713895585358469 -0.12727383185605551 0 -0.27248031405194212 -0.108337839052551 0 -0.29993567854994663 -0.11334726031802771 0 -0.28298701259331649 -0.12849594257210961 0 -0.27248031405194212 -0.108337839052551 0 -0.29993567854994663 -0.11334726031802771 0 -0.27248031405194212 -0.108337839052551 0 -0.29485530358614342 -0.10237068420914219 0 -0.28985132168735439 -0.089455453290758505 0 -0.27248031405194212 -0.108337839052551 0 -0.29485530358614342 -0.10237068420914219 0 -0.29993567854994663 -0.11334726031802771 0 -0.29485530358614342 -0.10237068420914219 0 -0.30224767532085661 -0.094333874517924785 0 -0.28985132168735439 -0.089455453290758505 0 -0.29485530358614342 -0.10237068420914219 0 -0.30224767532085661 -0.094333874517924785 0 -0.30976152832061721 -0.106378993866449 0 -0.29485530358614342 -0.10237068420914219 0 -0.30976152832061721 -0.106378993866449 0 -0.29993567854994663 -0.11334726031802771 0 -0.30976152832061721 -0.106378993866449 0 -0.30977538586373432 -0.13376164267656659 0 -0.29993567854994663 -0.11334726031802771 0 -0.30977538586373432 -0.13376164267656659 0 -0.29713895585358469 -0.12727383185605551 0 -0.30976152832061721 -0.106378993866449 0 -0.29993567854994663 -0.11334726031802771 0 -0.30977538586373432 -0.13376164267656659 0 -0.27712038878017747 -0.073076580714299649 0 -0.29409169980360111 -0.063151956520155497 0 -0.29627263278831739 -0.077516751060293002 0 -0.27712038878017747 -0.073076580714299649 0 -0.29627263278831739 -0.077516751060293002 0 -0.28985132168735439 -0.089455453290758505 0 -0.28985132168735439 -0.089455453290758505 0 -0.30974767077750071 -0.078996345056331338 0 -0.30224767532085661 -0.094333874517924785 0 -0.28985132168735439 -0.089455453290758505 0 -0.30974767077750071 -0.078996345056331338 0 -0.30976152832061721 -0.106378993866449 0 -0.30974767077750071 -0.078996345056331338 0 -0.31534591587062621 -0.087384647377138816 0 -0.30224767532085661 -0.094333874517924785 0 -0.30976152832061721 -0.106378993866449 0 -0.30974767077750071 -0.078996345056331338 0 -0.29627263278831739 -0.077516751060293002 0 -0.28985132168735439 -0.089455453290758505 0 -0.30974767077750071 -0.078996345056331338 0 -0.30976152832061721 -0.106378993866449 0 -0.30974767077750071 -0.078996345056331338 0 -0.30974767077750071 -0.078996345056331338 0 -0.31195226208546162 -0.077837436002303959 0 -0.31534591587062621 -0.087384647377138816 0 -0.30974767077750071 -0.078996345056331338 0 -0.31195226208546162 -0.077837436002303959 0 -0.29627263278831739 -0.077516751060293002 0 -0.30974767077750071 -0.078996345056331338 0 -0.3097461663188612 -0.076023519194713465 0 -0.29409169980360111 -0.063151956520155497 0 -0.3097461663188612 -0.076023519194713465 0 -0.29409169980360111 -0.063151956520155497 0 -0.29627263278831739 -0.077516751060293002 0 -0.3097461663188612 -0.076023519194713465 0 -0.30973302871848679 -0.050063484705396677 0 -0.29409169980360111 -0.063151956520155497 0 -0.3097461663188612 -0.076023519194713465 0 -0.30973302871848679 -0.050063484705396677 0 -0.3097461663188612 -0.076023519194713465 0 -0.31195226208546162 -0.077837436002303959 0 -0.3097461663188612 -0.076023519194713465 0 -0.30974767077750071 -0.078996345056331338 0 -0.3097461663188612 -0.076023519194713465 0 -0.30974767077750071 -0.078996345056331338 0 -0.31195226208546162 -0.077837436002303959 0 -0.3097461663188612 -0.076023519194713465 0 -0.30973302871848679 -0.050063484705396677 0 -0.3097461663188612 -0.076023519194713465 0 -0.31876324780087101 -0.067305385672697504 0 -0.31195226208546162 -0.077837436002303959 0 -0.32959325692211061 -0.080036550888397021 0 -0.33130052203316379 -0.067666447142795821 0 -0.31195226208546162 -0.077837436002303959 0 -0.33130052203316379 -0.067666447142795821 0 -0.31195226208546162 -0.077837436002303959 0 -0.31876324780087101 -0.067305385672697504 0 -0.33130052203316379 -0.067666447142795821 0 -0.31195226208546162 -0.077837436002303959 0 -0.3097461663188612 -0.076023519194713465 0 -0.31876324780087101 -0.067305385672697504 0 -0.31195226208546162 -0.077837436002303959 0 -0.31534591587062621 -0.087384647377138816 0 -0.33352605170634719 -0.095576040186754668 0 -0.31195226208546162 -0.077837436002303959 0 -0.32959325692211061 -0.080036550888397021 0 -0.33352605170634719 -0.095576040186754668 0 -0.31534591587062621 -0.087384647377138816 0 -0.31934114214568349 -0.096209959873431533 0 -0.33352605170634719 -0.095576040186754668 0 -0.31195226208546162 -0.077837436002303959 0 -0.33352605170634719 -0.095576040186754668 0 -0.33352605170634719 -0.095576040186754668 0 -0.34626195447356001 -0.077330637985233486 0 -0.35051431404761157 -0.092802548679925087 0 -0.32959325692211061 -0.080036550888397021 0 -0.33352605170634719 -0.095576040186754668 0 -0.34626195447356001 -0.077330637985233486 0 -0.33130052203316379 -0.067666447142795821 0 -0.34626195447356001 -0.077330637985233486 0 -0.35064878198086502 -0.057495458283285478 0 -0.32959325692211061 -0.080036550888397021 0 -0.33130052203316379 -0.067666447142795821 0 -0.34626195447356001 -0.077330637985233486 0 -0.33130052203316379 -0.067666447142795821 0 -0.35064878198086502 -0.057495458283285478 0 -0.31828315501330001 -0.11797399565992769 0 -0.32799886143816231 -0.1139678835823124 0 -0.32236362170202337 -0.13192319453133991 0 -0.30976152832061721 -0.106378993866449 0 -0.31828315501330001 -0.11797399565992769 0 -0.30977538586373432 -0.13376164267656659 0 -0.30976152832061721 -0.106378993866449 0 -0.31828315501330001 -0.11797399565992769 0 -0.32165197467199302 -0.104952095781136 0 -0.31828315501330001 -0.11797399565992769 0 -0.32799886143816231 -0.1139678835823124 0 -0.32165197467199302 -0.104952095781136 0 -0.32799886143816231 -0.1139678835823124 0 -0.32165197467199302 -0.104952095781136 0 -0.33352605170634719 -0.095576040186754668 0 -0.30976152832061721 -0.106378993866449 0 -0.31534591587062621 -0.087384647377138816 0 -0.31934114214568349 -0.096209959873431533 0 -0.30976152832061721 -0.106378993866449 0 -0.32165197467199302 -0.104952095781136 0 -0.31934114214568349 -0.096209959873431533 0 -0.32165197467199302 -0.104952095781136 0 -0.31934114214568349 -0.096209959873431533 0 -0.33352605170634719 -0.095576040186754668 0 -0.32799886143816231 -0.1139678835823124 0 -0.33352605170634719 -0.095576040186754668 0 -0.34666676157795562 -0.10734731898885599 0 -0.33352605170634719 -0.095576040186754668 0 -0.34666676157795562 -0.10734731898885599 0 -0.35051431404761157 -0.092802548679925087 0 -0.32799886143816231 -0.1139678835823124 0 -0.34381924625302529 -0.1213655201687386 0 -0.32236362170202337 -0.13192319453133991 0 -0.32799886143816231 -0.1139678835823124 0 -0.34381924625302529 -0.1213655201687386 0 -0.34666676157795562 -0.10734731898885599 0 -0.32799886143816231 -0.1139678835823124 0 -0.34666676157795562 -0.10734731898885599 0 -0.35766211582158369 -0.1224171964546318 0 -0.34381924625302529 -0.1213655201687386 0 -0.36527487080402671 -0.11080784580613599 0 -0.34381924625302529 -0.1213655201687386 0 -0.34666676157795562 -0.10734731898885599 0 -0.36527487080402671 -0.11080784580613599 0 -0.34381924625302529 -0.1213655201687386 0 -0.36527487080402671 -0.11080784580613599 0 -0.34666676157795562 -0.10734731898885599 0 -0.36533466171774881 -0.10072675439539901 0 -0.36527487080402671 -0.11080784580613599 0 -0.34666676157795562 -0.10734731898885599 0 -0.36533466171774881 -0.10072675439539901 0 -0.35051431404761157 -0.092802548679925087 0 -0.34666676157795562 -0.10734731898885599 0 -0.36533466171774881 -0.10072675439539901 0 -0.36533466171774881 -0.10072675439539901 0 -0.36527487080402671 -0.11080784580613599 0 -0.3850226711187173 -0.10109054092859469 0 -0.36533466171774881 -0.10072675439539901 0 -0.36527487080402671 -0.11080784580613599 0 -0.36527487080402671 -0.11080784580613599 0 -0.36513663005689911 -0.13411602963783781 0 -0.37380151156406849 -0.12731050683464221 0 -0.35766211582158369 -0.1224171964546318 0 -0.36527487080402671 -0.11080784580613599 0 -0.36513663005689911 -0.13411602963783781 0 -0.36527487080402671 -0.11080784580613599 0 -0.37380151156406849 -0.12731050683464221 0 -0.37506616823536632 -0.117512098149728 0 -0.36527487080402671 -0.11080784580613599 0 -0.36513663005689911 -0.13411602963783781 0 -0.36527487080402671 -0.11080784580613599 0 -0.37506616823536632 -0.117512098149728 0 -0.37910287050362579 -0.1118839788716338 0 -0.34626195447356001 -0.077330637985233486 0 -0.36544990337253819 -0.081296349606884297 0 -0.36280085125228329 -0.066441071108592056 0 -0.34626195447356001 -0.077330637985233486 0 -0.36280085125228329 -0.066441071108592056 0 -0.35064878198086502 -0.057495458283285478 0 -0.34626195447356001 -0.077330637985233486 0 -0.35051431404761157 -0.092802548679925087 0 -0.36544990337253819 -0.081296349606884297 0 -0.36533466171774881 -0.10072675439539901 0 -0.36544990337253819 -0.081296349606884297 0 -0.36533466171774881 -0.10072675439539901 0 -0.36544990337253819 -0.081296349606884297 0 -0.37581836566146309 -0.088286663243265895 0 -0.36544990337253819 -0.081296349606884297 0 -0.37581836566146309 -0.088286663243265895 0 -0.38315345699156927 -0.078908662833457058 0 -0.36533466171774881 -0.10072675439539901 0 -0.35051431404761157 -0.092802548679925087 0 -0.36544990337253819 -0.081296349606884297 0 -0.36544990337253819 -0.081296349606884297 0 -0.36280085125228329 -0.066441071108592056 0 -0.37701085117795019 -0.063724163321542279 0 -0.36280085125228329 -0.066441071108592056 0 -0.36999704192856608 -0.047324469423775148 0 -0.37701085117795019 -0.063724163321542279 0 -0.36999704192856608 -0.047324469423775148 0 -0.35064878198086502 -0.057495458283285478 0 -0.36280085125228329 -0.066441071108592056 0 -0.36999704192856608 -0.047324469423775148 0 -0.35064878198086502 -0.057495458283285478 0 -0.36999704192856608 -0.047324469423775148 0 -0.35064878198086502 -0.057495458283285478 0 -0.34778412652415491 -0.040629704839687399 0 -0.34778412652415491 -0.040629704839687399 0 -0.36270664402713049 -0.03226439782324781 0 -0.33938297612944002 -0.02489732868857782 0 -0.36999704192856608 -0.047324469423775148 0 -0.34778412652415491 -0.040629704839687399 0 -0.36270664402713049 -0.03226439782324781 0 -0.36270664402713049 -0.03226439782324781 0 -0.38603031192482118 -0.039631466957917839 0 -0.36999704192856608 -0.047324469423775148 0 -0.36270664402713049 -0.03226439782324781 0 -0.38603031192482118 -0.039631466957917839 0 -0.36270664402713049 -0.03226439782324781 0 -0.36360618704375869 -0.016702251504574821 0 -0.38009447684399938 -0.017819787596635071 0 -0.36360618704375869 -0.016702251504574821 0 -0.35839857858877161 -0.0030102616015873639 0 -0.36999057855767942 0.0012933232693263469 0 -0.36360618704375869 -0.016702251504574821 0 -0.38009447684399938 -0.017819787596635071 0 -0.36999057855767942 0.0012933232693263469 0 -0.36360618704375869 -0.016702251504574821 0 -0.35839857858877161 -0.0030102616015873639 0 -0.34090183410784741 -0.0071455968080933463 0 -0.36360618704375869 -0.016702251504574821 0 -0.33938297612944002 -0.02489732868857782 0 -0.34090183410784741 -0.0071455968080933463 0 -0.36270664402713049 -0.03226439782324781 0 -0.36360618704375869 -0.016702251504574821 0 -0.33938297612944002 -0.02489732868857782 0 -0.36270664402713049 -0.03226439782324781 0 -0.33938297612944002 -0.02489732868857782 0 -0.33938297612944002 -0.02489732868857782 0 -0.34090183410784741 -0.0071455968080933463 0 -0.31605930823174949 -0.01753025955390786 0 -0.34090183410784741 -0.0071455968080933463 0 -0.31605930823174949 -0.01753025955390786 0 -0.32792526459484039 0.0050625790584838473 0 -0.31605930823174949 -0.01753025955390786 0 -0.30389146441745191 0.003422881365441121 0 -0.32792526459484039 0.0050625790584838473 0 -0.33938297612944002 -0.02489732868857782 0 -0.31605930823174949 -0.01753025955390786 0 -0.33938297612944002 -0.02489732868857782 0 -0.31605930823174949 -0.01753025955390786 0 -0.31335292904635142 -0.034139953119099772 0 -0.30973302871848679 -0.050063484705396677 0 -0.31335292904635142 -0.034139953119099772 0 -0.32956550875575957 -0.048737758048751037 0 -0.33938297612944002 -0.02489732868857782 0 -0.31335292904635142 -0.034139953119099772 0 -0.32956550875575957 -0.048737758048751037 0 -0.30973302871848679 -0.050063484705396677 0 -0.31876324780087101 -0.067305385672697504 0 -0.32956550875575957 -0.048737758048751037 0 -0.31876324780087101 -0.067305385672697504 0 -0.33130052203316379 -0.067666447142795821 0 -0.32956550875575957 -0.048737758048751037 0 -0.35064878198086502 -0.057495458283285478 0 -0.34778412652415491 -0.040629704839687399 0 -0.32956550875575957 -0.048737758048751037 0 -0.33130052203316379 -0.067666447142795821 0 -0.35064878198086502 -0.057495458283285478 0 -0.32956550875575957 -0.048737758048751037 0 -0.34778412652415491 -0.040629704839687399 0 -0.33938297612944002 -0.02489732868857782 0 -0.32956550875575957 -0.048737758048751037 0 -0.30436128237242011 -0.24057178733604351 0 -0.29955941854736962 -0.2301560566081092 0 -0.29432932214964591 -0.2398501287212165 0 -0.30436128237242011 -0.24057178733604351 0 -0.30789433995386312 -0.23298784161603989 0 -0.29955941854736962 -0.2301560566081092 0 -0.30436128237242011 -0.24057178733604351 0 -0.30187293197059478 -0.2462704357486917 0 -0.29432932214964591 -0.2398501287212165 0 -0.29481027856235648 -0.25085125885305398 0 -0.30187293197059478 -0.2462704357486917 0 -0.29432932214964591 -0.2398501287212165 0 -0.31294828940832142 -0.25008585841527259 0 -0.30825977442121982 -0.24649901980484051 0 -0.31437839441974158 -0.24216404846257711 0 -0.30436128237242011 -0.24057178733604351 0 -0.30825977442121982 -0.24649901980484051 0 -0.31437839441974158 -0.24216404846257711 0 -0.30436128237242011 -0.24057178733604351 0 -0.30187293197059478 -0.2462704357486917 0 -0.30825977442121982 -0.24649901980484051 0 -0.30773797393502123 -0.25340296906161758 0 -0.30187293197059478 -0.2462704357486917 0 -0.30825977442121982 -0.24649901980484051 0 -0.31294828940832142 -0.25008585841527259 0 -0.30773797393502123 -0.25340296906161758 0 -0.30825977442121982 -0.24649901980484051 0 -0.30436128237242011 -0.24057178733604351 0 -0.30789433995386312 -0.23298784161603989 0 -0.31437839441974158 -0.24216404846257711 0 -0.30789433995386312 -0.23298784161603989 0 -0.30547683306634038 -0.22162416796902201 0 -0.31690517062474871 -0.22874987080005171 0 -0.30547683306634038 -0.22162416796902201 0 -0.29955941854736962 -0.2301560566081092 0 -0.29209007301458773 -0.22082619549950719 0 -0.30789433995386312 -0.23298784161603989 0 -0.30547683306634038 -0.22162416796902201 0 -0.29955941854736962 -0.2301560566081092 0 -0.29955941854736962 -0.2301560566081092 0 -0.29041204360356221 -0.2325648670630131 0 -0.29432932214964591 -0.2398501287212165 0 -0.29955941854736962 -0.2301560566081092 0 -0.29041204360356221 -0.2325648670630131 0 -0.29209007301458773 -0.22082619549950719 0 -0.29209007301458773 -0.22082619549950719 0 -0.28289127847870787 -0.22554087209543761 0 -0.28097157848827431 -0.21295118585833131 0 -0.29041204360356221 -0.2325648670630131 0 -0.29209007301458773 -0.22082619549950719 0 -0.28289127847870787 -0.22554087209543761 0 -0.29041204360356221 -0.2325648670630131 0 -0.28289127847870787 -0.22554087209543761 0 -0.27495980275036669 -0.23575312160767259 0 -0.29041204360356221 -0.2325648670630131 0 -0.29432932214964591 -0.2398501287212165 0 -0.27495980275036669 -0.23575312160767259 0 -0.28730573851921898 -0.25460085868817028 0 -0.29481027856235648 -0.25085125885305398 0 -0.27495980275036669 -0.23575312160767259 0 -0.29481027856235648 -0.25085125885305398 0 -0.29432932214964591 -0.2398501287212165 0 -0.27495980275036669 -0.23575312160767259 0 -0.29481027856235648 -0.25085125885305398 0 -0.27495980275036669 -0.23575312160767259 0 -0.28730573851921898 -0.25460085868817028 0 -0.27495980275036669 -0.23575312160767259 0 -0.26032213834395679 -0.24259596805267519 0 -0.28730573851921898 -0.25460085868817028 0 -0.26032213834395679 -0.24259596805267519 0 -0.25126462904132602 -0.25750798126147112 0 -0.2429608819307563 -0.24588513863669609 0 -0.26032213834395679 -0.24259596805267519 0 -0.24471244520990429 -0.22185894557451369 0 -0.26032213834395679 -0.24259596805267519 0 -0.25510932693837712 -0.22065498436229139 0 -0.25510932693837712 -0.22065498436229139 0 -0.27472926707602408 -0.22161440602382471 0 -0.25740589514740242 -0.21487995253342729 0 -0.27495980275036669 -0.23575312160767259 0 -0.26032213834395679 -0.24259596805267519 0 -0.25510932693837712 -0.22065498436229139 0 -0.27495980275036669 -0.23575312160767259 0 -0.25510932693837712 -0.22065498436229139 0 -0.24471244520990429 -0.22185894557451369 0 -0.25510932693837712 -0.22065498436229139 0 -0.25740589514740242 -0.21487995253342729 0 -0.27495980275036669 -0.23575312160767259 0 -0.25510932693837712 -0.22065498436229139 0 -0.27472926707602408 -0.22161440602382471 0 -0.28289127847870787 -0.22554087209543761 0 -0.27495980275036669 -0.23575312160767259 0 -0.27472926707602408 -0.22161440602382471 0 -0.28289127847870787 -0.22554087209543761 0 -0.27472926707602408 -0.22161440602382471 0 -0.28097157848827431 -0.21295118585833131 0 -0.27472926707602408 -0.22161440602382471 0 -0.28097157848827431 -0.21295118585833131 0 -0.27073509898112152 -0.20736095846413341 0 -0.27472926707602408 -0.22161440602382471 0 -0.26618642589859443 -0.2125732229852125 0 -0.25740589514740242 -0.21487995253342729 0 -0.27472926707602408 -0.22161440602382471 0 -0.25740589514740242 -0.21487995253342729 0 -0.28097157848827431 -0.21295118585833131 0 -0.27073509898112152 -0.20736095846413341 0 -0.27963705358715119 -0.19793005432395169 0 -0.27073509898112152 -0.20736095846413341 0 -0.26618642589859443 -0.2125732229852125 0 -0.26187544238982963 -0.20643757491946491 0 -0.27472926707602408 -0.22161440602382471 0 -0.27073509898112152 -0.20736095846413341 0 -0.26618642589859443 -0.2125732229852125 0 -0.26618642589859443 -0.2125732229852125 0 -0.26187544238982963 -0.20643757491946491 0 -0.25740589514740242 -0.21487995253342729 0 -0.24008252321878201 -0.20814549904302651 0 -0.25740589514740242 -0.21487995253342729 0 -0.25438680398690172 -0.20251133694302151 0 -0.26187544238982963 -0.20643757491946491 0 -0.25740589514740242 -0.21487995253342729 0 -0.25438680398690172 -0.20251133694302151 0 -0.25353669960091152 -0.19282343679274641 0 -0.25438680398690172 -0.20251133694302151 0 -0.2644057389431646 -0.19549999386017369 0 -0.26187544238982963 -0.20643757491946491 0 -0.25438680398690172 -0.20251133694302151 0 -0.2644057389431646 -0.19549999386017369 0 -0.25353669960091152 -0.19282343679274641 0 -0.2644057389431646 -0.19549999386017369 0 -0.26177219739319058 -0.18442953107176011 0 -0.2644057389431646 -0.19549999386017369 0 -0.27963705358715119 -0.19793005432395169 0 -0.27232728758036462 -0.186620601619225 0 -0.2644057389431646 -0.19549999386017369 0 -0.27232728758036462 -0.186620601619225 0 -0.26177219739319058 -0.18442953107176011 0 -0.27073509898112152 -0.20736095846413341 0 -0.2644057389431646 -0.19549999386017369 0 -0.27963705358715119 -0.19793005432395169 0 -0.27073509898112152 -0.20736095846413341 0 -0.26187544238982963 -0.20643757491946491 0 -0.2644057389431646 -0.19549999386017369 0 -0.27963705358715119 -0.19793005432395169 0 -0.2864408969059592 -0.182574747442944 0 -0.27232728758036462 -0.186620601619225 0 -0.29189310397710538 -0.19609865871843321 0 -0.30350124273956047 -0.19248081348859361 0 -0.2864408969059592 -0.182574747442944 0 -0.30350124273956047 -0.19248081348859361 0 -0.2864408969059592 -0.182574747442944 0 -0.27963705358715119 -0.19793005432395169 0 -0.29189310397710538 -0.19609865871843321 0 -0.2864408969059592 -0.182574747442944 0 -0.29189310397710538 -0.19609865871843321 0 -0.29020814005586121 -0.20701141181070129 0 -0.29950440719894261 -0.2031422152954713 0 -0.27963705358715119 -0.19793005432395169 0 -0.29189310397710538 -0.19609865871843321 0 -0.29020814005586121 -0.20701141181070129 0 -0.28097157848827431 -0.21295118585833131 0 -0.27963705358715119 -0.19793005432395169 0 -0.29020814005586121 -0.20701141181070129 0 -0.29209007301458773 -0.22082619549950719 0 -0.28097157848827431 -0.21295118585833131 0 -0.29020814005586121 -0.20701141181070129 0 -0.29209007301458773 -0.22082619549950719 0 -0.29020814005586121 -0.20701141181070129 0 -0.29792819117916602 -0.2135996774063777 0 -0.29020814005586121 -0.20701141181070129 0 -0.29950440719894261 -0.2031422152954713 0 -0.29792819117916602 -0.2135996774063777 0 -0.29950440719894261 -0.2031422152954713 0 -0.29792819117916602 -0.2135996774063777 0 -0.30549297067712139 -0.21011540322398159 0 -0.30547683306634038 -0.22162416796902201 0 -0.29209007301458773 -0.22082619549950719 0 -0.29792819117916602 -0.2135996774063777 0 -0.30547683306634038 -0.22162416796902201 0 -0.29792819117916602 -0.2135996774063777 0 -0.30549297067712139 -0.21011540322398159 0 -0.30547683306634038 -0.22162416796902201 0 -0.30549297067712139 -0.21011540322398159 0 -0.31654457413563802 -0.21439720002538551 0 -0.30549297067712139 -0.21011540322398159 0 -0.31111381337618049 -0.20094121222403449 0 -0.31654457413563802 -0.21439720002538551 0 -0.29950440719894261 -0.2031422152954713 0 -0.30549297067712139 -0.21011540322398159 0 -0.31111381337618049 -0.20094121222403449 0 -0.29950440719894261 -0.2031422152954713 0 -0.31111381337618049 -0.20094121222403449 0 -0.30350124273956047 -0.19248081348859361 0 -0.31111381337618049 -0.20094121222403449 0 -0.30350124273956047 -0.19248081348859361 0 -0.30874098476902412 -0.18445605023790021 0 -0.29189310397710538 -0.19609865871843321 0 -0.29950440719894261 -0.2031422152954713 0 -0.30350124273956047 -0.19248081348859361 0 -0.30874098476902412 -0.18445605023790021 0 -0.30542613495475368 -0.1711411275527126 0 -0.32187022371805829 -0.17133600959654541 0 -0.30874098476902412 -0.18445605023790021 0 -0.30542613495475368 -0.1711411275527126 0 -0.2845832688012509 -0.16785650940292671 0 -0.30350124273956047 -0.19248081348859361 0 -0.30874098476902412 -0.18445605023790021 0 -0.29581659830394857 -0.18184203014309111 0 -0.30651006253068158 -0.16091594097347811 0 -0.30542613495475368 -0.1711411275527126 0 -0.2845832688012509 -0.16785650940292671 0 -0.30651006253068158 -0.16091594097347811 0 -0.30542613495475368 -0.1711411275527126 0 -0.32187022371805829 -0.17133600959654541 0 -0.30651006253068158 -0.16091594097347811 0 -0.2845832688012509 -0.16785650940292671 0 -0.29390973273393162 -0.1527325145253107 0 -0.30651006253068158 -0.16091594097347811 0 -0.2845832688012509 -0.16785650940292671 0 -0.2845832688012509 -0.16785650940292671 0 -0.29581659830394857 -0.18184203014309111 0 -0.2864408969059592 -0.182574747442944 0 -0.30350124273956047 -0.19248081348859361 0 -0.29581659830394857 -0.18184203014309111 0 -0.2864408969059592 -0.182574747442944 0 -0.30874098476902412 -0.18445605023790021 0 -0.2845832688012509 -0.16785650940292671 0 -0.29581659830394857 -0.18184203014309111 0 -0.30874098476902412 -0.18445605023790021 0 -0.2845832688012509 -0.16785650940292671 0 -0.2864408969059592 -0.182574747442944 0 -0.26938055107235742 -0.17266868139729549 0 -0.27232728758036462 -0.186620601619225 0 -0.2864408969059592 -0.182574747442944 0 -0.26938055107235742 -0.17266868139729549 0 -0.2845832688012509 -0.16785650940292671 0 -0.2864408969059592 -0.182574747442944 0 -0.26938055107235742 -0.17266868139729549 0 -0.26938055107235742 -0.17266868139729549 0 -0.27232728758036462 -0.186620601619225 0 -0.26177219739319058 -0.18442953107176011 0 -0.24878291810700151 -0.17918852569577681 0 -0.26938055107235742 -0.17266868139729549 0 -0.24878291810700151 -0.17918852569577681 0 -0.26938055107235742 -0.17266868139729549 0 -0.26177219739319058 -0.18442953107176011 0 -0.24878291810700151 -0.17918852569577681 0 -0.26938055107235742 -0.17266868139729549 0 -0.25038573328596542 -0.17385397743513781 0 -0.24878291810700151 -0.17918852569577681 0 -0.25353669960091152 -0.19282343679274641 0 -0.26177219739319058 -0.18442953107176011 0 -0.24873960737771611 -0.1606835461908942 0 -0.26938055107235742 -0.17266868139729549 0 -0.24873960737771611 -0.1606835461908942 0 -0.26938055107235742 -0.17266868139729549 0 -0.26581015738269059 -0.1549569029166305 0 -0.24873960737771611 -0.1606835461908942 0 -0.26938055107235742 -0.17266868139729549 0 -0.25038573328596542 -0.17385397743513781 0 -0.2845832688012509 -0.16785650940292671 0 -0.26581015738269059 -0.1549569029166305 0 -0.2845832688012509 -0.16785650940292671 0 -0.26581015738269059 -0.1549569029166305 0 -0.28058083400571648 -0.1466608005030948 0 -0.2845832688012509 -0.16785650940292671 0 -0.26938055107235742 -0.17266868139729549 0 -0.26581015738269059 -0.1549569029166305 0 -0.2845832688012509 -0.16785650940292671 0 -0.26938055107235742 -0.17266868139729549 0 -0.26581015738269059 -0.1549569029166305 0 -0.28058083400571648 -0.1466608005030948 0 -0.26519018078978029 -0.13574888362355181 0 -0.24703704596412951 -0.14205729643033579 0 -0.26581015738269059 -0.1549569029166305 0 -0.24873960737771611 -0.1606835461908942 0 -0.24703704596412951 -0.14205729643033579 0 -0.26581015738269059 -0.1549569029166305 0 -0.24703704596412951 -0.14205729643033579 0 -0.26581015738269059 -0.1549569029166305 0 -0.26519018078978029 -0.13574888362355181 0 -0.24703704596412951 -0.14205729643033579 0 -0.25040147402828211 -0.1224657960648471 0 -0.26519018078978029 -0.13574888362355181 0 -0.28058083400571648 -0.1466608005030948 0 -0.26519018078978029 -0.13574888362355181 0 -0.28298701259331649 -0.12849594257210961 0 -0.28058083400571648 -0.1466608005030948 0 -0.28298701259331649 -0.12849594257210961 0 -0.29062800290078039 -0.13929402315093611 0 -0.28298701259331649 -0.12849594257210961 0 -0.29062800290078039 -0.13929402315093611 0 -0.29713895585358469 -0.12727383185605551 0 -0.29062800290078039 -0.13929402315093611 0 -0.30090799715102151 -0.14248086889394121 0 -0.29713895585358469 -0.12727383185605551 0 -0.28058083400571648 -0.1466608005030948 0 -0.29062800290078039 -0.13929402315093611 0 -0.29390973273393162 -0.1527325145253107 0 -0.2845832688012509 -0.16785650940292671 0 -0.28058083400571648 -0.1466608005030948 0 -0.29390973273393162 -0.1527325145253107 0 -0.29062800290078039 -0.13929402315093611 0 -0.29390973273393162 -0.1527325145253107 0 -0.30090799715102151 -0.14248086889394121 0 -0.30651006253068158 -0.16091594097347811 0 -0.30090799715102151 -0.14248086889394121 0 -0.31576905575317871 -0.14560173967064399 0 -0.30651006253068158 -0.16091594097347811 0 -0.29390973273393162 -0.1527325145253107 0 -0.30090799715102151 -0.14248086889394121 0 -0.30090799715102151 -0.14248086889394121 0 -0.30977538586373432 -0.13376164267656659 0 -0.32236362170202337 -0.13192319453133991 0 -0.30090799715102151 -0.14248086889394121 0 -0.32236362170202337 -0.13192319453133991 0 -0.30090799715102151 -0.14248086889394121 0 -0.30977538586373432 -0.13376164267656659 0 -0.29713895585358469 -0.12727383185605551 0 -0.30090799715102151 -0.14248086889394121 0 -0.32236362170202337 -0.13192319453133991 0 -0.31576905575317871 -0.14560173967064399 0 -0.31828315501330001 -0.11797399565992769 0 -0.30977538586373432 -0.13376164267656659 0 -0.32236362170202337 -0.13192319453133991 0 -0.32236362170202337 -0.13192319453133991 0 -0.31576905575317871 -0.14560173967064399 0 -0.32843685626011138 -0.15397537254402671 0 -0.30651006253068158 -0.16091594097347811 0 -0.31576905575317871 -0.14560173967064399 0 -0.32843685626011138 -0.15397537254402671 0 -0.32843685626011138 -0.15397537254402671 0 -0.33793971433368808 -0.13889343865825071 0 -0.34761008388195658 -0.15264119624675421 0 -0.32236362170202337 -0.13192319453133991 0 -0.32843685626011138 -0.15397537254402671 0 -0.33793971433368808 -0.13889343865825071 0 -0.34381924625302529 -0.1213655201687386 0 -0.32236362170202337 -0.13192319453133991 0 -0.34381924625302529 -0.1213655201687386 0 -0.32236362170202337 -0.13192319453133991 0 -0.33793971433368808 -0.13889343865825071 0 -0.34994083424980088 -0.13241947889666919 0 -0.36513663005689911 -0.13411602963783781 0 -0.34761008388195658 -0.15264119624675421 0 -0.35766211582158369 -0.1224171964546318 0 -0.34381924625302529 -0.1213655201687386 0 -0.34994083424980088 -0.13241947889666919 0 -0.34381924625302529 -0.1213655201687386 0 -0.33793971433368808 -0.13889343865825071 0 -0.34994083424980088 -0.13241947889666919 0 -0.35766211582158369 -0.1224171964546318 0 -0.34994083424980088 -0.13241947889666919 0 -0.36513663005689911 -0.13411602963783781 0 -0.36513663005689911 -0.13411602963783781 0 -0.37380151156406849 -0.12731050683464221 0 -0.38302845329456209 -0.1358871543487595 0 -0.36513663005689911 -0.13411602963783781 0 -0.37633965025948662 -0.148221919173424 0 -0.38302845329456209 -0.1358871543487595 0 -0.36513663005689911 -0.13411602963783781 0 -0.36499838930977219 -0.1574242134695395 0 -0.37633965025948662 -0.148221919173424 0 -0.36513663005689911 -0.13411602963783781 0 -0.36499838930977219 -0.1574242134695395 0 -0.36499838930977219 -0.1574242134695395 0 -0.3793456413490367 -0.16023234929787719 0 -0.37633965025948662 -0.148221919173424 0 -0.36513663005689911 -0.13411602963783781 0 -0.34761008388195658 -0.15264119624675421 0 -0.36499838930977219 -0.1574242134695395 0 -0.33793971433368808 -0.13889343865825071 0 -0.34994083424980088 -0.13241947889666919 0 -0.34761008388195658 -0.15264119624675421 0 -0.34761008388195658 -0.15264119624675421 0 -0.35391905852368338 -0.1690130038705043 0 -0.36499838930977219 -0.1574242134695395 0 -0.34761008388195658 -0.15264119624675421 0 -0.35391905852368338 -0.1690130038705043 0 -0.3398209023394777 -0.17664803012002131 0 -0.35391905852368338 -0.1690130038705043 0 -0.36499838930977219 -0.1574242134695395 0 -0.36486014856264531 -0.18073239730124141 0 -0.36499838930977219 -0.1574242134695395 0 -0.36486014856264531 -0.18073239730124141 0 -0.36499838930977219 -0.1574242134695395 0 -0.36486014856264531 -0.18073239730124141 0 -0.37754501476419611 -0.17484859926164681 0 -0.36499838930977219 -0.1574242134695395 0 -0.37754501476419611 -0.17484859926164681 0 -0.3793456413490367 -0.16023234929787719 0 -0.36486014856264531 -0.18073239730124141 0 -0.37362394046497838 -0.18822982957744461 0 -0.37754501476419611 -0.17484859926164681 0 -0.35391905852368338 -0.1690130038705043 0 -0.3398209023394777 -0.17664803012002131 0 -0.35012060094165659 -0.19229947897047689 0 -0.35391905852368338 -0.1690130038705043 0 -0.36486014856264531 -0.18073239730124141 0 -0.35012060094165659 -0.19229947897047689 0 -0.3398209023394777 -0.17664803012002131 0 -0.32187022371805829 -0.17133600959654541 0 -0.33289870073679639 -0.20105559107287521 0 -0.32843685626011138 -0.15397537254402671 0 -0.34761008388195658 -0.15264119624675421 0 -0.3398209023394777 -0.17664803012002131 0 -0.32843685626011138 -0.15397537254402671 0 -0.3398209023394777 -0.17664803012002131 0 -0.32187022371805829 -0.17133600959654541 0 -0.30651006253068158 -0.16091594097347811 0 -0.32843685626011138 -0.15397537254402671 0 -0.32187022371805829 -0.17133600959654541 0 -0.30651006253068158 -0.16091594097347811 0 -0.32843685626011138 -0.15397537254402671 0 -0.30874098476902412 -0.18445605023790021 0 -0.32187022371805829 -0.17133600959654541 0 -0.33289870073679639 -0.20105559107287521 0 -0.31111381337618049 -0.20094121222403449 0 -0.30874098476902412 -0.18445605023790021 0 -0.33289870073679639 -0.20105559107287521 0 -0.30874098476902412 -0.18445605023790021 0 -0.33289870073679639 -0.20105559107287521 0 -0.31111381337618049 -0.20094121222403449 0 -0.31654457413563802 -0.21439720002538551 0 -0.33289870073679639 -0.20105559107287521 0 -0.31654457413563802 -0.21439720002538551 0 -0.33289870073679639 -0.20105559107287521 0 -0.32805559345707203 -0.222686023488851 0 -0.33289870073679639 -0.20105559107287521 0 -0.34174366254489352 -0.22371582653292349 0 -0.32805559345707203 -0.222686023488851 0 -0.3398209023394777 -0.17664803012002131 0 -0.33289870073679639 -0.20105559107287521 0 -0.35012060094165659 -0.19229947897047689 0 -0.37362394046497838 -0.18822982957744461 0 -0.3647219078155165 -0.20404058113294321 0 -0.36486014856264531 -0.18073239730124141 0 -0.37362394046497838 -0.18822982957744461 0 -0.3647219078155165 -0.20404058113294321 0 -0.36486014856264531 -0.18073239730124141 0 -0.35012060094165659 -0.19229947897047689 0 -0.3647219078155165 -0.20404058113294321 0 -0.37477276731511572 -0.19928812231803031 0 -0.37362394046497838 -0.18822982957744461 0 -0.3647219078155165 -0.20404058113294321 0 -0.36486014856264531 -0.18073239730124141 0 -0.3647219078155165 -0.20404058113294321 0 -0.3647219078155165 -0.20404058113294321 0 -0.36461037473763752 -0.22284569855756611 0 -0.37087553004435708 -0.2134799677057452 0 -0.3647219078155165 -0.20404058113294321 0 -0.36461037473763752 -0.22284569855756611 0 -0.3647219078155165 -0.20404058113294321 0 -0.35705641670456878 -0.2176551319078501 0 -0.36461037473763752 -0.22284569855756611 0 -0.37477276731511572 -0.19928812231803031 0 -0.37087553004435708 -0.2134799677057452 0 -0.3647219078155165 -0.20404058113294321 0 -0.3647219078155165 -0.20404058113294321 0 -0.35705641670456878 -0.2176551319078501 0 -0.33289870073679639 -0.20105559107287521 0 -0.35012060094165659 -0.19229947897047689 0 -0.35705641670456878 -0.2176551319078501 0 -0.33289870073679639 -0.20105559107287521 0 -0.35705641670456878 -0.2176551319078501 0 -0.33289870073679639 -0.20105559107287521 0 -0.35705641670456878 -0.2176551319078501 0 -0.34174366254489352 -0.22371582653292349 0 -0.35012060094165659 -0.19229947897047689 0 -0.3647219078155165 -0.20404058113294321 0 -0.35705641670456878 -0.2176551319078501 0 -0.35705641670456878 -0.2176551319078501 0 -0.35726696875675912 -0.23540502524094301 0 -0.3450856318478891 -0.23891624302101849 0 -0.35705641670456878 -0.2176551319078501 0 -0.3450856318478891 -0.23891624302101849 0 -0.34174366254489352 -0.22371582653292349 0 -0.35705641670456878 -0.2176551319078501 0 -0.3450856318478891 -0.23891624302101849 0 -0.35705641670456878 -0.2176551319078501 0 -0.36461037473763752 -0.22284569855756611 0 -0.35705641670456878 -0.2176551319078501 0 -0.36461037473763752 -0.22284569855756611 0 -0.35726696875675912 -0.23540502524094301 0 -0.37087553004435708 -0.2134799677057452 0 -0.36461037473763752 -0.22284569855756611 0 -0.37660732730624252 -0.23108918913935211 0 -0.36461037473763752 -0.22284569855756611 0 -0.36445888761529488 -0.2483872973195369 0 -0.37660732730624252 -0.23108918913935211 0 -0.36461037473763752 -0.22284569855756611 0 -0.37660732730624252 -0.23108918913935211 0 -0.3735524722519119 -0.2468406780476422 0 -0.36445888761529488 -0.2483872973195369 0 -0.37660732730624252 -0.23108918913935211 0 -0.36461037473763752 -0.22284569855756611 0 -0.36445888761529488 -0.2483872973195369 0 -0.35726696875675912 -0.23540502524094301 0 -0.36461037473763752 -0.22284569855756611 0 -0.36445888761529488 -0.2483872973195369 0 -0.36445888761529488 -0.2483872973195369 0 -0.35164653719306671 -0.2499052475159535 0 -0.35726696875675912 -0.23540502524094301 0 -0.35164653719306671 -0.2499052475159535 0 -0.35726696875675912 -0.23540502524094301 0 -0.3450856318478891 -0.23891624302101849 0 -0.33311484699120808 -0.26017735413418619 0 -0.3450856318478891 -0.23891624302101849 0 -0.33311484699120808 -0.26017735413418619 0 -0.35164653719306671 -0.2499052475159535 0 -0.3450856318478891 -0.23891624302101849 0 -0.33311484699120808 -0.26017735413418619 0 -0.3450856318478891 -0.23891624302101849 0 -0.32908128871583731 -0.23863994323843479 0 -0.32908128871583731 -0.23863994323843479 0 -0.34174366254489352 -0.22371582653292349 0 -0.32805559345707203 -0.222686023488851 0 -0.3450856318478891 -0.23891624302101849 0 -0.32908128871583731 -0.23863994323843479 0 -0.34174366254489352 -0.22371582653292349 0 -0.32908128871583731 -0.23863994323843479 0 -0.32805559345707203 -0.222686023488851 0 -0.31690517062474871 -0.22874987080005171 0 -0.31654457413563802 -0.21439720002538551 0 -0.32805559345707203 -0.222686023488851 0 -0.31690517062474871 -0.22874987080005171 0 -0.30547683306634038 -0.22162416796902201 0 -0.31654457413563802 -0.21439720002538551 0 -0.31690517062474871 -0.22874987080005171 0 -0.32908128871583731 -0.23863994323843479 0 -0.31690517062474871 -0.22874987080005171 0 -0.31437839441974158 -0.24216404846257711 0 -0.30789433995386312 -0.23298784161603989 0 -0.31690517062474871 -0.22874987080005171 0 -0.31437839441974158 -0.24216404846257711 0 -0.32068615860631311 -0.25149172888279969 0 -0.31294828940832142 -0.25008585841527259 0 -0.31437839441974158 -0.24216404846257711 0 -0.32068615860631311 -0.25149172888279969 0 -0.32908128871583731 -0.23863994323843479 0 -0.31437839441974158 -0.24216404846257711 0 -0.42116196501475539 -0.2339281312994064 0 -0.42009645611735469 -0.2481788210581061 0 -0.44044014321086478 -0.2325095817430331 0 -0.42009645611735469 -0.2481788210581061 0 -0.44044014321086478 -0.2325095817430331 0 -0.43382769287326461 -0.25670329331724201 0 -0.42009645611735469 -0.2481788210581061 0 -0.44044014321086478 -0.2325095817430331 0 -0.42327052134862952 -0.21880684665658781 0 -0.43769788831886258 -0.2115690069389552 0 -0.44044014321086478 -0.2325095817430331 0 -0.42327052134862952 -0.21880684665658781 0 -0.42116196501475539 -0.2339281312994064 0 -0.44044014321086478 -0.2325095817430331 0 -0.42327052134862952 -0.21880684665658781 0 -0.41154887743944768 -0.22880913101552411 0 -0.40393406774509472 -0.21755537860862151 0 -0.42327052134862952 -0.21880684665658781 0 -0.42116196501475539 -0.2339281312994064 0 -0.41154887743944768 -0.22880913101552411 0 -0.42116196501475539 -0.2339281312994064 0 -0.41154887743944768 -0.22880913101552411 0 -0.40844785595435751 -0.24024884999140289 0 -0.41154887743944768 -0.22880913101552411 0 -0.40844785595435751 -0.24024884999140289 0 -0.40166398032094819 -0.23042132979022931 0 -0.42116196501475539 -0.2339281312994064 0 -0.40844785595435751 -0.24024884999140289 0 -0.42009645611735469 -0.2481788210581061 0 -0.4102728076128202 -0.25422181955125028 0 -0.40844785595435751 -0.24024884999140289 0 -0.42009645611735469 -0.2481788210581061 0 -0.4102728076128202 -0.25422181955125028 0 -0.39344006745953131 -0.24265550434530131 0 -0.4102728076128202 -0.25422181955125028 0 -0.40844785595435751 -0.24024884999140289 0 -0.39344006745953131 -0.24265550434530131 0 -0.40844785595435751 -0.24024884999140289 0 -0.39344006745953131 -0.24265550434530131 0 -0.40166398032094819 -0.23042132979022931 0 -0.39579060811689748 -0.25349181186906511 0 -0.39344006745953131 -0.24265550434530131 0 -0.38396733288674828 -0.24698654330016909 0 -0.3735524722519119 -0.2468406780476422 0 -0.37660732730624252 -0.23108918913935211 0 -0.39344006745953131 -0.24265550434530131 0 -0.37660732730624252 -0.23108918913935211 0 -0.3735524722519119 -0.2468406780476422 0 -0.38396733288674828 -0.24698654330016909 0 -0.37660732730624252 -0.23108918913935211 0 -0.39344006745953131 -0.24265550434530131 0 -0.38396733288674828 -0.24698654330016909 0 -0.37660732730624252 -0.23108918913935211 0 -0.37660732730624252 -0.23108918913935211 0 -0.380986908124896 -0.20850712961080919 0 -0.39344006745953131 -0.24265550434530131 0 -0.37660732730624252 -0.23108918913935211 0 -0.39154926637971899 -0.2233292300843491 0 -0.37660732730624252 -0.23108918913935211 0 -0.39154926637971899 -0.2233292300843491 0 -0.380986908124896 -0.20850712961080919 0 -0.39344006745953131 -0.24265550434530131 0 -0.39154926637971899 -0.2233292300843491 0 -0.40166398032094819 -0.23042132979022931 0 -0.41154887743944768 -0.22880913101552411 0 -0.40166398032094819 -0.23042132979022931 0 -0.40393406774509472 -0.21755537860862151 0 -0.39154926637971899 -0.2233292300843491 0 -0.40166398032094819 -0.23042132979022931 0 -0.40393406774509472 -0.21755537860862151 0 -0.39542526308974879 -0.2090361769080003 0 -0.380986908124896 -0.20850712961080919 0 -0.39691405807606278 -0.19416875315461241 0 -0.40393406774509472 -0.21755537860862151 0 -0.39542526308974879 -0.2090361769080003 0 -0.41038023681535218 -0.20330849947259111 0 -0.39154926637971899 -0.2233292300843491 0 -0.40393406774509472 -0.21755537860862151 0 -0.39542526308974879 -0.2090361769080003 0 -0.39154926637971899 -0.2233292300843491 0 -0.39542526308974879 -0.2090361769080003 0 -0.380986908124896 -0.20850712961080919 0 -0.37087553004435708 -0.2134799677057452 0 -0.37660732730624252 -0.23108918913935211 0 -0.380986908124896 -0.20850712961080919 0 -0.37477276731511572 -0.19928812231803031 0 -0.37087553004435708 -0.2134799677057452 0 -0.380986908124896 -0.20850712961080919 0 -0.380986908124896 -0.20850712961080919 0 -0.39691405807606278 -0.19416875315461241 0 -0.38536648894354908 -0.18592507008226611 0 -0.380986908124896 -0.20850712961080919 0 -0.38536648894354908 -0.18592507008226611 0 -0.37477276731511572 -0.19928812231803031 0 -0.380986908124896 -0.20850712961080919 0 -0.38536648894354908 -0.18592507008226611 0 -0.37477276731511572 -0.19928812231803031 0 -0.37362394046497838 -0.18822982957744461 0 -0.38536648894354908 -0.18592507008226611 0 -0.39542526308974879 -0.2090361769080003 0 -0.39691405807606278 -0.19416875315461241 0 -0.41038023681535218 -0.20330849947259111 0 -0.39691405807606278 -0.19416875315461241 0 -0.41070805956250389 -0.18858019457947581 0 -0.41038023681535218 -0.20330849947259111 0 -0.39691405807606278 -0.19416875315461241 0 -0.41070805956250389 -0.18858019457947581 0 -0.40172649597875298 -0.18157937586252301 0 -0.41070805956250389 -0.18858019457947581 0 -0.4256874991174685 -0.19704431914113421 0 -0.42083251216552808 -0.17986994470149609 0 -0.41070805956250389 -0.18858019457947581 0 -0.41038023681535218 -0.20330849947259111 0 -0.4256874991174685 -0.19704431914113421 0 -0.42327052134862952 -0.21880684665658781 0 -0.40393406774509472 -0.21755537860862151 0 -0.41038023681535218 -0.20330849947259111 0 -0.42327052134862952 -0.21880684665658781 0 -0.41038023681535218 -0.20330849947259111 0 -0.4256874991174685 -0.19704431914113421 0 -0.42327052134862952 -0.21880684665658781 0 -0.4256874991174685 -0.19704431914113421 0 -0.43769788831886258 -0.2115690069389552 0 -0.4256874991174685 -0.19704431914113421 0 -0.43370308212273478 -0.1825394975969501 0 -0.44556356945791081 -0.19433434654858631 0 -0.4256874991174685 -0.19704431914113421 0 -0.44556356945791081 -0.19433434654858631 0 -0.43769788831886258 -0.2115690069389552 0 -0.4256874991174685 -0.19704431914113421 0 -0.43370308212273478 -0.1825394975969501 0 -0.42083251216552808 -0.17986994470149609 0 -0.42953723179629322 -0.16978372255006571 0 -0.41688347212766352 -0.16637483798932301 0 -0.42083251216552808 -0.17986994470149609 0 -0.43370308212273478 -0.1825394975969501 0 -0.42953723179629322 -0.16978372255006571 0 -0.42083251216552808 -0.17986994470149609 0 -0.42953723179629322 -0.16978372255006571 0 -0.41688347212766352 -0.16637483798932301 0 -0.42276597837547558 -0.15519108966524911 0 -0.43603850771133301 -0.1590553416806173 0 -0.42953723179629322 -0.16978372255006571 0 -0.42276597837547558 -0.15519108966524911 0 -0.41688347212766352 -0.16637483798932301 0 -0.41149555775079227 -0.15747806497434991 0 -0.42276597837547558 -0.15519108966524911 0 -0.41688347212766352 -0.16637483798932301 0 -0.41149555775079227 -0.15747806497434991 0 -0.40645324133253602 -0.1644767854636249 0 -0.41149555775079227 -0.15747806497434991 0 -0.40645324133253602 -0.1644767854636249 0 -0.40081417635299449 -0.1539900878915145 0 -0.41688347212766352 -0.16637483798932301 0 -0.40645324133253602 -0.1644767854636249 0 -0.40954447521087389 -0.17540245461117751 0 -0.41688347212766352 -0.16637483798932301 0 -0.40954447521087389 -0.17540245461117751 0 -0.42083251216552808 -0.17986994470149609 0 -0.41070805956250389 -0.18858019457947581 0 -0.40954447521087389 -0.17540245461117751 0 -0.42083251216552808 -0.17986994470149609 0 -0.41070805956250389 -0.18858019457947581 0 -0.40954447521087389 -0.17540245461117751 0 -0.40172649597875298 -0.18157937586252301 0 -0.39691405807606278 -0.19416875315461241 0 -0.40172649597875298 -0.18157937586252301 0 -0.39185794030954307 -0.17842534173334659 0 -0.39691405807606278 -0.19416875315461241 0 -0.39185794030954307 -0.17842534173334659 0 -0.38536648894354908 -0.18592507008226611 0 -0.40954447521087389 -0.17540245461117751 0 -0.40172649597875298 -0.18157937586252301 0 -0.39916165569088258 -0.17128784605404329 0 -0.40172649597875298 -0.18157937586252301 0 -0.39185794030954307 -0.17842534173334659 0 -0.39916165569088258 -0.17128784605404329 0 -0.39185794030954307 -0.17842534173334659 0 -0.38883874605229718 -0.16703171124452379 0 -0.39916165569088258 -0.17128784605404329 0 -0.39185794030954307 -0.17842534173334659 0 -0.38536648894354908 -0.18592507008226611 0 -0.37754501476419611 -0.17484859926164681 0 -0.39185794030954307 -0.17842534173334659 0 -0.37754501476419611 -0.17484859926164681 0 -0.38883874605229718 -0.16703171124452379 0 -0.37362394046497838 -0.18822982957744461 0 -0.38536648894354908 -0.18592507008226611 0 -0.37754501476419611 -0.17484859926164681 0 -0.37754501476419611 -0.17484859926164681 0 -0.3793456413490367 -0.16023234929787719 0 -0.38883874605229718 -0.16703171124452379 0 -0.3793456413490367 -0.16023234929787719 0 -0.38883874605229718 -0.16703171124452379 0 -0.38918913728716248 -0.153449849113106 0 -0.38883874605229718 -0.16703171124452379 0 -0.39737223875887417 -0.16218628478472219 0 -0.38918913728716248 -0.153449849113106 0 -0.39737223875887417 -0.16218628478472219 0 -0.40081417635299449 -0.1539900878915145 0 -0.38918913728716248 -0.153449849113106 0 -0.38883874605229718 -0.16703171124452379 0 -0.39737223875887417 -0.16218628478472219 0 -0.39916165569088258 -0.17128784605404329 0 -0.40645324133253602 -0.1644767854636249 0 -0.40954447521087389 -0.17540245461117751 0 -0.39916165569088258 -0.17128784605404329 0 -0.40645324133253602 -0.1644767854636249 0 -0.39737223875887417 -0.16218628478472219 0 -0.39916165569088258 -0.17128784605404329 0 -0.40645324133253602 -0.1644767854636249 0 -0.39737223875887417 -0.16218628478472219 0 -0.40081417635299449 -0.1539900878915145 0 -0.40081417635299449 -0.1539900878915145 0 -0.39832205841871698 -0.14328875102681679 0 -0.41049751783004013 -0.14762813497877761 0 -0.39832205841871698 -0.14328875102681679 0 -0.40847272186308181 -0.13677819528894031 0 -0.41049751783004013 -0.14762813497877761 0 -0.40081417635299449 -0.1539900878915145 0 -0.39832205841871698 -0.14328875102681679 0 -0.38918913728716248 -0.153449849113106 0 -0.39832205841871698 -0.14328875102681679 0 -0.38918913728716248 -0.153449849113106 0 -0.38302845329456209 -0.1358871543487595 0 -0.38918913728716248 -0.153449849113106 0 -0.37633965025948662 -0.148221919173424 0 -0.38302845329456209 -0.1358871543487595 0 -0.3793456413490367 -0.16023234929787719 0 -0.38918913728716248 -0.153449849113106 0 -0.37633965025948662 -0.148221919173424 0 -0.37380151156406849 -0.12731050683464221 0 -0.38302845329456209 -0.1358871543487595 0 -0.38208542006974427 -0.1200460610865 0 -0.38302845329456209 -0.1358871543487595 0 -0.38208542006974427 -0.1200460610865 0 -0.39282281227806748 -0.1221055659354444 0 -0.38302845329456209 -0.1358871543487595 0 -0.39774143797466988 -0.13147571352066681 0 -0.39282281227806748 -0.1221055659354444 0 -0.39832205841871698 -0.14328875102681679 0 -0.38302845329456209 -0.1358871543487595 0 -0.39774143797466988 -0.13147571352066681 0 -0.39832205841871698 -0.14328875102681679 0 -0.39774143797466988 -0.13147571352066681 0 -0.40847272186308181 -0.13677819528894031 0 -0.39774143797466988 -0.13147571352066681 0 -0.39282281227806748 -0.1221055659354444 0 -0.40718930834363659 -0.1235418040042783 0 -0.39774143797466988 -0.13147571352066681 0 -0.40847272186308181 -0.13677819528894031 0 -0.40718930834363659 -0.1235418040042783 0 -0.41732634136215152 -0.12966649588558229 0 -0.40847272186308181 -0.13677819528894031 0 -0.40718930834363659 -0.1235418040042783 0 -0.41732634136215152 -0.12966649588558229 0 -0.41867156920887871 -0.1420536552472931 0 -0.4243077352469331 -0.1356908769562159 0 -0.41732634136215152 -0.12966649588558229 0 -0.40847272186308181 -0.13677819528894031 0 -0.41867156920887871 -0.1420536552472931 0 -0.40847272186308181 -0.13677819528894031 0 -0.41049751783004013 -0.14762813497877761 0 -0.41867156920887871 -0.1420536552472931 0 -0.41149555775079227 -0.15747806497434991 0 -0.40081417635299449 -0.1539900878915145 0 -0.41049751783004013 -0.14762813497877761 0 -0.41149555775079227 -0.15747806497434991 0 -0.41049751783004013 -0.14762813497877761 0 -0.42276597837547558 -0.15519108966524911 0 -0.41049751783004013 -0.14762813497877761 0 -0.41867156920887871 -0.1420536552472931 0 -0.42276597837547558 -0.15519108966524911 0 -0.41867156920887871 -0.1420536552472931 0 -0.42797266618921748 -0.14346263800924691 0 -0.42276597837547558 -0.15519108966524911 0 -0.42797266618921748 -0.14346263800924691 0 -0.42276597837547558 -0.15519108966524911 0 -0.43258841634743472 -0.1511800682552808 0 -0.43603850771133301 -0.1590553416806173 0 -0.43258841634743472 -0.1511800682552808 0 -0.44357651311371288 -0.14701120366601 0 -0.43603850771133301 -0.1590553416806173 0 -0.42276597837547558 -0.15519108966524911 0 -0.43258841634743472 -0.1511800682552808 0 -0.42797266618921748 -0.14346263800924691 0 -0.43258841634743472 -0.1511800682552808 0 -0.44357651311371288 -0.14701120366601 0 -0.42797266618921748 -0.14346263800924691 0 -0.43234031109207732 -0.1373071180875173 0 -0.45198177745947782 -0.1355359206670792 0 -0.43234031109207732 -0.1373071180875173 0 -0.43055298474330622 -0.12645078407041449 0 -0.44177069428222171 -0.12808177928742531 0 -0.41732634136215152 -0.12966649588558229 0 -0.43055298474330622 -0.12645078407041449 0 -0.4243077352469331 -0.1356908769562159 0 -0.41867156920887871 -0.1420536552472931 0 -0.42797266618921748 -0.14346263800924691 0 -0.4243077352469331 -0.1356908769562159 0 -0.42797266618921748 -0.14346263800924691 0 -0.43234031109207732 -0.1373071180875173 0 -0.4243077352469331 -0.1356908769562159 0 -0.43234031109207732 -0.1373071180875173 0 -0.43055298474330622 -0.12645078407041449 0 -0.4243077352469331 -0.1356908769562159 0 -0.43234031109207732 -0.1373071180875173 0 -0.44177069428222171 -0.12808177928742531 0 -0.45489354072805122 -0.12943451882208271 0 -0.43234031109207732 -0.1373071180875173 0 -0.45198177745947782 -0.1355359206670792 0 -0.45489354072805122 -0.12943451882208271 0 -0.43234031109207732 -0.1373071180875173 0 -0.45489354072805122 -0.12943451882208271 0 -0.42797266618921748 -0.14346263800924691 0 -0.45198177745947782 -0.1355359206670792 0 -0.44177069428222171 -0.12808177928742531 0 -0.45489354072805122 -0.12943451882208271 0 -0.44781165480357371 -0.1235596024839747 0 -0.44357651311371288 -0.14701120366601 0 -0.45379437136599388 -0.14379550934513949 0 -0.46123802823015853 -0.15012404877726199 0 -0.43603850771133301 -0.1590553416806173 0 -0.46123802823015853 -0.15012404877726199 0 -0.42797266618921748 -0.14346263800924691 0 -0.45198177745947782 -0.1355359206670792 0 -0.44357651311371288 -0.14701120366601 0 -0.43603850771133301 -0.1590553416806173 0 -0.44357651311371288 -0.14701120366601 0 -0.46123802823015853 -0.15012404877726199 0 -0.45198177745947782 -0.1355359206670792 0 -0.44357651311371288 -0.14701120366601 0 -0.45379437136599388 -0.14379550934513949 0 -0.45379437136599388 -0.14379550934513949 0 -0.45838116666062628 -0.14251086427020701 0 -0.46123802823015853 -0.15012404877726199 0 -0.46123802823015853 -0.15012404877726199 0 -0.46344122377596619 -0.14321306729258829 0 -0.47036744881917758 -0.14104268873501899 0 -0.45838116666062628 -0.14251086427020701 0 -0.46344122377596619 -0.14321306729258829 0 -0.46349937880716569 -0.1391058121447698 0 -0.45838116666062628 -0.14251086427020701 0 -0.46123802823015853 -0.15012404877726199 0 -0.46344122377596619 -0.14321306729258829 0 -0.46344122377596619 -0.14321306729258829 0 -0.46349937880716569 -0.1391058121447698 0 -0.47036744881917758 -0.14104268873501899 0 -0.45198177745947782 -0.1355359206670792 0 -0.47599088872973788 -0.12760920332491149 0 -0.47007755957363212 -0.13560095875516781 0 -0.45198177745947782 -0.1355359206670792 0 -0.46349937880716569 -0.1391058121447698 0 -0.47007755957363212 -0.13560095875516781 0 -0.45489354072805122 -0.12943451882208271 0 -0.47744677036402511 -0.1215619195566482 0 -0.45198177745947782 -0.1355359206670792 0 -0.45489354072805122 -0.12943451882208271 0 -0.47599088872973788 -0.12760920332491149 0 -0.46349937880716569 -0.1391058121447698 0 -0.47007755957363212 -0.13560095875516781 0 -0.47036744881917758 -0.14104268873501899 0 -0.45198177745947782 -0.1355359206670792 0 -0.47599088872973788 -0.12760920332491149 0 -0.45198177745947782 -0.1355359206670792 0 -0.45838116666062628 -0.14251086427020701 0 -0.46349937880716569 -0.1391058121447698 0 -0.45198177745947782 -0.1355359206670792 0 -0.45379437136599388 -0.14379550934513949 0 -0.45838116666062628 -0.14251086427020701 0 -0.47599088872973788 -0.12760920332491149 0 -0.47007755957363212 -0.13560095875516781 0 -0.48083603726033691 -0.13322378284971181 0 -0.47751095377915997 -0.13701948956642029 0 -0.48643754874898371 -0.14119275587390631 0 -0.47036744881917758 -0.14104268873501899 0 -0.45489354072805122 -0.12943451882208271 0 -0.47599088872973788 -0.12760920332491149 0 -0.47744677036402511 -0.1215619195566482 0 -0.47007755957363212 -0.13560095875516781 0 -0.48083603726033691 -0.13322378284971181 0 -0.47751095377915997 -0.13701948956642029 0 -0.47007755957363212 -0.13560095875516781 0 -0.47751095377915997 -0.13701948956642029 0 -0.47036744881917758 -0.14104268873501899 0 -0.48083603726033691 -0.13322378284971181 0 -0.47751095377915997 -0.13701948956642029 0 -0.48643754874898371 -0.14119275587390631 0 -0.47599088872973788 -0.12760920332491149 0 -0.48083603726033691 -0.13322378284971181 0 -0.48767403121606567 -0.13144531399112119 0 -0.47599088872973788 -0.12760920332491149 0 -0.48767403121606567 -0.13144531399112119 0 -0.4909162299864509 -0.127324011610985 0 -0.48767403121606567 -0.13144531399112119 0 -0.49999999999999822 -0.1305590431451629 0 -0.48643754874898371 -0.14119275587390631 0 -0.48083603726033691 -0.13322378284971181 0 -0.48767403121606567 -0.13144531399112119 0 -0.48643754874898371 -0.14119275587390631 0 -0.49999999999999839 -0.13638590946904031 0 -0.49999999999999822 -0.1305590431451629 0 -0.48643754874898371 -0.14119275587390631 0 -0.49999999999999839 -0.13638590946904031 0 -0.48643754874898371 -0.14119275587390631 0 -0.49999999999999822 -0.1305590431451629 0 -0.48643754874898371 -0.14119275587390631 0 -0.48767403121606567 -0.13144531399112119 0 -0.4909162299864509 -0.127324011610985 0 -0.49999999999999822 -0.1305590431451629 0 -0.4909162299864509 -0.127324011610985 0 -0.49999999999999822 -0.1305590431451629 0 -0.49999999999999828 -0.11968248598274429 0 -0.48643754874898371 -0.14119275587390631 0 -0.4841298126557918 -0.15890628279788391 0 -0.5 -0.16410179755961679 0 -0.49999999999999839 -0.13638590946904031 0 -0.48643754874898371 -0.14119275587390631 0 -0.5 -0.16410179755961679 0 -0.46123802823015853 -0.15012404877726199 0 -0.48643754874898371 -0.14119275587390631 0 -0.46885939320690051 -0.15497500311492071 0 -0.48643754874898371 -0.14119275587390631 0 -0.46885939320690051 -0.15497500311492071 0 -0.4841298126557918 -0.15890628279788391 0 -0.46123802823015853 -0.15012404877726199 0 -0.48643754874898371 -0.14119275587390631 0 -0.48643754874898371 -0.14119275587390631 0 -0.46885939320690051 -0.15497500311492071 0 -0.46123802823015853 -0.15012404877726199 0 -0.48643754874898371 -0.14119275587390631 0 -0.47036744881917758 -0.14104268873501899 0 -0.46885939320690051 -0.15497500311492071 0 -0.47588627806979661 -0.166554241480219 0 -0.46552181998052339 -0.1703626909096814 0 -0.47588627806979661 -0.166554241480219 0 -0.4841298126557918 -0.15890628279788391 0 -0.48645316362897889 -0.17554608577880509 0 -0.46885939320690051 -0.15497500311492071 0 -0.47588627806979661 -0.166554241480219 0 -0.4841298126557918 -0.15890628279788391 0 -0.4841298126557918 -0.15890628279788391 0 -0.5 -0.16410179755961679 0 -0.48645316362897889 -0.17554608577880509 0 -0.5 -0.16410179755961679 0 -0.48645316362897889 -0.17554608577880509 0 -0.5 -0.1918176856501935 0 -0.48645316362897889 -0.17554608577880509 0 -0.47339762658557288 -0.18059788110276301 0 -0.48203625411371231 -0.19710614257401171 0 -0.47588627806979661 -0.166554241480219 0 -0.48645316362897889 -0.17554608577880509 0 -0.47339762658557288 -0.18059788110276301 0 -0.47588627806979661 -0.166554241480219 0 -0.47339762658557288 -0.18059788110276301 0 -0.46552181998052339 -0.1703626909096814 0 -0.45833082105263079 -0.1835275473769114 0 -0.46552181998052339 -0.1703626909096814 0 -0.45128123766481759 -0.16875725035593539 0 -0.47339762658557288 -0.18059788110276301 0 -0.45833082105263079 -0.1835275473769114 0 -0.46552181998052339 -0.1703626909096814 0 -0.46123802823015853 -0.15012404877726199 0 -0.46885939320690051 -0.15497500311492071 0 -0.45128123766481759 -0.16875725035593539 0 -0.46885939320690051 -0.15497500311492071 0 -0.46552181998052339 -0.1703626909096814 0 -0.45128123766481759 -0.16875725035593539 0 -0.46885939320690051 -0.15497500311492071 0 -0.45128123766481759 -0.16875725035593539 0 -0.43603850771133301 -0.1590553416806173 0 -0.42953723179629322 -0.16978372255006571 0 -0.45128123766481759 -0.16875725035593539 0 -0.43603850771133301 -0.1590553416806173 0 -0.46123802823015853 -0.15012404877726199 0 -0.45128123766481759 -0.16875725035593539 0 -0.43370308212273478 -0.1825394975969501 0 -0.45128123766481759 -0.16875725035593539 0 -0.43370308212273478 -0.1825394975969501 0 -0.45833082105263079 -0.1835275473769114 0 -0.45128123766481759 -0.16875725035593539 0 -0.43370308212273478 -0.1825394975969501 0 -0.45833082105263079 -0.1835275473769114 0 -0.44556356945791081 -0.19433434654858631 0 -0.43370308212273478 -0.1825394975969501 0 -0.42953723179629322 -0.16978372255006571 0 -0.45128123766481759 -0.16875725035593539 0 -0.44556356945791081 -0.19433434654858631 0 -0.43769788831886258 -0.2115690069389552 0 -0.45733312392399422 -0.21953225067418219 0 -0.44556356945791081 -0.19433434654858631 0 -0.46560930870073919 -0.20023843120658011 0 -0.45733312392399422 -0.21953225067418219 0 -0.46560930870073919 -0.20023843120658011 0 -0.4793289751091826 -0.21634128933864499 0 -0.45733312392399422 -0.21953225067418219 0 -0.45833082105263079 -0.1835275473769114 0 -0.44556356945791081 -0.19433434654858631 0 -0.46560930870073919 -0.20023843120658011 0 -0.47339762658557288 -0.18059788110276301 0 -0.45833082105263079 -0.1835275473769114 0 -0.46560930870073919 -0.20023843120658011 0 -0.47339762658557288 -0.18059788110276301 0 -0.46560930870073919 -0.20023843120658011 0 -0.48203625411371231 -0.19710614257401171 0 -0.48203625411371231 -0.19710614257401171 0 -0.5 -0.1918176856501935 0 -0.5 -0.21953357374077009 0 -0.48645316362897889 -0.17554608577880509 0 -0.48203625411371231 -0.19710614257401171 0 -0.5 -0.1918176856501935 0 -0.48203625411371231 -0.19710614257401171 0 -0.4793289751091826 -0.21634128933864499 0 -0.5 -0.21953357374077009 0 -0.46560930870073919 -0.20023843120658011 0 -0.48203625411371231 -0.19710614257401171 0 -0.4793289751091826 -0.21634128933864499 0 -0.4793289751091826 -0.21634128933864499 0 -0.47703685007568658 -0.23564964914181691 0 -0.45733312392399422 -0.21953225067418219 0 -0.5 -0.21953357374077009 0 -0.5 -0.24724946183134669 0 -0.47703685007568658 -0.23564964914181691 0 -0.4793289751091826 -0.21634128933864499 0 -0.5 -0.21953357374077009 0 -0.47703685007568658 -0.23564964914181691 0 -0.47470166361424759 -0.26059829007448349 0 -0.47703685007568658 -0.23564964914181691 0 -0.45565513259471319 -0.24608344980165911 0 -0.47470166361424759 -0.26059829007448349 0 -0.5 -0.24724946183134669 0 -0.47703685007568658 -0.23564964914181691 0 -0.47703685007568658 -0.23564964914181691 0 -0.45565513259471319 -0.24608344980165911 0 -0.45733312392399422 -0.21953225067418219 0 -0.45565513259471319 -0.24608344980165911 0 -0.45733312392399422 -0.21953225067418219 0 -0.44044014321086478 -0.2325095817430331 0 -0.43769788831886258 -0.2115690069389552 0 -0.45733312392399422 -0.21953225067418219 0 -0.44044014321086478 -0.2325095817430331 0 -0.43382769287326461 -0.25670329331724201 0 -0.45565513259471319 -0.24608344980165911 0 -0.44044014321086478 -0.2325095817430331 0 -0.41580807940380948 -0.037125718770825322 0 -0.40935397982251193 -0.046998536092587861 0 -0.42616083108179398 -0.053984254955752743 0 -0.41580807940380948 -0.037125718770825322 0 -0.40935397982251193 -0.046998536092587861 0 -0.40293055952907442 -0.026730520210359751 0 -0.40935397982251193 -0.046998536092587861 0 -0.41284236777075578 -0.062060808185481459 0 -0.42616083108179398 -0.053984254955752743 0 -0.41284236777075578 -0.062060808185481459 0 -0.42616083108179398 -0.053984254955752743 0 -0.41718554081488912 -0.071407078605314811 0 -0.40935397982251193 -0.046998536092587861 0 -0.41284236777075578 -0.062060808185481459 0 -0.40269704389552691 -0.060068584289295797 0 -0.42616083108179398 -0.053984254955752743 0 -0.43683127293930452 -0.070067735463261491 0 -0.44710891806103559 -0.058994668320565248 0 -0.42616083108179398 -0.053984254955752743 0 -0.42619772827199931 -0.025661681502965581 0 -0.4475154571803408 -0.040650250400836307 0 -0.42616083108179398 -0.053984254955752743 0 -0.42619772827199931 -0.025661681502965581 0 -0.41580807940380948 -0.037125718770825322 0 -0.42616083108179398 -0.053984254955752743 0 -0.42619772827199931 -0.025661681502965581 0 -0.42619772827199931 -0.025661681502965581 0 -0.43282604893901699 -0.01521632717483703 0 -0.41640007369446302 -0.01214434675305525 0 -0.42619772827199931 -0.025661681502965581 0 -0.43282604893901699 -0.01521632717483703 0 -0.44494997298735028 -0.023152197740420731 0 -0.43282604893901699 -0.01521632717483703 0 -0.42547506531783807 -0.004042679144433182 0 -0.41640007369446302 -0.01214434675305525 0 -0.43607199125554402 -0.0053963075519646193 0 -0.44109352200500451 -0.0018898532840564591 0 -0.42682975290147612 0.0063037543083215714 0 -0.43607199125554402 -0.0053963075519646193 0 -0.43282604893901699 -0.01521632717483703 0 -0.44211807031709821 -0.01262439831320118 0 -0.43607199125554402 -0.0053963075519646193 0 -0.43282604893901699 -0.01521632717483703 0 -0.42547506531783807 -0.004042679144433182 0 -0.43607199125554402 -0.0053963075519646193 0 -0.42547506531783807 -0.004042679144433182 0 -0.42682975290147612 0.0063037543083215714 0 -0.41640007369446302 -0.01214434675305525 0 -0.39730612116686209 -0.008807952153888526 0 -0.41322183356137798 0.0050878687410443194 0 -0.42547506531783807 -0.004042679144433182 0 -0.41640007369446302 -0.01214434675305525 0 -0.41322183356137798 0.0050878687410443194 0 -0.41580807940380948 -0.037125718770825322 0 -0.42619772827199931 -0.025661681502965581 0 -0.40293055952907442 -0.026730520210359751 0 -0.42619772827199931 -0.025661681502965581 0 -0.41640007369446302 -0.01214434675305525 0 -0.40293055952907442 -0.026730520210359751 0 -0.40293055952907442 -0.026730520210359751 0 -0.3915903673661893 -0.023247431729700299 0 -0.38603031192482118 -0.039631466957917839 0 -0.40293055952907442 -0.026730520210359751 0 -0.3915903673661893 -0.023247431729700299 0 -0.39730612116686209 -0.008807952153888526 0 -0.41640007369446302 -0.01214434675305525 0 -0.40293055952907442 -0.026730520210359751 0 -0.39730612116686209 -0.008807952153888526 0 -0.38009447684399938 -0.017819787596635071 0 -0.38398151949741061 0.00060460439070457147 0 -0.36999057855767942 0.0012933232693263469 0 -0.39730612116686209 -0.008807952153888526 0 -0.38009447684399938 -0.017819787596635071 0 -0.38398151949741061 0.00060460439070457147 0 -0.3915903673661893 -0.023247431729700299 0 -0.38009447684399938 -0.017819787596635071 0 -0.38603031192482118 -0.039631466957917839 0 -0.36270664402713049 -0.03226439782324781 0 -0.38009447684399938 -0.017819787596635071 0 -0.38603031192482118 -0.039631466957917839 0 -0.3915903673661893 -0.023247431729700299 0 -0.39730612116686209 -0.008807952153888526 0 -0.38009447684399938 -0.017819787596635071 0 -0.36999704192856608 -0.047324469423775148 0 -0.38603031192482118 -0.039631466957917839 0 -0.38380599782239622 -0.053372635573741417 0 -0.40935397982251193 -0.046998536092587861 0 -0.38603031192482118 -0.039631466957917839 0 -0.40935397982251193 -0.046998536092587861 0 -0.40293055952907442 -0.026730520210359751 0 -0.38603031192482118 -0.039631466957917839 0 -0.40935397982251193 -0.046998536092587861 0 -0.38603031192482118 -0.039631466957917839 0 -0.39481135682253959 -0.053028290322969462 0 -0.40935397982251193 -0.046998536092587861 0 -0.40269704389552691 -0.060068584289295797 0 -0.39481135682253959 -0.053028290322969462 0 -0.39481135682253959 -0.053028290322969462 0 -0.38380599782239622 -0.053372635573741417 0 -0.39362786943170691 -0.066870488836662717 0 -0.40269704389552691 -0.060068584289295797 0 -0.39481135682253959 -0.053028290322969462 0 -0.39362786943170691 -0.066870488836662717 0 -0.36999704192856608 -0.047324469423775148 0 -0.38380599782239622 -0.053372635573741417 0 -0.37701085117795019 -0.063724163321542279 0 -0.38380599782239622 -0.053372635573741417 0 -0.37701085117795019 -0.063724163321542279 0 -0.39362786943170691 -0.066870488836662717 0 -0.38603031192482118 -0.039631466957917839 0 -0.39481135682253959 -0.053028290322969462 0 -0.38380599782239622 -0.053372635573741417 0 -0.37701085117795019 -0.063724163321542279 0 -0.38315345699156927 -0.078908662833457058 0 -0.39362786943170691 -0.066870488836662717 0 -0.36544990337253819 -0.081296349606884297 0 -0.37701085117795019 -0.063724163321542279 0 -0.38315345699156927 -0.078908662833457058 0 -0.36533466171774881 -0.10072675439539901 0 -0.37581836566146309 -0.088286663243265895 0 -0.38933544056399633 -0.09221488613732326 0 -0.37581836566146309 -0.088286663243265895 0 -0.38933544056399633 -0.09221488613732326 0 -0.38315345699156927 -0.078908662833457058 0 -0.38933544056399633 -0.09221488613732326 0 -0.38315345699156927 -0.078908662833457058 0 -0.39765103946843722 -0.079231756738878514 0 -0.38933544056399633 -0.09221488613732326 0 -0.39765103946843722 -0.079231756738878514 0 -0.41333621941024379 -0.083703017879246985 0 -0.38933544056399633 -0.09221488613732326 0 -0.40477047143340739 -0.091373236051052145 0 -0.41333621941024379 -0.083703017879246985 0 -0.38933544056399633 -0.09221488613732326 0 -0.41333621941024379 -0.083703017879246985 0 -0.39765103946843722 -0.079231756738878514 0 -0.4061842305156827 -0.070566554149433677 0 -0.41333621941024379 -0.083703017879246985 0 -0.39765103946843722 -0.079231756738878514 0 -0.4061842305156827 -0.070566554149433677 0 -0.39362786943170691 -0.066870488836662717 0 -0.40269704389552691 -0.060068584289295797 0 -0.4061842305156827 -0.070566554149433677 0 -0.39362786943170691 -0.066870488836662717 0 -0.38315345699156927 -0.078908662833457058 0 -0.39765103946843722 -0.079231756738878514 0 -0.39362786943170691 -0.066870488836662717 0 -0.38208542006974427 -0.1200460610865 0 -0.38993610628894382 -0.111166203292705 0 -0.39282281227806748 -0.1221055659354444 0 -0.37380151156406849 -0.12731050683464221 0 -0.37506616823536632 -0.117512098149728 0 -0.38208542006974427 -0.1200460610865 0 -0.37506616823536632 -0.117512098149728 0 -0.38208542006974427 -0.1200460610865 0 -0.37910287050362579 -0.1118839788716338 0 -0.38208542006974427 -0.1200460610865 0 -0.37910287050362579 -0.1118839788716338 0 -0.38993610628894382 -0.111166203292705 0 -0.36527487080402671 -0.11080784580613599 0 -0.37910287050362579 -0.1118839788716338 0 -0.3850226711187173 -0.10109054092859469 0 -0.36533466171774881 -0.10072675439539901 0 -0.38933544056399633 -0.09221488613732326 0 -0.3850226711187173 -0.10109054092859469 0 -0.36527487080402671 -0.11080784580613599 0 -0.3850226711187173 -0.10109054092859469 0 -0.36533466171774881 -0.10072675439539901 0 -0.38933544056399633 -0.09221488613732326 0 -0.37910287050362579 -0.1118839788716338 0 -0.38993610628894382 -0.111166203292705 0 -0.3850226711187173 -0.10109054092859469 0 -0.38933544056399633 -0.09221488613732326 0 -0.40477047143340739 -0.091373236051052145 0 -0.3850226711187173 -0.10109054092859469 0 -0.40477047143340739 -0.091373236051052145 0 -0.3850226711187173 -0.10109054092859469 0 -0.39798364128176328 -0.1034586945031948 0 -0.40477047143340739 -0.091373236051052145 0 -0.3850226711187173 -0.10109054092859469 0 -0.40477047143340739 -0.091373236051052145 0 -0.39798364128176328 -0.1034586945031948 0 -0.40945792889728189 -0.1023648028148436 0 -0.39798364128176328 -0.1034586945031948 0 -0.40312056849306788 -0.111817390147488 0 -0.40945792889728189 -0.1023648028148436 0 -0.38993610628894382 -0.111166203292705 0 -0.3850226711187173 -0.10109054092859469 0 -0.39798364128176328 -0.1034586945031948 0 -0.38993610628894382 -0.111166203292705 0 -0.39798364128176328 -0.1034586945031948 0 -0.40312056849306788 -0.111817390147488 0 -0.38993610628894382 -0.111166203292705 0 -0.40312056849306788 -0.111817390147488 0 -0.39282281227806748 -0.1221055659354444 0 -0.40312056849306788 -0.111817390147488 0 -0.39282281227806748 -0.1221055659354444 0 -0.40718930834363659 -0.1235418040042783 0 -0.40312056849306788 -0.111817390147488 0 -0.40718930834363659 -0.1235418040042783 0 -0.42608703670138343 -0.1106294018613269 0 -0.41732634136215152 -0.12966649588558229 0 -0.40718930834363659 -0.1235418040042783 0 -0.42608703670138343 -0.1106294018613269 0 -0.40312056849306788 -0.111817390147488 0 -0.40945792889728189 -0.1023648028148436 0 -0.42608703670138343 -0.1106294018613269 0 -0.40945792889728189 -0.1023648028148436 0 -0.41595511806678098 -0.094075457403001911 0 -0.42608703670138343 -0.1106294018613269 0 -0.40477047143340739 -0.091373236051052145 0 -0.40945792889728189 -0.1023648028148436 0 -0.41595511806678098 -0.094075457403001911 0 -0.41595511806678098 -0.094075457403001911 0 -0.42608703670138343 -0.1106294018613269 0 -0.42612393389158881 -0.082306828408539909 0 -0.42608703670138343 -0.1106294018613269 0 -0.42612393389158881 -0.082306828408539909 0 -0.44022605401373588 -0.1029738964936517 0 -0.42608703670138343 -0.1106294018613269 0 -0.42612393389158881 -0.082306828408539909 0 -0.41732634136215152 -0.12966649588558229 0 -0.43055298474330622 -0.12645078407041449 0 -0.42608703670138343 -0.1106294018613269 0 -0.43055298474330622 -0.12645078407041449 0 -0.42608703670138343 -0.1106294018613269 0 -0.44148578977507058 -0.1173290323444194 0 -0.42608703670138343 -0.1106294018613269 0 -0.44148578977507058 -0.1173290323444194 0 -0.44022605401373588 -0.1029738964936517 0 -0.41284236777075578 -0.062060808185481459 0 -0.4061842305156827 -0.070566554149433677 0 -0.41718554081488912 -0.071407078605314811 0 -0.41284236777075578 -0.062060808185481459 0 -0.40269704389552691 -0.060068584289295797 0 -0.4061842305156827 -0.070566554149433677 0 -0.4061842305156827 -0.070566554149433677 0 -0.41718554081488912 -0.071407078605314811 0 -0.41333621941024379 -0.083703017879246985 0 -0.40477047143340739 -0.091373236051052145 0 -0.41595511806678098 -0.094075457403001911 0 -0.41333621941024379 -0.083703017879246985 0 -0.41595511806678098 -0.094075457403001911 0 -0.41333621941024379 -0.083703017879246985 0 -0.42612393389158881 -0.082306828408539909 0 -0.41718554081488912 -0.071407078605314811 0 -0.41333621941024379 -0.083703017879246985 0 -0.42612393389158881 -0.082306828408539909 0 -0.42612393389158881 -0.082306828408539909 0 -0.43712390977842253 -0.079625628097742748 0 -0.44219085064922081 -0.088518592269224941 0 -0.42612393389158881 -0.082306828408539909 0 -0.44219085064922081 -0.088518592269224941 0 -0.44022605401373588 -0.1029738964936517 0 -0.42616083108179398 -0.053984254955752743 0 -0.41718554081488912 -0.071407078605314811 0 -0.42612393389158881 -0.082306828408539909 0 -0.42616083108179398 -0.053984254955752743 0 -0.42612393389158881 -0.082306828408539909 0 -0.42616083108179398 -0.053984254955752743 0 -0.42612393389158881 -0.082306828408539909 0 -0.43683127293930452 -0.070067735463261491 0 -0.42612393389158881 -0.082306828408539909 0 -0.43712390977842253 -0.079625628097742748 0 -0.43683127293930452 -0.070067735463261491 0 -0.4476387718836814 -0.075427297533706791 0 -0.45821366764809002 -0.070763506169007923 0 -0.44710891806103559 -0.058994668320565248 0 -0.43683127293930452 -0.070067735463261491 0 -0.4476387718836814 -0.075427297533706791 0 -0.44710891806103559 -0.058994668320565248 0 -0.43712390977842253 -0.079625628097742748 0 -0.43683127293930452 -0.070067735463261491 0 -0.4476387718836814 -0.075427297533706791 0 -0.43712390977842253 -0.079625628097742748 0 -0.4476387718836814 -0.075427297533706791 0 -0.44219085064922081 -0.088518592269224941 0 -0.44219085064922081 -0.088518592269224941 0 -0.45701047874853012 -0.083308216282683561 0 -0.45367235157387942 -0.09630711035076224 0 -0.4476387718836814 -0.075427297533706791 0 -0.44219085064922081 -0.088518592269224941 0 -0.45701047874853012 -0.083308216282683561 0 -0.45701047874853012 -0.083308216282683561 0 -0.46743417241509161 -0.090998299610575262 0 -0.45367235157387942 -0.09630711035076224 0 -0.45701047874853012 -0.083308216282683561 0 -0.46743417241509161 -0.090998299610575262 0 -0.46918182006549408 -0.075658942990912775 0 -0.45701047874853012 -0.083308216282683561 0 -0.45821366764809002 -0.070763506169007923 0 -0.46918182006549408 -0.075658942990912775 0 -0.45821366764809002 -0.070763506169007923 0 -0.4644083626434391 -0.058377474274890567 0 -0.44710891806103559 -0.058994668320565248 0 -0.45821366764809002 -0.070763506169007923 0 -0.46918182006549408 -0.075658942990912775 0 -0.4644083626434391 -0.058377474274890567 0 -0.4476387718836814 -0.075427297533706791 0 -0.45701047874853012 -0.083308216282683561 0 -0.45821366764809002 -0.070763506169007923 0 -0.44781165480357371 -0.1235596024839747 0 -0.45309659442895123 -0.1193930794819713 0 -0.44148578977507058 -0.1173290323444194 0 -0.45489354072805122 -0.12943451882208271 0 -0.44781165480357371 -0.1235596024839747 0 -0.45309659442895123 -0.1193930794819713 0 -0.44177069428222171 -0.12808177928742531 0 -0.44781165480357371 -0.1235596024839747 0 -0.44148578977507058 -0.1173290323444194 0 -0.43055298474330622 -0.12645078407041449 0 -0.44177069428222171 -0.12808177928742531 0 -0.44148578977507058 -0.1173290323444194 0 -0.44148578977507058 -0.1173290323444194 0 -0.45230134313586812 -0.10830926586828819 0 -0.44022605401373588 -0.1029738964936517 0 -0.45309659442895123 -0.1193930794819713 0 -0.44148578977507058 -0.1173290323444194 0 -0.45230134313586812 -0.10830926586828819 0 -0.45230134313586812 -0.10830926586828819 0 -0.44022605401373588 -0.1029738964936517 0 -0.45367235157387942 -0.09630711035076224 0 -0.44219085064922081 -0.088518592269224941 0 -0.44022605401373588 -0.1029738964936517 0 -0.45367235157387942 -0.09630711035076224 0 -0.46743417241509161 -0.090998299610575262 0 -0.45367235157387942 -0.09630711035076224 0 -0.4640140921244294 -0.1034608095889492 0 -0.4640140921244294 -0.1034608095889492 0 -0.46185525376001502 -0.1131369941916545 0 -0.47209978441928852 -0.1108814098453399 0 -0.45230134313586812 -0.10830926586828819 0 -0.45367235157387942 -0.09630711035076224 0 -0.4640140921244294 -0.1034608095889492 0 -0.45230134313586812 -0.10830926586828819 0 -0.4640140921244294 -0.1034608095889492 0 -0.46185525376001502 -0.1131369941916545 0 -0.45489354072805122 -0.12943451882208271 0 -0.46306527406760439 -0.12029676876393559 0 -0.47744677036402511 -0.1215619195566482 0 -0.45309659442895123 -0.1193930794819713 0 -0.45230134313586812 -0.10830926586828819 0 -0.46185525376001502 -0.1131369941916545 0 -0.46185525376001502 -0.1131369941916545 0 -0.4694306212665178 -0.1169549276380764 0 -0.47209978441928852 -0.1108814098453399 0 -0.46185525376001502 -0.1131369941916545 0 -0.46306527406760439 -0.12029676876393559 0 -0.4694306212665178 -0.1169549276380764 0 -0.45489354072805122 -0.12943451882208271 0 -0.45309659442895123 -0.1193930794819713 0 -0.46306527406760439 -0.12029676876393559 0 -0.45309659442895123 -0.1193930794819713 0 -0.46185525376001502 -0.1131369941916545 0 -0.46306527406760439 -0.12029676876393559 0 -0.47744677036402511 -0.1215619195566482 0 -0.474330993740328 -0.1156127611538717 0 -0.4694306212665178 -0.1169549276380764 0 -0.46306527406760439 -0.12029676876393559 0 -0.47744677036402511 -0.1215619195566482 0 -0.4694306212665178 -0.1169549276380764 0 -0.474330993740328 -0.1156127611538717 0 -0.4694306212665178 -0.1169549276380764 0 -0.47209978441928852 -0.1108814098453399 0 -0.474330993740328 -0.1156127611538717 0 -0.47209978441928852 -0.1108814098453399 0 -0.47834679891148091 -0.11305278757542229 0 -0.47744677036402511 -0.1215619195566482 0 -0.474330993740328 -0.1156127611538717 0 -0.47834679891148091 -0.11305278757542229 0 -0.47744677036402511 -0.1215619195566482 0 -0.47834679891148091 -0.11305278757542229 0 -0.48649883843533009 -0.11125279286614149 0 -0.47834679891148091 -0.11305278757542229 0 -0.47828404973613847 -0.1020794516599159 0 -0.48649883843533009 -0.11125279286614149 0 -0.4640140921244294 -0.1034608095889492 0 -0.47209978441928852 -0.1108814098453399 0 -0.47828404973613847 -0.1020794516599159 0 -0.47209978441928852 -0.1108814098453399 0 -0.47834679891148091 -0.11305278757542229 0 -0.47828404973613847 -0.1020794516599159 0 -0.46743417241509161 -0.090998299610575262 0 -0.4640140921244294 -0.1034608095889492 0 -0.47828404973613847 -0.1020794516599159 0 -0.49008656381151278 -0.1008035268636714 0 -0.49999999999999911 -0.1136893202912138 0 -0.5 -0.092291712369719225 0 -0.47828404973613847 -0.1020794516599159 0 -0.49008656381151278 -0.1008035268636714 0 -0.48564993088609532 -0.084704357131366537 0 -0.49008656381151278 -0.1008035268636714 0 -0.48649883843533009 -0.11125279286614149 0 -0.49999999999999911 -0.1136893202912138 0 -0.47828404973613847 -0.1020794516599159 0 -0.49008656381151278 -0.1008035268636714 0 -0.48649883843533009 -0.11125279286614149 0 -0.47744677036402511 -0.1215619195566482 0 -0.48649883843533009 -0.11125279286614149 0 -0.49999999999999911 -0.1136893202912138 0 -0.47599088872973788 -0.12760920332491149 0 -0.49999999999999828 -0.11968248598274429 0 -0.47744677036402511 -0.1215619195566482 0 -0.49999999999999911 -0.1136893202912138 0 -0.49999999999999828 -0.11968248598274429 0 -0.47599088872973788 -0.12760920332491149 0 -0.47744677036402511 -0.1215619195566482 0 -0.49999999999999828 -0.11968248598274429 0 -0.47599088872973788 -0.12760920332491149 0 -0.4909162299864509 -0.127324011610985 0 -0.49999999999999828 -0.11968248598274429 0 -0.47744677036402511 -0.1215619195566482 0 -0.49999999999999911 -0.1136893202912138 0 -0.48316251144965028 -0.064602148994761827 0 -0.46918182006549408 -0.075658942990912775 0 -0.48564993088609532 -0.084704357131366537 0 -0.48316251144965028 -0.064602148994761827 0 -0.46918182006549408 -0.075658942990912775 0 -0.4644083626434391 -0.058377474274890567 0 -0.46743417241509161 -0.090998299610575262 0 -0.46918182006549408 -0.075658942990912775 0 -0.48564993088609532 -0.084704357131366537 0 -0.46743417241509161 -0.090998299610575262 0 -0.47828404973613847 -0.1020794516599159 0 -0.48564993088609532 -0.084704357131366537 0 -0.48564993088609532 -0.084704357131366537 0 -0.5 -0.092291712369719225 0 -0.5 -0.070894104448224637 0 -0.49008656381151278 -0.1008035268636714 0 -0.48564993088609532 -0.084704357131366537 0 -0.5 -0.092291712369719225 0 -0.48316251144965028 -0.064602148994761827 0 -0.48564993088609532 -0.084704357131366537 0 -0.5 -0.070894104448224637 0 -0.48316251144965028 -0.064602148994761827 0 -0.50000000000000067 -0.049496496526730042 0 -0.48087805488347102 -0.047729095679766582 0 -0.48316251144965028 -0.064602148994761827 0 -0.5 -0.070894104448224637 0 -0.50000000000000067 -0.049496496526730042 0 -0.50000000000000067 -0.049496496526730042 0 -0.48087805488347102 -0.047729095679766582 0 -0.48478567496798541 -0.02698815329483983 0 -0.49999999999999878 -0.047778755299882063 0 -0.50000000000000344 -0.035727793441177463 0 -0.48941706625280829 -0.0296485863486276 0 -0.49999999999999878 -0.047778755299882063 0 -0.48941706625280829 -0.0296485863486276 0 -0.50000000000000067 -0.049496496526730042 0 -0.49999999999999878 -0.047778755299882063 0 -0.48941706625280829 -0.0296485863486276 0 -0.50000000000000067 -0.049496496526730042 0 -0.48941706625280829 -0.0296485863486276 0 -0.48478567496798541 -0.02698815329483983 0 -0.50000000000000067 -0.049496496526730042 0 -0.48478567496798541 -0.02698815329483983 0 -0.50000000000000344 -0.035727793441177463 0 -0.48941706625280829 -0.0296485863486276 0 -0.48087805488347102 -0.047729095679766582 0 -0.46800184633542652 -0.039148572503560769 0 -0.48478567496798541 -0.02698815329483983 0 -0.48316251144965028 -0.064602148994761827 0 -0.48087805488347102 -0.047729095679766582 0 -0.4644083626434391 -0.058377474274890567 0 -0.48087805488347102 -0.047729095679766582 0 -0.4644083626434391 -0.058377474274890567 0 -0.46800184633542652 -0.039148572503560769 0 -0.4644083626434391 -0.058377474274890567 0 -0.46800184633542652 -0.039148572503560769 0 -0.4475154571803408 -0.040650250400836307 0 -0.46800184633542652 -0.039148572503560769 0 -0.4475154571803408 -0.040650250400836307 0 -0.4558517187474031 -0.029347505983566551 0 -0.42616083108179398 -0.053984254955752743 0 -0.4475154571803408 -0.040650250400836307 0 -0.44710891806103559 -0.058994668320565248 0 -0.4644083626434391 -0.058377474274890567 0 -0.4475154571803408 -0.040650250400836307 0 -0.44710891806103559 -0.058994668320565248 0 -0.44109352200500451 -0.0018898532840564591 0 -0.44211807031709821 -0.01262439831320118 0 -0.46293959848649491 -0.014439003289448381 0 -0.44109352200500451 -0.0018898532840564591 0 -0.46293959848649491 -0.014439003289448381 0 -0.43607199125554402 -0.0053963075519646193 0 -0.44109352200500451 -0.0018898532840564591 0 -0.44211807031709821 -0.01262439831320118 0 -0.43607199125554402 -0.0053963075519646193 0 -0.44109352200500451 -0.0018898532840564591 0 -0.42619772827199931 -0.025661681502965581 0 -0.4475154571803408 -0.040650250400836307 0 -0.44494997298735028 -0.023152197740420731 0 -0.43282604893901699 -0.01521632717483703 0 -0.44211807031709821 -0.01262439831320118 0 -0.44494997298735028 -0.023152197740420731 0 -0.4475154571803408 -0.040650250400836307 0 -0.44494997298735028 -0.023152197740420731 0 -0.4558517187474031 -0.029347505983566551 0 -0.44211807031709821 -0.01262439831320118 0 -0.44494997298735028 -0.023152197740420731 0 -0.46293959848649491 -0.014439003289448381 0 -0.46800184633542652 -0.039148572503560769 0 -0.4558517187474031 -0.029347505983566551 0 -0.46293959848649491 -0.014439003289448381 0 -0.44494997298735028 -0.023152197740420731 0 -0.4558517187474031 -0.029347505983566551 0 -0.46293959848649491 -0.014439003289448381 0 -0.44109352200500451 -0.0018898532840564591 0 -0.46293959848649491 -0.014439003289448381 0 -0.45925057631987148 0.010788926110426001 0 -0.46293959848649491 -0.014439003289448381 0 -0.47201812564392681 -0.0080996135922080745 0 -0.45925057631987148 0.010788926110426001 0 -0.47666485100186878 -0.0078021095091021231 0 -0.47201812564392681 -0.0080996135922080745 0 -0.48478567496798541 -0.02698815329483983 0 -0.47666485100186878 -0.0078021095091021231 0 -0.47201812564392681 -0.0080996135922080745 0 -0.46391263575093139 0.01404436733042454 0 -0.47201812564392681 -0.0080996135922080745 0 -0.48478567496798541 -0.02698815329483983 0 -0.47666485100186878 -0.0078021095091021231 0 -0.48941706625280829 -0.0296485863486276 0 -0.48478567496798541 -0.02698815329483983 0 -0.46293959848649491 -0.014439003289448381 0 -0.47201812564392681 -0.0080996135922080745 0 -0.48478567496798541 -0.02698815329483983 0 -0.47666485100186878 -0.0078021095091021231 0 -0.48941706625280829 -0.0296485863486276 0 -0.46800184633542652 -0.039148572503560769 0 -0.46293959848649491 -0.014439003289448381 0 -0.48478567496798541 -0.02698815329483983 0 -0.46293959848649491 -0.014439003289448381 0 -0.48478567496798541 -0.02698815329483983 0 -0.47666485100186878 -0.0078021095091021231 0 -0.48941706625280829 -0.0296485863486276 0 -0.5 -0.01073733090735962 0 -0.50000000000000344 -0.035727793441177463 0 -0.48941706625280829 -0.0296485863486276 0 -0.5 -0.01073733090735962 0 -0.48941706625280829 -0.0296485863486276 0 -0.48478567496798541 -0.02698815329483983 0 -0.47666485100186878 -0.0078021095091021231 0 -0.5 -0.01073733090735962 0 -0.48301460020866538 0.0088519399323595902 0 -0.5 -0.01073733090735962 0 -0.5 0.01425313162645842 0 -0.48301460020866538 0.0088519399323595902 0 -0.5 0.01425313162645842 0 -0.48195631787546628 0.026643980745350172 0 -0.50000000000000089 0.039243594160276327 0 -0.5 0.01425313162645842 0 -0.48195631787546628 0.026643980745350172 0 -0.48301460020866538 0.0088519399323595902 0 -0.48195631787546628 0.026643980745350172 0 -0.46391263575093139 0.01404436733042454 0 -0.46601724036482439 0.025224763665564951 0 -0.48195631787546628 0.026643980745350172 0 -0.48301460020866538 0.0088519399323595902 0 -0.46391263575093139 0.01404436733042454 0 -0.48195631787546628 0.026643980745350172 0 -0.46607207316174082 0.037306606801282817 0 -0.46601724036482439 0.025224763665564951 0 -0.48195631787546628 0.026643980745350172 0 -0.46391263575093139 0.01404436733042454 0 -0.47666485100186878 -0.0078021095091021231 0 -0.48301460020866538 0.0088519399323595902 0 -0.46391263575093139 0.01404436733042454 0 -0.47666485100186878 -0.0078021095091021231 0 -0.46391263575093139 0.01404436733042454 0 -0.49710616252009782 0.053248730722192619 0 -0.50000000000000089 0.039243594160276327 0 -0.5 0.066092747119439688 0 -0.49710616252009782 0.053248730722192619 0 -0.48709369134201458 0.042933739998510211 0 -0.48080768543998381 0.051995407005356202 0 -0.49710616252009782 0.053248730722192619 0 -0.48249414908129368 0.067617365947169397 0 -0.49193114781036718 0.065744236327628949 0 -0.49710616252009782 0.053248730722192619 0 -0.5 0.066092747119439688 0 -0.49193114781036718 0.065744236327628949 0 -0.48195631787546628 0.026643980745350172 0 -0.50000000000000089 0.039243594160276327 0 -0.48195631787546628 0.026643980745350172 0 -0.48709369134201458 0.042933739998510211 0 -0.50000000000000089 0.039243594160276327 0 -0.49710616252009782 0.053248730722192619 0 -0.48709369134201458 0.042933739998510211 0 -0.50000000000000089 0.039243594160276327 0 -0.48195631787546628 0.026643980745350172 0 -0.48709369134201458 0.042933739998510211 0 -0.47559829087452521 0.043536987359375723 0 -0.48195631787546628 0.026643980745350172 0 -0.47559829087452521 0.043536987359375723 0 -0.46607207316174082 0.037306606801282817 0 -0.47559829087452521 0.043536987359375723 0 -0.46516658908012498 0.048536566427995323 0 -0.46607207316174082 0.037306606801282817 0 -0.48709369134201458 0.042933739998510211 0 -0.47559829087452521 0.043536987359375723 0 -0.48080768543998381 0.051995407005356202 0 -0.49710616252009782 0.053248730722192619 0 -0.47148077454995369 0.065249721515549503 0 -0.49710616252009782 0.053248730722192619 0 -0.48080768543998381 0.051995407005356202 0 -0.47148077454995369 0.065249721515549503 0 -0.49710616252009782 0.053248730722192619 0 -0.48249414908129368 0.067617365947169397 0 -0.47148077454995369 0.065249721515549503 0 -0.47559829087452521 0.043536987359375723 0 -0.48080768543998381 0.051995407005356202 0 -0.47137878270129918 0.053325803941031369 0 -0.47559829087452521 0.043536987359375723 0 -0.47137878270129918 0.053325803941031369 0 -0.46516658908012498 0.048536566427995323 0 -0.48080768543998381 0.051995407005356202 0 -0.47137878270129918 0.053325803941031369 0 -0.47148077454995369 0.065249721515549503 0 -0.47137878270129918 0.053325803941031369 0 -0.46384057356190839 0.057310337396880157 0 -0.47148077454995369 0.065249721515549503 0 -0.46384057356190839 0.057310337396880157 0 -0.45491440328240867 0.063443984178461948 0 -0.47148077454995369 0.065249721515549503 0 -0.46384057356190839 0.057310337396880157 0 -0.45523234433108267 0.053384975527053471 0 -0.45491440328240867 0.063443984178461948 0 -0.47137878270129918 0.053325803941031369 0 -0.46384057356190839 0.057310337396880157 0 -0.46516658908012498 0.048536566427995323 0 -0.46384057356190839 0.057310337396880157 0 -0.46516658908012498 0.048536566427995323 0 -0.45523234433108267 0.053384975527053471 0 -0.46516658908012498 0.048536566427995323 0 -0.45523234433108267 0.053384975527053471 0 -0.45748456801401882 0.043740757720409043 0 -0.45523234433108267 0.053384975527053471 0 -0.45748456801401882 0.043740757720409043 0 -0.45109377694637792 0.048145663971328467 0 -0.45748456801401882 0.043740757720409043 0 -0.45531245079202132 0.034760173061431837 0 -0.44967489195767951 0.042188326719750979 0 -0.46516658908012498 0.048536566427995323 0 -0.45748456801401882 0.043740757720409043 0 -0.46607207316174082 0.037306606801282817 0 -0.46607207316174082 0.037306606801282817 0 -0.45531245079202132 0.034760173061431837 0 -0.46099677749113799 0.030317119823062431 0 -0.45748456801401882 0.043740757720409043 0 -0.46607207316174082 0.037306606801282817 0 -0.45531245079202132 0.034760173061431837 0 -0.45531245079202132 0.034760173061431837 0 -0.4454586661904093 0.035433038956097791 0 -0.44967489195767951 0.042188326719750979 0 -0.45531245079202132 0.034760173061431837 0 -0.4454586661904093 0.035433038956097791 0 -0.45099536039779381 0.0287584144451467 0 -0.4454586661904093 0.035433038956097791 0 -0.44077231176031773 0.043631081204729992 0 -0.43602282824796351 0.037850384550442102 0 -0.4454586661904093 0.035433038956097791 0 -0.43879497022966479 0.03018174410112049 0 -0.43602282824796351 0.037850384550442102 0 -0.4454586661904093 0.035433038956097791 0 -0.44077231176031773 0.043631081204729992 0 -0.44967489195767951 0.042188326719750979 0 -0.44077231176031773 0.043631081204729992 0 -0.44967489195767951 0.042188326719750979 0 -0.44606633767838888 0.047856589504792817 0 -0.44967489195767951 0.042188326719750979 0 -0.45109377694637792 0.048145663971328467 0 -0.44606633767838888 0.047856589504792817 0 -0.45748456801401882 0.043740757720409043 0 -0.44967489195767951 0.042188326719750979 0 -0.45109377694637792 0.048145663971328467 0 -0.45523234433108267 0.053384975527053471 0 -0.45109377694637792 0.048145663971328467 0 -0.44701074275071978 0.053557670384636033 0 -0.45109377694637792 0.048145663971328467 0 -0.44701074275071978 0.053557670384636033 0 -0.44606633767838888 0.047856589504792817 0 -0.44077231176031773 0.043631081204729992 0 -0.44004732277492781 0.051231618496174691 0 -0.43292087962827791 0.047736539626655382 0 -0.44077231176031773 0.043631081204729992 0 -0.44606633767838888 0.047856589504792817 0 -0.44004732277492781 0.051231618496174691 0 -0.44701074275071978 0.053557670384636033 0 -0.44606633767838888 0.047856589504792817 0 -0.44004732277492781 0.051231618496174691 0 -0.44701074275071978 0.053557670384636033 0 -0.44004732277492781 0.051231618496174691 0 -0.43989160066771599 0.059698655636809608 0 -0.44701074275071978 0.053557670384636033 0 -0.43989160066771599 0.059698655636809608 0 -0.44756464249369921 0.060958802241883027 0 -0.44004732277492781 0.051231618496174691 0 -0.43989160066771599 0.059698655636809608 0 -0.43508543587473758 0.05557447072437189 0 -0.43989160066771599 0.059698655636809608 0 -0.44756464249369921 0.060958802241883027 0 -0.44067041212995461 0.065870100411421217 0 -0.45523234433108267 0.053384975527053471 0 -0.44701074275071978 0.053557670384636033 0 -0.44756464249369921 0.060958802241883027 0 -0.45523234433108267 0.053384975527053471 0 -0.44756464249369921 0.060958802241883027 0 -0.45491440328240867 0.063443984178461948 0 -0.47201812564392681 -0.0080996135922080745 0 -0.45925057631987148 0.010788926110426001 0 -0.47201812564392681 -0.0080996135922080745 0 -0.45925057631987148 0.010788926110426001 0 -0.46391263575093139 0.01404436733042454 0 -0.45925057631987148 0.010788926110426001 0 -0.4545272008585301 0.01777677183300214 0 -0.44810249846278621 0.011259961346510101 0 -0.45925057631987148 0.010788926110426001 0 -0.4545272008585301 0.01777677183300214 0 -0.45925057631987148 0.010788926110426001 0 -0.46391263575093139 0.01404436733042454 0 -0.46113301557662228 0.018806277835052392 0 -0.45925057631987148 0.010788926110426001 0 -0.46391263575093139 0.01404436733042454 0 -0.46391263575093139 0.01404436733042454 0 -0.46113301557662228 0.018806277835052392 0 -0.46601724036482439 0.025224763665564951 0 -0.46113301557662228 0.018806277835052392 0 -0.46601724036482439 0.025224763665564951 0 -0.46119456931043018 0.024925812386108939 0 -0.46391263575093139 0.01404436733042454 0 -0.46113301557662228 0.018806277835052392 0 -0.46607207316174082 0.037306606801282817 0 -0.46601724036482439 0.025224763665564951 0 -0.46099677749113799 0.030317119823062431 0 -0.46601724036482439 0.025224763665564951 0 -0.46119456931043018 0.024925812386108939 0 -0.46099677749113799 0.030317119823062431 0 -0.45531245079202132 0.034760173061431837 0 -0.45663124380913628 0.025355088220756009 0 -0.45099536039779381 0.0287584144451467 0 -0.45531245079202132 0.034760173061431837 0 -0.46099677749113799 0.030317119823062431 0 -0.45663124380913628 0.025355088220756009 0 -0.46119456931043018 0.024925812386108939 0 -0.46099677749113799 0.030317119823062431 0 -0.45663124380913628 0.025355088220756009 0 -0.45925057631987148 0.010788926110426001 0 -0.46113301557662228 0.018806277835052392 0 -0.4545272008585301 0.01777677183300214 0 -0.46113301557662228 0.018806277835052392 0 -0.46119456931043018 0.024925812386108939 0 -0.45663124380913628 0.025355088220756009 0 -0.46113301557662228 0.018806277835052392 0 -0.45663124380913628 0.025355088220756009 0 -0.4545272008585301 0.01777677183300214 0 -0.45663124380913628 0.025355088220756009 0 -0.4545272008585301 0.01777677183300214 0 -0.45073316959344828 0.023310046328434201 0 -0.44655428295873389 0.018411392184680651 0 -0.45073316959344828 0.023310046328434201 0 -0.44495775994304748 0.026248564958585491 0 -0.4545272008585301 0.01777677183300214 0 -0.44655428295873389 0.018411392184680651 0 -0.45073316959344828 0.023310046328434201 0 -0.4545272008585301 0.01777677183300214 0 -0.44655428295873389 0.018411392184680651 0 -0.44810249846278621 0.011259961346510101 0 -0.4454586661904093 0.035433038956097791 0 -0.45099536039779381 0.0287584144451467 0 -0.44495775994304748 0.026248564958585491 0 -0.45663124380913628 0.025355088220756009 0 -0.45073316959344828 0.023310046328434201 0 -0.45099536039779381 0.0287584144451467 0 -0.45073316959344828 0.023310046328434201 0 -0.45099536039779381 0.0287584144451467 0 -0.44495775994304748 0.026248564958585491 0 -0.4454586661904093 0.035433038956097791 0 -0.43879497022966479 0.03018174410112049 0 -0.44495775994304748 0.026248564958585491 0 -0.43879497022966479 0.03018174410112049 0 -0.44495775994304748 0.026248564958585491 0 -0.43673004191352233 0.02148248795246941 0 -0.44655428295873389 0.018411392184680651 0 -0.44495775994304748 0.026248564958585491 0 -0.43673004191352233 0.02148248795246941 0 -0.44655428295873389 0.018411392184680651 0 -0.43908691017179152 0.011212569888497829 0 -0.43673004191352233 0.02148248795246941 0 -0.44655428295873389 0.018411392184680651 0 -0.43908691017179152 0.011212569888497829 0 -0.44810249846278621 0.011259961346510101 0 -0.44109352200500451 -0.0018898532840564591 0 -0.45925057631987148 0.010788926110426001 0 -0.44109352200500451 -0.0018898532840564591 0 -0.45925057631987148 0.010788926110426001 0 -0.44810249846278621 0.011259961346510101 0 -0.44109352200500451 -0.0018898532840564591 0 -0.43908691017179152 0.011212569888497829 0 -0.44810249846278621 0.011259961346510101 0 -0.44109352200500451 -0.0018898532840564591 0 -0.43908691017179152 0.011212569888497829 0 -0.42682975290147612 0.0063037543083215714 0 -0.44109352200500451 -0.0018898532840564591 0 -0.42682975290147612 0.0063037543083215714 0 -0.43908691017179152 0.011212569888497829 0 -0.43154225021368292 0.01456273921686935 0 -0.42682975290147612 0.0063037543083215714 0 -0.43154225021368292 0.01456273921686935 0 -0.42682975290147612 0.0063037543083215714 0 -0.42352229586794188 0.01925214471818857 0 -0.42547506531783807 -0.004042679144433182 0 -0.42682975290147612 0.0063037543083215714 0 -0.41322183356137798 0.0050878687410443194 0 -0.42682975290147612 0.0063037543083215714 0 -0.41322183356137798 0.0050878687410443194 0 -0.42352229586794188 0.01925214471818857 0 -0.41322183356137798 0.0050878687410443194 0 -0.40729845507425472 0.022935221004611522 0 -0.42352229586794188 0.01925214471818857 0 -0.40729845507425472 0.022935221004611522 0 -0.42352229586794188 0.01925214471818857 0 -0.41775234988383708 0.032731884925563323 0 -0.40729845507425472 0.022935221004611522 0 -0.41775234988383708 0.032731884925563323 0 -0.40434520044342231 0.03756360996096203 0 -0.42352229586794188 0.01925214471818857 0 -0.43080555485338151 0.029894244088007661 0 -0.41775234988383708 0.032731884925563323 0 -0.43908691017179152 0.011212569888497829 0 -0.43154225021368292 0.01456273921686935 0 -0.43673004191352233 0.02148248795246941 0 -0.43154225021368292 0.01456273921686935 0 -0.42352229586794188 0.01925214471818857 0 -0.43673004191352233 0.02148248795246941 0 -0.42352229586794188 0.01925214471818857 0 -0.43673004191352233 0.02148248795246941 0 -0.43080555485338151 0.029894244088007661 0 -0.43879497022966479 0.03018174410112049 0 -0.43673004191352233 0.02148248795246941 0 -0.43080555485338151 0.029894244088007661 0 -0.43080555485338151 0.029894244088007661 0 -0.43602282824796351 0.037850384550442102 0 -0.426207066768926 0.040988694327212097 0 -0.43879497022966479 0.03018174410112049 0 -0.43080555485338151 0.029894244088007661 0 -0.43602282824796351 0.037850384550442102 0 -0.44077231176031773 0.043631081204729992 0 -0.43602282824796351 0.037850384550442102 0 -0.43292087962827791 0.047736539626655382 0 -0.43602282824796351 0.037850384550442102 0 -0.426207066768926 0.040988694327212097 0 -0.43292087962827791 0.047736539626655382 0 -0.426207066768926 0.040988694327212097 0 -0.43292087962827791 0.047736539626655382 0 -0.42456898668637938 0.050342573679571463 0 -0.426207066768926 0.040988694327212097 0 -0.42456898668637938 0.050342573679571463 0 -0.41567096799421788 0.047515527195247008 0 -0.43080555485338151 0.029894244088007661 0 -0.426207066768926 0.040988694327212097 0 -0.41775234988383708 0.032731884925563323 0 -0.43508543587473758 0.05557447072437189 0 -0.42854152946682578 0.057445209089091828 0 -0.43330066623556018 0.064245454069638094 0 -0.43989160066771599 0.059698655636809608 0 -0.43508543587473758 0.05557447072437189 0 -0.43330066623556018 0.064245454069638094 0 -0.44004732277492781 0.051231618496174691 0 -0.43508543587473758 0.05557447072437189 0 -0.43292087962827791 0.047736539626655382 0 -0.43508543587473758 0.05557447072437189 0 -0.43292087962827791 0.047736539626655382 0 -0.42854152946682578 0.057445209089091828 0 -0.43292087962827791 0.047736539626655382 0 -0.42456898668637938 0.050342573679571463 0 -0.42854152946682578 0.057445209089091828 0 -0.42456898668637938 0.050342573679571463 0 -0.42854152946682578 0.057445209089091828 0 -0.42050282293465219 0.05830487436407944 0 -0.42854152946682578 0.057445209089091828 0 -0.42050282293465219 0.05830487436407944 0 -0.4254640752439528 0.066498069635119048 0 -0.42050282293465219 0.05830487436407944 0 -0.41567096799421788 0.047515527195247008 0 -0.41162033856651981 0.060552654116477492 0 -0.42050282293465219 0.05830487436407944 0 -0.41162033856651981 0.060552654116477492 0 -0.41765020633051919 0.067614200571184099 0 -0.42456898668637938 0.050342573679571463 0 -0.42050282293465219 0.05830487436407944 0 -0.41567096799421788 0.047515527195247008 0 -0.41567096799421788 0.047515527195247008 0 -0.41162033856651981 0.060552654116477492 0 -0.40216785916064668 0.051642788065602123 0 -0.426207066768926 0.040988694327212097 0 -0.41567096799421788 0.047515527195247008 0 -0.41775234988383708 0.032731884925563323 0 -0.41567096799421788 0.047515527195247008 0 -0.40434520044342231 0.03756360996096203 0 -0.40216785916064668 0.051642788065602123 0 -0.41567096799421788 0.047515527195247008 0 -0.41775234988383708 0.032731884925563323 0 -0.40434520044342231 0.03756360996096203 0 -0.40434520044342231 0.03756360996096203 0 -0.38974840553704942 0.043540907779704818 0 -0.39094423803526718 0.02727755780473495 0 -0.40434520044342231 0.03756360996096203 0 -0.40216785916064668 0.051642788065602123 0 -0.38974840553704942 0.043540907779704818 0 -0.41162033856651981 0.060552654116477492 0 -0.40216785916064668 0.051642788065602123 0 -0.40229334280601092 0.0637075482347257 0 -0.40216785916064668 0.051642788065602123 0 -0.39040695637274342 0.058719219266882318 0 -0.38974840553704942 0.043540907779704818 0 -0.40216785916064668 0.051642788065602123 0 -0.39040695637274342 0.058719219266882318 0 -0.40229334280601092 0.0637075482347257 0 -0.39040695637274342 0.058719219266882318 0 -0.3768751785522711 0.053918867385151177 0 -0.38249206361461952 0.071349434120778196 0 -0.39040695637274342 0.058719219266882318 0 -0.3768751785522711 0.053918867385151177 0 -0.38974840553704942 0.043540907779704818 0 -0.38974840553704942 0.043540907779704818 0 -0.39094423803526718 0.02727755780473495 0 -0.37254868302209138 0.034023064201671588 0 -0.3768751785522711 0.053918867385151177 0 -0.38974840553704942 0.043540907779704818 0 -0.37254868302209138 0.034023064201671588 0 -0.37774326361595939 0.01532520211453518 0 -0.39502521255575662 0.010568204275209679 0 -0.39094423803526718 0.02727755780473495 0 -0.37774326361595939 0.01532520211453518 0 -0.39094423803526718 0.02727755780473495 0 -0.37254868302209138 0.034023064201671588 0 -0.37774326361595939 0.01532520211453518 0 -0.38398151949741061 0.00060460439070457147 0 -0.39502521255575662 0.010568204275209679 0 -0.37774326361595939 0.01532520211453518 0 -0.38398151949741061 0.00060460439070457147 0 -0.36999057855767942 0.0012933232693263469 0 -0.41322183356137798 0.0050878687410443194 0 -0.40729845507425472 0.022935221004611522 0 -0.39502521255575662 0.010568204275209679 0 -0.39730612116686209 -0.008807952153888526 0 -0.38398151949741061 0.00060460439070457147 0 -0.39502521255575662 0.010568204275209679 0 -0.39730612116686209 -0.008807952153888526 0 -0.41322183356137798 0.0050878687410443194 0 -0.39502521255575662 0.010568204275209679 0 -0.40729845507425472 0.022935221004611522 0 -0.39502521255575662 0.010568204275209679 0 -0.39094423803526718 0.02727755780473495 0 -0.40729845507425472 0.022935221004611522 0 -0.40434520044342231 0.03756360996096203 0 -0.39094423803526718 0.02727755780473495 0 -0.39537583767012058 0.1068040246973858 0 -0.40149142762179119 0.085903745013499497 0 -0.41068036094307842 0.08882737091457045 0 -0.39537583767012058 0.1068040246973858 0 -0.40588089222804308 0.1198978163492537 0 -0.39068111213260648 0.13298942647543019 0 -0.39537583767012058 0.1068040246973858 0 -0.39068111213260648 0.13298942647543019 0 -0.37217080522118751 0.118431946984977 0 -0.39537583767012058 0.1068040246973858 0 -0.37217080522118751 0.118431946984977 0 -0.39537583767012058 0.1068040246973858 0 -0.36890043599682071 0.10215778224249041 0 -0.37217080522118751 0.118431946984977 0 -0.39537583767012058 0.1068040246973858 0 -0.37820170436075268 0.088408958301826171 0 -0.36890043599682071 0.10215778224249041 0 -0.39537583767012058 0.1068040246973858 0 -0.37820170436075268 0.088408958301826171 0 -0.39088074932780198 0.085134338166358459 0 -0.37820170436075268 0.088408958301826171 0 -0.38249206361461952 0.071349434120778196 0 -0.39088074932780198 0.085134338166358459 0 -0.3768751785522711 0.053918867385151177 0 -0.38249206361461952 0.071349434120778196 0 -0.36646139999105509 0.06430410115453776 0 -0.38249206361461952 0.071349434120778196 0 -0.39684271337172589 0.073205528698302602 0 -0.39088074932780198 0.085134338166358459 0 -0.39040695637274342 0.058719219266882318 0 -0.38249206361461952 0.071349434120778196 0 -0.39684271337172589 0.073205528698302602 0 -0.39040695637274342 0.058719219266882318 0 -0.39684271337172589 0.073205528698302602 0 -0.40229334280601092 0.0637075482347257 0 -0.39684271337172589 0.073205528698302602 0 -0.40229334280601092 0.0637075482347257 0 -0.41042884655841838 0.074417551026364021 0 -0.39684271337172589 0.073205528698302602 0 -0.40149142762179119 0.085903745013499497 0 -0.41042884655841838 0.074417551026364021 0 -0.39537583767012058 0.1068040246973858 0 -0.39088074932780198 0.085134338166358459 0 -0.40149142762179119 0.085903745013499497 0 -0.39684271337172589 0.073205528698302602 0 -0.39088074932780198 0.085134338166358459 0 -0.40149142762179119 0.085903745013499497 0 -0.40149142762179119 0.085903745013499497 0 -0.41068036094307842 0.08882737091457045 0 -0.41042884655841838 0.074417551026364021 0 -0.41068036094307842 0.08882737091457045 0 -0.41797518507942111 0.081411099238115459 0 -0.41042884655841838 0.074417551026364021 0 -0.41797518507942111 0.081411099238115459 0 -0.42022999860966531 0.089251703102263366 0 -0.42527989954059958 0.07917338972494177 0 -0.41797518507942111 0.081411099238115459 0 -0.42228153073351432 0.074156196181403372 0 -0.42527989954059958 0.07917338972494177 0 -0.41068036094307842 0.08882737091457045 0 -0.42022999860966531 0.089251703102263366 0 -0.41858087011905382 0.095176102409794655 0 -0.41068036094307842 0.08882737091457045 0 -0.41797518507942111 0.081411099238115459 0 -0.42022999860966531 0.089251703102263366 0 -0.41162033856651981 0.060552654116477492 0 -0.40229334280601092 0.0637075482347257 0 -0.41042884655841838 0.074417551026364021 0 -0.41162033856651981 0.060552654116477492 0 -0.41042884655841838 0.074417551026364021 0 -0.41765020633051919 0.067614200571184099 0 -0.41042884655841838 0.074417551026364021 0 -0.41765020633051919 0.067614200571184099 0 -0.42228153073351432 0.074156196181403372 0 -0.41797518507942111 0.081411099238115459 0 -0.41042884655841838 0.074417551026364021 0 -0.42228153073351432 0.074156196181403372 0 -0.42050282293465219 0.05830487436407944 0 -0.41765020633051919 0.067614200571184099 0 -0.4254640752439528 0.066498069635119048 0 -0.41765020633051919 0.067614200571184099 0 -0.4254640752439528 0.066498069635119048 0 -0.42228153073351432 0.074156196181403372 0 -0.42854152946682578 0.057445209089091828 0 -0.4254640752439528 0.066498069635119048 0 -0.43330066623556018 0.064245454069638094 0 -0.4254640752439528 0.066498069635119048 0 -0.42964807297774948 0.072733034103778071 0 -0.43330066623556018 0.064245454069638094 0 -0.42964807297774948 0.072733034103778071 0 -0.43321429896389552 0.076924308366302513 0 -0.42527989954059958 0.07917338972494177 0 -0.4254640752439528 0.066498069635119048 0 -0.42964807297774948 0.072733034103778071 0 -0.42228153073351432 0.074156196181403372 0 -0.42964807297774948 0.072733034103778071 0 -0.42228153073351432 0.074156196181403372 0 -0.42527989954059958 0.07917338972494177 0 -0.43321429896389552 0.076924308366302513 0 -0.43593081670384493 0.070874763021622225 0 -0.44126310290379661 0.07200957744268742 0 -0.42964807297774948 0.072733034103778071 0 -0.43321429896389552 0.076924308366302513 0 -0.43593081670384493 0.070874763021622225 0 -0.42964807297774948 0.072733034103778071 0 -0.43593081670384493 0.070874763021622225 0 -0.43330066623556018 0.064245454069638094 0 -0.43593081670384493 0.070874763021622225 0 -0.43330066623556018 0.064245454069638094 0 -0.44067041212995461 0.065870100411421217 0 -0.43126010896115807 0.096020377946527347 0 -0.41858087011905382 0.095176102409794655 0 -0.44178590256798689 0.083548180122203441 0 -0.42022999860966531 0.089251703102263366 0 -0.41858087011905382 0.095176102409794655 0 -0.44178590256798689 0.083548180122203441 0 -0.41858087011905382 0.095176102409794655 0 -0.44178590256798689 0.083548180122203441 0 -0.42022999860966531 0.089251703102263366 0 -0.44585538657980961 0.077250712308906386 0 -0.42022999860966531 0.089251703102263366 0 -0.43321429896389552 0.076924308366302513 0 -0.44585538657980961 0.077250712308906386 0 -0.42022999860966531 0.089251703102263366 0 -0.44585538657980961 0.077250712308906386 0 -0.44178590256798689 0.083548180122203441 0 -0.42022999860966531 0.089251703102263366 0 -0.43321429896389552 0.076924308366302513 0 -0.42527989954059958 0.07917338972494177 0 -0.43126010896115807 0.096020377946527347 0 -0.43312732718475078 0.10414151264772489 0 -0.43990572195183031 0.094862852845352813 0 -0.43312732718475078 0.10414151264772489 0 -0.42417693842075938 0.1018079149507843 0 -0.41864011470226481 0.10972281205306759 0 -0.43126010896115807 0.096020377946527347 0 -0.42417693842075938 0.1018079149507843 0 -0.41858087011905382 0.095176102409794655 0 -0.43126010896115807 0.096020377946527347 0 -0.43312732718475078 0.10414151264772489 0 -0.42417693842075938 0.1018079149507843 0 -0.39537583767012058 0.1068040246973858 0 -0.41858087011905382 0.095176102409794655 0 -0.41864011470226481 0.10972281205306759 0 -0.39537583767012058 0.1068040246973858 0 -0.41858087011905382 0.095176102409794655 0 -0.39537583767012058 0.1068040246973858 0 -0.41068036094307842 0.08882737091457045 0 -0.41858087011905382 0.095176102409794655 0 -0.42417693842075938 0.1018079149507843 0 -0.41858087011905382 0.095176102409794655 0 -0.41864011470226481 0.10972281205306759 0 -0.39537583767012058 0.1068040246973858 0 -0.40588089222804308 0.1198978163492537 0 -0.41864011470226481 0.10972281205306759 0 -0.40588089222804308 0.1198978163492537 0 -0.41864011470226481 0.10972281205306759 0 -0.42196679456892378 0.12469857638982181 0 -0.43312732718475078 0.10414151264772489 0 -0.42196679456892378 0.12469857638982181 0 -0.43312732718475078 0.10414151264772489 0 -0.42196679456892378 0.12469857638982181 0 -0.4384696995318878 0.1168769255496339 0 -0.43312732718475078 0.10414151264772489 0 -0.41864011470226481 0.10972281205306759 0 -0.42196679456892378 0.12469857638982181 0 -0.45041769772117279 0.1128795771636132 0 -0.4384696995318878 0.1168769255496339 0 -0.44705688661135751 0.1004148053306952 0 -0.45041769772117279 0.1128795771636132 0 -0.4384696995318878 0.1168769255496339 0 -0.4460450448047335 0.12603639862221541 0 -0.45041769772117279 0.1128795771636132 0 -0.45885989165713759 0.117771608671388 0 -0.4460450448047335 0.12603639862221541 0 -0.43312732718475078 0.10414151264772489 0 -0.4384696995318878 0.1168769255496339 0 -0.44705688661135751 0.1004148053306952 0 -0.43312732718475078 0.10414151264772489 0 -0.43990572195183031 0.094862852845352813 0 -0.44705688661135751 0.1004148053306952 0 -0.43990572195183031 0.094862852845352813 0 -0.44705688661135751 0.1004148053306952 0 -0.44829263170914868 0.091887191057058767 0 -0.44705688661135751 0.1004148053306952 0 -0.45630409816194739 0.095241661885800216 0 -0.44829263170914868 0.091887191057058767 0 -0.45041769772117279 0.1128795771636132 0 -0.44705688661135751 0.1004148053306952 0 -0.45829123922990778 0.1059844672811877 0 -0.45829123922990778 0.1059844672811877 0 -0.45630409816194739 0.095241661885800216 0 -0.46386779297209479 0.098647174179578329 0 -0.44705688661135751 0.1004148053306952 0 -0.45829123922990778 0.1059844672811877 0 -0.45630409816194739 0.095241661885800216 0 -0.46386779297209479 0.098647174179578329 0 -0.4639818834079899 0.090305001654350847 0 -0.46964887715846049 0.094256969799808993 0 -0.46386779297209479 0.098647174179578329 0 -0.47093459065915089 0.1045988800496411 0 -0.46964887715846049 0.094256969799808993 0 -0.45630409816194739 0.095241661885800216 0 -0.46386779297209479 0.098647174179578329 0 -0.4639818834079899 0.090305001654350847 0 -0.45829123922990778 0.1059844672811877 0 -0.46534775322068972 0.1119575266473338 0 -0.47093459065915089 0.1045988800496411 0 -0.45829123922990778 0.1059844672811877 0 -0.46386779297209479 0.098647174179578329 0 -0.47093459065915089 0.1045988800496411 0 -0.45885989165713759 0.117771608671388 0 -0.4460450448047335 0.12603639862221541 0 -0.4681642227122948 0.12505039740802509 0 -0.46534775322068972 0.1119575266473338 0 -0.46623147421595129 0.117660348914696 0 -0.45885989165713759 0.117771608671388 0 -0.46534775322068972 0.1119575266473338 0 -0.46623147421595129 0.117660348914696 0 -0.47255402927368351 0.11586186293203719 0 -0.46623147421595129 0.117660348914696 0 -0.45885989165713759 0.117771608671388 0 -0.4681642227122948 0.12505039740802509 0 -0.45829123922990778 0.1059844672811877 0 -0.46534775322068972 0.1119575266473338 0 -0.45885989165713759 0.117771608671388 0 -0.45041769772117279 0.1128795771636132 0 -0.45829123922990778 0.1059844672811877 0 -0.45885989165713759 0.117771608671388 0 -0.44585538657980961 0.077250712308906386 0 -0.44178590256798689 0.083548180122203441 0 -0.46499093501692002 0.071920257834612256 0 -0.44607164377511133 0.067433350055886979 0 -0.44585538657980961 0.077250712308906386 0 -0.45491440328240867 0.063443984178461948 0 -0.44756464249369921 0.060958802241883027 0 -0.44607164377511133 0.067433350055886979 0 -0.45491440328240867 0.063443984178461948 0 -0.44756464249369921 0.060958802241883027 0 -0.44607164377511133 0.067433350055886979 0 -0.44067041212995461 0.065870100411421217 0 -0.43989160066771599 0.059698655636809608 0 -0.43330066623556018 0.064245454069638094 0 -0.44067041212995461 0.065870100411421217 0 -0.43593081670384493 0.070874763021622225 0 -0.44067041212995461 0.065870100411421217 0 -0.44126310290379661 0.07200957744268742 0 -0.44607164377511133 0.067433350055886979 0 -0.44067041212995461 0.065870100411421217 0 -0.44126310290379661 0.07200957744268742 0 -0.44607164377511133 0.067433350055886979 0 -0.44126310290379661 0.07200957744268742 0 -0.44585538657980961 0.077250712308906386 0 -0.43321429896389552 0.076924308366302513 0 -0.44126310290379661 0.07200957744268742 0 -0.44585538657980961 0.077250712308906386 0 -0.43126010896115807 0.096020377946527347 0 -0.43990572195183031 0.094862852845352813 0 -0.44178590256798689 0.083548180122203441 0 -0.43990572195183031 0.094862852845352813 0 -0.44178590256798689 0.083548180122203441 0 -0.44829263170914868 0.091887191057058767 0 -0.44178590256798689 0.083548180122203441 0 -0.44829263170914868 0.091887191057058767 0 -0.4564105492526217 0.085368455101242191 0 -0.44178590256798689 0.083548180122203441 0 -0.4564105492526217 0.085368455101242191 0 -0.46499093501692002 0.071920257834612256 0 -0.45630409816194739 0.095241661885800216 0 -0.4639818834079899 0.090305001654350847 0 -0.4564105492526217 0.085368455101242191 0 -0.45630409816194739 0.095241661885800216 0 -0.44829263170914868 0.091887191057058767 0 -0.4564105492526217 0.085368455101242191 0 -0.4639818834079899 0.090305001654350847 0 -0.46608615824251542 0.082197561840569297 0 -0.47147460382547329 0.086538616510850125 0 -0.4639818834079899 0.090305001654350847 0 -0.46608615824251542 0.082197561840569297 0 -0.4564105492526217 0.085368455101242191 0 -0.4639818834079899 0.090305001654350847 0 -0.47147460382547329 0.086538616510850125 0 -0.46964887715846049 0.094256969799808993 0 -0.46608615824251542 0.082197561840569297 0 -0.4564105492526217 0.085368455101242191 0 -0.46499093501692002 0.071920257834612256 0 -0.44585538657980961 0.077250712308906386 0 -0.47148077454995369 0.065249721515549503 0 -0.44585538657980961 0.077250712308906386 0 -0.46499093501692002 0.071920257834612256 0 -0.47148077454995369 0.065249721515549503 0 -0.44585538657980961 0.077250712308906386 0 -0.45491440328240867 0.063443984178461948 0 -0.47148077454995369 0.065249721515549503 0 -0.44178590256798689 0.083548180122203441 0 -0.46499093501692002 0.071920257834612256 0 -0.46608615824251542 0.082197561840569297 0 -0.46499093501692002 0.071920257834612256 0 -0.47471953841746362 0.07647537357867891 0 -0.48249414908129368 0.067617365947169397 0 -0.47148077454995369 0.065249721515549503 0 -0.47471953841746362 0.07647537357867891 0 -0.46499093501692002 0.071920257834612256 0 -0.47148077454995369 0.065249721515549503 0 -0.47471953841746362 0.07647537357867891 0 -0.48249414908129368 0.067617365947169397 0 -0.47471953841746362 0.07647537357867891 0 -0.48812427964007737 0.076018101521714107 0 -0.47471953841746362 0.07647537357867891 0 -0.48282261349833899 0.08854935449973135 0 -0.48812427964007737 0.076018101521714107 0 -0.47471953841746362 0.07647537357867891 0 -0.47147460382547329 0.086538616510850125 0 -0.48282261349833899 0.08854935449973135 0 -0.46608615824251542 0.082197561840569297 0 -0.47471953841746362 0.07647537357867891 0 -0.47147460382547329 0.086538616510850125 0 -0.47147460382547329 0.086538616510850125 0 -0.46964887715846049 0.094256969799808993 0 -0.476575785306382 0.097168637402523045 0 -0.47147460382547329 0.086538616510850125 0 -0.48282261349833899 0.08854935449973135 0 -0.476575785306382 0.097168637402523045 0 -0.48282261349833899 0.08854935449973135 0 -0.5 0.092941900078602868 0 -0.48812427964007737 0.076018101521714107 0 -0.5 0.092941900078602868 0 -0.48812427964007737 0.076018101521714107 0 -0.5 0.066092747119439688 0 -0.48812427964007737 0.076018101521714107 0 -0.5 0.066092747119439688 0 -0.49193114781036718 0.065744236327628949 0 -0.48249414908129368 0.067617365947169397 0 -0.48812427964007737 0.076018101521714107 0 -0.49193114781036718 0.065744236327628949 0 -0.48010973880600027 0.11703588880093189 0 -0.49028340061985609 0.1240643961938354 0 -0.4681642227122948 0.12505039740802509 0 -0.49028340061985609 0.1240643961938354 0 -0.4681642227122948 0.12505039740802509 0 -0.48010973880600027 0.11703588880093189 0 -0.4795507367133256 0.10892506141932019 0 -0.48999630471084132 0.11127772605144121 0 -0.48010973880600027 0.11703588880093189 0 -0.47255402927368351 0.11586186293203719 0 -0.4795507367133256 0.10892506141932019 0 -0.46623147421595129 0.117660348914696 0 -0.47255402927368351 0.11586186293203719 0 -0.4681642227122948 0.12505039740802509 0 -0.48010973880600027 0.11703588880093189 0 -0.47255402927368351 0.11586186293203719 0 -0.4681642227122948 0.12505039740802509 0 -0.47255402927368351 0.11586186293203719 0 -0.47093459065915089 0.1045988800496411 0 -0.4795507367133256 0.10892506141932019 0 -0.46534775322068972 0.1119575266473338 0 -0.47255402927368351 0.11586186293203719 0 -0.47093459065915089 0.1045988800496411 0 -0.47093459065915089 0.1045988800496411 0 -0.476575785306382 0.097168637402523045 0 -0.4795507367133256 0.10892506141932019 0 -0.47093459065915089 0.1045988800496411 0 -0.46964887715846049 0.094256969799808993 0 -0.476575785306382 0.097168637402523045 0 -0.48282261349833899 0.08854935449973135 0 -0.476575785306382 0.097168637402523045 0 -0.48578908804577758 0.099772535890323741 0 -0.476575785306382 0.097168637402523045 0 -0.4795507367133256 0.10892506141932019 0 -0.48578908804577758 0.099772535890323741 0 -0.48282261349833899 0.08854935449973135 0 -0.5 0.092941900078602868 0 -0.48578908804577758 0.099772535890323741 0 -0.5 0.092941900078602868 0 -0.48999630471084132 0.11127772605144121 0 -0.49999999999999728 0.1197910530377661 0 -0.4795507367133256 0.10892506141932019 0 -0.48578908804577758 0.099772535890323741 0 -0.48999630471084132 0.11127772605144121 0 -0.5 0.092941900078602868 0 -0.48578908804577758 0.099772535890323741 0 -0.48999630471084132 0.11127772605144121 0 -0.48010973880600027 0.11703588880093189 0 -0.48999630471084132 0.11127772605144121 0 -0.49028340061985609 0.1240643961938354 0 -0.49028340061985609 0.1240643961938354 0 -0.49999999999999728 0.1197910530377661 0 -0.49028340061985609 0.1240643961938354 0 -0.49999999999999928 0.123631261706348 0 -0.49999999999999728 0.1197910530377661 0 -0.49028340061985609 0.1240643961938354 0 -0.49999999999999928 0.123631261706348 0 -0.48999630471084132 0.11127772605144121 0 -0.49028340061985609 0.1240643961938354 0 -0.49999999999999728 0.1197910530377661 0 -0.50000000000000133 0.13219664479418819 0 -0.49031634117405742 0.13630446132349119 0 -0.48826114130795112 0.1514458736288109 0 -0.49028340061985609 0.1240643961938354 0 -0.49999999999999928 0.123631261706348 0 -0.50000000000000133 0.13219664479418819 0 -0.49028340061985609 0.1240643961938354 0 -0.50000000000000133 0.13219664479418819 0 -0.49031634117405742 0.13630446132349119 0 -0.49028340061985609 0.1240643961938354 0 -0.49031634117405742 0.13630446132349119 0 -0.48272082276842232 0.1375109306771298 0 -0.49028340061985609 0.1240643961938354 0 -0.4681609700383994 0.13379380188633991 0 -0.49028340061985609 0.1240643961938354 0 -0.48272082276842232 0.1375109306771298 0 -0.4681609700383994 0.13379380188633991 0 -0.49028340061985609 0.1240643961938354 0 -0.4681642227122948 0.12505039740802509 0 -0.4681609700383994 0.13379380188633991 0 -0.48272082276842232 0.1375109306771298 0 -0.47357496677850169 0.1423143314462853 0 -0.4681609700383994 0.13379380188633991 0 -0.47224154260611462 0.1494172401698407 0 -0.48075681120157271 0.14577273254097081 0 -0.48826114130795112 0.1514458736288109 0 -0.47224154260611462 0.1494172401698407 0 -0.48826114130795112 0.1514458736288109 0 -0.46989420509933583 0.1602633053888069 0 -0.47224154260611462 0.1494172401698407 0 -0.47357496677850169 0.1423143314462853 0 -0.46344668867287359 0.14486557858986851 0 -0.47224154260611462 0.1494172401698407 0 -0.47357496677850169 0.1423143314462853 0 -0.48075681120157271 0.14577273254097081 0 -0.48272082276842232 0.1375109306771298 0 -0.48075681120157271 0.14577273254097081 0 -0.48826114130795112 0.1514458736288109 0 -0.48272082276842232 0.1375109306771298 0 -0.47357496677850169 0.1423143314462853 0 -0.48075681120157271 0.14577273254097081 0 -0.50000000000000133 0.13219664479418819 0 -0.48826114130795112 0.1514458736288109 0 -0.50000000000000133 0.13219664479418819 0 -0.48826114130795112 0.1514458736288109 0 -0.5 0.15553984559690051 0 -0.49031634117405742 0.13630446132349119 0 -0.48272082276842232 0.1375109306771298 0 -0.48826114130795112 0.1514458736288109 0 -0.48826114130795112 0.1514458736288109 0 -0.48990996162453693 0.16647442120286041 0 -0.47652228261589991 0.170695102463433 0 -0.5 0.15553984559690051 0 -0.48990996162453693 0.16647442120286041 0 -0.5 0.17888304639961289 0 -0.48826114130795112 0.1514458736288109 0 -0.5 0.15553984559690051 0 -0.48990996162453693 0.16647442120286041 0 -0.48990996162453693 0.16647442120286041 0 -0.48587319240615717 0.18654061591796919 0 -0.5 0.17888304639961289 0 -0.48990996162453693 0.16647442120286041 0 -0.48587319240615717 0.18654061591796919 0 -0.47652228261589991 0.170695102463433 0 -0.48587319240615717 0.18654061591796919 0 -0.47652228261589991 0.170695102463433 0 -0.46923512775007992 0.19477488353389799 0 -0.48826114130795112 0.1514458736288109 0 -0.47652228261589991 0.170695102463433 0 -0.48826114130795112 0.1514458736288109 0 -0.47652228261589991 0.170695102463433 0 -0.46989420509933583 0.1602633053888069 0 -0.47652228261589991 0.170695102463433 0 -0.46989420509933583 0.1602633053888069 0 -0.45881175723274331 0.17073032906832489 0 -0.46989420509933583 0.1602633053888069 0 -0.45881175723274331 0.17073032906832489 0 -0.45644391295746689 0.15707130512663331 0 -0.45881175723274331 0.17073032906832489 0 -0.45644391295746689 0.15707130512663331 0 -0.44539769309892341 0.16805296165036529 0 -0.47652228261589991 0.170695102463433 0 -0.45939313154960709 0.18383768043126361 0 -0.46923512775007992 0.19477488353389799 0 -0.47652228261589991 0.170695102463433 0 -0.45881175723274331 0.17073032906832489 0 -0.45939313154960709 0.18383768043126361 0 -0.45881175723274331 0.17073032906832489 0 -0.45939313154960709 0.18383768043126361 0 -0.44662412368697491 0.18348328110595161 0 -0.45939313154960709 0.18383768043126361 0 -0.44662412368697491 0.18348328110595161 0 -0.45550307416347191 0.19327277150230551 0 -0.45881175723274331 0.17073032906832489 0 -0.44662412368697491 0.18348328110595161 0 -0.44539769309892341 0.16805296165036529 0 -0.44662412368697491 0.18348328110595161 0 -0.44539769309892341 0.16805296165036529 0 -0.43666212851174419 0.17515234119590059 0 -0.44662412368697491 0.18348328110595161 0 -0.44005238629348881 0.18730691296274651 0 -0.43666212851174419 0.17515234119590059 0 -0.45644391295746689 0.15707130512663331 0 -0.44539769309892341 0.16805296165036529 0 -0.44398491077289681 0.15650440926367029 0 -0.44539769309892341 0.16805296165036529 0 -0.43623111995437552 0.1625782362200747 0 -0.43666212851174419 0.17515234119590059 0 -0.44539769309892341 0.16805296165036529 0 -0.44398491077289681 0.15650440926367029 0 -0.43623111995437552 0.1625782362200747 0 -0.44398491077289681 0.15650440926367029 0 -0.4460385394569425 0.1435232075788439 0 -0.43062055571079683 0.15339421446839629 0 -0.45644391295746689 0.15707130512663331 0 -0.44398491077289681 0.15650440926367029 0 -0.4460385394569425 0.1435232075788439 0 -0.4460385394569425 0.1435232075788439 0 -0.4460450448047335 0.12603639862221541 0 -0.4319995593700523 0.13592177936004671 0 -0.4384696995318878 0.1168769255496339 0 -0.4460450448047335 0.12603639862221541 0 -0.4319995593700523 0.13592177936004671 0 -0.4460450448047335 0.12603639862221541 0 -0.4681642227122948 0.12505039740802509 0 -0.4460385394569425 0.1435232075788439 0 -0.4460450448047335 0.12603639862221541 0 -0.4681609700383994 0.13379380188633991 0 -0.4460385394569425 0.1435232075788439 0 -0.4681609700383994 0.13379380188633991 0 -0.4460450448047335 0.12603639862221541 0 -0.4681642227122948 0.12505039740802509 0 -0.4681609700383994 0.13379380188633991 0 -0.47357496677850169 0.1423143314462853 0 -0.4681609700383994 0.13379380188633991 0 -0.46344668867287359 0.14486557858986851 0 -0.47224154260611462 0.1494172401698407 0 -0.46989420509933583 0.1602633053888069 0 -0.45644391295746689 0.15707130512663331 0 -0.4460385394569425 0.1435232075788439 0 -0.4681609700383994 0.13379380188633991 0 -0.46344668867287359 0.14486557858986851 0 -0.45644391295746689 0.15707130512663331 0 -0.4460385394569425 0.1435232075788439 0 -0.46344668867287359 0.14486557858986851 0 -0.47224154260611462 0.1494172401698407 0 -0.45644391295746689 0.15707130512663331 0 -0.46344668867287359 0.14486557858986851 0 -0.48026705082551091 0.22977249058689991 0 -0.46053410165102893 0.23397553316876321 0 -0.47712929697937811 0.25539273353199471 0 -0.46053410165102893 0.23397553316876321 0 -0.47712929697937811 0.25539273353199471 0 -0.48715297377553729 0.24335977933467559 0 -0.48026705082551091 0.22977249058689991 0 -0.47712929697937811 0.25539273353199471 0 -0.48715297377553729 0.24335977933467559 0 -0.49154180181409801 0.2357128038109543 0 -0.5 0.2555229176101384 0 -0.49154180181409801 0.2357128038109543 0 -0.49999999999999301 0.22556944800503739 0 -0.5 0.2555229176101384 0 -0.48715297377553729 0.24335977933467559 0 -0.49154180181409801 0.2357128038109543 0 -0.48026705082551091 0.22977249058689991 0 -0.49154180181409801 0.2357128038109543 0 -0.49999999999999301 0.22556944800503739 0 -0.48026705082551091 0.22977249058689991 0 -0.49999999999999301 0.22556944800503739 0 -0.48026705082551091 0.22977249058689991 0 -0.49999999999999301 0.22556944800503739 0 -0.48202295266219769 0.2239267876279199 0 -0.48026705082551091 0.22977249058689991 0 -0.49999999999999301 0.22556944800503739 0 -0.48202295266219769 0.2239267876279199 0 -0.49055069457486672 0.213891620579825 0 -0.48202295266219769 0.2239267876279199 0 -0.48026705082551091 0.22977249058689991 0 -0.46852285583913578 0.22305826459992159 0 -0.48202295266219769 0.2239267876279199 0 -0.46142864683096507 0.20939826668944481 0 -0.46852285583913578 0.22305826459992159 0 -0.48026705082551091 0.22977249058689991 0 -0.46053410165102893 0.23397553316876321 0 -0.48026705082551091 0.22977249058689991 0 -0.46852285583913578 0.22305826459992159 0 -0.46053410165102893 0.23397553316876321 0 -0.48202295266219769 0.2239267876279199 0 -0.46142864683096507 0.20939826668944481 0 -0.48163433048610332 0.2036570007762723 0 -0.47890915613853308 0.21271841891836549 0 -0.46142864683096507 0.20939826668944481 0 -0.48202295266219769 0.2239267876279199 0 -0.47890915613853308 0.21271841891836549 0 -0.46142864683096507 0.20939826668944481 0 -0.48163433048610332 0.2036570007762723 0 -0.47890915613853308 0.21271841891836549 0 -0.49055069457486672 0.213891620579825 0 -0.48202295266219769 0.2239267876279199 0 -0.47890915613853308 0.21271841891836549 0 -0.49055069457486672 0.213891620579825 0 -0.48163433048610332 0.2036570007762723 0 -0.49055069457486672 0.213891620579825 0 -0.5 0.2022262472023251 0 -0.49999999999999301 0.22556944800503739 0 -0.49055069457486672 0.213891620579825 0 -0.5 0.2022262472023251 0 -0.48587319240615717 0.18654061591796919 0 -0.48163433048610332 0.2036570007762723 0 -0.5 0.2022262472023251 0 -0.48587319240615717 0.18654061591796919 0 -0.5 0.17888304639961289 0 -0.5 0.2022262472023251 0 -0.48163433048610332 0.2036570007762723 0 -0.46923512775007992 0.19477488353389799 0 -0.46142864683096507 0.20939826668944481 0 -0.48587319240615717 0.18654061591796919 0 -0.48163433048610332 0.2036570007762723 0 -0.46923512775007992 0.19477488353389799 0 -0.46923512775007992 0.19477488353389799 0 -0.45550307416347191 0.19327277150230551 0 -0.46142864683096507 0.20939826668944481 0 -0.45939313154960709 0.18383768043126361 0 -0.46923512775007992 0.19477488353389799 0 -0.45550307416347191 0.19327277150230551 0 -0.45550307416347191 0.19327277150230551 0 -0.44083434099973251 0.19486974575096969 0 -0.46142864683096507 0.20939826668944481 0 -0.44662412368697491 0.18348328110595161 0 -0.45550307416347191 0.19327277150230551 0 -0.44083434099973251 0.19486974575096969 0 -0.44083434099973251 0.19486974575096969 0 -0.44629249154847173 0.2155957906573599 0 -0.4320508814459143 0.19721604814595681 0 -0.44083434099973251 0.19486974575096969 0 -0.46142864683096507 0.20939826668944481 0 -0.44005238629348881 0.18730691296274651 0 -0.44083434099973251 0.19486974575096969 0 -0.43386399723542529 0.18288970413688299 0 -0.44662412368697491 0.18348328110595161 0 -0.44005238629348881 0.18730691296274651 0 -0.44083434099973251 0.19486974575096969 0 -0.44083434099973251 0.19486974575096969 0 -0.44629249154847173 0.2155957906573599 0 -0.46142864683096507 0.20939826668944481 0 -0.44629249154847173 0.2155957906573599 0 -0.4320508814459143 0.19721604814595681 0 -0.44629249154847173 0.2155957906573599 0 -0.46142864683096507 0.20939826668944481 0 -0.46852285583913578 0.22305826459992159 0 -0.44629249154847173 0.2155957906573599 0 -0.46852285583913578 0.22305826459992159 0 -0.46053410165102893 0.23397553316876321 0 -0.44629249154847173 0.2155957906573599 0 -0.46053410165102893 0.23397553316876321 0 -0.46053410165102893 0.23397553316876321 0 -0.44396208378437629 0.22812958938451419 0 -0.43635195154316359 0.239126238505593 0 -0.44629249154847173 0.2155957906573599 0 -0.46053410165102893 0.23397553316876321 0 -0.44396208378437629 0.22812958938451419 0 -0.44629249154847173 0.2155957906573599 0 -0.44396208378437629 0.22812958938451419 0 -0.43266979039484099 0.22382079520634079 0 -0.44396208378437629 0.22812958938451419 0 -0.43635195154316359 0.239126238505593 0 -0.43266979039484099 0.22382079520634079 0 -0.46053410165102893 0.23397553316876321 0 -0.43635195154316359 0.239126238505593 0 -0.46053410165102893 0.23397553316876321 0 -0.44744658922215769 0.24397212393561721 0 -0.43635195154316359 0.239126238505593 0 -0.44744658922215769 0.24397212393561721 0 -0.43635195154316359 0.239126238505593 0 -0.43864553059328931 0.25337679904475779 0 -0.44744658922215769 0.24397212393561721 0 -0.45425477310114931 0.24940992502335479 0 -0.43864553059328931 0.25337679904475779 0 -0.46053410165102893 0.23397553316876321 0 -0.45425477310114931 0.24940992502335479 0 -0.47712929697937811 0.25539273353199471 0 -0.46053410165102893 0.23397553316876321 0 -0.44744658922215769 0.24397212393561721 0 -0.45425477310114931 0.24940992502335479 0 -0.41216980143529841 0.24427694384242221 0 -0.40874751103828 0.23054596459722629 0 -0.39829922619556302 0.23784380560128371 0 -0.41216980143529841 0.24427694384242221 0 -0.42165305200398329 0.23208070660103899 0 -0.40874751103828 0.23054596459722629 0 -0.41216980143529841 0.24427694384242221 0 -0.43635195154316359 0.239126238505593 0 -0.41216980143529841 0.24427694384242221 0 -0.42554553359055458 0.24540183042919261 0 -0.43635195154316359 0.239126238505593 0 -0.41216980143529841 0.24427694384242221 0 -0.43635195154316359 0.239126238505593 0 -0.42165305200398329 0.23208070660103899 0 -0.42554553359055458 0.24540183042919261 0 -0.43635195154316359 0.239126238505593 0 -0.43864553059328931 0.25337679904475779 0 -0.43635195154316359 0.239126238505593 0 -0.43266979039484099 0.22382079520634079 0 -0.42165305200398329 0.23208070660103899 0 -0.43266979039484099 0.22382079520634079 0 -0.41832620560833339 0.22263359085361281 0 -0.42433025655946699 0.21517593779167329 0 -0.43266979039484099 0.22382079520634079 0 -0.41832620560833339 0.22263359085361281 0 -0.42165305200398329 0.23208070660103899 0 -0.41832620560833339 0.22263359085361281 0 -0.42165305200398329 0.23208070660103899 0 -0.40874751103828 0.23054596459722629 0 -0.41832620560833339 0.22263359085361281 0 -0.40874751103828 0.23054596459722629 0 -0.40485494758311769 0.21692267584707989 0 -0.41832620560833339 0.22263359085361281 0 -0.41530553356900918 0.21174817818918051 0 -0.40485494758311769 0.21692267584707989 0 -0.40666015891976282 0.2037632794208756 0 -0.41530553356900918 0.21174817818918051 0 -0.40485494758311769 0.21692267584707989 0 -0.40666015891976282 0.2037632794208756 0 -0.41530553356900918 0.21174817818918051 0 -0.41642388708496331 0.20136757948029249 0 -0.41530553356900918 0.21174817818918051 0 -0.42286837918761538 0.20759736993214151 0 -0.41642388708496331 0.20136757948029249 0 -0.42286837918761538 0.20759736993214151 0 -0.42425488206018819 0.20044971177875959 0 -0.41642388708496331 0.20136757948029249 0 -0.41832620560833339 0.22263359085361281 0 -0.41530553356900918 0.21174817818918051 0 -0.42433025655946699 0.21517593779167329 0 -0.41530553356900918 0.21174817818918051 0 -0.42433025655946699 0.21517593779167329 0 -0.42286837918761538 0.20759736993214151 0 -0.42433025655946699 0.21517593779167329 0 -0.43248137403753623 0.21007975477709109 0 -0.42286837918761538 0.20759736993214151 0 -0.44629249154847173 0.2155957906573599 0 -0.43248137403753623 0.21007975477709109 0 -0.4320508814459143 0.19721604814595681 0 -0.44629249154847173 0.2155957906573599 0 -0.43266979039484099 0.22382079520634079 0 -0.43248137403753623 0.21007975477709109 0 -0.43266979039484099 0.22382079520634079 0 -0.42433025655946699 0.21517593779167329 0 -0.43248137403753623 0.21007975477709109 0 -0.43248137403753623 0.21007975477709109 0 -0.42286837918761538 0.20759736993214151 0 -0.42425488206018819 0.20044971177875959 0 -0.44083434099973251 0.19486974575096969 0 -0.42024003516849961 0.18034122481249451 0 -0.43248137403753623 0.21007975477709109 0 -0.42425488206018819 0.20044971177875959 0 -0.4320508814459143 0.19721604814595681 0 -0.4320508814459143 0.19721604814595681 0 -0.41859003933632799 0.18756328270531239 0 -0.41790813972401658 0.17869615883798909 0 -0.4320508814459143 0.19721604814595681 0 -0.41790813972401658 0.17869615883798909 0 -0.44083434099973251 0.19486974575096969 0 -0.4320508814459143 0.19721604814595681 0 -0.42024003516849961 0.18034122481249451 0 -0.42425488206018819 0.20044971177875959 0 -0.4320508814459143 0.19721604814595681 0 -0.41876582516724808 0.1937522375802673 0 -0.4320508814459143 0.19721604814595681 0 -0.41859003933632799 0.18756328270531239 0 -0.41876582516724808 0.1937522375802673 0 -0.41859003933632799 0.18756328270531239 0 -0.41876582516724808 0.1937522375802673 0 -0.41099263463062352 0.18637384164843529 0 -0.42425488206018819 0.20044971177875959 0 -0.41876582516724808 0.1937522375802673 0 -0.41642388708496331 0.20136757948029249 0 -0.41876582516724808 0.1937522375802673 0 -0.41642388708496331 0.20136757948029249 0 -0.41095674417136929 0.1959086206849236 0 -0.40666015891976282 0.2037632794208756 0 -0.41095674417136929 0.1959086206849236 0 -0.40194121505424901 0.19428616529474721 0 -0.40666015891976282 0.2037632794208756 0 -0.41642388708496331 0.20136757948029249 0 -0.41095674417136929 0.1959086206849236 0 -0.41095674417136929 0.1959086206849236 0 -0.40194121505424901 0.19428616529474721 0 -0.41099263463062352 0.18637384164843529 0 -0.41876582516724808 0.1937522375802673 0 -0.41095674417136929 0.1959086206849236 0 -0.41099263463062352 0.18637384164843529 0 -0.40194121505424901 0.19428616529474721 0 -0.38719415278662511 0.18874779681735909 0 -0.39278477815290502 0.20903145983463281 0 -0.40194121505424901 0.19428616529474721 0 -0.41099263463062352 0.18637384164843529 0 -0.4024885351780757 0.18382752679303049 0 -0.40666015891976282 0.2037632794208756 0 -0.40194121505424901 0.19428616529474721 0 -0.39278477815290502 0.20903145983463281 0 -0.40194121505424901 0.19428616529474721 0 -0.38719415278662511 0.18874779681735909 0 -0.4024885351780757 0.18382752679303049 0 -0.38719415278662511 0.18874779681735909 0 -0.37474257623598028 0.21168288976070221 0 -0.38719415278662511 0.18874779681735909 0 -0.37474257623598028 0.21168288976070221 0 -0.3681190370094311 0.19167126270431301 0 -0.38719415278662511 0.18874779681735909 0 -0.39278477815290502 0.20903145983463281 0 -0.37474257623598028 0.21168288976070221 0 -0.39278477815290502 0.20903145983463281 0 -0.38078072244082029 0.22551708184048971 0 -0.37474257623598028 0.21168288976070221 0 -0.39278477815290502 0.20903145983463281 0 -0.40485494758311769 0.21692267584707989 0 -0.39422161654173521 0.22614614319945411 0 -0.40666015891976282 0.2037632794208756 0 -0.39278477815290502 0.20903145983463281 0 -0.40485494758311769 0.21692267584707989 0 -0.40874751103828 0.23054596459722629 0 -0.40485494758311769 0.21692267584707989 0 -0.39422161654173521 0.22614614319945411 0 -0.40874751103828 0.23054596459722629 0 -0.39422161654173521 0.22614614319945411 0 -0.39829922619556302 0.23784380560128371 0 -0.39422161654173521 0.22614614319945411 0 -0.38789747005555009 0.23874877931568089 0 -0.39829922619556302 0.23784380560128371 0 -0.39278477815290502 0.20903145983463281 0 -0.39422161654173521 0.22614614319945411 0 -0.38078072244082029 0.22551708184048971 0 -0.38078072244082029 0.22551708184048971 0 -0.38789747005555009 0.23874877931568089 0 -0.37599442291674262 0.23736809678920459 0 -0.39422161654173521 0.22614614319945411 0 -0.38078072244082029 0.22551708184048971 0 -0.38789747005555009 0.23874877931568089 0 -0.38789747005555009 0.23874877931568089 0 -0.37599442291674262 0.23736809678920459 0 -0.38141007057668858 0.2472317058287731 0 -0.37599442291674262 0.23736809678920459 0 -0.38141007057668858 0.2472317058287731 0 -0.3708752485995836 0.243449034959526 0 -0.38789747005555009 0.23874877931568089 0 -0.38141007057668858 0.2472317058287731 0 -0.38798765132743301 0.24942764917925139 0 -0.41216980143529841 0.24427694384242221 0 -0.38798765132743301 0.24942764917925139 0 -0.41216980143529841 0.24427694384242221 0 -0.38798765132743301 0.24942764917925139 0 -0.39829922619556302 0.23784380560128371 0 -0.41216980143529841 0.24427694384242221 0 -0.38798765132743301 0.24942764917925139 0 -0.39878507743806269 0.25508268953005719 0 -0.38789747005555009 0.23874877931568089 0 -0.38798765132743301 0.24942764917925139 0 -0.39829922619556302 0.23784380560128371 0 -0.41080626195309677 0.14525564013191891 0 -0.43062055571079683 0.15339421446839629 0 -0.41758513170981149 0.1622440087229981 0 -0.40588089222804308 0.1198978163492537 0 -0.42196679456892378 0.12469857638982181 0 -0.41080626195309677 0.14525564013191891 0 -0.42196679456892378 0.12469857638982181 0 -0.41080626195309677 0.14525564013191891 0 -0.4319995593700523 0.13592177936004671 0 -0.42196679456892378 0.12469857638982181 0 -0.41080626195309677 0.14525564013191891 0 -0.42196679456892378 0.12469857638982181 0 -0.4384696995318878 0.1168769255496339 0 -0.4319995593700523 0.13592177936004671 0 -0.41080626195309677 0.14525564013191891 0 -0.4319995593700523 0.13592177936004671 0 -0.43062055571079683 0.15339421446839629 0 -0.4460385394569425 0.1435232075788439 0 -0.4319995593700523 0.13592177936004671 0 -0.43062055571079683 0.15339421446839629 0 -0.44398491077289681 0.15650440926367029 0 -0.43062055571079683 0.15339421446839629 0 -0.43623111995437552 0.1625782362200747 0 -0.43062055571079683 0.15339421446839629 0 -0.43623111995437552 0.1625782362200747 0 -0.42805164963346742 0.16652990457710501 0 -0.43623111995437552 0.1625782362200747 0 -0.42805164963346742 0.16652990457710501 0 -0.43666212851174419 0.17515234119590059 0 -0.42805164963346742 0.16652990457710501 0 -0.41758513170981149 0.1622440087229981 0 -0.42040376951847003 0.1699544083850455 0 -0.42805164963346742 0.16652990457710501 0 -0.42641392967955399 0.17522538771817811 0 -0.42040376951847003 0.1699544083850455 0 -0.43062055571079683 0.15339421446839629 0 -0.42805164963346742 0.16652990457710501 0 -0.41758513170981149 0.1622440087229981 0 -0.44083434099973251 0.19486974575096969 0 -0.43386399723542529 0.18288970413688299 0 -0.42024003516849961 0.18034122481249451 0 -0.4320508814459143 0.19721604814595681 0 -0.42024003516849961 0.18034122481249451 0 -0.41790813972401658 0.17869615883798909 0 -0.44005238629348881 0.18730691296274651 0 -0.43386399723542529 0.18288970413688299 0 -0.43666212851174419 0.17515234119590059 0 -0.42805164963346742 0.16652990457710501 0 -0.43666212851174419 0.17515234119590059 0 -0.42641392967955399 0.17522538771817811 0 -0.43386399723542529 0.18288970413688299 0 -0.43666212851174419 0.17515234119590059 0 -0.42641392967955399 0.17522538771817811 0 -0.43386399723542529 0.18288970413688299 0 -0.42641392967955399 0.17522538771817811 0 -0.42024003516849961 0.18034122481249451 0 -0.42641392967955399 0.17522538771817811 0 -0.42070795721992071 0.1740838660428625 0 -0.42040376951847003 0.1699544083850455 0 -0.42641392967955399 0.17522538771817811 0 -0.42024003516849961 0.18034122481249451 0 -0.42070795721992071 0.1740838660428625 0 -0.41790813972401658 0.17869615883798909 0 -0.39964572933726927 0.1658127038740157 0 -0.41790813972401658 0.17869615883798909 0 -0.40899029868387748 0.17816132681263061 0 -0.39964572933726927 0.1658127038740157 0 -0.41859003933632799 0.18756328270531239 0 -0.41790813972401658 0.17869615883798909 0 -0.41372136822921629 0.18219701555963691 0 -0.41859003933632799 0.18756328270531239 0 -0.41372136822921629 0.18219701555963691 0 -0.41099263463062352 0.18637384164843529 0 -0.42024003516849961 0.18034122481249451 0 -0.41790813972401658 0.17869615883798909 0 -0.41577409451315922 0.1708144432557317 0 -0.42024003516849961 0.18034122481249451 0 -0.42070795721992071 0.1740838660428625 0 -0.41577409451315922 0.1708144432557317 0 -0.42024003516849961 0.18034122481249451 0 -0.41790813972401658 0.17869615883798909 0 -0.41790813972401658 0.17869615883798909 0 -0.40899029868387748 0.17816132681263061 0 -0.41372136822921629 0.18219701555963691 0 -0.40899029868387748 0.17816132681263061 0 -0.41099263463062352 0.18637384164843529 0 -0.4024885351780757 0.18382752679303049 0 -0.40899029868387748 0.17816132681263061 0 -0.41372136822921629 0.18219701555963691 0 -0.41099263463062352 0.18637384164843529 0 -0.41758513170981149 0.1622440087229981 0 -0.41577409451315922 0.1708144432557317 0 -0.39964572933726927 0.1658127038740157 0 -0.41080626195309677 0.14525564013191891 0 -0.41758513170981149 0.1622440087229981 0 -0.39964572933726927 0.1658127038740157 0 -0.41790813972401658 0.17869615883798909 0 -0.41577409451315922 0.1708144432557317 0 -0.39964572933726927 0.1658127038740157 0 -0.41758513170981149 0.1622440087229981 0 -0.42040376951847003 0.1699544083850455 0 -0.41577409451315922 0.1708144432557317 0 -0.42070795721992071 0.1740838660428625 0 -0.42040376951847003 0.1699544083850455 0 -0.41577409451315922 0.1708144432557317 0 -0.39964572933726927 0.1658127038740157 0 -0.38275241048226277 0.15389509234020179 0 -0.39661580255929668 0.15033844168910551 0 -0.39964572933726927 0.1658127038740157 0 -0.38275241048226277 0.15389509234020179 0 -0.3947557613862282 0.16996317189333471 0 -0.39964572933726927 0.1658127038740157 0 -0.38275241048226277 0.15389509234020179 0 -0.38719415278662511 0.18874779681735909 0 -0.3947557613862282 0.16996317189333471 0 -0.39964572933726927 0.1658127038740157 0 -0.38719415278662511 0.18874779681735909 0 -0.39964572933726927 0.1658127038740157 0 -0.40039961076224317 0.17755767164015809 0 -0.38719415278662511 0.18874779681735909 0 -0.39964572933726927 0.1658127038740157 0 -0.40899029868387748 0.17816132681263061 0 -0.4024885351780757 0.18382752679303049 0 -0.40039961076224317 0.17755767164015809 0 -0.40899029868387748 0.17816132681263061 0 -0.39964572933726927 0.1658127038740157 0 -0.40039961076224317 0.17755767164015809 0 -0.38719415278662511 0.18874779681735909 0 -0.4024885351780757 0.18382752679303049 0 -0.40039961076224317 0.17755767164015809 0 -0.38719415278662511 0.18874779681735909 0 -0.37612760145803559 0.1802799043805895 0 -0.3681190370094311 0.19167126270431301 0 -0.38719415278662511 0.18874779681735909 0 -0.3947557613862282 0.16996317189333471 0 -0.38422260719591173 0.17649748979617891 0 -0.38422260719591173 0.17649748979617891 0 -0.37612760145803559 0.1802799043805895 0 -0.37716430932286188 0.1673437900178312 0 -0.38719415278662511 0.18874779681735909 0 -0.38422260719591173 0.17649748979617891 0 -0.37612760145803559 0.1802799043805895 0 -0.3947557613862282 0.16996317189333471 0 -0.38275241048226277 0.15389509234020179 0 -0.36910197381700049 0.16300858163219531 0 -0.3947557613862282 0.16996317189333471 0 -0.37716430932286188 0.1673437900178312 0 -0.36910197381700049 0.16300858163219531 0 -0.3947557613862282 0.16996317189333471 0 -0.38422260719591173 0.17649748979617891 0 -0.37716430932286188 0.1673437900178312 0 -0.3947557613862282 0.16996317189333471 0 -0.36910197381700049 0.16300858163219531 0 -0.38275241048226277 0.15389509234020179 0 -0.39068111213260648 0.13298942647543019 0 -0.36585909162725883 0.14197748080638439 0 -0.38275241048226277 0.15389509234020179 0 -0.39661580255929668 0.15033844168910551 0 -0.39068111213260648 0.13298942647543019 0 -0.41080626195309677 0.14525564013191891 0 -0.39964572933726927 0.1658127038740157 0 -0.39661580255929668 0.15033844168910551 0 -0.41080626195309677 0.14525564013191891 0 -0.39964572933726927 0.1658127038740157 0 -0.41080626195309677 0.14525564013191891 0 -0.39661580255929668 0.15033844168910551 0 -0.39068111213260648 0.13298942647543019 0 -0.40588089222804308 0.1198978163492537 0 -0.41080626195309677 0.14525564013191891 0 -0.39068111213260648 0.13298942647543019 0 -0.39068111213260648 0.13298942647543019 0 -0.36585909162725883 0.14197748080638439 0 -0.37217080522118751 0.118431946984977 0 -0.34896577277225421 0.13005986927256771 0 -0.36585909162725883 0.14197748080638439 0 -0.37217080522118751 0.118431946984977 0 -0.34896577277225421 0.13005986927256771 0 -0.36585909162725883 0.14197748080638439 0 -0.34896577277225421 0.13005986927256771 0 -0.34889054564314792 0.14391595696578471 0 -0.36585909162725883 0.14197748080638439 0 -0.34889054564314792 0.14391595696578471 0 -0.35778387227632752 0.15112106930782679 0 -0.36585909162725883 0.14197748080638439 0 -0.34889054564314792 0.14391595696578471 0 -0.35778387227632752 0.15112106930782679 0 -0.34344818624777262 0.15605399137105591 0 -0.35778387227632752 0.15112106930782679 0 -0.36887433705071238 0.15250055602165211 0 -0.36910197381700049 0.16300858163219531 0 -0.38275241048226277 0.15389509234020179 0 -0.36585909162725883 0.14197748080638439 0 -0.38275241048226277 0.15389509234020179 0 -0.36585909162725883 0.14197748080638439 0 -0.36887433705071238 0.15250055602165211 0 -0.35778387227632752 0.15112106930782679 0 -0.36585909162725883 0.14197748080638439 0 -0.36887433705071238 0.15250055602165211 0 -0.38275241048226277 0.15389509234020179 0 -0.36887433705071238 0.15250055602165211 0 -0.36910197381700049 0.16300858163219531 0 -0.37716430932286188 0.1673437900178312 0 -0.35028250370551522 0.16713825488287551 0 -0.37716430932286188 0.1673437900178312 0 -0.36910197381700049 0.16300858163219531 0 -0.35028250370551522 0.16713825488287551 0 -0.37716430932286188 0.1673437900178312 0 -0.36393790097534862 0.17713918256726541 0 -0.35028250370551522 0.16713825488287551 0 -0.36393790097534862 0.17713918256726541 0 -0.35183122484660589 0.18314732906977679 0 -0.3681190370094311 0.19167126270431301 0 -0.37612760145803559 0.1802799043805895 0 -0.36393790097534862 0.17713918256726541 0 -0.3681190370094311 0.19167126270431301 0 -0.37612760145803559 0.1802799043805895 0 -0.37716430932286188 0.1673437900178312 0 -0.36393790097534862 0.17713918256726541 0 -0.35183122484660589 0.18314732906977679 0 -0.35028250370551522 0.16713825488287551 0 -0.33678631265348569 0.17914269013799999 0 -0.36393790097534862 0.17713918256726541 0 -0.35183122484660589 0.18314732906977679 0 -0.35028250370551522 0.16713825488287551 0 -0.35778387227632752 0.15112106930782679 0 -0.36910197381700049 0.16300858163219531 0 -0.34344818624777262 0.15605399137105591 0 -0.36910197381700049 0.16300858163219531 0 -0.34344818624777262 0.15605399137105591 0 -0.36910197381700049 0.16300858163219531 0 -0.35028250370551522 0.16713825488287551 0 -0.34344818624777262 0.15605399137105591 0 -0.35028250370551522 0.16713825488287551 0 -0.32340069808816863 0.1669327197479199 0 -0.34344818624777262 0.15605399137105591 0 -0.35028250370551522 0.16713825488287551 0 -0.33678631265348569 0.17914269013799999 0 -0.32340069808816863 0.1669327197479199 0 -0.32340069808816863 0.1669327197479199 0 -0.31779439867854481 0.14909940110991651 0 -0.34344818624777262 0.15605399137105591 0 -0.35028250370551522 0.16713825488287551 0 -0.32340069808816863 0.1669327197479199 0 -0.33678631265348569 0.17914269013799999 0 -0.32036548163212009 0.1865665898637584 0 -0.33805165499501871 0.1919285571256697 0 -0.35183122484660589 0.18314732906977679 0 -0.33678631265348569 0.17914269013799999 0 -0.33805165499501871 0.1919285571256697 0 -0.32036548163212009 0.1865665898637584 0 -0.32340069808816863 0.1669327197479199 0 -0.3099959944665025 0.17708157291763241 0 -0.33678631265348569 0.17914269013799999 0 -0.32036548163212009 0.1865665898637584 0 -0.32340069808816863 0.1669327197479199 0 -0.32340069808816863 0.1669327197479199 0 -0.31779439867854481 0.14909940110991651 0 -0.29651889247082192 0.16672718461296421 0 -0.31779439867854481 0.14909940110991651 0 -0.3283958052921262 0.14036737407108901 0 -0.31128452300996989 0.13478535905347419 0 -0.32409241696238578 0.1282243284703673 0 -0.3283958052921262 0.14036737407108901 0 -0.31128452300996989 0.13478535905347419 0 -0.32409241696238578 0.1282243284703673 0 -0.31128452300996989 0.13478535905347419 0 -0.3047589253534656 0.11699637217199101 0 -0.34896577277225421 0.13005986927256771 0 -0.34889054564314792 0.14391595696578471 0 -0.3283958052921262 0.14036737407108901 0 -0.34896577277225421 0.13005986927256771 0 -0.3283958052921262 0.14036737407108901 0 -0.34896577277225421 0.13005986927256771 0 -0.32409241696238578 0.1282243284703673 0 -0.3283958052921262 0.14036737407108901 0 -0.34896577277225421 0.13005986927256771 0 -0.32409241696238578 0.1282243284703673 0 -0.33236798906427889 0.1183507468525288 0 -0.31779439867854481 0.14909940110991651 0 -0.3283958052921262 0.14036737407108901 0 -0.34344818624777262 0.15605399137105591 0 -0.34889054564314792 0.14391595696578471 0 -0.3283958052921262 0.14036737407108901 0 -0.34344818624777262 0.15605399137105591 0 -0.31779439867854481 0.14909940110991651 0 -0.34344818624777262 0.15605399137105591 0 -0.36229099968533562 0.2346179827040453 0 -0.34983942313469119 0.25755307564738861 0 -0.36380550121956762 0.25457835451608068 0 -0.36229099968533562 0.2346179827040453 0 -0.34983942313469119 0.25755307564738861 0 -0.36229099968533562 0.2346179827040453 0 -0.34155941762940761 0.2386539100303619 0 -0.34983942313469119 0.25755307564738861 0 -0.38141007057668858 0.2472317058287731 0 -0.3708752485995836 0.243449034959526 0 -0.36380550121956762 0.25457835451608068 0 -0.3708752485995836 0.243449034959526 0 -0.36229099968533562 0.2346179827040453 0 -0.36380550121956762 0.25457835451608068 0 -0.37599442291674262 0.23736809678920459 0 -0.3708752485995836 0.243449034959526 0 -0.36229099968533562 0.2346179827040453 0 -0.38078072244082029 0.22551708184048971 0 -0.37599442291674262 0.23736809678920459 0 -0.36229099968533562 0.2346179827040453 0 -0.38078072244082029 0.22551708184048971 0 -0.36229099968533562 0.2346179827040453 0 -0.37474257623598028 0.21168288976070221 0 -0.36229099968533562 0.2346179827040453 0 -0.37474257623598028 0.21168288976070221 0 -0.36229099968533562 0.2346179827040453 0 -0.3548392273194193 0.21516258636733751 0 -0.37474257623598028 0.21168288976070221 0 -0.3548392273194193 0.21516258636733751 0 -0.33567876426868531 0.22458323104867381 0 -0.34155941762940761 0.2386539100303619 0 -0.36229099968533562 0.2346179827040453 0 -0.3548392273194193 0.21516258636733751 0 -0.34155941762940761 0.2386539100303619 0 -0.3548392273194193 0.21516258636733751 0 -0.34155941762940761 0.2386539100303619 0 -0.3548392273194193 0.21516258636733751 0 -0.35062064532320419 0.1979637257066458 0 -0.33388302514392559 0.21041738167920571 0 -0.3548392273194193 0.21516258636733751 0 -0.3681190370094311 0.19167126270431301 0 -0.3548392273194193 0.21516258636733751 0 -0.37474257623598028 0.21168288976070221 0 -0.3681190370094311 0.19167126270431301 0 -0.35183122484660589 0.18314732906977679 0 -0.3681190370094311 0.19167126270431301 0 -0.35062064532320419 0.1979637257066458 0 -0.3548392273194193 0.21516258636733751 0 -0.3681190370094311 0.19167126270431301 0 -0.35062064532320419 0.1979637257066458 0 -0.35183122484660589 0.18314732906977679 0 -0.35062064532320419 0.1979637257066458 0 -0.33805165499501871 0.1919285571256697 0 -0.32036548163212009 0.1865665898637584 0 -0.33805165499501871 0.1919285571256697 0 -0.32692442858838072 0.1984130660166637 0 -0.35062064532320419 0.1979637257066458 0 -0.33805165499501871 0.1919285571256697 0 -0.33388302514392559 0.21041738167920571 0 -0.33805165499501871 0.1919285571256697 0 -0.32692442858838072 0.1984130660166637 0 -0.33388302514392559 0.21041738167920571 0 -0.32036548163212009 0.1865665898637584 0 -0.32692442858838072 0.1984130660166637 0 -0.31539755258245861 0.20473973539802101 0 -0.32036548163212009 0.1865665898637584 0 -0.31539755258245861 0.20473973539802101 0 -0.30253063574390038 0.188639407313475 0 -0.32692442858838072 0.1984130660166637 0 -0.31539755258245861 0.20473973539802101 0 -0.33388302514392559 0.21041738167920571 0 -0.31539755258245861 0.20473973539802101 0 -0.32218703862891879 0.22265851297138961 0 -0.30825862676389221 0.218005432703199 0 -0.31539755258245861 0.20473973539802101 0 -0.33388302514392559 0.21041738167920571 0 -0.32218703862891879 0.22265851297138961 0 -0.3548392273194193 0.21516258636733751 0 -0.33388302514392559 0.21041738167920571 0 -0.33567876426868531 0.22458323104867381 0 -0.33567876426868531 0.22458323104867381 0 -0.325925112621755 0.2360237641950742 0 -0.34155941762940761 0.2386539100303619 0 -0.33388302514392559 0.21041738167920571 0 -0.33567876426868531 0.22458323104867381 0 -0.32218703862891879 0.22265851297138961 0 -0.32218703862891879 0.22265851297138961 0 -0.325925112621755 0.2360237641950742 0 -0.30948934980855591 0.23358467843829411 0 -0.32218703862891879 0.22265851297138961 0 -0.30948934980855591 0.23358467843829411 0 -0.30825862676389221 0.218005432703199 0 -0.33567876426868531 0.22458323104867381 0 -0.32218703862891879 0.22265851297138961 0 -0.325925112621755 0.2360237641950742 0 -0.325925112621755 0.2360237641950742 0 -0.31654435644928958 0.2479158947096568 0 -0.30948934980855591 0.23358467843829411 0 -0.325925112621755 0.2360237641950742 0 -0.31654435644928958 0.2479158947096568 0 -0.32738739414919932 0.2489738869006195 0 -0.32738739414919932 0.2489738869006195 0 -0.34155941762940761 0.2386539100303619 0 -0.32827960793939881 0.26214523369338821 0 -0.325925112621755 0.2360237641950742 0 -0.32738739414919932 0.2489738869006195 0 -0.34155941762940761 0.2386539100303619 0 -0.2946224234273595 0.23908703572138351 0 -0.28144365564641571 0.22900107813638351 0 -0.28087744969632139 0.24623394760884479 0 -0.2946224234273595 0.23908703572138351 0 -0.29255107776505129 0.24973396558157671 0 -0.28087744969632139 0.24623394760884479 0 -0.2946224234273595 0.23908703572138351 0 -0.29255107776505129 0.24973396558157671 0 -0.3038978427257164 0.246873702641489 0 -0.31654435644928958 0.2479158947096568 0 -0.3038978427257164 0.246873702641489 0 -0.30948934980855591 0.23358467843829411 0 -0.2946224234273595 0.23908703572138351 0 -0.3038978427257164 0.246873702641489 0 -0.30948934980855591 0.23358467843829411 0 -0.2946224234273595 0.23908703572138351 0 -0.30948934980855591 0.23358467843829411 0 -0.29527550599026381 0.222703488949828 0 -0.30948934980855591 0.23358467843829411 0 -0.29527550599026381 0.222703488949828 0 -0.30825862676389221 0.218005432703199 0 -0.2946224234273595 0.23908703572138351 0 -0.29527550599026381 0.222703488949828 0 -0.28144365564641571 0.22900107813638351 0 -0.29527550599026381 0.222703488949828 0 -0.28144365564641571 0.22900107813638351 0 -0.28342359561438552 0.2150962188704732 0 -0.29577847609045049 0.206029613117751 0 -0.28342359561438552 0.2150962188704732 0 -0.27891331640901629 0.20219730917282799 0 -0.29527550599026381 0.222703488949828 0 -0.29577847609045049 0.206029613117751 0 -0.28342359561438552 0.2150962188704732 0 -0.29527550599026381 0.222703488949828 0 -0.29577847609045049 0.206029613117751 0 -0.30825862676389221 0.218005432703199 0 -0.31539755258245861 0.20473973539802101 0 -0.29577847609045049 0.206029613117751 0 -0.30825862676389221 0.218005432703199 0 -0.31539755258245861 0.20473973539802101 0 -0.29577847609045049 0.206029613117751 0 -0.30253063574390038 0.188639407313475 0 -0.29577847609045049 0.206029613117751 0 -0.28730306509430592 0.19106164524968439 0 -0.27891331640901629 0.20219730917282799 0 -0.29577847609045049 0.206029613117751 0 -0.30253063574390038 0.188639407313475 0 -0.28730306509430592 0.19106164524968439 0 -0.28730306509430592 0.19106164524968439 0 -0.27149800441225702 0.19221566141863139 0 -0.27574573617610892 0.1813568119095699 0 -0.28730306509430592 0.19106164524968439 0 -0.27891331640901629 0.20219730917282799 0 -0.27149800441225702 0.19221566141863139 0 -0.27891331640901629 0.20219730917282799 0 -0.27149800441225702 0.19221566141863139 0 -0.26466307179992721 0.20156929267322971 0 -0.26016087680643513 0.1881178856179698 0 -0.26466307179992721 0.20156929267322971 0 -0.24938318762817241 0.19622904477118119 0 -0.27149800441225702 0.19221566141863139 0 -0.26016087680643513 0.1881178856179698 0 -0.26466307179992721 0.20156929267322971 0 -0.26016087680643513 0.1881178856179698 0 -0.24868285473123269 0.1826781688076492 0 -0.24938318762817241 0.19622904477118119 0 -0.26466307179992721 0.20156929267322971 0 -0.25107150586961069 0.20986902571991481 0 -0.24938318762817241 0.19622904477118119 0 -0.26466307179992721 0.20156929267322971 0 -0.25107150586961069 0.20986902571991481 0 -0.26833179286542469 0.2161511360757081 0 -0.25107150586961069 0.20986902571991481 0 -0.26833179286542469 0.2161511360757081 0 -0.25578594512282998 0.22294799939372439 0 -0.27891331640901629 0.20219730917282799 0 -0.26466307179992721 0.20156929267322971 0 -0.26833179286542469 0.2161511360757081 0 -0.28342359561438552 0.2150962188704732 0 -0.27891331640901629 0.20219730917282799 0 -0.26833179286542469 0.2161511360757081 0 -0.28144365564641571 0.22900107813638351 0 -0.26833179286542469 0.2161511360757081 0 -0.26744355074956089 0.23503540714213039 0 -0.28144365564641571 0.22900107813638351 0 -0.28342359561438552 0.2150962188704732 0 -0.26833179286542469 0.2161511360757081 0 -0.26833179286542469 0.2161511360757081 0 -0.25578594512282998 0.22294799939372439 0 -0.26744355074956089 0.23503540714213039 0 -0.25578594512282998 0.22294799939372439 0 -0.26744355074956089 0.23503540714213039 0 -0.2499838687859956 0.233595069417703 0 -0.26744355074956089 0.23503540714213039 0 -0.26551688184254191 0.25165200831637358 0 -0.24988911506187331 0.24815664401079651 0 -0.26744355074956089 0.23503540714213039 0 -0.24988911506187331 0.24815664401079651 0 -0.2499838687859956 0.233595069417703 0 -0.28144365564641571 0.22900107813638351 0 -0.26744355074956089 0.23503540714213039 0 -0.28087744969632139 0.24623394760884479 0 -0.26744355074956089 0.23503540714213039 0 -0.28087744969632139 0.24623394760884479 0 -0.26551688184254191 0.25165200831637358 0 -0.26744355074956089 0.23503540714213039 0 -0.26551688184254191 0.25165200831637358 0 -0.28325001138123368 0.15542459086240951 0 -0.28264826509479929 0.14430203555213111 0 -0.29737203990976191 0.14660984823684911 0 -0.28264826509479929 0.14430203555213111 0 -0.29185428699258942 0.12945122905881859 0 -0.29737203990976191 0.14660984823684911 0 -0.28264826509479929 0.14430203555213111 0 -0.29185428699258942 0.12945122905881859 0 -0.26931399955707369 0.13519905736772261 0 -0.29185428699258942 0.12945122905881859 0 -0.31128452300996989 0.13478535905347419 0 -0.3047589253534656 0.11699637217199101 0 -0.29185428699258942 0.12945122905881859 0 -0.31128452300996989 0.13478535905347419 0 -0.29737203990976191 0.14660984823684911 0 -0.31779439867854481 0.14909940110991651 0 -0.31128452300996989 0.13478535905347419 0 -0.29737203990976191 0.14660984823684911 0 -0.31779439867854481 0.14909940110991651 0 -0.29737203990976191 0.14660984823684911 0 -0.29651889247082192 0.16672718461296421 0 -0.32340069808816863 0.1669327197479199 0 -0.3099959944665025 0.17708157291763241 0 -0.29651889247082192 0.16672718461296421 0 -0.32340069808816863 0.1669327197479199 0 -0.29651889247082192 0.16672718461296421 0 -0.32036548163212009 0.1865665898637584 0 -0.30253063574390038 0.188639407313475 0 -0.3099959944665025 0.17708157291763241 0 -0.30253063574390038 0.188639407313475 0 -0.3099959944665025 0.17708157291763241 0 -0.29651889247082192 0.16672718461296421 0 -0.28730306509430592 0.19106164524968439 0 -0.29651889247082192 0.16672718461296421 0 -0.27574573617610892 0.1813568119095699 0 -0.30253063574390038 0.188639407313475 0 -0.28730306509430592 0.19106164524968439 0 -0.29651889247082192 0.16672718461296421 0 -0.29651889247082192 0.16672718461296421 0 -0.26963708685347543 0.1665216494780086 0 -0.28325001138123368 0.15542459086240951 0 -0.29737203990976191 0.14660984823684911 0 -0.29651889247082192 0.16672718461296421 0 -0.28325001138123368 0.15542459086240951 0 -0.29651889247082192 0.16672718461296421 0 -0.26963708685347543 0.1665216494780086 0 -0.28325001138123368 0.15542459086240951 0 -0.26963708685347543 0.1665216494780086 0 -0.27007377257731002 0.15296223643209439 0 -0.29651889247082192 0.16672718461296421 0 -0.26963708685347543 0.1665216494780086 0 -0.27574573617610892 0.1813568119095699 0 -0.26963708685347543 0.1665216494780086 0 -0.27574573617610892 0.1813568119095699 0 -0.25939636716067621 0.17699812603125009 0 -0.27149800441225702 0.19221566141863139 0 -0.26016087680643513 0.1881178856179698 0 -0.27574573617610892 0.1813568119095699 0 -0.26016087680643513 0.1881178856179698 0 -0.27574573617610892 0.1813568119095699 0 -0.25939636716067621 0.17699812603125009 0 -0.25939636716067621 0.17699812603125009 0 -0.2427552812361288 0.16631611434305291 0 -0.24868285473123269 0.1826781688076492 0 -0.26016087680643513 0.1881178856179698 0 -0.25939636716067621 0.17699812603125009 0 -0.24868285473123269 0.1826781688076492 0 -0.26963708685347543 0.1665216494780086 0 -0.25939636716067621 0.17699812603125009 0 -0.2427552812361288 0.16631611434305291 0 -0.26963708685347543 0.1665216494780086 0 -0.2427552812361288 0.16631611434305291 0 -0.26963708685347543 0.1665216494780086 0 -0.2532962385335254 0.15580392097934451 0 -0.2427552812361288 0.16631611434305291 0 -0.26963708685347543 0.1665216494780086 0 -0.2532962385335254 0.15580392097934451 0 -0.27007377257731002 0.15296223643209439 0 -0.25145984318810399 0.1426675112836224 0 -0.27007377257731002 0.15296223643209439 0 -0.2532962385335254 0.15580392097934451 0 -0.25145984318810399 0.1426675112836224 0 -0.27007377257731002 0.15296223643209439 0 -0.25145984318810399 0.1426675112836224 0 -0.27007377257731002 0.15296223643209439 0 -0.26931399955707369 0.13519905736772261 0 -0.28264826509479929 0.14430203555213111 0 -0.27007377257731002 0.15296223643209439 0 -0.26931399955707369 0.13519905736772261 0 -0.28325001138123368 0.15542459086240951 0 -0.28264826509479929 0.14430203555213111 0 -0.27007377257731002 0.15296223643209439 0 -0.29185428699258942 0.12945122905881859 0 -0.26931399955707369 0.13519905736772261 0 -0.27082223667863031 0.11861841282719909 0 -0.26931399955707369 0.13519905736772261 0 -0.27082223667863031 0.11861841282719909 0 -0.24952094603642541 0.12518684568385141 0 -0.25145984318810399 0.1426675112836224 0 -0.26931399955707369 0.13519905736772261 0 -0.24952094603642541 0.12518684568385141 0 -0.27082223667863031 0.11861841282719909 0 -0.24979018636467101 0.10778559659557969 0 -0.27082223667863031 0.11861841282719909 0 -0.24979018636467101 0.10778559659557969 0 -0.24952094603642541 0.12518684568385141 0 -0.26179324564684969 0.098182874988434421 0 -0.2471049901110669 0.091530476922023402 0 -0.24979018636467101 0.10778559659557969 0 -0.26179324564684969 0.098182874988434421 0 -0.27082223667863031 0.11861841282719909 0 -0.24979018636467101 0.10778559659557969 0 -0.26179324564684969 0.098182874988434421 0 -0.27553590457777283 0.099479074186712604 0 -0.27082223667863031 0.11861841282719909 0 -0.27553590457777283 0.099479074186712604 0 -0.27082223667863031 0.11861841282719909 0 -0.28835149190534132 0.1087468409713708 0 -0.29185428699258942 0.12945122905881859 0 -0.27082223667863031 0.11861841282719909 0 -0.29185428699258942 0.12945122905881859 0 -0.27082223667863031 0.11861841282719909 0 -0.28835149190534132 0.1087468409713708 0 -0.29185428699258942 0.12945122905881859 0 -0.28835149190534132 0.1087468409713708 0 -0.3047589253534656 0.11699637217199101 0 -0.28835149190534132 0.1087468409713708 0 -0.29917242164832741 0.094932502012452666 0 -0.28455097583098471 0.093033985740616748 0 -0.27553590457777283 0.099479074186712604 0 -0.28835149190534132 0.1087468409713708 0 -0.28455097583098471 0.093033985740616748 0 -0.29917242164832741 0.094932502012452666 0 -0.31114757501489598 0.089914891197341168 0 -0.31577020535630318 0.1066416244324908 0 -0.29917242164832741 0.094932502012452666 0 -0.3047589253534656 0.11699637217199101 0 -0.31577020535630318 0.1066416244324908 0 -0.29917242164832741 0.094932502012452666 0 -0.31577020535630318 0.1066416244324908 0 -0.28835149190534132 0.1087468409713708 0 -0.29917242164832741 0.094932502012452666 0 -0.3047589253534656 0.11699637217199101 0 -0.3035240377340705 0.080622936558001457 0 -0.29281459756144201 0.082717217997983428 0 -0.29514485572539778 0.066462080758989725 0 -0.3035240377340705 0.080622936558001457 0 -0.31165778002099381 0.055436150724829047 0 -0.32076591549550809 0.075525573901493642 0 -0.3035240377340705 0.080622936558001457 0 -0.29514485572539778 0.066462080758989725 0 -0.31165778002099381 0.055436150724829047 0 -0.3035240377340705 0.080622936558001457 0 -0.31165778002099381 0.055436150724829047 0 -0.31114757501489598 0.089914891197341168 0 -0.3035240377340705 0.080622936558001457 0 -0.32076591549550809 0.075525573901493642 0 -0.29917242164832741 0.094932502012452666 0 -0.3035240377340705 0.080622936558001457 0 -0.29281459756144201 0.082717217997983428 0 -0.29917242164832741 0.094932502012452666 0 -0.31114757501489598 0.089914891197341168 0 -0.3035240377340705 0.080622936558001457 0 -0.29281459756144201 0.082717217997983428 0 -0.28455097583098471 0.093033985740616748 0 -0.26688046346204009 0.079294293534564173 0 -0.29917242164832741 0.094932502012452666 0 -0.29281459756144201 0.082717217997983428 0 -0.28455097583098471 0.093033985740616748 0 -0.29281459756144201 0.082717217997983428 0 -0.29514485572539778 0.066462080758989725 0 -0.28142271997816237 0.06837997184546947 0 -0.29514485572539778 0.066462080758989725 0 -0.28142271997816237 0.06837997184546947 0 -0.28396685371849051 0.055185051298901798 0 -0.29281459756144201 0.082717217997983428 0 -0.28142271997816237 0.06837997184546947 0 -0.26688046346204009 0.079294293534564173 0 -0.28142271997816237 0.06837997184546947 0 -0.26688046346204009 0.079294293534564173 0 -0.26830682942344131 0.058241215636908213 0 -0.26179324564684969 0.098182874988434421 0 -0.27553590457777283 0.099479074186712604 0 -0.26688046346204009 0.079294293534564173 0 -0.29281459756144201 0.082717217997983428 0 -0.26688046346204009 0.079294293534564173 0 -0.27553590457777283 0.099479074186712604 0 -0.28455097583098471 0.093033985740616748 0 -0.26688046346204009 0.079294293534564173 0 -0.26179324564684969 0.098182874988434421 0 -0.26688046346204009 0.079294293534564173 0 -0.2471049901110669 0.091530476922023402 0 -0.26688046346204009 0.079294293534564173 0 -0.24094632936263821 0.0758713690711455 0 -0.2471049901110669 0.091530476922023402 0 -0.26688046346204009 0.079294293534564173 0 -0.25038385702961918 0.05954766979570042 0 -0.26830682942344131 0.058241215636908213 0 -0.26688046346204009 0.079294293534564173 0 -0.25038385702961918 0.05954766979570042 0 -0.24094632936263821 0.0758713690711455 0 -0.26688046346204009 0.079294293534564173 0 -0.24094632936263821 0.0758713690711455 0 -0.25038385702961918 0.05954766979570042 0 -0.25982138469659882 0.043223970520254597 0 -0.24196684736867291 0.049358387191694622 0 -0.25038385702961918 0.05954766979570042 0 -0.25982138469659882 0.043223970520254597 0 -0.26830682942344131 0.058241215636908213 0 -0.25038385702961918 0.05954766979570042 0 -0.25982138469659882 0.043223970520254597 0 -0.25982138469659882 0.043223970520254597 0 -0.26291621341345311 0.023431804120376602 0 -0.23682600879185761 0.03381415761059544 0 -0.25982138469659882 0.043223970520254597 0 -0.27892524606826519 0.037608928775446152 0 -0.26291621341345311 0.023431804120376602 0 -0.25982138469659882 0.043223970520254597 0 -0.27892524606826519 0.037608928775446152 0 -0.26830682942344131 0.058241215636908213 0 -0.28142271997816237 0.06837997184546947 0 -0.26830682942344131 0.058241215636908213 0 -0.28396685371849051 0.055185051298901798 0 -0.27892524606826519 0.037608928775446152 0 -0.26830682942344131 0.058241215636908213 0 -0.28396685371849051 0.055185051298901798 0 -0.26291621341345311 0.023431804120376602 0 -0.26643872466142487 0.0076553899482403476 0 -0.24461315722809429 0.014085251873885171 0 -0.26194834628238939 -0.0087506539970179705 0 -0.26643872466142487 0.0076553899482403476 0 -0.24461315722809429 0.014085251873885171 0 -0.27892524606826519 0.037608928775446152 0 -0.26291621341345311 0.023431804120376602 0 -0.28286874552388153 0.01437264227600925 0 -0.27984716085930611 -0.0048620945320513118 0 -0.26643872466142487 0.0076553899482403476 0 -0.28286874552388153 0.01437264227600925 0 -0.26291621341345311 0.023431804120376602 0 -0.26643872466142487 0.0076553899482403476 0 -0.28286874552388153 0.01437264227600925 0 -0.28286874552388153 0.01437264227600925 0 -0.29955377817124901 0.025954151980298538 0 -0.30389146441745191 0.003422881365441121 0 -0.27984716085930611 -0.0048620945320513118 0 -0.28286874552388153 0.01437264227600925 0 -0.30389146441745191 0.003422881365441121 0 -0.27892524606826519 0.037608928775446152 0 -0.28286874552388153 0.01437264227600925 0 -0.29955377817124901 0.025954151980298538 0 -0.29955377817124901 0.025954151980298538 0 -0.30389146441745191 0.003422881365441121 0 -0.31979152230791708 0.030249364891656451 0 -0.29514485572539778 0.066462080758989725 0 -0.28396685371849051 0.055185051298901798 0 -0.29637534384141279 0.04373266052349279 0 -0.27892524606826519 0.037608928775446152 0 -0.29955377817124901 0.025954151980298538 0 -0.29637534384141279 0.04373266052349279 0 -0.27892524606826519 0.037608928775446152 0 -0.28396685371849051 0.055185051298901798 0 -0.29637534384141279 0.04373266052349279 0 -0.29955377817124901 0.025954151980298538 0 -0.29637534384141279 0.04373266052349279 0 -0.31979152230791708 0.030249364891656451 0 -0.29637534384141279 0.04373266052349279 0 -0.31165778002099381 0.055436150724829047 0 -0.31979152230791708 0.030249364891656451 0 -0.29514485572539778 0.066462080758989725 0 -0.29637534384141279 0.04373266052349279 0 -0.31165778002099381 0.055436150724829047 0 -0.31165778002099381 0.055436150724829047 0 -0.33784205693272579 0.05636860320984706 0 -0.32076591549550809 0.075525573901493642 0 -0.31165778002099381 0.055436150724829047 0 -0.31979152230791708 0.030249364891656451 0 -0.31165778002099381 0.055436150724829047 0 -0.33577975891526213 0.038750737765527649 0 -0.31979152230791708 0.030249364891656451 0 -0.33577975891526213 0.038750737765527649 0 -0.33881477360901768 0.019666472159919859 0 -0.35091897771360647 0.035912138817486422 0 -0.33577975891526213 0.038750737765527649 0 -0.33784205693272579 0.05636860320984706 0 -0.35091897771360647 0.035912138817486422 0 -0.31165778002099381 0.055436150724829047 0 -0.33577975891526213 0.038750737765527649 0 -0.33784205693272579 0.05636860320984706 0 -0.30389146441745191 0.003422881365441121 0 -0.32792526459484039 0.0050625790584838473 0 -0.31979152230791708 0.030249364891656451 0 -0.32792526459484039 0.0050625790584838473 0 -0.31979152230791708 0.030249364891656451 0 -0.32792526459484039 0.0050625790584838473 0 -0.31979152230791708 0.030249364891656451 0 -0.33881477360901768 0.019666472159919859 0 -0.33577975891526213 0.038750737765527649 0 -0.31979152230791708 0.030249364891656451 0 -0.33881477360901768 0.019666472159919859 0 -0.34090183410784741 -0.0071455968080933463 0 -0.32792526459484039 0.0050625790584838473 0 -0.33881477360901768 0.019666472159919859 0 -0.34090183410784741 -0.0071455968080933463 0 -0.33881477360901768 0.019666472159919859 0 -0.35757128401463251 0.01516960923445815 0 -0.35839857858877161 -0.0030102616015873639 0 -0.34090183410784741 -0.0071455968080933463 0 -0.35757128401463251 0.01516960923445815 0 -0.33881477360901768 0.019666472159919859 0 -0.35757128401463251 0.01516960923445815 0 -0.35091897771360647 0.035912138817486422 0 -0.35757128401463251 0.01516960923445815 0 -0.35091897771360647 0.035912138817486422 0 -0.37254868302209138 0.034023064201671588 0 -0.37774326361595939 0.01532520211453518 0 -0.35757128401463251 0.01516960923445815 0 -0.37254868302209138 0.034023064201671588 0 -0.37774326361595939 0.01532520211453518 0 -0.35757128401463251 0.01516960923445815 0 -0.36999057855767942 0.0012933232693263469 0 -0.35839857858877161 -0.0030102616015873639 0 -0.35757128401463251 0.01516960923445815 0 -0.36999057855767942 0.0012933232693263469 0 -0.33784205693272579 0.05636860320984706 0 -0.35959356277606819 0.051576477787332438 0 -0.35251523853328459 0.066507447038834197 0 -0.33784205693272579 0.05636860320984706 0 -0.35091897771360647 0.035912138817486422 0 -0.35959356277606819 0.051576477787332438 0 -0.3768751785522711 0.053918867385151177 0 -0.37254868302209138 0.034023064201671588 0 -0.35959356277606819 0.051576477787332438 0 -0.35091897771360647 0.035912138817486422 0 -0.37254868302209138 0.034023064201671588 0 -0.35959356277606819 0.051576477787332438 0 -0.3768751785522711 0.053918867385151177 0 -0.35959356277606819 0.051576477787332438 0 -0.36646139999105509 0.06430410115453776 0 -0.35959356277606819 0.051576477787332438 0 -0.36646139999105509 0.06430410115453776 0 -0.35251523853328459 0.066507447038834197 0 -0.36646139999105509 0.06430410115453776 0 -0.35251523853328459 0.066507447038834197 0 -0.36062995788131053 0.082269044733446484 0 -0.38249206361461952 0.071349434120778196 0 -0.36646139999105509 0.06430410115453776 0 -0.36062995788131053 0.082269044733446484 0 -0.35251523853328459 0.066507447038834197 0 -0.36062995788131053 0.082269044733446484 0 -0.33855787180178171 0.080531646300501858 0 -0.36062995788131053 0.082269044733446484 0 -0.35278013166323702 0.1008904841133844 0 -0.33855787180178171 0.080531646300501858 0 -0.37820170436075268 0.088408958301826171 0 -0.38249206361461952 0.071349434120778196 0 -0.36062995788131053 0.082269044733446484 0 -0.37820170436075268 0.088408958301826171 0 -0.36062995788131053 0.082269044733446484 0 -0.36890043599682071 0.10215778224249041 0 -0.36062995788131053 0.082269044733446484 0 -0.36890043599682071 0.10215778224249041 0 -0.35278013166323702 0.1008904841133844 0 -0.36890043599682071 0.10215778224249041 0 -0.37217080522118751 0.118431946984977 0 -0.35278013166323702 0.1008904841133844 0 -0.34896577277225421 0.13005986927256771 0 -0.37217080522118751 0.118431946984977 0 -0.34896577277225421 0.13005986927256771 0 -0.37217080522118751 0.118431946984977 0 -0.34714815846469049 0.11505052283872221 0 -0.37217080522118751 0.118431946984977 0 -0.34714815846469049 0.11505052283872221 0 -0.35278013166323702 0.1008904841133844 0 -0.34714815846469049 0.11505052283872221 0 -0.35278013166323702 0.1008904841133844 0 -0.33449485746535362 0.1008385868341858 0 -0.35278013166323702 0.1008904841133844 0 -0.33449485746535362 0.1008385868341858 0 -0.33855787180178171 0.080531646300501858 0 -0.34896577277225421 0.13005986927256771 0 -0.33236798906427889 0.1183507468525288 0 -0.34714815846469049 0.11505052283872221 0 -0.33449485746535362 0.1008385868341858 0 -0.33236798906427889 0.1183507468525288 0 -0.34896577277225421 0.13005986927256771 0 -0.34714815846469049 0.11505052283872221 0 -0.33236798906427889 0.1183507468525288 0 -0.33236798906427889 0.1183507468525288 0 -0.31577020535630318 0.1066416244324908 0 -0.32409241696238578 0.1282243284703673 0 -0.33236798906427889 0.1183507468525288 0 -0.31577020535630318 0.1066416244324908 0 -0.32409241696238578 0.1282243284703673 0 -0.3047589253534656 0.11699637217199101 0 -0.31577020535630318 0.1066416244324908 0 -0.33449485746535362 0.1008385868341858 0 -0.33236798906427889 0.1183507468525288 0 -0.31577020535630318 0.1066416244324908 0 -0.33449485746535362 0.1008385868341858 0 -0.31577020535630318 0.1066416244324908 0 -0.32327692847603151 0.089865372349013428 0 -0.31114757501489598 0.089914891197341168 0 -0.31577020535630318 0.1066416244324908 0 -0.32327692847603151 0.089865372349013428 0 -0.32327692847603151 0.089865372349013428 0 -0.32076591549550809 0.075525573901493642 0 -0.33855787180178171 0.080531646300501858 0 -0.31114757501489598 0.089914891197341168 0 -0.32327692847603151 0.089865372349013428 0 -0.32076591549550809 0.075525573901493642 0 -0.33784205693272579 0.05636860320984706 0 -0.35251523853328459 0.066507447038834197 0 -0.33855787180178171 0.080531646300501858 0 -0.33784205693272579 0.05636860320984706 0 -0.32076591549550809 0.075525573901493642 0 -0.33855787180178171 0.080531646300501858 0 -0.33449485746535362 0.1008385868341858 0 -0.32327692847603151 0.089865372349013428 0 -0.33855787180178171 0.080531646300501858 0 -0.4034487011042992 0.47140142335445678 0 -0.38684674092188659 0.48397708869458739 0 -0.38468950108231609 0.46920221161444697 0 -0.4034487011042992 0.47140142335445678 0 -0.3977378418510632 0.49999999999999939 0 -0.4034487011042992 0.47140142335445678 0 -0.3977378418510632 0.49999999999999939 0 -0.38684674092188659 0.48397708869458739 0 -0.38161609078386749 0.49999999999999928 0 -0.38684674092188659 0.48397708869458739 0 -0.36674156978788708 0.47928180850403279 0 -0.3977378418510632 0.49999999999999939 0 -0.38161609078386749 0.49999999999999928 0 -0.38684674092188659 0.48397708869458739 0 -0.38684674092188659 0.48397708869458739 0 -0.38468950108231609 0.46920221161444697 0 -0.36674156978788708 0.47928180850403279 0 -0.38468950108231609 0.46920221161444697 0 -0.38107517470086177 0.45066358268589651 0 -0.39427228173685758 0.45414330174030421 0 -0.38468950108231609 0.46920221161444697 0 -0.38107517470086177 0.45066358268589651 0 -0.37142346701765427 0.46187373966637019 0 -0.38107517470086177 0.45066358268589651 0 -0.39298847143927562 0.43664644433780619 0 -0.37297018729276687 0.43537063729066672 0 -0.38107517470086177 0.45066358268589651 0 -0.39427228173685758 0.45414330174030421 0 -0.39298847143927562 0.43664644433780619 0 -0.39427228173685758 0.45414330174030421 0 -0.40915956035753542 0.44280284670891418 0 -0.39298847143927562 0.43664644433780619 0 -0.4034487011042992 0.47140142335445678 0 -0.38468950108231609 0.46920221161444697 0 -0.39427228173685758 0.45414330174030421 0 -0.4034487011042992 0.47140142335445678 0 -0.39427228173685758 0.45414330174030421 0 -0.40915956035753542 0.44280284670891418 0 -0.4034487011042992 0.47140142335445678 0 -0.40915956035753542 0.44280284670891418 0 -0.4034487011042992 0.47140142335445678 0 -0.42167740685347871 0.46221579761217418 0 -0.40915956035753542 0.44280284670891418 0 -0.42167740685347871 0.46221579761217418 0 -0.42023705572352338 0.4349275843354134 0 -0.42167740685347871 0.46221579761217418 0 -0.40915956035753542 0.44280284670891418 0 -0.42023705572352338 0.4349275843354134 0 -0.42782722914592369 0.4500010388088746 0 -0.44261378299593712 0.44895378419207838 0 -0.4386202922140785 0.42684832688347091 0 -0.42167740685347871 0.46221579761217418 0 -0.42782722914592369 0.4500010388088746 0 -0.42023705572352338 0.4349275843354134 0 -0.42782722914592369 0.4500010388088746 0 -0.4386202922140785 0.42684832688347091 0 -0.42167740685347871 0.46221579761217418 0 -0.42782722914592369 0.4500010388088746 0 -0.43491950662228218 0.46098386264780777 0 -0.42782722914592369 0.4500010388088746 0 -0.43491950662228218 0.46098386264780777 0 -0.44261378299593712 0.44895378419207838 0 -0.42167740685347871 0.46221579761217418 0 -0.43491950662228218 0.46098386264780777 0 -0.43609559303451889 0.47594729220060561 0 -0.3977378418510632 0.49999999999999939 0 -0.42311775798343387 0.48950401088893503 0 -0.45686344652199468 0.5 0 -0.42167740685347871 0.46221579761217418 0 -0.42311775798343387 0.48950401088893503 0 -0.42167740685347871 0.46221579761217418 0 -0.43609559303451889 0.47594729220060561 0 -0.42311775798343387 0.48950401088893503 0 -0.4034487011042992 0.47140142335445678 0 -0.42167740685347871 0.46221579761217418 0 -0.42311775798343387 0.48950401088893503 0 -0.4034487011042992 0.47140142335445678 0 -0.3977378418510632 0.49999999999999939 0 -0.42311775798343387 0.48950401088893503 0 -0.45686344652199468 0.5 0 -0.47603455483254381 0.48239994626210692 0 -0.4530740693552941 0.46819171040541818 0 -0.43609559303451889 0.47594729220060561 0 -0.45686344652199468 0.5 0 -0.4530740693552941 0.46819171040541818 0 -0.43609559303451889 0.47594729220060561 0 -0.42311775798343387 0.48950401088893503 0 -0.45686344652199468 0.5 0 -0.47603455483254381 0.48239994626210692 0 -0.47581816175698788 0.46289287373874027 0 -0.4530740693552941 0.46819171040541818 0 -0.45686344652199468 0.5 0 -0.47603455483254381 0.48239994626210692 0 -0.5 0.5 0 -0.49441709652844218 0.48091514716637551 0 -0.5 0.5 0 -0.5 0.44905332955490468 0 -0.47603455483254381 0.48239994626210692 0 -0.49441709652844218 0.48091514716637551 0 -0.47581816175698788 0.46289287373874027 0 -0.49441709652844218 0.48091514716637551 0 -0.47581816175698788 0.46289287373874027 0 -0.47603455483254381 0.48239994626210692 0 -0.49441709652844218 0.48091514716637551 0 -0.5 0.5 0 -0.49441709652844218 0.48091514716637551 0 -0.5 0.44905332955490468 0 -0.47581816175698788 0.46289287373874027 0 -0.47581816175698788 0.46289287373874027 0 -0.45721922698553352 0.4448706003111052 0 -0.47426074095374943 0.437133385882015 0 -0.5 0.44905332955490468 0 -0.47581816175698788 0.46289287373874027 0 -0.47426074095374943 0.437133385882015 0 -0.47581816175698788 0.46289287373874027 0 -0.45721922698553352 0.4448706003111052 0 -0.47581816175698788 0.46289287373874027 0 -0.45721922698553352 0.4448706003111052 0 -0.4530740693552941 0.46819171040541818 0 -0.45721922698553352 0.4448706003111052 0 -0.4530740693552941 0.46819171040541818 0 -0.44261378299593712 0.44895378419207838 0 -0.43491950662228218 0.46098386264780777 0 -0.43609559303451889 0.47594729220060561 0 -0.4530740693552941 0.46819171040541818 0 -0.43491950662228218 0.46098386264780777 0 -0.4530740693552941 0.46819171040541818 0 -0.44261378299593712 0.44895378419207838 0 -0.45721922698553352 0.4448706003111052 0 -0.44261378299593712 0.44895378419207838 0 -0.4386202922140785 0.42684832688347091 0 -0.45721922698553352 0.4448706003111052 0 -0.4386202922140785 0.42684832688347091 0 -0.45721922698553352 0.4448706003111052 0 -0.4386202922140785 0.42684832688347091 0 -0.45758915066205258 0.42586206383852021 0 -0.4386202922140785 0.42684832688347091 0 -0.45109994926154362 0.40007762215179088 0 -0.43653665637723083 0.41172447196790002 0 -0.4386202922140785 0.42684832688347091 0 -0.45109994926154362 0.40007762215179088 0 -0.4386202922140785 0.42684832688347091 0 -0.45758915066205258 0.42586206383852021 0 -0.45109994926154362 0.40007762215179088 0 -0.45758915066205258 0.42586206383852021 0 -0.47148741649385589 0.4152222922068628 0 -0.45109994926154362 0.40007762215179088 0 -0.45721922698553352 0.4448706003111052 0 -0.45758915066205258 0.42586206383852021 0 -0.47426074095374943 0.437133385882015 0 -0.45758915066205258 0.42586206383852021 0 -0.47426074095374943 0.437133385882015 0 -0.47148741649385589 0.4152222922068628 0 -0.5 0.44905332955490468 0 -0.5 0.41070892636433171 0 -0.49613925751160509 0.4205125305265478 0 -0.47426074095374943 0.437133385882015 0 -0.48378423648781271 0.42453611427389998 0 -0.47148741649385589 0.4152222922068628 0 -0.47148741649385589 0.4152222922068628 0 -0.48538123661705801 0.41164094613783081 0 -0.47288364323605669 0.39309184854776041 0 -0.48378423648781271 0.42453611427389998 0 -0.47148741649385589 0.4152222922068628 0 -0.48538123661705801 0.41164094613783081 0 -0.48378423648781271 0.42453611427389998 0 -0.48538123661705801 0.41164094613783081 0 -0.49613925751160509 0.4205125305265478 0 -0.48538123661705801 0.41164094613783081 0 -0.49613925751160509 0.4205125305265478 0 -0.49173327903430331 0.39922758316629281 0 -0.5 0.41070892636433171 0 -0.49613925751160509 0.4205125305265478 0 -0.49173327903430331 0.39922758316629281 0 -0.49613925751160509 0.4205125305265478 0 -0.49173327903430331 0.39922758316629281 0 -0.5 0.44905332955490468 0 -0.48378423648781271 0.42453611427389998 0 -0.49613925751160509 0.4205125305265478 0 -0.5 0.44905332955490468 0 -0.47426074095374943 0.437133385882015 0 -0.48378423648781271 0.42453611427389998 0 -0.48732730055700141 0.37794263580603782 0 -0.50000000000000133 0.38184858690791662 0 -0.49173327903430331 0.39922758316629281 0 -0.48732730055700141 0.37794263580603782 0 -0.49173327903430331 0.39922758316629281 0 -0.48732730055700141 0.37794263580603782 0 -0.49173327903430331 0.39922758316629281 0 -0.48224235325700737 0.38762017275673932 0 -0.48732730055700141 0.37794263580603782 0 -0.50000000000000133 0.38184858690791662 0 -0.4914606610398512 0.3692531376768492 0 -0.50000000000000133 0.38184858690791662 0 -0.4914606610398512 0.3692531376768492 0 -0.5 0.41070892636433171 0 -0.50000000000000133 0.38184858690791662 0 -0.49173327903430331 0.39922758316629281 0 -0.48538123661705801 0.41164094613783081 0 -0.49173327903430331 0.39922758316629281 0 -0.47288364323605669 0.39309184854776041 0 -0.49173327903430331 0.39922758316629281 0 -0.47288364323605669 0.39309184854776041 0 -0.48224235325700737 0.38762017275673932 0 -0.47288364323605669 0.39309184854776041 0 -0.47702519020066853 0.3802186235068663 0 -0.46357960630901163 0.37330691742011229 0 -0.47288364323605669 0.39309184854776041 0 -0.48224235325700737 0.38762017275673932 0 -0.47702519020066853 0.3802186235068663 0 -0.48732730055700141 0.37794263580603782 0 -0.48224235325700737 0.38762017275673932 0 -0.47702519020066853 0.3802186235068663 0 -0.48732730055700141 0.37794263580603782 0 -0.47702519020066853 0.3802186235068663 0 -0.47714328929046701 0.36706160480103789 0 -0.45109994926154362 0.40007762215179088 0 -0.44583462798347517 0.386889507008848 0 -0.46357960630901163 0.37330691742011229 0 -0.47288364323605669 0.39309184854776041 0 -0.45109994926154362 0.40007762215179088 0 -0.46357960630901163 0.37330691742011229 0 -0.45109994926154362 0.40007762215179088 0 -0.46357960630901163 0.37330691742011229 0 -0.47148741649385589 0.4152222922068628 0 -0.47288364323605669 0.39309184854776041 0 -0.45109994926154362 0.40007762215179088 0 -0.45109994926154362 0.40007762215179088 0 -0.44163992491030202 0.39241597567988062 0 -0.44583462798347517 0.386889507008848 0 -0.45109994926154362 0.40007762215179088 0 -0.44163992491030202 0.39241597567988062 0 -0.44006459569090373 0.3984487501478603 0 -0.44163992491030202 0.39241597567988062 0 -0.44006459569090373 0.3984487501478603 0 -0.43304658811707442 0.38937281151874942 0 -0.45109994926154362 0.40007762215179088 0 -0.44006459569090373 0.3984487501478603 0 -0.43653665637723083 0.41172447196790002 0 -0.44583462798347517 0.386889507008848 0 -0.44516946898811433 0.37619516330958291 0 -0.46357960630901163 0.37330691742011229 0 -0.44163992491030202 0.39241597567988062 0 -0.43854113210220252 0.38695125647010598 0 -0.43304658811707442 0.38937281151874942 0 -0.44163992491030202 0.39241597567988062 0 -0.44583462798347517 0.386889507008848 0 -0.43854113210220252 0.38695125647010598 0 -0.44583462798347517 0.386889507008848 0 -0.43854113210220252 0.38695125647010598 0 -0.43895307411747569 0.38097761057452473 0 -0.43854113210220252 0.38695125647010598 0 -0.43895307411747569 0.38097761057452473 0 -0.43587985576976529 0.38380925139324679 0 -0.44583462798347517 0.386889507008848 0 -0.43895307411747569 0.38097761057452473 0 -0.44516946898811433 0.37619516330958291 0 -0.43895307411747569 0.38097761057452473 0 -0.44516946898811433 0.37619516330958291 0 -0.43757587290237981 0.3731339631825259 0 -0.43304658811707442 0.38937281151874942 0 -0.42879452850557059 0.37858843722560398 0 -0.42955651985691801 0.36702115106959898 0 -0.43304658811707442 0.38937281151874942 0 -0.42955651985691801 0.36702115106959898 0 -0.43297862874230891 0.37793532700960719 0 -0.43304658811707442 0.38937281151874942 0 -0.42955651985691801 0.36702115106959898 0 -0.43895307411747569 0.38097761057452473 0 -0.43297862874230891 0.37793532700960719 0 -0.43757587290237981 0.3731339631825259 0 -0.43895307411747569 0.38097761057452473 0 -0.43297862874230891 0.37793532700960719 0 -0.43587985576976529 0.38380925139324679 0 -0.43297862874230891 0.37793532700960719 0 -0.43587985576976529 0.38380925139324679 0 -0.43304658811707442 0.38937281151874942 0 -0.43304658811707442 0.38937281151874942 0 -0.42803797951741102 0.38503817159307008 0 -0.42879452850557059 0.37858843722560398 0 -0.43854113210220252 0.38695125647010598 0 -0.43587985576976529 0.38380925139324679 0 -0.43304658811707442 0.38937281151874942 0 -0.43304658811707442 0.38937281151874942 0 -0.42803797951741102 0.38503817159307008 0 -0.4304933139047693 0.39098472572220988 0 -0.42803797951741102 0.38503817159307008 0 -0.42409768156807898 0.38153503357697172 0 -0.41765419951743271 0.38599400866123812 0 -0.42803797951741102 0.38503817159307008 0 -0.41765419951743271 0.38599400866123812 0 -0.4304933139047693 0.39098472572220988 0 -0.41765419951743271 0.38599400866123812 0 -0.4304933139047693 0.39098472572220988 0 -0.42879452850557059 0.37858843722560398 0 -0.42594595165729982 0.3759996255907625 0 -0.42409768156807898 0.38153503357697172 0 -0.42879452850557059 0.37858843722560398 0 -0.42594595165729982 0.3759996255907625 0 -0.4276880210416365 0.3726495588483647 0 -0.42803797951741102 0.38503817159307008 0 -0.42879452850557059 0.37858843722560398 0 -0.42409768156807898 0.38153503357697172 0 -0.42594595165729982 0.3759996255907625 0 -0.42409768156807898 0.38153503357697172 0 -0.42233472752324608 0.37627815291940292 0 -0.42409768156807898 0.38153503357697172 0 -0.42233472752324608 0.37627815291940292 0 -0.41765419951743271 0.38599400866123812 0 -0.41765419951743271 0.38599400866123812 0 -0.41691907090230268 0.37206660858617302 0 -0.42233472752324608 0.37627815291940292 0 -0.41765419951743271 0.38599400866123812 0 -0.41691907090230268 0.37206660858617302 0 -0.41765419951743271 0.38599400866123812 0 -0.40203000715417692 0.37992069853727389 0 -0.39996478194844759 0.38668189120955482 0 -0.41765419951743271 0.38599400866123812 0 -0.40203000715417692 0.37992069853727389 0 -0.40203000715417692 0.37992069853727389 0 -0.41691907090230268 0.37206660858617302 0 -0.41765419951743271 0.38599400866123812 0 -0.40203000715417692 0.37992069853727389 0 -0.41691907090230268 0.37206660858617302 0 -0.41765419951743271 0.38599400866123812 0 -0.42828315221661112 0.39980721106127842 0 -0.41879670459356833 0.40763937105865272 0 -0.41765419951743271 0.38599400866123812 0 -0.41879670459356833 0.40763937105865272 0 -0.39996478194844759 0.38668189120955482 0 -0.41879670459356833 0.40763937105865272 0 -0.39765231893407721 0.38715056863543162 0 -0.41765419951743271 0.38599400866123812 0 -0.41879670459356833 0.40763937105865272 0 -0.44006459569090373 0.3984487501478603 0 -0.43304658811707442 0.38937281151874942 0 -0.43653665637723083 0.41172447196790002 0 -0.43304658811707442 0.38937281151874942 0 -0.42828315221661112 0.39980721106127842 0 -0.43653665637723083 0.41172447196790002 0 -0.43304658811707442 0.38937281151874942 0 -0.43653665637723083 0.41172447196790002 0 -0.41765419951743271 0.38599400866123812 0 -0.42828315221661112 0.39980721106127842 0 -0.4304933139047693 0.39098472572220988 0 -0.43304658811707442 0.38937281151874942 0 -0.42828315221661112 0.39980721106127842 0 -0.4304933139047693 0.39098472572220988 0 -0.4386202922140785 0.42684832688347091 0 -0.43653665637723083 0.41172447196790002 0 -0.41879670459356833 0.40763937105865272 0 -0.42828315221661112 0.39980721106127842 0 -0.43653665637723083 0.41172447196790002 0 -0.41879670459356833 0.40763937105865272 0 -0.4386202922140785 0.42684832688347091 0 -0.41879670459356833 0.40763937105865272 0 -0.42782722914592369 0.4500010388088746 0 -0.4386202922140785 0.42684832688347091 0 -0.42023705572352338 0.4349275843354134 0 -0.4386202922140785 0.42684832688347091 0 -0.42023705572352338 0.4349275843354134 0 -0.41879670459356833 0.40763937105865272 0 -0.42023705572352338 0.4349275843354134 0 -0.40807412111978408 0.42852557401986507 0 -0.41879670459356833 0.40763937105865272 0 -0.40915956035753542 0.44280284670891418 0 -0.42023705572352338 0.4349275843354134 0 -0.40807412111978408 0.42852557401986507 0 -0.42023705572352338 0.4349275843354134 0 -0.41879670459356833 0.40763937105865272 0 -0.40807412111978408 0.42852557401986507 0 -0.41879670459356833 0.40763937105865272 0 -0.39918881348501811 0.4206116236585391 0 -0.41879670459356833 0.40763937105865272 0 -0.39918881348501811 0.4206116236585391 0 -0.3924543674703459 0.40538281706179929 0 -0.39918881348501811 0.4206116236585391 0 -0.3828054021757577 0.4209175372725299 0 -0.3924543674703459 0.40538281706179929 0 -0.40915956035753542 0.44280284670891418 0 -0.40807412111978408 0.42852557401986507 0 -0.39298847143927562 0.43664644433780619 0 -0.39918881348501811 0.4206116236585391 0 -0.39298847143927562 0.43664644433780619 0 -0.3828054021757577 0.4209175372725299 0 -0.40807412111978408 0.42852557401986507 0 -0.39918881348501811 0.4206116236585391 0 -0.39298847143927562 0.43664644433780619 0 -0.39298847143927562 0.43664644433780619 0 -0.3828054021757577 0.4209175372725299 0 -0.37297018729276687 0.43537063729066672 0 -0.3828054021757577 0.4209175372725299 0 -0.3924543674703459 0.40538281706179929 0 -0.37377877321562031 0.40575709322114201 0 -0.38250419241803407 0.39022070852450103 0 -0.3924543674703459 0.40538281706179929 0 -0.37377877321562031 0.40575709322114201 0 -0.38250419241803407 0.39022070852450103 0 -0.39436424662142161 0.38396444324724449 0 -0.382260639375054 0.37223610923590772 0 -0.38250419241803407 0.39022070852450103 0 -0.382260639375054 0.37223610923590772 0 -0.37008669137734029 0.38134665680873081 0 -0.39436424662142161 0.38396444324724449 0 -0.382260639375054 0.37223610923590772 0 -0.38250419241803407 0.39022070852450103 0 -0.39765231893407721 0.38715056863543162 0 -0.38250419241803407 0.39022070852450103 0 -0.39436424662142161 0.38396444324724449 0 -0.38250419241803407 0.39022070852450103 0 -0.39436424662142161 0.38396444324724449 0 -0.39765231893407721 0.38715056863543162 0 -0.40203000715417692 0.37992069853727389 0 -0.382260639375054 0.37223610923590772 0 -0.39436424662142161 0.38396444324724449 0 -0.40203000715417692 0.37992069853727389 0 -0.382260639375054 0.37223610923590772 0 -0.39436424662142161 0.38396444324724449 0 -0.39765231893407721 0.38715056863543162 0 -0.39436424662142161 0.38396444324724449 0 -0.39765231893407721 0.38715056863543162 0 -0.39996478194844759 0.38668189120955482 0 -0.39436424662142161 0.38396444324724449 0 -0.40203000715417692 0.37992069853727389 0 -0.39765231893407721 0.38715056863543162 0 -0.39996478194844759 0.38668189120955482 0 -0.39436424662142161 0.38396444324724449 0 -0.40203000715417692 0.37992069853727389 0 -0.39996478194844759 0.38668189120955482 0 -0.38250419241803407 0.39022070852450103 0 -0.39765231893407721 0.38715056863543162 0 -0.3924543674703459 0.40538281706179929 0 -0.41879670459356833 0.40763937105865272 0 -0.39765231893407721 0.38715056863543162 0 -0.3924543674703459 0.40538281706179929 0 -0.41879670459356833 0.40763937105865272 0 -0.39765231893407721 0.38715056863543162 0 -0.39996478194844759 0.38668189120955482 0 -0.40382432617900071 0.36040130710990398 0 -0.39436371343171511 0.36548876356267362 0 -0.39007232706702449 0.35057077755229282 0 -0.40319155078303359 0.34862539552841021 0 -0.39007232706702449 0.35057077755229282 0 -0.40124077709774209 0.33676526050954081 0 -0.40319155078303359 0.34862539552841021 0 -0.40382432617900071 0.36040130710990398 0 -0.39007232706702449 0.35057077755229282 0 -0.40203000715417692 0.37992069853727389 0 -0.39436371343171511 0.36548876356267362 0 -0.382260639375054 0.37223610923590772 0 -0.40382432617900071 0.36040130710990398 0 -0.39436371343171511 0.36548876356267362 0 -0.40657464321566478 0.37049629691249431 0 -0.40203000715417692 0.37992069853727389 0 -0.39436371343171511 0.36548876356267362 0 -0.40657464321566478 0.37049629691249431 0 -0.39436371343171511 0.36548876356267362 0 -0.382260639375054 0.37223610923590772 0 -0.38142033759937077 0.35930739202816547 0 -0.382260639375054 0.37223610923590772 0 -0.38142033759937077 0.35930739202816547 0 -0.36778452146186758 0.35820882442588858 0 -0.382260639375054 0.37223610923590772 0 -0.36778452146186758 0.35820882442588858 0 -0.38142033759937077 0.35930739202816547 0 -0.37618028010185389 0.34928148950085552 0 -0.36778452146186758 0.35820882442588858 0 -0.38142033759937077 0.35930739202816547 0 -0.39007232706702449 0.35057077755229282 0 -0.37618028010185389 0.34928148950085552 0 -0.39436371343171511 0.36548876356267362 0 -0.38142033759937077 0.35930739202816547 0 -0.39007232706702449 0.35057077755229282 0 -0.39007232706702449 0.35057077755229282 0 -0.37618028010185389 0.34928148950085552 0 -0.38546076852164513 0.33920236997572201 0 -0.38660081774788352 0.32702375237277193 0 -0.36778350841395901 0.31992125468759092 0 -0.37266219046079307 0.33798303624936421 0 -0.37618028010185389 0.34928148950085552 0 -0.38546076852164513 0.33920236997572201 0 -0.37266219046079307 0.33798303624936421 0 -0.38546076852164513 0.33920236997572201 0 -0.38660081774788352 0.32702375237277193 0 -0.37266219046079307 0.33798303624936421 0 -0.38660081774788352 0.32702375237277193 0 -0.40124705496650209 0.30928152835053219 0 -0.38275329435459399 0.30541622045398181 0 -0.38660081774788352 0.32702375237277193 0 -0.38275329435459399 0.30541622045398181 0 -0.36778350841395901 0.31992125468759092 0 -0.38660081774788352 0.32702375237277193 0 -0.40512279330067558 0.32504823653778581 0 -0.40124705496650209 0.30928152835053219 0 -0.39007232706702449 0.35057077755229282 0 -0.38546076852164513 0.33920236997572201 0 -0.40124077709774209 0.33676526050954081 0 -0.38546076852164513 0.33920236997572201 0 -0.38660081774788352 0.32702375237277193 0 -0.40124077709774209 0.33676526050954081 0 -0.38660081774788352 0.32702375237277193 0 -0.40512279330067558 0.32504823653778581 0 -0.40124077709774209 0.33676526050954081 0 -0.40124077709774209 0.33676526050954081 0 -0.41410893548756289 0.33475446030913791 0 -0.41561827317248862 0.34742230821879222 0 -0.41410893548756289 0.33475446030913791 0 -0.42257638333660519 0.32231783017129823 0 -0.42606645159676171 0.34466949062044872 0 -0.40512279330067558 0.32504823653778581 0 -0.40124077709774209 0.33676526050954081 0 -0.41410893548756289 0.33475446030913791 0 -0.41410893548756289 0.33475446030913791 0 -0.42606645159676171 0.34466949062044872 0 -0.41561827317248862 0.34742230821879222 0 -0.40512279330067558 0.32504823653778581 0 -0.41410893548756289 0.33475446030913791 0 -0.42257638333660519 0.32231783017129823 0 -0.40512279330067558 0.32504823653778581 0 -0.42257638333660519 0.32231783017129823 0 -0.40124705496650209 0.30928152835053219 0 -0.42257638333660519 0.32231783017129823 0 -0.43653181847213662 0.3150713928328599 0 -0.42719497857232808 0.30444081400840711 0 -0.42257638333660519 0.32231783017129823 0 -0.43518419426703547 0.32498427147407621 0 -0.43653181847213662 0.3150713928328599 0 -0.42257638333660519 0.32231783017129823 0 -0.43518419426703547 0.32498427147407621 0 -0.43278269840358818 0.33523292701260959 0 -0.42257638333660519 0.32231783017129823 0 -0.42606645159676171 0.34466949062044872 0 -0.42257638333660519 0.32231783017129823 0 -0.43278269840358818 0.33523292701260959 0 -0.42606645159676171 0.34466949062044872 0 -0.43518419426703547 0.32498427147407621 0 -0.43278269840358818 0.33523292701260959 0 -0.44209356446905218 0.33204764820999189 0 -0.43278269840358818 0.33523292701260959 0 -0.4342333521134677 0.34502719789402031 0 -0.4382987101904669 0.3403434942634293 0 -0.43278269840358818 0.33523292701260959 0 -0.4342333521134677 0.34502719789402031 0 -0.42606645159676171 0.34466949062044872 0 -0.42606645159676171 0.34466949062044872 0 -0.42955651985691801 0.36702115106959898 0 -0.43427129874993792 0.35483666251962748 0 -0.42606645159676171 0.34466949062044872 0 -0.42955651985691801 0.36702115106959898 0 -0.4342333521134677 0.34502719789402031 0 -0.43427129874993792 0.35483666251962748 0 -0.42606645159676171 0.34466949062044872 0 -0.4342333521134677 0.34502719789402031 0 -0.43427129874993792 0.35483666251962748 0 -0.4404320158319649 0.34978110048367472 0 -0.42606645159676171 0.34466949062044872 0 -0.42278612885744449 0.35971541277363678 0 -0.42955651985691801 0.36702115106959898 0 -0.42606645159676171 0.34466949062044872 0 -0.41561827317248862 0.34742230821879222 0 -0.42278612885744449 0.35971541277363678 0 -0.40319155078303359 0.34862539552841021 0 -0.40382432617900071 0.36040130710990398 0 -0.41561827317248862 0.34742230821879222 0 -0.40319155078303359 0.34862539552841021 0 -0.40124077709774209 0.33676526050954081 0 -0.41561827317248862 0.34742230821879222 0 -0.41561827317248862 0.34742230821879222 0 -0.41691907090230268 0.37206660858617302 0 -0.41561827317248862 0.34742230821879222 0 -0.41691907090230268 0.37206660858617302 0 -0.42278612885744449 0.35971541277363678 0 -0.40382432617900071 0.36040130710990398 0 -0.41561827317248862 0.34742230821879222 0 -0.41691907090230268 0.37206660858617302 0 -0.40203000715417692 0.37992069853727389 0 -0.40657464321566478 0.37049629691249431 0 -0.41691907090230268 0.37206660858617302 0 -0.40382432617900071 0.36040130710990398 0 -0.40657464321566478 0.37049629691249431 0 -0.41691907090230268 0.37206660858617302 0 -0.41691907090230268 0.37206660858617302 0 -0.42577032875875109 0.36739750537317151 0 -0.42278612885744449 0.35971541277363678 0 -0.41691907090230268 0.37206660858617302 0 -0.42577032875875109 0.36739750537317151 0 -0.42233472752324608 0.37627815291940292 0 -0.41691907090230268 0.37206660858617302 0 -0.42445506025524438 0.37232432740445037 0 -0.42879452850557059 0.37858843722560398 0 -0.4276880210416365 0.3726495588483647 0 -0.42955651985691801 0.36702115106959898 0 -0.41691907090230268 0.37206660858617302 0 -0.42445506025524438 0.37232432740445037 0 -0.42577032875875109 0.36739750537317151 0 -0.42594595165729982 0.3759996255907625 0 -0.42233472752324608 0.37627815291940292 0 -0.42445506025524438 0.37232432740445037 0 -0.42445506025524438 0.37232432740445037 0 -0.42577032875875109 0.36739750537317151 0 -0.42686748247813749 0.36984813567389641 0 -0.42686748247813749 0.36984813567389641 0 -0.4276880210416365 0.3726495588483647 0 -0.42955651985691801 0.36702115106959898 0 -0.42577032875875109 0.36739750537317151 0 -0.42686748247813749 0.36984813567389641 0 -0.42955651985691801 0.36702115106959898 0 -0.42594595165729982 0.3759996255907625 0 -0.42445506025524438 0.37232432740445037 0 -0.4276880210416365 0.3726495588483647 0 -0.42445506025524438 0.37232432740445037 0 -0.42686748247813749 0.36984813567389641 0 -0.4276880210416365 0.3726495588483647 0 -0.42577032875875109 0.36739750537317151 0 -0.42278612885744449 0.35971541277363678 0 -0.42955651985691801 0.36702115106959898 0 -0.43427129874993792 0.35483666251962748 0 -0.43522607368427108 0.36331004006263279 0 -0.44205190354708218 0.36389552674484782 0 -0.43427129874993792 0.35483666251962748 0 -0.42955651985691801 0.36702115106959898 0 -0.43522607368427108 0.36331004006263279 0 -0.42955651985691801 0.36702115106959898 0 -0.43522607368427108 0.36331004006263279 0 -0.43526764322351541 0.36777472455501542 0 -0.43297862874230891 0.37793532700960719 0 -0.42955651985691801 0.36702115106959898 0 -0.43384466618128048 0.3714662914541868 0 -0.42955651985691801 0.36702115106959898 0 -0.43526764322351541 0.36777472455501542 0 -0.43384466618128048 0.3714662914541868 0 -0.43526764322351541 0.36777472455501542 0 -0.43384466618128048 0.3714662914541868 0 -0.43757587290237981 0.3731339631825259 0 -0.43297862874230891 0.37793532700960719 0 -0.43384466618128048 0.3714662914541868 0 -0.43757587290237981 0.3731339631825259 0 -0.44205190354708218 0.36389552674484782 0 -0.44911415166500301 0.3523665491775369 0 -0.46357960630901163 0.37330691742011229 0 -0.44516946898811433 0.37619516330958291 0 -0.44205190354708218 0.36389552674484782 0 -0.46357960630901163 0.37330691742011229 0 -0.44516946898811433 0.37619516330958291 0 -0.43757587290237981 0.3731339631825259 0 -0.44205190354708218 0.36389552674484782 0 -0.43526764322351541 0.36777472455501542 0 -0.43757587290237981 0.3731339631825259 0 -0.44205190354708218 0.36389552674484782 0 -0.43522607368427108 0.36331004006263279 0 -0.43526764322351541 0.36777472455501542 0 -0.44205190354708218 0.36389552674484782 0 -0.4342333521134677 0.34502719789402031 0 -0.4404320158319649 0.34978110048367472 0 -0.4382987101904669 0.3403434942634293 0 -0.4404320158319649 0.34978110048367472 0 -0.44911415166500301 0.3523665491775369 0 -0.4446226787258325 0.3422171723025863 0 -0.4404320158319649 0.34978110048367472 0 -0.4382987101904669 0.3403434942634293 0 -0.4446226787258325 0.3422171723025863 0 -0.44205190354708218 0.36389552674484782 0 -0.4404320158319649 0.34978110048367472 0 -0.44911415166500301 0.3523665491775369 0 -0.43427129874993792 0.35483666251962748 0 -0.44205190354708218 0.36389552674484782 0 -0.4404320158319649 0.34978110048367472 0 -0.46146448421224712 0.34896628807823821 0 -0.46357960630901163 0.37330691742011229 0 -0.47605926335647769 0.34653621268843299 0 -0.44911415166500301 0.3523665491775369 0 -0.46146448421224712 0.34896628807823821 0 -0.46357960630901163 0.37330691742011229 0 -0.44911415166500301 0.3523665491775369 0 -0.46146448421224712 0.34896628807823821 0 -0.45385936567805629 0.33627475480798708 0 -0.46146448421224712 0.34896628807823821 0 -0.47605926335647769 0.34653621268843299 0 -0.46387354612018677 0.34017249771264219 0 -0.48732730055700141 0.37794263580603782 0 -0.47714328929046701 0.36706160480103789 0 -0.48292132207969968 0.35665768844578272 0 -0.46357960630901163 0.37330691742011229 0 -0.47605926335647769 0.34653621268843299 0 -0.47702519020066853 0.3802186235068663 0 -0.46357960630901163 0.37330691742011229 0 -0.47714328929046701 0.36706160480103789 0 -0.46357960630901163 0.37330691742011229 0 -0.47714328929046701 0.36706160480103789 0 -0.47605926335647769 0.34653621268843299 0 -0.47714328929046701 0.36706160480103789 0 -0.47605926335647769 0.34653621268843299 0 -0.48292132207969968 0.35665768844578272 0 -0.47605926335647769 0.34653621268843299 0 -0.48292132207969968 0.35665768844578272 0 -0.48000603660627628 0.34257416575914279 0 -0.48292132207969968 0.35665768844578272 0 -0.48898107543301139 0.35038534540925143 0 -0.48000603660627628 0.34257416575914279 0 -0.48292132207969968 0.35665768844578272 0 -0.48000603660627628 0.34257416575914279 0 -0.47605926335647769 0.34653621268843299 0 -0.47837888575382798 0.34156028057329613 0 -0.47605926335647769 0.34653621268843299 0 -0.48292132207969968 0.35665768844578272 0 -0.50000000000000122 0.34538332642544117 0 -0.49299694304606961 0.35692620100663902 0 -0.5 0.3636159566666789 0 -0.48898107543301139 0.35038534540925143 0 -0.50000000000000122 0.34538332642544117 0 -0.48000603660627628 0.34257416575914279 0 -0.48292132207969968 0.35665768844578272 0 -0.48898107543301139 0.35038534540925143 0 -0.49299694304606961 0.35692620100663902 0 -0.48898107543301139 0.35038534540925143 0 -0.50000000000000122 0.34538332642544117 0 -0.49299694304606961 0.35692620100663902 0 -0.50000000000000133 0.38184858690791662 0 -0.5 0.3636159566666789 0 -0.4914606610398512 0.3692531376768492 0 -0.49299694304606961 0.35692620100663902 0 -0.5 0.3636159566666789 0 -0.4914606610398512 0.3692531376768492 0 -0.48732730055700141 0.37794263580603782 0 -0.48292132207969968 0.35665768844578272 0 -0.48732730055700141 0.37794263580603782 0 -0.48292132207969968 0.35665768844578272 0 -0.4914606610398512 0.3692531376768492 0 -0.48292132207969968 0.35665768844578272 0 -0.49299694304606961 0.35692620100663902 0 -0.4914606610398512 0.3692531376768492 0 -0.48292132207969968 0.35665768844578272 0 -0.4914606610398512 0.3692531376768492 0 -0.5 0.3154298568203403 0 -0.47746181950139233 0.32717338162140353 0 -0.47750022636912448 0.30407328656778893 0 -0.50000000000000122 0.34538332642544117 0 -0.47746181950139233 0.32717338162140353 0 -0.50000000000000122 0.34538332642544117 0 -0.48000603660627628 0.34257416575914279 0 -0.47746181950139233 0.32717338162140353 0 -0.50000000000000122 0.34538332642544117 0 -0.5 0.3154298568203403 0 -0.47746181950139233 0.32717338162140353 0 -0.47605926335647769 0.34653621268843299 0 -0.464111071233967 0.32891273527591031 0 -0.47605926335647769 0.34653621268843299 0 -0.47837888575382798 0.34156028057329613 0 -0.464111071233967 0.32891273527591031 0 -0.48000603660627628 0.34257416575914279 0 -0.47837888575382798 0.34156028057329613 0 -0.47746181950139233 0.32717338162140353 0 -0.47605926335647769 0.34653621268843299 0 -0.48000603660627628 0.34257416575914279 0 -0.47837888575382798 0.34156028057329613 0 -0.47837888575382798 0.34156028057329613 0 -0.47746181950139233 0.32717338162140353 0 -0.464111071233967 0.32891273527591031 0 -0.47746181950139233 0.32717338162140353 0 -0.47088991770020472 0.31139381552293738 0 -0.47750022636912448 0.30407328656778893 0 -0.47746181950139233 0.32717338162140353 0 -0.46572355207397048 0.31120892492144198 0 -0.47088991770020472 0.31139381552293738 0 -0.464111071233967 0.32891273527591031 0 -0.45216287911145708 0.3112892578633869 0 -0.45492363900278288 0.30896343681736638 0 -0.47746181950139233 0.32717338162140353 0 -0.45492363900278288 0.30896343681736638 0 -0.47746181950139233 0.32717338162140353 0 -0.464111071233967 0.32891273527591031 0 -0.45492363900278288 0.30896343681736638 0 -0.47746181950139233 0.32717338162140353 0 -0.45492363900278288 0.30896343681736638 0 -0.46572355207397048 0.31120892492144198 0 -0.464111071233967 0.32891273527591031 0 -0.45283578450714068 0.32369504575005031 0 -0.45216287911145708 0.3112892578633869 0 -0.464111071233967 0.32891273527591031 0 -0.45216287911145708 0.3112892578633869 0 -0.47605926335647769 0.34653621268843299 0 -0.46387354612018677 0.34017249771264219 0 -0.464111071233967 0.32891273527591031 0 -0.464111071233967 0.32891273527591031 0 -0.45385936567805629 0.33627475480798708 0 -0.45283578450714068 0.32369504575005031 0 -0.46387354612018677 0.34017249771264219 0 -0.464111071233967 0.32891273527591031 0 -0.45385936567805629 0.33627475480798708 0 -0.46146448421224712 0.34896628807823821 0 -0.46387354612018677 0.34017249771264219 0 -0.45385936567805629 0.33627475480798708 0 -0.44911415166500301 0.3523665491775369 0 -0.45385936567805629 0.33627475480798708 0 -0.4446226787258325 0.3422171723025863 0 -0.45385936567805629 0.33627475480798708 0 -0.44209356446905218 0.33204764820999189 0 -0.4446226787258325 0.3422171723025863 0 -0.45385936567805629 0.33627475480798708 0 -0.45283578450714068 0.32369504575005031 0 -0.44490185504157342 0.3246169394126116 0 -0.45385936567805629 0.33627475480798708 0 -0.44209356446905218 0.33204764820999189 0 -0.44490185504157342 0.3246169394126116 0 -0.43278269840358818 0.33523292701260959 0 -0.44209356446905218 0.33204764820999189 0 -0.4382987101904669 0.3403434942634293 0 -0.44209356446905218 0.33204764820999189 0 -0.4382987101904669 0.3403434942634293 0 -0.4446226787258325 0.3422171723025863 0 -0.44653192360582789 0.31585682760472827 0 -0.45283578450714068 0.32369504575005031 0 -0.45216287911145708 0.3112892578633869 0 -0.44653192360582789 0.31585682760472827 0 -0.45283578450714068 0.32369504575005031 0 -0.44490185504157342 0.3246169394126116 0 -0.43518419426703547 0.32498427147407621 0 -0.44209356446905218 0.33204764820999189 0 -0.44490185504157342 0.3246169394126116 0 -0.43518419426703547 0.32498427147407621 0 -0.43653181847213662 0.3150713928328599 0 -0.44490185504157342 0.3246169394126116 0 -0.43653181847213662 0.3150713928328599 0 -0.44653192360582789 0.31585682760472827 0 -0.44490185504157342 0.3246169394126116 0 -0.43653181847213662 0.3150713928328599 0 -0.44653192360582789 0.31585682760472827 0 -0.44368893981032398 0.31039637005903192 0 -0.43653181847213662 0.3150713928328599 0 -0.44368893981032398 0.31039637005903192 0 -0.43633684330344619 0.30459062064751891 0 -0.44368893981032398 0.31039637005903192 0 -0.44244101429795812 0.30392850562342838 0 -0.44833601861174782 0.30402349736269341 0 -0.44368893981032398 0.31039637005903192 0 -0.44244101429795812 0.30392850562342838 0 -0.43633684330344619 0.30459062064751891 0 -0.442131033616253 0.29766481275683349 0 -0.44244101429795812 0.30392850562342838 0 -0.43633684330344619 0.30459062064751891 0 -0.442131033616253 0.29766481275683349 0 -0.44244101429795812 0.30392850562342838 0 -0.44833601861174782 0.30402349736269341 0 -0.442131033616253 0.29766481275683349 0 -0.44833601861174782 0.30402349736269341 0 -0.44985896215401261 0.29669467819270368 0 -0.44833601861174782 0.30402349736269341 0 -0.44985896215401261 0.29669467819270368 0 -0.4554133820819406 0.30133412461721709 0 -0.44833601861174782 0.30402349736269341 0 -0.45402435325937979 0.30553601168693112 0 -0.4554133820819406 0.30133412461721709 0 -0.44833601861174782 0.30402349736269341 0 -0.45156979916722939 0.30790784643725772 0 -0.45402435325937979 0.30553601168693112 0 -0.44833601861174782 0.30402349736269341 0 -0.45156979916722939 0.30790784643725772 0 -0.4482182940098195 0.31006784207555832 0 -0.45156979916722939 0.30790784643725772 0 -0.45216287911145708 0.3112892578633869 0 -0.45492363900278288 0.30896343681736638 0 -0.45156979916722939 0.30790784643725772 0 -0.45216287911145708 0.3112892578633869 0 -0.4482182940098195 0.31006784207555832 0 -0.44653192360582789 0.31585682760472827 0 -0.45216287911145708 0.3112892578633869 0 -0.4482182940098195 0.31006784207555832 0 -0.44653192360582789 0.31585682760472827 0 -0.44368893981032398 0.31039637005903192 0 -0.4482182940098195 0.31006784207555832 0 -0.44368893981032398 0.31039637005903192 0 -0.44833601861174782 0.30402349736269341 0 -0.4482182940098195 0.31006784207555832 0 -0.43987768781997372 0.2879979434467943 0 -0.44590802473685992 0.29189255913916351 0 -0.4471905249199058 0.28221860936137733 0 -0.43987768781997372 0.2879979434467943 0 -0.4471905249199058 0.28221860936137733 0 -0.43760248430752863 0.27445641674831439 0 -0.442131033616253 0.29766481275683349 0 -0.43987768781997372 0.2879979434467943 0 -0.44590802473685992 0.29189255913916351 0 -0.442131033616253 0.29766481275683349 0 -0.43987768781997372 0.2879979434467943 0 -0.4334562333147563 0.29494296863704211 0 -0.442131033616253 0.29766481275683349 0 -0.44985896215401261 0.29669467819270368 0 -0.44590802473685992 0.29189255913916351 0 -0.44985896215401261 0.29669467819270368 0 -0.45146360640261107 0.28909867899967773 0 -0.45750099728999011 0.29397966232048522 0 -0.44985896215401261 0.29669467819270368 0 -0.45146360640261107 0.28909867899967773 0 -0.44590802473685992 0.29189255913916351 0 -0.45146360640261107 0.28909867899967773 0 -0.4471905249199058 0.28221860936137733 0 -0.45753556562069891 0.28434655083591909 0 -0.45146360640261107 0.28909867899967773 0 -0.44590802473685992 0.29189255913916351 0 -0.4471905249199058 0.28221860936137733 0 -0.45146360640261107 0.28909867899967773 0 -0.45753556562069891 0.28434655083591909 0 -0.45750099728999011 0.29397966232048522 0 -0.45753556562069891 0.28434655083591909 0 -0.45750099728999011 0.29397966232048522 0 -0.46761441979684332 0.29314566968359812 0 -0.45750099728999011 0.29397966232048522 0 -0.46761441979684332 0.29314566968359812 0 -0.46546345673227407 0.30306283744538182 0 -0.45753556562069891 0.28434655083591909 0 -0.46761441979684332 0.29314566968359812 0 -0.46942727327166422 0.28228049426655277 0 -0.45987892743319808 0.3054511532001209 0 -0.45492363900278288 0.30896343681736638 0 -0.46572355207397048 0.31120892492144198 0 -0.45987892743319808 0.3054511532001209 0 -0.45492363900278288 0.30896343681736638 0 -0.45402435325937979 0.30553601168693112 0 -0.45156979916722939 0.30790784643725772 0 -0.45492363900278288 0.30896343681736638 0 -0.45402435325937979 0.30553601168693112 0 -0.45750099728999011 0.29397966232048522 0 -0.4554133820819406 0.30133412461721709 0 -0.46546345673227407 0.30306283744538182 0 -0.45987892743319808 0.3054511532001209 0 -0.45402435325937979 0.30553601168693112 0 -0.4554133820819406 0.30133412461721709 0 -0.45987892743319808 0.3054511532001209 0 -0.4554133820819406 0.30133412461721709 0 -0.46546345673227407 0.30306283744538182 0 -0.44985896215401261 0.29669467819270368 0 -0.45750099728999011 0.29397966232048522 0 -0.4554133820819406 0.30133412461721709 0 -0.45987892743319808 0.3054511532001209 0 -0.46546345673227407 0.30306283744538182 0 -0.46572355207397048 0.31120892492144198 0 -0.46546345673227407 0.30306283744538182 0 -0.46572355207397048 0.31120892492144198 0 -0.47088991770020472 0.31139381552293738 0 -0.46546345673227407 0.30306283744538182 0 -0.47088991770020472 0.31139381552293738 0 -0.47750022636912448 0.30407328656778893 0 -0.46761441979684332 0.29314566968359812 0 -0.46546345673227407 0.30306283744538182 0 -0.47750022636912448 0.30407328656778893 0 -0.46761441979684332 0.29314566968359812 0 -0.47750022636912448 0.30407328656778893 0 -0.48350029046164861 0.28870978453479018 0 -0.46761441979684332 0.29314566968359812 0 -0.48350029046164861 0.28870978453479018 0 -0.46942727327166422 0.28228049426655277 0 -0.48350029046164861 0.28870978453479018 0 -0.5 0.28547638721523949 0 -0.47940241664575323 0.27180516918829078 0 -0.5 0.3154298568203403 0 -0.48350029046164861 0.28870978453479018 0 -0.5 0.28547638721523949 0 -0.5 0.3154298568203403 0 -0.47750022636912448 0.30407328656778893 0 -0.48350029046164861 0.28870978453479018 0 -0.5 0.2555229176101384 0 -0.47940241664575323 0.27180516918829078 0 -0.47712929697937811 0.25539273353199471 0 -0.48715297377553729 0.24335977933467559 0 -0.5 0.2555229176101384 0 -0.47712929697937811 0.25539273353199471 0 -0.5 0.28547638721523949 0 -0.5 0.2555229176101384 0 -0.47940241664575323 0.27180516918829078 0 -0.48350029046164861 0.28870978453479018 0 -0.46942727327166422 0.28228049426655277 0 -0.47940241664575323 0.27180516918829078 0 -0.46942727327166422 0.28228049426655277 0 -0.47940241664575323 0.27180516918829078 0 -0.45794235892157881 0.27375187436074711 0 -0.47940241664575323 0.27180516918829078 0 -0.47712929697937811 0.25539273353199471 0 -0.4636488425506482 0.26112161345803758 0 -0.45425477310114931 0.24940992502335479 0 -0.47712929697937811 0.25539273353199471 0 -0.4636488425506482 0.26112161345803758 0 -0.45425477310114931 0.24940992502335479 0 -0.4636488425506482 0.26112161345803758 0 -0.44984765898166229 0.26234856357096098 0 -0.47940241664575323 0.27180516918829078 0 -0.4636488425506482 0.26112161345803758 0 -0.45794235892157881 0.27375187436074711 0 -0.45753556562069891 0.28434655083591909 0 -0.46942727327166422 0.28228049426655277 0 -0.45794235892157881 0.27375187436074711 0 -0.4636488425506482 0.26112161345803758 0 -0.45794235892157881 0.27375187436074711 0 -0.44984765898166229 0.26234856357096098 0 -0.4471905249199058 0.28221860936137733 0 -0.45753556562069891 0.28434655083591909 0 -0.45794235892157881 0.27375187436074711 0 -0.4471905249199058 0.28221860936137733 0 -0.45794235892157881 0.27375187436074711 0 -0.4472391122441976 0.27217989838862972 0 -0.45794235892157881 0.27375187436074711 0 -0.4472391122441976 0.27217989838862972 0 -0.44984765898166229 0.26234856357096098 0 -0.4472391122441976 0.27217989838862972 0 -0.44984765898166229 0.26234856357096098 0 -0.43920713338103701 0.26381991634847279 0 -0.4472391122441976 0.27217989838862972 0 -0.43760248430752863 0.27445641674831439 0 -0.43920713338103701 0.26381991634847279 0 -0.4471905249199058 0.28221860936137733 0 -0.4472391122441976 0.27217989838862972 0 -0.43760248430752863 0.27445641674831439 0 -0.45425477310114931 0.24940992502335479 0 -0.44984765898166229 0.26234856357096098 0 -0.43864553059328931 0.25337679904475779 0 -0.44984765898166229 0.26234856357096098 0 -0.43920713338103701 0.26381991634847279 0 -0.43864553059328931 0.25337679904475779 0 -0.42554553359055458 0.24540183042919261 0 -0.42940931768181928 0.25650022127262367 0 -0.42180925746835679 0.26125766550575058 0 -0.42554553359055458 0.24540183042919261 0 -0.43864553059328931 0.25337679904475779 0 -0.42940931768181928 0.25650022127262367 0 -0.43920713338103701 0.26381991634847279 0 -0.43864553059328931 0.25337679904475779 0 -0.42940931768181928 0.25650022127262367 0 -0.43920713338103701 0.26381991634847279 0 -0.42938217796699379 0.26503295692280621 0 -0.42940931768181928 0.25650022127262367 0 -0.42938217796699379 0.26503295692280621 0 -0.42940931768181928 0.25650022127262367 0 -0.42180925746835679 0.26125766550575058 0 -0.42554553359055458 0.24540183042919261 0 -0.40440354849534921 0.26386366607795381 0 -0.42554553359055458 0.24540183042919261 0 -0.42180925746835679 0.26125766550575058 0 -0.40440354849534921 0.26386366607795381 0 -0.41216980143529841 0.24427694384242221 0 -0.42554553359055458 0.24540183042919261 0 -0.40440354849534921 0.26386366607795381 0 -0.42180925746835679 0.26125766550575058 0 -0.42030570960706648 0.27548965282617688 0 -0.40440354849534921 0.26386366607795381 0 -0.42030570960706648 0.27548965282617688 0 -0.40643162523586468 0.28405093399131293 0 -0.40440354849534921 0.26386366607795381 0 -0.43760248430752863 0.27445641674831439 0 -0.42938217796699379 0.26503295692280621 0 -0.42030570960706648 0.27548965282617688 0 -0.43760248430752863 0.27445641674831439 0 -0.42030570960706648 0.27548965282617688 0 -0.43151100145750643 0.28428257996890699 0 -0.42938217796699379 0.26503295692280621 0 -0.42180925746835679 0.26125766550575058 0 -0.42030570960706648 0.27548965282617688 0 -0.43760248430752863 0.27445641674831439 0 -0.43920713338103701 0.26381991634847279 0 -0.42938217796699379 0.26503295692280621 0 -0.43987768781997372 0.2879979434467943 0 -0.43760248430752863 0.27445641674831439 0 -0.43151100145750643 0.28428257996890699 0 -0.43987768781997372 0.2879979434467943 0 -0.43151100145750643 0.28428257996890699 0 -0.4334562333147563 0.29494296863704211 0 -0.4334562333147563 0.29494296863704211 0 -0.42719497857232808 0.30444081400840711 0 -0.42172089661449719 0.29033245725738033 0 -0.43151100145750643 0.28428257996890699 0 -0.4334562333147563 0.29494296863704211 0 -0.42172089661449719 0.29033245725738033 0 -0.42030570960706648 0.27548965282617688 0 -0.43151100145750643 0.28428257996890699 0 -0.42172089661449719 0.29033245725738033 0 -0.43653181847213662 0.3150713928328599 0 -0.43633684330344619 0.30459062064751891 0 -0.42719497857232808 0.30444081400840711 0 -0.442131033616253 0.29766481275683349 0 -0.4334562333147563 0.29494296863704211 0 -0.43633684330344619 0.30459062064751891 0 -0.4334562333147563 0.29494296863704211 0 -0.43633684330344619 0.30459062064751891 0 -0.42719497857232808 0.30444081400840711 0 -0.42257638333660519 0.32231783017129823 0 -0.41269913543618503 0.30106599325098771 0 -0.40124705496650209 0.30928152835053219 0 -0.42257638333660519 0.32231783017129823 0 -0.42719497857232808 0.30444081400840711 0 -0.41269913543618503 0.30106599325098771 0 -0.42719497857232808 0.30444081400840711 0 -0.41269913543618503 0.30106599325098771 0 -0.42172089661449719 0.29033245725738033 0 -0.41269913543618503 0.30106599325098771 0 -0.42172089661449719 0.29033245725738033 0 -0.40643162523586468 0.28405093399131293 0 -0.42030570960706648 0.27548965282617688 0 -0.42172089661449719 0.29033245725738033 0 -0.40643162523586468 0.28405093399131293 0 -0.40643162523586468 0.28405093399131293 0 -0.39702387389131322 0.29597239572699557 0 -0.38326156340014378 0.28232550172671478 0 -0.41269913543618503 0.30106599325098771 0 -0.40643162523586468 0.28405093399131293 0 -0.39702387389131322 0.29597239572699557 0 -0.39702387389131322 0.29597239572699557 0 -0.40124705496650209 0.30928152835053219 0 -0.38275329435459399 0.30541622045398181 0 -0.41269913543618503 0.30106599325098771 0 -0.39702387389131322 0.29597239572699557 0 -0.40124705496650209 0.30928152835053219 0 -0.39702387389131322 0.29597239572699557 0 -0.38275329435459399 0.30541622045398181 0 -0.38326156340014378 0.28232550172671478 0 -0.38275329435459399 0.30541622045398181 0 -0.38326156340014378 0.28232550172671478 0 -0.36211957830493829 0.30078733737547603 0 -0.38326156340014378 0.28232550172671478 0 -0.37796403662535349 0.26505714921949702 0 -0.39057930849417061 0.26276249902060139 0 -0.38798765132743301 0.24942764917925139 0 -0.36380550121956762 0.25457835451608068 0 -0.38141007057668858 0.2472317058287731 0 -0.38798765132743301 0.24942764917925139 0 -0.36380550121956762 0.25457835451608068 0 -0.38798765132743301 0.24942764917925139 0 -0.37796403662535349 0.26505714921949702 0 -0.36380550121956762 0.25457835451608068 0 -0.38798765132743301 0.24942764917925139 0 -0.37796403662535349 0.26505714921949702 0 -0.39057930849417061 0.26276249902060139 0 -0.39057930849417061 0.26276249902060139 0 -0.39878507743806269 0.25508268953005719 0 -0.40440354849534921 0.26386366607795381 0 -0.41216980143529841 0.24427694384242221 0 -0.39878507743806269 0.25508268953005719 0 -0.40440354849534921 0.26386366607795381 0 -0.38798765132743301 0.24942764917925139 0 -0.39057930849417061 0.26276249902060139 0 -0.39878507743806269 0.25508268953005719 0 -0.38326156340014378 0.28232550172671478 0 -0.39057930849417061 0.26276249902060139 0 -0.40440354849534921 0.26386366607795381 0 -0.40643162523586468 0.28405093399131293 0 -0.38326156340014378 0.28232550172671478 0 -0.40440354849534921 0.26386366607795381 0 -0.38326156340014378 0.28232550172671478 0 -0.40440354849534921 0.26386366607795381 0 -0.35389327988035207 0.26763604540760427 0 -0.35021269392986681 0.27667242532933201 0 -0.36333502912738252 0.27688988565840827 0 -0.35389327988035207 0.26763604540760427 0 -0.35021269392986681 0.27667242532933201 0 -0.34523226590890771 0.26603919615977129 0 -0.35021269392986681 0.27667242532933201 0 -0.34523226590890771 0.26603919615977129 0 -0.33924996799473722 0.27468153794483102 0 -0.35389327988035207 0.26763604540760427 0 -0.34783642236149048 0.26124248868774402 0 -0.36380550121956762 0.25457835451608068 0 -0.35389327988035207 0.26763604540760427 0 -0.34523226590890771 0.26603919615977129 0 -0.34783642236149048 0.26124248868774402 0 -0.34783642236149048 0.26124248868774402 0 -0.36380550121956762 0.25457835451608068 0 -0.34783642236149048 0.26124248868774402 0 -0.34983942313469119 0.25755307564738861 0 -0.36380550121956762 0.25457835451608068 0 -0.34523226590890771 0.26603919615977129 0 -0.34783642236149048 0.26124248868774402 0 -0.34783642236149048 0.26124248868774402 0 -0.34983942313469119 0.25755307564738861 0 -0.34983942313469119 0.25755307564738861 0 -0.36380550121956762 0.25457835451608068 0 -0.37796403662535349 0.26505714921949702 0 -0.36380550121956762 0.25457835451608068 0 -0.36333502912738252 0.27688988565840827 0 -0.38141007057668858 0.2472317058287731 0 -0.36380550121956762 0.25457835451608068 0 -0.38326156340014378 0.28232550172671478 0 -0.37796403662535349 0.26505714921949702 0 -0.36333502912738252 0.27688988565840827 0 -0.35389327988035207 0.26763604540760427 0 -0.36380550121956762 0.25457835451608068 0 -0.36333502912738252 0.27688988565840827 0 -0.38326156340014378 0.28232550172671478 0 -0.36333502912738252 0.27688988565840827 0 -0.36211957830493829 0.30078733737547603 0 -0.38326156340014378 0.28232550172671478 0 -0.36211957830493829 0.30078733737547603 0 -0.36211957830493829 0.30078733737547603 0 -0.34855076061346307 0.31261658576476242 0 -0.36778350841395901 0.31992125468759092 0 -0.38275329435459399 0.30541622045398181 0 -0.36211957830493829 0.30078733737547603 0 -0.36778350841395901 0.31992125468759092 0 -0.36211957830493829 0.30078733737547603 0 -0.34944876095423338 0.29107877051410119 0 -0.34855076061346307 0.31261658576476242 0 -0.36333502912738252 0.27688988565840827 0 -0.36211957830493829 0.30078733737547603 0 -0.34944876095423338 0.29107877051410119 0 -0.35021269392986681 0.27667242532933201 0 -0.36333502912738252 0.27688988565840827 0 -0.34944876095423338 0.29107877051410119 0 -0.35021269392986681 0.27667242532933201 0 -0.34944876095423338 0.29107877051410119 0 -0.34048171880652678 0.28307942019666738 0 -0.34944876095423338 0.29107877051410119 0 -0.34048171880652678 0.28307942019666738 0 -0.33199278494322298 0.296426968759961 0 -0.33199278494322298 0.296426968759961 0 -0.33086194483665932 0.2813448054360701 0 -0.32213633133508018 0.28778519104696149 0 -0.34048171880652678 0.28307942019666738 0 -0.33199278494322298 0.296426968759961 0 -0.33086194483665932 0.2813448054360701 0 -0.33199278494322298 0.296426968759961 0 -0.32972316180814337 0.31949821583072718 0 -0.34855076061346307 0.31261658576476242 0 -0.34944876095423338 0.29107877051410119 0 -0.33199278494322298 0.296426968759961 0 -0.34855076061346307 0.31261658576476242 0 -0.33199278494322298 0.296426968759961 0 -0.32972316180814337 0.31949821583072718 0 -0.33199278494322298 0.296426968759961 0 -0.31659252479137928 0.3019050259887075 0 -0.32972316180814337 0.31949821583072718 0 -0.33086194483665932 0.2813448054360701 0 -0.32213633133508018 0.28778519104696149 0 -0.32128196624877747 0.27645578310458402 0 -0.33199278494322298 0.296426968759961 0 -0.31659252479137928 0.3019050259887075 0 -0.32213633133508018 0.28778519104696149 0 -0.31659252479137928 0.3019050259887075 0 -0.31469531779567728 0.29126923550186318 0 -0.30764136488632482 0.2927426179346011 0 -0.31659252479137928 0.3019050259887075 0 -0.32213633133508018 0.28778519104696149 0 -0.31469531779567728 0.29126923550186318 0 -0.32213633133508018 0.28778519104696149 0 -0.31626088336804742 0.27961281498923191 0 -0.32128196624877747 0.27645578310458402 0 -0.32213633133508018 0.28778519104696149 0 -0.31469531779567728 0.29126923550186318 0 -0.3124110501699251 0.28264410703718279 0 -0.32213633133508018 0.28778519104696149 0 -0.31626088336804742 0.27961281498923191 0 -0.3124110501699251 0.28264410703718279 0 -0.31842399290521889 0.26953057149707171 0 -0.32915445817063471 0.26903875026704582 0 -0.31047249397977889 0.27683501184634768 0 -0.31626088336804742 0.27961281498923191 0 -0.32128196624877747 0.27645578310458402 0 -0.31047249397977889 0.27683501184634768 0 -0.32128196624877747 0.27645578310458402 0 -0.32915445817063471 0.26903875026704582 0 -0.31047249397977889 0.27683501184634768 0 -0.31626088336804742 0.27961281498923191 0 -0.31047249397977889 0.27683501184634768 0 -0.3124110501699251 0.28264410703718279 0 -0.31842399290521889 0.26953057149707171 0 -0.32726730345146149 0.26393595004600712 0 -0.31016706035174019 0.26600313694463962 0 -0.32915445817063471 0.26903875026704582 0 -0.31047249397977889 0.27683501184634768 0 -0.31842399290521889 0.26953057149707171 0 -0.31167017132459418 0.27106256078480923 0 -0.31016706035174019 0.26600313694463962 0 -0.31842399290521889 0.26953057149707171 0 -0.31047249397977889 0.27683501184634768 0 -0.31167017132459418 0.27106256078480923 0 -0.31842399290521889 0.26953057149707171 0 -0.32915445817063471 0.26903875026704582 0 -0.32726730345146149 0.26393595004600712 0 -0.33086194483665932 0.2813448054360701 0 -0.32128196624877747 0.27645578310458402 0 -0.32915445817063471 0.26903875026704582 0 -0.34523226590890771 0.26603919615977129 0 -0.32915445817063471 0.26903875026704582 0 -0.33924996799473722 0.27468153794483102 0 -0.33086194483665932 0.2813448054360701 0 -0.32915445817063471 0.26903875026704582 0 -0.33924996799473722 0.27468153794483102 0 -0.32915445817063471 0.26903875026704582 0 -0.32950802658972228 0.26439071427778871 0 -0.32726730345146149 0.26393595004600712 0 -0.32915445817063471 0.26903875026704582 0 -0.33269610831066321 0.26466219518812112 0 -0.32950802658972228 0.26439071427778871 0 -0.35021269392986681 0.27667242532933201 0 -0.34048171880652678 0.28307942019666738 0 -0.33924996799473722 0.27468153794483102 0 -0.34048171880652678 0.28307942019666738 0 -0.33086194483665932 0.2813448054360701 0 -0.33924996799473722 0.27468153794483102 0 -0.34155941762940761 0.2386539100303619 0 -0.32827960793939881 0.26214523369338821 0 -0.34983942313469119 0.25755307564738861 0 -0.32827960793939881 0.26214523369338821 0 -0.34783642236149048 0.26124248868774402 0 -0.32915445817063471 0.26903875026704582 0 -0.33269610831066321 0.26466219518812112 0 -0.34783642236149048 0.26124248868774402 0 -0.32915445817063471 0.26903875026704582 0 -0.34783642236149048 0.26124248868774402 0 -0.34983942313469119 0.25755307564738861 0 -0.32827960793939881 0.26214523369338821 0 -0.34783642236149048 0.26124248868774402 0 -0.33269610831066321 0.26466219518812112 0 -0.32827960793939881 0.26214523369338821 0 -0.34523226590890771 0.26603919615977129 0 -0.34783642236149048 0.26124248868774402 0 -0.32915445817063471 0.26903875026704582 0 -0.34155941762940761 0.2386539100303619 0 -0.34983942313469119 0.25755307564738861 0 -0.32827960793939881 0.26214523369338821 0 -0.33269610831066321 0.26466219518812112 0 -0.32827960793939881 0.26214523369338821 0 -0.32950802658972228 0.26439071427778871 0 -0.32827960793939881 0.26214523369338821 0 -0.32950802658972228 0.26439071427778871 0 -0.32726730345146149 0.26393595004600712 0 -0.31654435644928958 0.2479158947096568 0 -0.32738739414919932 0.2489738869006195 0 -0.32315599297639769 0.25462576826428779 0 -0.32827960793939881 0.26214523369338821 0 -0.32726730345146149 0.26393595004600712 0 -0.31016706035174019 0.26600313694463962 0 -0.32738739414919932 0.2489738869006195 0 -0.32827960793939881 0.26214523369338821 0 -0.32315599297639769 0.25462576826428779 0 -0.32827960793939881 0.26214523369338821 0 -0.31780254813311171 0.25740370848572858 0 -0.31016706035174019 0.26600313694463962 0 -0.32827960793939881 0.26214523369338821 0 -0.31016706035174019 0.26600313694463962 0 -0.32827960793939881 0.26214523369338821 0 -0.32315599297639769 0.25462576826428779 0 -0.31780254813311171 0.25740370848572858 0 -0.32827960793939881 0.26214523369338821 0 -0.32726730345146149 0.26393595004600712 0 -0.31654435644928958 0.2479158947096568 0 -0.31780254813311171 0.25740370848572858 0 -0.30828377426782499 0.25646851522810238 0 -0.31654435644928958 0.2479158947096568 0 -0.32315599297639769 0.25462576826428779 0 -0.31780254813311171 0.25740370848572858 0 -0.31654435644928958 0.2479158947096568 0 -0.3038978427257164 0.246873702641489 0 -0.30828377426782499 0.25646851522810238 0 -0.31780254813311171 0.25740370848572858 0 -0.30828377426782499 0.25646851522810238 0 -0.31016706035174019 0.26600313694463962 0 -0.30828377426782499 0.25646851522810238 0 -0.30143849877124718 0.26240500443951531 0 -0.31016706035174019 0.26600313694463962 0 -0.30828377426782499 0.25646851522810238 0 -0.30143849877124718 0.26240500443951531 0 -0.29860877044674511 0.2561853227943473 0 -0.30143849877124718 0.26240500443951531 0 -0.29860877044674511 0.2561853227943473 0 -0.2951168223329575 0.26267056357031338 0 -0.3038978427257164 0.246873702641489 0 -0.30828377426782499 0.25646851522810238 0 -0.29860877044674511 0.2561853227943473 0 -0.29255107776505129 0.24973396558157671 0 -0.3038978427257164 0.246873702641489 0 -0.29860877044674511 0.2561853227943473 0 -0.30143849877124718 0.26240500443951531 0 -0.31016706035174019 0.26600313694463962 0 -0.29205451276408101 0.2698610401958888 0 -0.2880006315527241 0.27545635826389969 0 -0.3124110501699251 0.28264410703718279 0 -0.31016706035174019 0.26600313694463962 0 -0.30088628993991762 0.27192289178477552 0 -0.29205451276408101 0.2698610401958888 0 -0.30088628993991762 0.27192289178477552 0 -0.30386419754429178 0.27588243493834391 0 -0.2880006315527241 0.27545635826389969 0 -0.2880006315527241 0.27545635826389969 0 -0.30182116296033518 0.28458812430219788 0 -0.3124110501699251 0.28264410703718279 0 -0.31016706035174019 0.26600313694463962 0 -0.29205451276408101 0.2698610401958888 0 -0.30386419754429178 0.27588243493834391 0 -0.2880006315527241 0.27545635826389969 0 -0.3124110501699251 0.28264410703718279 0 -0.31047249397977889 0.27683501184634768 0 -0.30386419754429178 0.27588243493834391 0 -0.3124110501699251 0.28264410703718279 0 -0.31047249397977889 0.27683501184634768 0 -0.30755052207911332 0.27255380575951349 0 -0.31167017132459418 0.27106256078480923 0 -0.31047249397977889 0.27683501184634768 0 -0.30755052207911332 0.27255380575951349 0 -0.30386419754429178 0.27588243493834391 0 -0.30755052207911332 0.27255380575951349 0 -0.31016706035174019 0.26600313694463962 0 -0.30088628993991762 0.27192289178477552 0 -0.30755052207911332 0.27255380575951349 0 -0.31167017132459418 0.27106256078480923 0 -0.31016706035174019 0.26600313694463962 0 -0.30755052207911332 0.27255380575951349 0 -0.30088628993991762 0.27192289178477552 0 -0.30386419754429178 0.27588243493834391 0 -0.30088628993991762 0.27192289178477552 0 -0.29205451276408101 0.2698610401958888 0 -0.2880006315527241 0.27545635826389969 0 -0.29205451276408101 0.2698610401958888 0 -0.28163768818863438 0.26639179302871058 0 -0.2880006315527241 0.27545635826389969 0 -0.2880006315527241 0.27545635826389969 0 -0.27491710252760959 0.28066830685419247 0 -0.28488854035671068 0.28399823150316073 0 -0.29255107776505129 0.24973396558157671 0 -0.29860877044674511 0.2561853227943473 0 -0.28815904047267921 0.2595856231792667 0 -0.29860877044674511 0.2561853227943473 0 -0.2951168223329575 0.26267056357031338 0 -0.28815904047267921 0.2595856231792667 0 -0.29205451276408101 0.2698610401958888 0 -0.2951168223329575 0.26267056357031338 0 -0.28815904047267921 0.2595856231792667 0 -0.30143849877124718 0.26240500443951531 0 -0.29205451276408101 0.2698610401958888 0 -0.2951168223329575 0.26267056357031338 0 -0.29205451276408101 0.2698610401958888 0 -0.28163768818863438 0.26639179302871058 0 -0.28815904047267921 0.2595856231792667 0 -0.28163768818863438 0.26639179302871058 0 -0.28815904047267921 0.2595856231792667 0 -0.27638404321816451 0.25878733401388121 0 -0.28087744969632139 0.24623394760884479 0 -0.28815904047267921 0.2595856231792667 0 -0.27638404321816451 0.25878733401388121 0 -0.29255107776505129 0.24973396558157671 0 -0.28087744969632139 0.24623394760884479 0 -0.28815904047267921 0.2595856231792667 0 -0.27638404321816451 0.25878733401388121 0 -0.2635902129355232 0.26826860949061671 0 -0.26551688184254191 0.25165200831637358 0 -0.28163768818863438 0.26639179302871058 0 -0.27638404321816451 0.25878733401388121 0 -0.2635902129355232 0.26826860949061671 0 -0.28087744969632139 0.24623394760884479 0 -0.27638404321816451 0.25878733401388121 0 -0.26551688184254191 0.25165200831637358 0 -0.28163768818863438 0.26639179302871058 0 -0.2880006315527241 0.27545635826389969 0 -0.2635902129355232 0.26826860949061671 0 -0.27491710252760959 0.28066830685419247 0 -0.2635902129355232 0.26826860949061671 0 -0.26091468328468032 0.29134377771280051 0 -0.2880006315527241 0.27545635826389969 0 -0.27491710252760959 0.28066830685419247 0 -0.2635902129355232 0.26826860949061671 0 -0.2880006315527241 0.27545635826389969 0 -0.2635902129355232 0.26826860949061671 0 -0.2635902129355232 0.26826860949061671 0 -0.25022615952332511 0.27689649634511809 0 -0.2464792364988535 0.26323021167282251 0 -0.2635902129355232 0.26826860949061671 0 -0.25022615952332511 0.27689649634511809 0 -0.26091468328468032 0.29134377771280051 0 -0.2635902129355232 0.26826860949061671 0 -0.26091468328468032 0.29134377771280051 0 -0.2635902129355232 0.26826860949061671 0 -0.2464792364988535 0.26323021167282251 0 -0.2635902129355232 0.26826860949061671 0 -0.26551688184254191 0.25165200831637358 0 -0.2464792364988535 0.26323021167282251 0 -0.26551688184254191 0.25165200831637358 0 -0.2464792364988535 0.26323021167282251 0 -0.24988911506187331 0.24815664401079651 0 -0.2635902129355232 0.26826860949061671 0 -0.26551688184254191 0.25165200831637358 0 -0.26091468328468032 0.29134377771280051 0 -0.27635477406839087 0.3057390684255159 0 -0.25823915363383748 0.31441894593498437 0 -0.26091468328468032 0.29134377771280051 0 -0.25823915363383748 0.31441894593498437 0 -0.24608185728779061 0.30066227872448348 0 -0.26091468328468032 0.29134377771280051 0 -0.25823915363383748 0.31441894593498437 0 -0.26091468328468032 0.29134377771280051 0 -0.24592729348009709 0.28812892087307201 0 -0.24608185728779061 0.30066227872448348 0 -0.25022615952332511 0.27689649634511809 0 -0.26091468328468032 0.29134377771280051 0 -0.24592729348009709 0.28812892087307201 0 -0.27491710252760959 0.28066830685419247 0 -0.26091468328468032 0.29134377771280051 0 -0.27873225383415051 0.29068768935115158 0 -0.26091468328468032 0.29134377771280051 0 -0.27873225383415051 0.29068768935115158 0 -0.27635477406839087 0.3057390684255159 0 -0.27491710252760959 0.28066830685419247 0 -0.27873225383415051 0.29068768935115158 0 -0.28488854035671068 0.28399823150316073 0 -0.27635477406839087 0.3057390684255159 0 -0.27094943945801991 0.3172948454514653 0 -0.25823915363383748 0.31441894593498437 0 -0.27635477406839087 0.3057390684255159 0 -0.29145480059891682 0.30926518107863199 0 -0.28478922382234162 0.32033014315389757 0 -0.27873225383415051 0.29068768935115158 0 -0.27635477406839087 0.3057390684255159 0 -0.28914994241177178 0.29803421566102811 0 -0.27635477406839087 0.3057390684255159 0 -0.28914994241177178 0.29803421566102811 0 -0.29145480059891682 0.30926518107863199 0 -0.28914994241177178 0.29803421566102811 0 -0.29145480059891682 0.30926518107863199 0 -0.30101266175343849 0.30248831061441273 0 -0.28914994241177178 0.29803421566102811 0 -0.29715628818703199 0.29146188799162231 0 -0.30101266175343849 0.30248831061441273 0 -0.2880006315527241 0.27545635826389969 0 -0.28488854035671068 0.28399823150316073 0 -0.29241109981710089 0.28481355171314299 0 -0.27873225383415051 0.29068768935115158 0 -0.28488854035671068 0.28399823150316073 0 -0.28895941095202432 0.28944598417568201 0 -0.28488854035671068 0.28399823150316073 0 -0.28895941095202432 0.28944598417568201 0 -0.29241109981710089 0.28481355171314299 0 -0.27873225383415051 0.29068768935115158 0 -0.28914994241177178 0.29803421566102811 0 -0.28895941095202432 0.28944598417568201 0 -0.28914994241177178 0.29803421566102811 0 -0.28895941095202432 0.28944598417568201 0 -0.29715628818703199 0.29146188799162231 0 -0.2880006315527241 0.27545635826389969 0 -0.29241109981710089 0.28481355171314299 0 -0.30182116296033518 0.28458812430219788 0 -0.28895941095202432 0.28944598417568201 0 -0.29241109981710089 0.28481355171314299 0 -0.29715628818703199 0.29146188799162231 0 -0.29241109981710089 0.28481355171314299 0 -0.30182116296033518 0.28458812430219788 0 -0.29715628818703199 0.29146188799162231 0 -0.29715628818703199 0.29146188799162231 0 -0.30764136488632482 0.2927426179346011 0 -0.30101266175343849 0.30248831061441273 0 -0.30182116296033518 0.28458812430219788 0 -0.29715628818703199 0.29146188799162231 0 -0.30764136488632482 0.2927426179346011 0 -0.30182116296033518 0.28458812430219788 0 -0.30764136488632482 0.2927426179346011 0 -0.3124110501699251 0.28264410703718279 0 -0.31469531779567728 0.29126923550186318 0 -0.30764136488632482 0.2927426179346011 0 -0.3124110501699251 0.28264410703718279 0 -0.31659252479137928 0.3019050259887075 0 -0.30101266175343849 0.30248831061441273 0 -0.30591342571667252 0.32131792211354537 0 -0.29145480059891682 0.30926518107863199 0 -0.30101266175343849 0.30248831061441273 0 -0.30591342571667252 0.32131792211354537 0 -0.31659252479137928 0.3019050259887075 0 -0.30764136488632482 0.2927426179346011 0 -0.30101266175343849 0.30248831061441273 0 -0.30591342571667252 0.32131792211354537 0 -0.30127334560625069 0.34503288156901829 0 -0.32745353867306382 0.34256946290149343 0 -0.30591342571667252 0.32131792211354537 0 -0.29252294794796058 0.33138264548451041 0 -0.30127334560625069 0.34503288156901829 0 -0.29252294794796058 0.33138264548451041 0 -0.28651628771505638 0.34346162750999698 0 -0.30127334560625069 0.34503288156901829 0 -0.29252294794796058 0.33138264548451041 0 -0.28651628771505638 0.34346162750999698 0 -0.28071413680426349 0.33211827776331249 0 -0.29145480059891682 0.30926518107863199 0 -0.30591342571667252 0.32131792211354537 0 -0.28478922382234162 0.32033014315389757 0 -0.30591342571667252 0.32131792211354537 0 -0.29252294794796058 0.33138264548451041 0 -0.28478922382234162 0.32033014315389757 0 -0.29252294794796058 0.33138264548451041 0 -0.28478922382234162 0.32033014315389757 0 -0.28071413680426349 0.33211827776331249 0 -0.27635477406839087 0.3057390684255159 0 -0.28478922382234162 0.32033014315389757 0 -0.27094943945801991 0.3172948454514653 0 -0.27462120094699788 0.32541585025635911 0 -0.27107629536280581 0.3318217234704508 0 -0.26401777403936388 0.32459659739807317 0 -0.27094943945801991 0.3172948454514653 0 -0.27462120094699788 0.32541585025635911 0 -0.26401777403936388 0.32459659739807317 0 -0.28478922382234162 0.32033014315389757 0 -0.27094943945801991 0.3172948454514653 0 -0.27462120094699788 0.32541585025635911 0 -0.28478922382234162 0.32033014315389757 0 -0.27462120094699788 0.32541585025635911 0 -0.28071413680426349 0.33211827776331249 0 -0.27462120094699788 0.32541585025635911 0 -0.28071413680426349 0.33211827776331249 0 -0.27107629536280581 0.3318217234704508 0 -0.28071413680426349 0.33211827776331249 0 -0.27475886503041858 0.34029767670466032 0 -0.27107629536280581 0.3318217234704508 0 -0.28651628771505638 0.34346162750999698 0 -0.28071413680426349 0.33211827776331249 0 -0.27475886503041858 0.34029767670466032 0 -0.27475886503041858 0.34029767670466032 0 -0.27107629536280581 0.3318217234704508 0 -0.25959338185680869 0.33606417499434271 0 -0.25959338185680869 0.33606417499434271 0 -0.24240988734276131 0.31710022151996209 0 -0.2483319480430867 0.33830930815896842 0 -0.27107629536280581 0.3318217234704508 0 -0.25959338185680869 0.33606417499434271 0 -0.26401777403936388 0.32459659739807317 0 -0.25823915363383748 0.31441894593498437 0 -0.26401777403936388 0.32459659739807317 0 -0.24240988734276131 0.31710022151996209 0 -0.25959338185680869 0.33606417499434271 0 -0.24240988734276131 0.31710022151996209 0 -0.25959338185680869 0.33606417499434271 0 -0.26401777403936388 0.32459659739807317 0 -0.24240988734276131 0.31710022151996209 0 -0.27094943945801991 0.3172948454514653 0 -0.25823915363383748 0.31441894593498437 0 -0.26401777403936388 0.32459659739807317 0 -0.25703873002436989 0.36938548258668602 0 -0.26798940476272509 0.35987799872657289 0 -0.24618019633247751 0.35885819993342177 0 -0.25703873002436989 0.36938548258668602 0 -0.26292597953533792 0.3805475878427319 0 -0.24359129830845319 0.37481467284134862 0 -0.25703873002436989 0.36938548258668602 0 -0.26798940476272509 0.35987799872657289 0 -0.26609562203840498 0.37230964880544271 0 -0.25703873002436989 0.36938548258668602 0 -0.26609562203840498 0.37230964880544271 0 -0.26292597953533792 0.3805475878427319 0 -0.26798940476272509 0.35987799872657289 0 -0.24618019633247751 0.35885819993342177 0 -0.2483319480430867 0.33830930815896842 0 -0.25959338185680869 0.33606417499434271 0 -0.26798940476272509 0.35987799872657289 0 -0.2483319480430867 0.33830930815896842 0 -0.26798940476272509 0.35987799872657289 0 -0.2483319480430867 0.33830930815896842 0 -0.25959338185680869 0.33606417499434271 0 -0.27677687637085607 0.35502812846872323 0 -0.27475886503041858 0.34029767670466032 0 -0.25959338185680869 0.33606417499434271 0 -0.27677687637085607 0.35502812846872323 0 -0.25959338185680869 0.33606417499434271 0 -0.27677687637085607 0.35502812846872323 0 -0.26798940476272509 0.35987799872657289 0 -0.28651628771505638 0.34346162750999698 0 -0.27475886503041858 0.34029767670466032 0 -0.27677687637085607 0.35502812846872323 0 -0.26798940476272509 0.35987799872657289 0 -0.26609562203840498 0.37230964880544271 0 -0.27322007541198079 0.37780356470797388 0 -0.27677687637085607 0.35502812846872323 0 -0.26798940476272509 0.35987799872657289 0 -0.28764686148236362 0.3814466892941773 0 -0.26798940476272509 0.35987799872657289 0 -0.28764686148236362 0.3814466892941773 0 -0.26798940476272509 0.35987799872657289 0 -0.28764686148236362 0.3814466892941773 0 -0.27322007541198079 0.37780356470797388 0 -0.27677687637085607 0.35502812846872323 0 -0.29396037088490362 0.37399208194310379 0 -0.29159134732950631 0.35741873178645928 0 -0.27677687637085607 0.35502812846872323 0 -0.29396037088490362 0.37399208194310379 0 -0.28764686148236362 0.3814466892941773 0 -0.27677687637085607 0.35502812846872323 0 -0.29396037088490362 0.37399208194310379 0 -0.29396037088490362 0.37399208194310379 0 -0.29159134732950631 0.35741873178645928 0 -0.29825841733081532 0.36135953844795821 0 -0.28651628771505638 0.34346162750999698 0 -0.27677687637085607 0.35502812846872323 0 -0.29159134732950631 0.35741873178645928 0 -0.28651628771505638 0.34346162750999698 0 -0.29159134732950631 0.35741873178645928 0 -0.30127334560625069 0.34503288156901829 0 -0.30127334560625069 0.34503288156901829 0 -0.29825841733081532 0.36135953844795821 0 -0.30620860550260082 0.36899445849325152 0 -0.30127334560625069 0.34503288156901829 0 -0.30620860550260082 0.36899445849325152 0 -0.31397554034756098 0.35591844007606332 0 -0.29159134732950631 0.35741873178645928 0 -0.30127334560625069 0.34503288156901829 0 -0.29825841733081532 0.36135953844795821 0 -0.30127334560625069 0.34503288156901829 0 -0.30620860550260082 0.36899445849325152 0 -0.30620860550260082 0.36899445849325152 0 -0.31658081170355801 0.37228161549613348 0 -0.31397554034756098 0.35591844007606332 0 -0.29396037088490362 0.37399208194310379 0 -0.29825841733081532 0.36135953844795821 0 -0.30620860550260082 0.36899445849325152 0 -0.30620860550260082 0.36899445849325152 0 -0.31658081170355801 0.37228161549613348 0 -0.31462170472673928 0.38214251189606729 0 -0.3251839155379842 0.36564070997225961 0 -0.33110760467151662 0.36929487874872258 0 -0.32291429240290542 0.38871195704302602 0 -0.31658081170355801 0.37228161549613348 0 -0.3251839155379842 0.36564070997225961 0 -0.31397554034756098 0.35591844007606332 0 -0.3251839155379842 0.36564070997225961 0 -0.33110760467151662 0.36929487874872258 0 -0.33736844782056058 0.35823373271853409 0 -0.33110760467151662 0.36929487874872258 0 -0.34352110665791152 0.36900320103047712 0 -0.33736844782056058 0.35823373271853409 0 -0.34352110665791152 0.36900320103047712 0 -0.34728753886266089 0.38064794864624651 0 -0.33913451978143128 0.37529024138003292 0 -0.33110760467151662 0.36929487874872258 0 -0.34352110665791152 0.36900320103047712 0 -0.33913451978143128 0.37529024138003292 0 -0.3251839155379842 0.36564070997225961 0 -0.33736844782056058 0.35823373271853409 0 -0.32745353867306382 0.34256946290149343 0 -0.33736844782056058 0.35823373271853409 0 -0.32745353867306382 0.34256946290149343 0 -0.34804624241741422 0.34610806657256182 0 -0.3251839155379842 0.36564070997225961 0 -0.32745353867306382 0.34256946290149343 0 -0.3251839155379842 0.36564070997225961 0 -0.31397554034756098 0.35591844007606332 0 -0.32745353867306382 0.34256946290149343 0 -0.30127334560625069 0.34503288156901829 0 -0.31397554034756098 0.35591844007606332 0 -0.32745353867306382 0.34256946290149343 0 -0.30591342571667252 0.32131792211354537 0 -0.32745353867306382 0.34256946290149343 0 -0.32972316180814337 0.31949821583072718 0 -0.31659252479137928 0.3019050259887075 0 -0.30591342571667252 0.32131792211354537 0 -0.32972316180814337 0.31949821583072718 0 -0.32972316180814337 0.31949821583072718 0 -0.34179165231303738 0.32994174763507078 0 -0.34855076061346307 0.31261658576476242 0 -0.32745353867306382 0.34256946290149343 0 -0.32972316180814337 0.31949821583072718 0 -0.32745353867306382 0.34256946290149343 0 -0.32972316180814337 0.31949821583072718 0 -0.34179165231303738 0.32994174763507078 0 -0.32745353867306382 0.34256946290149343 0 -0.34179165231303738 0.32994174763507078 0 -0.34804624241741422 0.34610806657256182 0 -0.34179165231303738 0.32994174763507078 0 -0.3558308336116599 0.33189522247644332 0 -0.34804624241741422 0.34610806657256182 0 -0.3558308336116599 0.33189522247644332 0 -0.36260192841403621 0.34613804196256442 0 -0.34804624241741422 0.34610806657256182 0 -0.3558308336116599 0.33189522247644332 0 -0.34855076061346307 0.31261658576476242 0 -0.36778350841395901 0.31992125468759092 0 -0.34179165231303738 0.32994174763507078 0 -0.3558308336116599 0.33189522247644332 0 -0.34855076061346307 0.31261658576476242 0 -0.3558308336116599 0.33189522247644332 0 -0.36778350841395901 0.31992125468759092 0 -0.37266219046079307 0.33798303624936421 0 -0.3558308336116599 0.33189522247644332 0 -0.37266219046079307 0.33798303624936421 0 -0.36260192841403621 0.34613804196256442 0 -0.37618028010185389 0.34928148950085552 0 -0.37266219046079307 0.33798303624936421 0 -0.36260192841403621 0.34613804196256442 0 -0.37618028010185389 0.34928148950085552 0 -0.36260192841403621 0.34613804196256442 0 -0.36778452146186758 0.35820882442588858 0 -0.36260192841403621 0.34613804196256442 0 -0.35940361921663921 0.35504697816298753 0 -0.36778452146186758 0.35820882442588858 0 -0.382260639375054 0.37223610923590772 0 -0.36778452146186758 0.35820882442588858 0 -0.36726178248560021 0.36640587447710371 0 -0.382260639375054 0.37223610923590772 0 -0.36726178248560021 0.36640587447710371 0 -0.382260639375054 0.37223610923590772 0 -0.36726178248560021 0.36640587447710371 0 -0.37008669137734029 0.38134665680873081 0 -0.36726178248560021 0.36640587447710371 0 -0.35226292559614669 0.36057563971829859 0 -0.3592885096745102 0.37565085975687529 0 -0.36726178248560021 0.36640587447710371 0 -0.3592885096745102 0.37565085975687529 0 -0.37008669137734029 0.38134665680873081 0 -0.36726178248560021 0.36640587447710371 0 -0.35226292559614669 0.36057563971829859 0 -0.35940361921663921 0.35504697816298753 0 -0.36726178248560021 0.36640587447710371 0 -0.35226292559614669 0.36057563971829859 0 -0.35940361921663921 0.35504697816298753 0 -0.36778452146186758 0.35820882442588858 0 -0.36726178248560021 0.36640587447710371 0 -0.34352110665791152 0.36900320103047712 0 -0.35226292559614669 0.36057563971829859 0 -0.3592885096745102 0.37565085975687529 0 -0.34352110665791152 0.36900320103047712 0 -0.33736844782056058 0.35823373271853409 0 -0.35226292559614669 0.36057563971829859 0 -0.33736844782056058 0.35823373271853409 0 -0.35226292559614669 0.36057563971829859 0 -0.34804624241741422 0.34610806657256182 0 -0.36260192841403621 0.34613804196256442 0 -0.35940361921663921 0.35504697816298753 0 -0.34804624241741422 0.34610806657256182 0 -0.35940361921663921 0.35504697816298753 0 -0.35226292559614669 0.36057563971829859 0 -0.34804624241741422 0.34610806657256182 0 -0.362186320128421 0.39433862436783979 0 -0.34186844783880799 0.39845654021117921 0 -0.34728753886266089 0.38064794864624651 0 -0.362186320128421 0.39433862436783979 0 -0.34186844783880799 0.39845654021117921 0 -0.35602926047764227 0.4041864286279756 0 -0.362186320128421 0.39433862436783979 0 -0.34186844783880799 0.39845654021117921 0 -0.35602926047764227 0.4041864286279756 0 -0.34186844783880799 0.39845654021117921 0 -0.33725065310072389 0.4058423934062807 0 -0.34352110665791152 0.36900320103047712 0 -0.34728753886266089 0.38064794864624651 0 -0.3592885096745102 0.37565085975687529 0 -0.34728753886266089 0.38064794864624651 0 -0.3592885096745102 0.37565085975687529 0 -0.362186320128421 0.39433862436783979 0 -0.38250419241803407 0.39022070852450103 0 -0.37008669137734029 0.38134665680873081 0 -0.362186320128421 0.39433862436783979 0 -0.3592885096745102 0.37565085975687529 0 -0.37008669137734029 0.38134665680873081 0 -0.362186320128421 0.39433862436783979 0 -0.38250419241803407 0.39022070852450103 0 -0.35602926047764227 0.4041864286279756 0 -0.362186320128421 0.39433862436783979 0 -0.38250419241803407 0.39022070852450103 0 -0.35602926047764227 0.4041864286279756 0 -0.37377877321562031 0.40575709322114201 0 -0.38250419241803407 0.39022070852450103 0 -0.35602926047764227 0.4041864286279756 0 -0.38250419241803407 0.39022070852450103 0 -0.362186320128421 0.39433862436783979 0 -0.35602926047764227 0.4041864286279756 0 -0.37377877321562031 0.40575709322114201 0 -0.36131191486133363 0.41126536092306909 0 -0.3828054021757577 0.4209175372725299 0 -0.37377877321562031 0.40575709322114201 0 -0.3635901519115266 0.41981927356543441 0 -0.37377877321562031 0.40575709322114201 0 -0.3635901519115266 0.41981927356543441 0 -0.36131191486133363 0.41126536092306909 0 -0.3635901519115266 0.41981927356543441 0 -0.37297018729276687 0.43537063729066672 0 -0.35511131974908622 0.43738193655841101 0 -0.3828054021757577 0.4209175372725299 0 -0.3635901519115266 0.41981927356543441 0 -0.37297018729276687 0.43537063729066672 0 -0.3635901519115266 0.41981927356543441 0 -0.35511131974908622 0.43738193655841101 0 -0.34559183681296779 0.42459221312626239 0 -0.35511131974908622 0.43738193655841101 0 -0.33993202450695059 0.43223566534022828 0 -0.33699252779592442 0.43784542551210082 0 -0.35511131974908622 0.43738193655841101 0 -0.34559183681296779 0.42459221312626239 0 -0.33993202450695059 0.43223566534022828 0 -0.35602926047764227 0.4041864286279756 0 -0.35184947384054499 0.41529864827772439 0 -0.32955432853725042 0.41815214873144968 0 -0.3635901519115266 0.41981927356543441 0 -0.34559183681296779 0.42459221312626239 0 -0.35184947384054499 0.41529864827772439 0 -0.35602926047764227 0.4041864286279756 0 -0.36131191486133363 0.41126536092306909 0 -0.35184947384054499 0.41529864827772439 0 -0.3635901519115266 0.41981927356543441 0 -0.36131191486133363 0.41126536092306909 0 -0.35184947384054499 0.41529864827772439 0 -0.32955432853725042 0.41815214873144968 0 -0.32155057554919508 0.40257445605451841 0 -0.33725065310072389 0.4058423934062807 0 -0.35602926047764227 0.4041864286279756 0 -0.32955432853725042 0.41815214873144968 0 -0.33725065310072389 0.4058423934062807 0 -0.35602926047764227 0.4041864286279756 0 -0.32955432853725042 0.41815214873144968 0 -0.34559183681296779 0.42459221312626239 0 -0.35184947384054499 0.41529864827772439 0 -0.32955432853725042 0.41815214873144968 0 -0.34559183681296779 0.42459221312626239 0 -0.32955432853725042 0.41815214873144968 0 -0.33411064936549689 0.42622891336879198 0 -0.33993202450695059 0.43223566534022828 0 -0.33566486256221878 0.43599616780747119 0 -0.33699252779592442 0.43784542551210082 0 -0.33566486256221878 0.43599616780747119 0 -0.33699252779592442 0.43784542551210082 0 -0.34559183681296779 0.42459221312626239 0 -0.33993202450695059 0.43223566534022828 0 -0.33411064936549689 0.42622891336879198 0 -0.32955432853725042 0.41815214873144968 0 -0.33411064936549689 0.42622891336879198 0 -0.32600783304831787 0.42526622382813928 0 -0.33411064936549689 0.42622891336879198 0 -0.33212095075600978 0.43136933566833158 0 -0.32600783304831787 0.42526622382813928 0 -0.33212095075600978 0.43136933566833158 0 -0.32703885112375808 0.43366372536718711 0 -0.32600783304831787 0.42526622382813928 0 -0.33566486256221878 0.43599616780747119 0 -0.32703885112375808 0.43366372536718711 0 -0.33699252779592442 0.43784542551210082 0 -0.33212095075600978 0.43136933566833158 0 -0.33566486256221878 0.43599616780747119 0 -0.32703885112375808 0.43366372536718711 0 -0.33993202450695059 0.43223566534022828 0 -0.33212095075600978 0.43136933566833158 0 -0.33566486256221878 0.43599616780747119 0 -0.33993202450695059 0.43223566534022828 0 -0.33411064936549689 0.42622891336879198 0 -0.33212095075600978 0.43136933566833158 0 -0.32703885112375808 0.43366372536718711 0 -0.31939720186815229 0.43829552390857279 0 -0.33699252779592442 0.43784542551210082 0 -0.32703885112375808 0.43366372536718711 0 -0.31884226959637119 0.43010501600302492 0 -0.31939720186815229 0.43829552390857279 0 -0.32703885112375808 0.43366372536718711 0 -0.32600783304831787 0.42526622382813928 0 -0.31884226959637119 0.43010501600302492 0 -0.31736573126302348 0.42316431636830032 0 -0.31339241979232912 0.42757850070248171 0 -0.30810955798601919 0.42379724097640892 0 -0.31736573126302348 0.42316431636830032 0 -0.31339241979232912 0.42757850070248171 0 -0.31884226959637119 0.43010501600302492 0 -0.31339241979232912 0.42757850070248171 0 -0.31884226959637119 0.43010501600302492 0 -0.3106547405002133 0.43272444192704113 0 -0.31884226959637119 0.43010501600302492 0 -0.3106547405002133 0.43272444192704113 0 -0.31939720186815229 0.43829552390857279 0 -0.32600783304831787 0.42526622382813928 0 -0.31884226959637119 0.43010501600302492 0 -0.32155057554919508 0.40257445605451841 0 -0.31736573126302348 0.42316431636830032 0 -0.31884226959637119 0.43010501600302492 0 -0.32155057554919508 0.40257445605451841 0 -0.31736573126302348 0.42316431636830032 0 -0.3144172400316595 0.40884885964777512 0 -0.32155057554919508 0.40257445605451841 0 -0.32955432853725042 0.41815214873144968 0 -0.32600783304831787 0.42526622382813928 0 -0.32155057554919508 0.40257445605451841 0 -0.31884226959637119 0.43010501600302492 0 -0.32155057554919508 0.40257445605451841 0 -0.31736573126302348 0.42316431636830032 0 -0.3144172400316595 0.40884885964777512 0 -0.30810955798601919 0.42379724097640892 0 -0.31736573126302348 0.42316431636830032 0 -0.3144172400316595 0.40884885964777512 0 -0.3144172400316595 0.40884885964777512 0 -0.3134625550862089 0.40421369204985502 0 -0.3144172400316595 0.40884885964777512 0 -0.3134625550862089 0.40421369204985502 0 -0.31664530847050382 0.40356862890545742 0 -0.3134625550862089 0.40421369204985502 0 -0.31414441137644061 0.39940357013487182 0 -0.31114386539895111 0.39295603541748458 0 -0.3134625550862089 0.40421369204985502 0 -0.31414441137644061 0.39940357013487182 0 -0.31664530847050382 0.40356862890545742 0 -0.3144172400316595 0.40884885964777512 0 -0.31664530847050382 0.40356862890545742 0 -0.3134625550862089 0.40421369204985502 0 -0.31664530847050382 0.40356862890545742 0 -0.3144172400316595 0.40884885964777512 0 -0.31664530847050382 0.40356862890545742 0 -0.32155057554919508 0.40257445605451841 0 -0.31664530847050382 0.40356862890545742 0 -0.32155057554919508 0.40257445605451841 0 -0.31664530847050382 0.40356862890545742 0 -0.32291429240290542 0.38871195704302602 0 -0.31414441137644061 0.39940357013487182 0 -0.31664530847050382 0.40356862890545742 0 -0.32291429240290542 0.38871195704302602 0 -0.31414441137644061 0.39940357013487182 0 -0.31584345538875103 0.39063681201241629 0 -0.31276511639133658 0.39474527149893213 0 -0.31414441137644061 0.39940357013487182 0 -0.31584345538875103 0.39063681201241629 0 -0.32291429240290542 0.38871195704302602 0 -0.31584345538875103 0.39063681201241629 0 -0.31276511639133658 0.39474527149893213 0 -0.31114386539895111 0.39295603541748458 0 -0.31414441137644061 0.39940357013487182 0 -0.31276511639133658 0.39474527149893213 0 -0.31114386539895111 0.39295603541748458 0 -0.32155057554919508 0.40257445605451841 0 -0.32291429240290542 0.38871195704302602 0 -0.31664530847050382 0.40356862890545742 0 -0.32155057554919508 0.40257445605451841 0 -0.32291429240290542 0.38871195704302602 0 -0.32155057554919508 0.40257445605451841 0 -0.34186844783880799 0.39845654021117921 0 -0.32155057554919508 0.40257445605451841 0 -0.34186844783880799 0.39845654021117921 0 -0.32291429240290542 0.38871195704302602 0 -0.32155057554919508 0.40257445605451841 0 -0.34186844783880799 0.39845654021117921 0 -0.33725065310072389 0.4058423934062807 0 -0.34728753886266089 0.38064794864624651 0 -0.34186844783880799 0.39845654021117921 0 -0.33462182893363612 0.38221493709468551 0 -0.33110760467151662 0.36929487874872258 0 -0.33462182893363612 0.38221493709468551 0 -0.32291429240290542 0.38871195704302602 0 -0.34186844783880799 0.39845654021117921 0 -0.33462182893363612 0.38221493709468551 0 -0.32291429240290542 0.38871195704302602 0 -0.34728753886266089 0.38064794864624651 0 -0.33913451978143128 0.37529024138003292 0 -0.33462182893363612 0.38221493709468551 0 -0.33110760467151662 0.36929487874872258 0 -0.33913451978143128 0.37529024138003292 0 -0.33462182893363612 0.38221493709468551 0 -0.31658081170355801 0.37228161549613348 0 -0.32291429240290542 0.38871195704302602 0 -0.31462170472673928 0.38214251189606729 0 -0.31658081170355801 0.37228161549613348 0 -0.3251839155379842 0.36564070997225961 0 -0.32291429240290542 0.38871195704302602 0 -0.33110760467151662 0.36929487874872258 0 -0.32291429240290542 0.38871195704302602 0 -0.3251839155379842 0.36564070997225961 0 -0.32291429240290542 0.38871195704302602 0 -0.31584345538875103 0.39063681201241629 0 -0.31462170472673928 0.38214251189606729 0 -0.31114386539895111 0.39295603541748458 0 -0.31584345538875103 0.39063681201241629 0 -0.32291429240290542 0.38871195704302602 0 -0.31462170472673928 0.38214251189606729 0 -0.30620860550260082 0.36899445849325152 0 -0.31114386539895111 0.39295603541748458 0 -0.29396037088490362 0.37399208194310379 0 -0.31114386539895111 0.39295603541748458 0 -0.29396037088490362 0.37399208194310379 0 -0.30010927237838753 0.38637969624006718 0 -0.31114386539895111 0.39295603541748458 0 -0.30620860550260082 0.36899445849325152 0 -0.31462170472673928 0.38214251189606729 0 -0.31114386539895111 0.39295603541748458 0 -0.29396037088490362 0.37399208194310379 0 -0.30620860550260082 0.36899445849325152 0 -0.31114386539895111 0.39295603541748458 0 -0.30010927237838753 0.38637969624006718 0 -0.2972914912671209 0.39123514785122088 0 -0.29387444392012929 0.38508273185091701 0 -0.30010927237838753 0.38637969624006718 0 -0.30263731209165651 0.39376253319351012 0 -0.2972914912671209 0.39123514785122088 0 -0.3134625550862089 0.40421369204985502 0 -0.29810988080784262 0.40062686909387552 0 -0.2860608699052149 0.40976731655997162 0 -0.3134625550862089 0.40421369204985502 0 -0.31114386539895111 0.39295603541748458 0 -0.3134625550862089 0.40421369204985502 0 -0.30653205060598038 0.39761491736490218 0 -0.29810988080784262 0.40062686909387552 0 -0.3134625550862089 0.40421369204985502 0 -0.30653205060598038 0.39761491736490218 0 -0.31114386539895111 0.39295603541748458 0 -0.30653205060598038 0.39761491736490218 0 -0.31114386539895111 0.39295603541748458 0 -0.30263731209165651 0.39376253319351012 0 -0.31276511639133658 0.39474527149893213 0 -0.31114386539895111 0.39295603541748458 0 -0.30653205060598038 0.39761491736490218 0 -0.30263731209165651 0.39376253319351012 0 -0.29810988080784262 0.40062686909387552 0 -0.30263731209165651 0.39376253319351012 0 -0.2972914912671209 0.39123514785122088 0 -0.29810988080784262 0.40062686909387552 0 -0.30010927237838753 0.38637969624006718 0 -0.31114386539895111 0.39295603541748458 0 -0.30263731209165651 0.39376253319351012 0 -0.29810988080784262 0.40062686909387552 0 -0.29036422358787112 0.39236004392601542 0 -0.2860608699052149 0.40976731655997162 0 -0.29036422358787112 0.39236004392601542 0 -0.27502591240266011 0.39158797615533242 0 -0.2860608699052149 0.40976731655997162 0 -0.2972914912671209 0.39123514785122088 0 -0.29810988080784262 0.40062686909387552 0 -0.29036422358787112 0.39236004392601542 0 -0.29396037088490362 0.37399208194310379 0 -0.30010927237838753 0.38637969624006718 0 -0.29387444392012929 0.38508273185091701 0 -0.29396037088490362 0.37399208194310379 0 -0.29387444392012929 0.38508273185091701 0 -0.28764686148236362 0.3814466892941773 0 -0.29036422358787112 0.39236004392601542 0 -0.29387444392012929 0.38508273185091701 0 -0.28764686148236362 0.3814466892941773 0 -0.2972914912671209 0.39123514785122088 0 -0.29036422358787112 0.39236004392601542 0 -0.29387444392012929 0.38508273185091701 0 -0.29036422358787112 0.39236004392601542 0 -0.28764686148236362 0.3814466892941773 0 -0.27502591240266011 0.39158797615533242 0 -0.26609562203840498 0.37230964880544271 0 -0.27322007541198079 0.37780356470797388 0 -0.26292597953533792 0.3805475878427319 0 -0.27322007541198079 0.37780356470797388 0 -0.27502591240266011 0.39158797615533242 0 -0.26292597953533792 0.3805475878427319 0 -0.28764686148236362 0.3814466892941773 0 -0.27322007541198079 0.37780356470797388 0 -0.27502591240266011 0.39158797615533242 0 -0.27502591240266011 0.39158797615533242 0 -0.26015464327294741 0.40959129733367272 0 -0.2860608699052149 0.40976731655997162 0 -0.27502591240266011 0.39158797615533242 0 -0.25052308510874799 0.39311183507680719 0 -0.26015464327294741 0.40959129733367272 0 -0.27502591240266011 0.39158797615533242 0 -0.25052308510874799 0.39311183507680719 0 -0.26292597953533792 0.3805475878427319 0 -0.25052308510874799 0.39311183507680719 0 -0.26292597953533792 0.3805475878427319 0 -0.24359129830845319 0.37481467284134862 0 -0.2710178456980451 0.42502291485007099 0 -0.26037541981217199 0.43980533450084669 0 -0.24694449577372371 0.42611163618181069 0 -0.26015464327294741 0.40959129733367272 0 -0.2710178456980451 0.42502291485007099 0 -0.24694449577372371 0.42611163618181069 0 -0.26015464327294741 0.40959129733367272 0 -0.2710178456980451 0.42502291485007099 0 -0.2860608699052149 0.40976731655997162 0 -0.2710178456980451 0.42502291485007099 0 -0.28108864787627619 0.43927547840294529 0 -0.26037541981217199 0.43980533450084669 0 -0.2710178456980451 0.42502291485007099 0 -0.28961575948118717 0.42732171461888813 0 -0.28108864787627619 0.43927547840294529 0 -0.28961575948118717 0.42732171461888813 0 -0.30180187594038033 0.43874562230504338 0 -0.28108864787627619 0.43927547840294529 0 -0.2710178456980451 0.42502291485007099 0 -0.28961575948118717 0.42732171461888813 0 -0.2860608699052149 0.40976731655997162 0 -0.28961575948118717 0.42732171461888813 0 -0.2860608699052149 0.40976731655997162 0 -0.30810955798601919 0.42379724097640892 0 -0.3144172400316595 0.40884885964777512 0 -0.2860608699052149 0.40976731655997162 0 -0.30810955798601919 0.42379724097640892 0 -0.3134625550862089 0.40421369204985502 0 -0.2860608699052149 0.40976731655997162 0 -0.3144172400316595 0.40884885964777512 0 -0.3134625550862089 0.40421369204985502 0 -0.2860608699052149 0.40976731655997162 0 -0.3144172400316595 0.40884885964777512 0 -0.30810955798601919 0.42379724097640892 0 -0.3106547405002133 0.43272444192704113 0 -0.30180187594038033 0.43874562230504338 0 -0.31939720186815229 0.43829552390857279 0 -0.28961575948118717 0.42732171461888813 0 -0.30810955798601919 0.42379724097640892 0 -0.30180187594038033 0.43874562230504338 0 -0.31339241979232912 0.42757850070248171 0 -0.30810955798601919 0.42379724097640892 0 -0.3106547405002133 0.43272444192704113 0 -0.30810955798601919 0.42379724097640892 0 -0.3106547405002133 0.43272444192704113 0 -0.30180187594038033 0.43874562230504338 0 -0.30810955798601919 0.42379724097640892 0 -0.30180187594038033 0.43874562230504338 0 -0.31117513420040499 0.45259720427378658 0 -0.30180187594038033 0.43874562230504338 0 -0.31939720186815229 0.43829552390857279 0 -0.31117513420040499 0.45259720427378658 0 -0.30180187594038033 0.43874562230504338 0 -0.29513794617201822 0.45453826413510379 0 -0.30180187594038033 0.43874562230504338 0 -0.31939720186815229 0.43829552390857279 0 -0.30180187594038033 0.43874562230504338 0 -0.29513794617201822 0.45453826413510379 0 -0.31117513420040499 0.45259720427378658 0 -0.30386020929367291 0.4665322880361078 0 -0.29513794617201822 0.45453826413510379 0 -0.31117513420040499 0.45259720427378658 0 -0.30386020929367291 0.4665322880361078 0 -0.32070580765382689 0.47079572840450978 0 -0.30386020929367291 0.4665322880361078 0 -0.29513794617201822 0.45453826413510379 0 -0.28847401640365711 0.47033090596516458 0 -0.29513794617201822 0.45453826413510379 0 -0.28847401640365711 0.47033090596516458 0 -0.29513794617201822 0.45453826413510379 0 -0.28028507430692517 0.45769932328304691 0 -0.28847401640365711 0.47033090596516458 0 -0.28028507430692517 0.45769932328304691 0 -0.27554716674335877 0.46891910568971001 0 -0.28847401640365711 0.47033090596516458 0 -0.30180187594038033 0.43874562230504338 0 -0.28108864787627619 0.43927547840294529 0 -0.29513794617201822 0.45453826413510379 0 -0.28108864787627619 0.43927547840294529 0 -0.28028507430692517 0.45769932328304691 0 -0.30180187594038033 0.43874562230504338 0 -0.29513794617201822 0.45453826413510379 0 -0.28108864787627619 0.43927547840294529 0 -0.28108864787627619 0.43927547840294529 0 -0.26037541981217199 0.43980533450084669 0 -0.28108864787627619 0.43927547840294529 0 -0.26865148514345699 0.45025129594593011 0 -0.28028507430692517 0.45769932328304691 0 -0.28108864787627619 0.43927547840294529 0 -0.26865148514345699 0.45025129594593011 0 -0.26037541981217199 0.43980533450084669 0 -0.28028507430692517 0.45769932328304691 0 -0.26547302894380448 0.46288939910830812 0 -0.27554716674335877 0.46891910568971001 0 -0.26547302894380448 0.46288939910830812 0 -0.26627688504998581 0.47357690146351938 0 -0.27554716674335877 0.46891910568971001 0 -0.26865148514345699 0.45025129594593011 0 -0.28028507430692517 0.45769932328304691 0 -0.26547302894380448 0.46288939910830812 0 -0.26865148514345699 0.45025129594593011 0 -0.26547302894380448 0.46288939910830812 0 -0.24991304248381219 0.45583550613526091 0 -0.26547302894380448 0.46288939910830812 0 -0.25268449331869058 0.47029499244752659 0 -0.24991304248381219 0.45583550613526091 0 -0.26865148514345699 0.45025129594593011 0 -0.26037541981217199 0.43980533450084669 0 -0.24991304248381219 0.45583550613526091 0 -0.26287180710567992 0.5 0 -0.25926261917092669 0.48471059917064879 0 -0.233185736186133 0.5 0 -0.25926261917092669 0.48471059917064879 0 -0.25268449331869058 0.47029499244752659 0 -0.26627688504998581 0.47357690146351938 0 -0.26547302894380448 0.46288939910830812 0 -0.25268449331869058 0.47029499244752659 0 -0.26627688504998581 0.47357690146351938 0 -0.25926261917092669 0.48471059917064879 0 -0.26627688504998581 0.47357690146351938 0 -0.27722682901242118 0.4800989986285108 0 -0.26627688504998581 0.47357690146351938 0 -0.27554716674335877 0.46891910568971001 0 -0.27722682901242118 0.4800989986285108 0 -0.27554716674335877 0.46891910568971001 0 -0.27722682901242118 0.4800989986285108 0 -0.28847401640365711 0.47033090596516458 0 -0.26287180710567992 0.5 0 -0.25926261917092669 0.48471059917064879 0 -0.28329077540619602 0.49679555238462331 0 -0.25926261917092669 0.48471059917064879 0 -0.27722682901242118 0.4800989986285108 0 -0.28329077540619602 0.49679555238462331 0 -0.26287180710567992 0.5 0 -0.28329077540619602 0.49679555238462331 0 -0.29255787802522681 0.5 0 -0.25926261917092669 0.48471059917064879 0 -0.28329077540619602 0.49679555238462331 0 -0.28906621907378072 0.48592721865858141 0 -0.29255787802522681 0.5 0 -0.30378159652140241 0.48241063631460818 0 -0.27722682901242118 0.4800989986285108 0 -0.28329077540619602 0.49679555238462331 0 -0.28906621907378072 0.48592721865858141 0 -0.28329077540619602 0.49679555238462331 0 -0.28906621907378072 0.48592721865858141 0 -0.29255787802522681 0.5 0 -0.27722682901242118 0.4800989986285108 0 -0.28906621907378072 0.48592721865858141 0 -0.28847401640365711 0.47033090596516458 0 -0.28906621907378072 0.48592721865858141 0 -0.28847401640365711 0.47033090596516458 0 -0.30378159652140241 0.48241063631460818 0 -0.30386020929367291 0.4665322880361078 0 -0.28847401640365711 0.47033090596516458 0 -0.30378159652140241 0.48241063631460818 0 -0.30386020929367291 0.4665322880361078 0 -0.30378159652140241 0.48241063631460818 0 -0.32070580765382689 0.47079572840450978 0 -0.29255787802522681 0.5 0 -0.30378159652140241 0.48241063631460818 0 -0.32224394894477371 0.5 0 -0.30378159652140241 0.48241063631460818 0 -0.32224394894477371 0.5 0 -0.32070580765382689 0.47079572840450978 0 -0.32224394894477371 0.5 0 -0.34148766401629199 0.47808784706964902 0 -0.3519300198643206 0.5 0 -0.32224394894477371 0.5 0 -0.34148766401629199 0.47808784706964902 0 -0.32070580765382689 0.47079572840450978 0 -0.31117513420040499 0.45259720427378658 0 -0.32070580765382689 0.47079572840450978 0 -0.33027089738775123 0.45603089102944772 0 -0.31117513420040499 0.45259720427378658 0 -0.31939720186815229 0.43829552390857279 0 -0.33027089738775123 0.45603089102944772 0 -0.31939720186815229 0.43829552390857279 0 -0.33699252779592442 0.43784542551210082 0 -0.31939720186815229 0.43829552390857279 0 -0.33699252779592442 0.43784542551210082 0 -0.33027089738775123 0.45603089102944772 0 -0.33699252779592442 0.43784542551210082 0 -0.33027089738775123 0.45603089102944772 0 -0.35186704879190639 0.45856361700806642 0 -0.34148766401629199 0.47808784706964902 0 -0.32070580765382689 0.47079572840450978 0 -0.33027089738775123 0.45603089102944772 0 -0.34148766401629199 0.47808784706964902 0 -0.33027089738775123 0.45603089102944772 0 -0.35186704879190639 0.45856361700806642 0 -0.35511131974908622 0.43738193655841101 0 -0.35186704879190639 0.45856361700806642 0 -0.36560694869647181 0.4488831431725977 0 -0.35511131974908622 0.43738193655841101 0 -0.33699252779592442 0.43784542551210082 0 -0.35511131974908622 0.43738193655841101 0 -0.33699252779592442 0.43784542551210082 0 -0.35186704879190639 0.45856361700806642 0 -0.33699252779592442 0.43784542551210082 0 -0.35186704879190639 0.45856361700806642 0 -0.37297018729276687 0.43537063729066672 0 -0.35511131974908622 0.43738193655841101 0 -0.36560694869647181 0.4488831431725977 0 -0.38107517470086177 0.45066358268589651 0 -0.37297018729276687 0.43537063729066672 0 -0.36560694869647181 0.4488831431725977 0 -0.35186704879190639 0.45856361700806642 0 -0.36560694869647181 0.4488831431725977 0 -0.37142346701765427 0.46187373966637019 0 -0.35186704879190639 0.45856361700806642 0 -0.37142346701765427 0.46187373966637019 0 -0.36674156978788708 0.47928180850403279 0 -0.38107517470086177 0.45066358268589651 0 -0.36560694869647181 0.4488831431725977 0 -0.37142346701765427 0.46187373966637019 0 -0.38468950108231609 0.46920221161444697 0 -0.37142346701765427 0.46187373966637019 0 -0.36674156978788708 0.47928180850403279 0 -0.38161609078386749 0.49999999999999928 0 -0.36674156978788708 0.47928180850403279 0 -0.38161609078386749 0.49999999999999928 0 -0.36674156978788708 0.47928180850403279 0 -0.3519300198643206 0.5 0 -0.34148766401629199 0.47808784706964902 0 -0.36674156978788708 0.47928180850403279 0 -0.3519300198643206 0.5 0 -0.34148766401629199 0.47808784706964902 0 -0.35186704879190639 0.45856361700806642 0 -0.36674156978788708 0.47928180850403279 0 -0.35186704879190639 0.45856361700806642 0 -0.36674156978788708 0.47928180850403279 0 -0.15421842831758009 0.474462957761908 0 -0.14412752342749249 0.5 0 -0.1282215862201766 0.48369278937346333 0 -0.14412752342749249 0.5 0 -0.1282215862201766 0.48369278937346333 0 -0.1144414525079455 0.5 0 -0.15421842831758009 0.474462957761908 0 -0.1282215862201766 0.48369278937346333 0 -0.1330863111759388 0.46290453175888718 0 -0.1330863111759388 0.46290453175888718 0 -0.13505617315529961 0.44351750648224902 0 -0.1199239610330062 0.4528119882766678 0 -0.1330863111759388 0.46290453175888718 0 -0.13505617315529961 0.44351750648224902 0 -0.14886900754197499 0.44954496056332149 0 -0.13505617315529961 0.44351750648224902 0 -0.1199239610330062 0.4528119882766678 0 -0.1237631483686092 0.43940957706830502 0 -0.13505617315529961 0.44351750648224902 0 -0.13551103404815629 0.43124986039638707 0 -0.1237631483686092 0.43940957706830502 0 -0.13505617315529961 0.44351750648224902 0 -0.14886900754197499 0.44954496056332149 0 -0.14763955444857399 0.43190513668857511 0 -0.14886900754197499 0.44954496056332149 0 -0.16157886091216631 0.43617635192744952 0 -0.14763955444857399 0.43190513668857511 0 -0.15421842831758009 0.474462957761908 0 -0.1330863111759388 0.46290453175888718 0 -0.14886900754197499 0.44954496056332149 0 -0.15421842831758009 0.474462957761908 0 -0.167433905349441 0.45292339914497382 0 -0.18496724547122559 0.47291754501279709 0 -0.15421842831758009 0.474462957761908 0 -0.14886900754197499 0.44954496056332149 0 -0.167433905349441 0.45292339914497382 0 -0.14886900754197499 0.44954496056332149 0 -0.167433905349441 0.45292339914497382 0 -0.16157886091216631 0.43617635192744952 0 -0.167433905349441 0.45292339914497382 0 -0.1782734055836 0.43840134198546699 0 -0.16157886091216631 0.43617635192744952 0 -0.18526680860658201 0.45246156679782801 0 -0.1782734055836 0.43840134198546699 0 -0.1970901754510872 0.43818527088915682 0 -0.167433905349441 0.45292339914497382 0 -0.18526680860658201 0.45246156679782801 0 -0.1782734055836 0.43840134198546699 0 -0.167433905349441 0.45292339914497382 0 -0.18526680860658201 0.45246156679782801 0 -0.18496724547122559 0.47291754501279709 0 -0.15421842831758009 0.474462957761908 0 -0.18496724547122559 0.47291754501279709 0 -0.17381359434703919 0.5 0 -0.15421842831758009 0.474462957761908 0 -0.14412752342749249 0.5 0 -0.17381359434703919 0.5 0 -0.18496724547122559 0.47291754501279709 0 -0.17381359434703919 0.5 0 -0.20349966526658611 0.5 0 -0.18496724547122559 0.47291754501279709 0 -0.21361868331199821 0.48121677674243429 0 -0.20349966526658611 0.5 0 -0.18496724547122559 0.47291754501279709 0 -0.21361868331199821 0.48121677674243429 0 -0.21120630670038851 0.46054069274270021 0 -0.21361868331199821 0.48121677674243429 0 -0.20349966526658611 0.5 0 -0.233185736186133 0.5 0 -0.21361868331199821 0.48121677674243429 0 -0.233185736186133 0.5 0 -0.23523446293565761 0.47262564595667461 0 -0.21361868331199821 0.48121677674243429 0 -0.23523446293565761 0.47262564595667461 0 -0.21120630670038851 0.46054069274270021 0 -0.25926261917092669 0.48471059917064879 0 -0.23523446293565761 0.47262564595667461 0 -0.25926261917092669 0.48471059917064879 0 -0.25268449331869058 0.47029499244752659 0 -0.23523446293565761 0.47262564595667461 0 -0.25926261917092669 0.48471059917064879 0 -0.233185736186133 0.5 0 -0.23523446293565761 0.47262564595667461 0 -0.26037541981217199 0.43980533450084669 0 -0.24991304248381219 0.45583550613526091 0 -0.23282924075852421 0.4418371068838241 0 -0.23523446293565761 0.47262564595667461 0 -0.24991304248381219 0.45583550613526091 0 -0.23282924075852421 0.4418371068838241 0 -0.25268449331869058 0.47029499244752659 0 -0.23523446293565761 0.47262564595667461 0 -0.24991304248381219 0.45583550613526091 0 -0.23523446293565761 0.47262564595667461 0 -0.21120630670038851 0.46054069274270021 0 -0.23523446293565761 0.47262564595667461 0 -0.23282924075852421 0.4418371068838241 0 -0.21120630670038851 0.46054069274270021 0 -0.23282924075852421 0.4418371068838241 0 -0.21120630670038851 0.46054069274270021 0 -0.21558385091999349 0.43520374069813289 0 -0.21120630670038851 0.46054069274270021 0 -0.1970901754510872 0.43818527088915682 0 -0.21558385091999349 0.43520374069813289 0 -0.18526680860658201 0.45246156679782801 0 -0.18496724547122559 0.47291754501279709 0 -0.21120630670038851 0.46054069274270021 0 -0.18526680860658201 0.45246156679782801 0 -0.21120630670038851 0.46054069274270021 0 -0.1970901754510872 0.43818527088915682 0 -0.1970901754510872 0.43818527088915682 0 -0.20655300498107459 0.41938954460264088 0 -0.18714979896267109 0.42385092604235008 0 -0.1782734055836 0.43840134198546699 0 -0.1970901754510872 0.43818527088915682 0 -0.18714979896267109 0.42385092604235008 0 -0.19324780297911359 0.40889859037292442 0 -0.20655300498107459 0.41938954460264088 0 -0.18714979896267109 0.42385092604235008 0 -0.19324780297911359 0.40889859037292442 0 -0.20655300498107459 0.41938954460264088 0 -0.20808156686159299 0.39494278544279432 0 -0.20655300498107459 0.41938954460264088 0 -0.23186154406803269 0.41381000030150711 0 -0.20808156686159299 0.39494278544279432 0 -0.1970901754510872 0.43818527088915682 0 -0.20655300498107459 0.41938954460264088 0 -0.21558385091999349 0.43520374069813289 0 -0.20655300498107459 0.41938954460264088 0 -0.21558385091999349 0.43520374069813289 0 -0.23186154406803269 0.41381000030150711 0 -0.23282924075852421 0.4418371068838241 0 -0.21558385091999349 0.43520374069813289 0 -0.23186154406803269 0.41381000030150711 0 -0.26015464327294741 0.40959129733367272 0 -0.23186154406803269 0.41381000030150711 0 -0.24694449577372371 0.42611163618181069 0 -0.23282924075852421 0.4418371068838241 0 -0.23186154406803269 0.41381000030150711 0 -0.24694449577372371 0.42611163618181069 0 -0.26037541981217199 0.43980533450084669 0 -0.23282924075852421 0.4418371068838241 0 -0.24694449577372371 0.42611163618181069 0 -0.25052308510874799 0.39311183507680719 0 -0.23217909428902589 0.39202006937434247 0 -0.24359129830845319 0.37481467284134862 0 -0.25052308510874799 0.39311183507680719 0 -0.26015464327294741 0.40959129733367272 0 -0.23186154406803269 0.41381000030150711 0 -0.25052308510874799 0.39311183507680719 0 -0.23186154406803269 0.41381000030150711 0 -0.23217909428902589 0.39202006937434247 0 -0.23186154406803269 0.41381000030150711 0 -0.23217909428902589 0.39202006937434247 0 -0.20808156686159299 0.39494278544279432 0 -0.23217909428902589 0.39202006937434247 0 -0.2219514501235012 0.37937707448683278 0 -0.20808156686159299 0.39494278544279432 0 -0.23217909428902589 0.39202006937434247 0 -0.2219514501235012 0.37937707448683278 0 -0.24359129830845319 0.37481467284134862 0 -0.2219514501235012 0.37937707448683278 0 -0.20808156686159299 0.39494278544279432 0 -0.2050654323875207 0.37071951430893929 0 -0.19324780297911359 0.40889859037292442 0 -0.20808156686159299 0.39494278544279432 0 -0.18177632299738861 0.39603320319059843 0 -0.20808156686159299 0.39494278544279432 0 -0.1873537222283998 0.37642582244254691 0 -0.2050654323875207 0.37071951430893929 0 -0.20808156686159299 0.39494278544279432 0 -0.1873537222283998 0.37642582244254691 0 -0.18177632299738861 0.39603320319059843 0 -0.1873537222283998 0.37642582244254691 0 -0.17081791465312249 0.38445541216147872 0 -0.18177632299738861 0.39603320319059843 0 -0.17081791465312249 0.38445541216147872 0 -0.15771812980382929 0.39249514487027748 0 -0.15511405555127769 0.37731959126588971 0 -0.17081791465312249 0.38445541216147872 0 -0.15771812980382929 0.39249514487027748 0 -0.16669706012196539 0.40120502972360678 0 -0.15771812980382929 0.39249514487027748 0 -0.16669706012196539 0.40120502972360678 0 -0.15389159083899359 0.40229711687100289 0 -0.19324780297911359 0.40889859037292442 0 -0.18177632299738861 0.39603320319059843 0 -0.17633459314845579 0.41230407164878541 0 -0.17081791465312249 0.38445541216147872 0 -0.16669706012196539 0.40120502972360678 0 -0.18177632299738861 0.39603320319059843 0 -0.16669706012196539 0.40120502972360678 0 -0.18177632299738861 0.39603320319059843 0 -0.17633459314845579 0.41230407164878541 0 -0.19324780297911359 0.40889859037292442 0 -0.17633459314845579 0.41230407164878541 0 -0.18714979896267109 0.42385092604235008 0 -0.17633459314845579 0.41230407164878541 0 -0.18714979896267109 0.42385092604235008 0 -0.1713998116326953 0.42592673675512599 0 -0.1782734055836 0.43840134198546699 0 -0.18714979896267109 0.42385092604235008 0 -0.1713998116326953 0.42592673675512599 0 -0.1782734055836 0.43840134198546699 0 -0.16157886091216631 0.43617635192744952 0 -0.1713998116326953 0.42592673675512599 0 -0.16157886091216631 0.43617635192744952 0 -0.1713998116326953 0.42592673675512599 0 -0.15801568960994419 0.41702614345218919 0 -0.16669706012196539 0.40120502972360678 0 -0.15801568960994419 0.41702614345218919 0 -0.15389159083899359 0.40229711687100289 0 -0.17633459314845579 0.41230407164878541 0 -0.1713998116326953 0.42592673675512599 0 -0.15801568960994419 0.41702614345218919 0 -0.16669706012196539 0.40120502972360678 0 -0.17633459314845579 0.41230407164878541 0 -0.15801568960994419 0.41702614345218919 0 -0.15801568960994419 0.41702614345218919 0 -0.1425888718300185 0.40763446674745391 0 -0.15389159083899359 0.40229711687100289 0 -0.15801568960994419 0.41702614345218919 0 -0.143521068118558 0.42054530330209822 0 -0.1425888718300185 0.40763446674745391 0 -0.16157886091216631 0.43617635192744952 0 -0.15801568960994419 0.41702614345218919 0 -0.14763955444857399 0.43190513668857511 0 -0.15801568960994419 0.41702614345218919 0 -0.143521068118558 0.42054530330209822 0 -0.14763955444857399 0.43190513668857511 0 -0.143521068118558 0.42054530330209822 0 -0.14763955444857399 0.43190513668857511 0 -0.13551103404815629 0.43124986039638707 0 -0.143521068118558 0.42054530330209822 0 -0.13551103404815629 0.43124986039638707 0 -0.1236378151455341 0.42570099897789171 0 -0.13505617315529961 0.44351750648224902 0 -0.14763955444857399 0.43190513668857511 0 -0.13551103404815629 0.43124986039638707 0 -0.13551103404815629 0.43124986039638707 0 -0.1236378151455341 0.42570099897789171 0 -0.1237631483686092 0.43940957706830502 0 -0.1425888718300185 0.40763446674745391 0 -0.12902600015629681 0.41707755739292918 0 -0.1236378151455341 0.42570099897789171 0 -0.1425888718300185 0.40763446674745391 0 -0.1236378151455341 0.42570099897789171 0 -0.1425888718300185 0.40763446674745391 0 -0.12902600015629681 0.41707755739292918 0 -0.1420700278537872 0.39719857432940942 0 -0.143521068118558 0.42054530330209822 0 -0.1425888718300185 0.40763446674745391 0 -0.1236378151455341 0.42570099897789171 0 -0.12902600015629681 0.41707755739292918 0 -0.1420700278537872 0.39719857432940942 0 -0.1242794984927641 0.40744291385392839 0 -0.12902600015629681 0.41707755739292918 0 -0.1420700278537872 0.39719857432940942 0 -0.1420700278537872 0.39719857432940942 0 -0.12275992732092469 0.39755179721442518 0 -0.1242794984927641 0.40744291385392839 0 -0.13442415035259139 0.38711122400192249 0 -0.1420700278537872 0.39719857432940942 0 -0.12275992732092469 0.39755179721442518 0 -0.13442415035259139 0.38711122400192249 0 -0.12134993118536561 0.38606826928379062 0 -0.12275992732092469 0.39755179721442518 0 -0.13442415035259139 0.38711122400192249 0 -0.15511405555127769 0.37731959126588971 0 -0.13154430046032589 0.37412332416829119 0 -0.13442415035259139 0.38711122400192249 0 -0.13154430046032589 0.37412332416829119 0 -0.12134993118536561 0.38606826928379062 0 -0.13442415035259139 0.38711122400192249 0 -0.15511405555127769 0.37731959126588971 0 -0.1420700278537872 0.39719857432940942 0 -0.15771812980382929 0.39249514487027748 0 -0.15511405555127769 0.37731959126588971 0 -0.1420700278537872 0.39719857432940942 0 -0.15511405555127769 0.37731959126588971 0 -0.1420700278537872 0.39719857432940942 0 -0.15771812980382929 0.39249514487027748 0 -0.15389159083899359 0.40229711687100289 0 -0.1420700278537872 0.39719857432940942 0 -0.1425888718300185 0.40763446674745391 0 -0.15389159083899359 0.40229711687100289 0 -0.1420700278537872 0.39719857432940942 0 -0.14601932337251811 0.35830994758651291 0 -0.13954237801078689 0.34448666921854798 0 -0.15478874573153739 0.34150251823533978 0 -0.15511405555127769 0.37731959126588971 0 -0.14601932337251811 0.35830994758651291 0 -0.13154430046032589 0.37412332416829119 0 -0.14601932337251811 0.35830994758651291 0 -0.13154430046032589 0.37412332416829119 0 -0.12684247981597721 0.35792383386553001 0 -0.12684247981597721 0.35792383386553001 0 -0.13954237801078689 0.34448666921854798 0 -0.12872725386462211 0.33568422225544609 0 -0.14601932337251811 0.35830994758651291 0 -0.12684247981597721 0.35792383386553001 0 -0.13954237801078689 0.34448666921854798 0 -0.12872725386462211 0.33568422225544609 0 -0.13583406700898459 0.32446092714992908 0 -0.1226735434241156 0.32423587350874611 0 -0.12872725386462211 0.33568422225544609 0 -0.13583406700898459 0.32446092714992908 0 -0.142564176913475 0.33231162875870301 0 -0.13954237801078689 0.34448666921854798 0 -0.12872725386462211 0.33568422225544609 0 -0.142564176913475 0.33231162875870301 0 -0.13216575609747361 0.31445389558194581 0 -0.1241184775115281 0.31073445658254439 0 -0.1226735434241156 0.32423587350874611 0 -0.13216575609747361 0.31445389558194581 0 -0.13583406700898459 0.32446092714992908 0 -0.1226735434241156 0.32423587350874611 0 -0.13216575609747361 0.31445389558194581 0 -0.13583406700898459 0.32446092714992908 0 -0.14254812364907929 0.31700176133992047 0 -0.14971986773463489 0.31876334361394942 0 -0.15147947538533391 0.32875891336040108 0 -0.1654609893404469 0.32816248437639972 0 -0.14254812364907929 0.31700176133992047 0 -0.14971986773463489 0.31876334361394942 0 -0.14866523487430719 0.30920609717359809 0 -0.14254812364907929 0.31700176133992047 0 -0.14442914213830149 0.32425931484458059 0 -0.14971986773463489 0.31876334361394942 0 -0.13583406700898459 0.32446092714992908 0 -0.14254812364907929 0.31700176133992047 0 -0.14442914213830149 0.32425931484458059 0 -0.13583406700898459 0.32446092714992908 0 -0.14442914213830149 0.32425931484458059 0 -0.142564176913475 0.33231162875870301 0 -0.14442914213830149 0.32425931484458059 0 -0.14971986773463489 0.31876334361394942 0 -0.15147947538533391 0.32875891336040108 0 -0.14971986773463489 0.31876334361394942 0 -0.16105934307198519 0.31414880121596372 0 -0.14866523487430719 0.30920609717359809 0 -0.13954237801078689 0.34448666921854798 0 -0.142564176913475 0.33231162875870301 0 -0.15478874573153739 0.34150251823533978 0 -0.14442914213830149 0.32425931484458059 0 -0.142564176913475 0.33231162875870301 0 -0.15147947538533391 0.32875891336040108 0 -0.142564176913475 0.33231162875870301 0 -0.15147947538533391 0.32875891336040108 0 -0.15478874573153739 0.34150251823533978 0 -0.1654609893404469 0.32816248437639972 0 -0.16740248231675281 0.34116680898823981 0 -0.18120211094625871 0.33756162513885007 0 -0.15478874573153739 0.34150251823533978 0 -0.1654609893404469 0.32816248437639972 0 -0.16740248231675281 0.34116680898823981 0 -0.15147947538533391 0.32875891336040108 0 -0.15478874573153739 0.34150251823533978 0 -0.1654609893404469 0.32816248437639972 0 -0.14971986773463489 0.31876334361394942 0 -0.1654609893404469 0.32816248437639972 0 -0.16105934307198519 0.31414880121596372 0 -0.14971986773463489 0.31876334361394942 0 -0.1654609893404469 0.32816248437639972 0 -0.1654609893404469 0.32816248437639972 0 -0.16105934307198519 0.31414880121596372 0 -0.17269983515135801 0.31638532503025119 0 -0.1844350201415853 0.32133500971810519 0 -0.18120211094625871 0.33756162513885007 0 -0.1951095727750323 0.3163667760813057 0 -0.1654609893404469 0.32816248437639972 0 -0.17269983515135801 0.31638532503025119 0 -0.1844350201415853 0.32133500971810519 0 -0.17269983515135801 0.31638532503025119 0 -0.1844350201415853 0.32133500971810519 0 -0.18127371490003169 0.31086872472419408 0 -0.1844350201415853 0.32133500971810519 0 -0.19505145598408741 0.30641608357444239 0 -0.18127371490003169 0.31086872472419408 0 -0.1654609893404469 0.32816248437639972 0 -0.1844350201415853 0.32133500971810519 0 -0.18120211094625871 0.33756162513885007 0 -0.1654609893404469 0.32816248437639972 0 -0.18120211094625871 0.33756162513885007 0 -0.18120211094625871 0.33756162513885007 0 -0.16815808324876819 0.35744060820236989 0 -0.16740248231675281 0.34116680898823981 0 -0.18120211094625871 0.33756162513885007 0 -0.16815808324876819 0.35744060820236989 0 -0.18120211094625871 0.33756162513885007 0 -0.1865190324120527 0.35588477255942752 0 -0.16815808324876819 0.35744060820236989 0 -0.15478874573153739 0.34150251823533978 0 -0.16740248231675281 0.34116680898823981 0 -0.16815808324876819 0.35744060820236989 0 -0.14601932337251811 0.35830994758651291 0 -0.15478874573153739 0.34150251823533978 0 -0.16815808324876819 0.35744060820236989 0 -0.15511405555127769 0.37731959126588971 0 -0.16815808324876819 0.35744060820236989 0 -0.15511405555127769 0.37731959126588971 0 -0.14601932337251811 0.35830994758651291 0 -0.16815808324876819 0.35744060820236989 0 -0.17081791465312249 0.38445541216147872 0 -0.15511405555127769 0.37731959126588971 0 -0.16815808324876819 0.35744060820236989 0 -0.1873537222283998 0.37642582244254691 0 -0.17081791465312249 0.38445541216147872 0 -0.16815808324876819 0.35744060820236989 0 -0.1873537222283998 0.37642582244254691 0 -0.1865190324120527 0.35588477255942752 0 -0.16815808324876819 0.35744060820236989 0 -0.1873537222283998 0.37642582244254691 0 -0.1865190324120527 0.35588477255942752 0 -0.2050654323875207 0.37071951430893929 0 -0.1865190324120527 0.35588477255942752 0 -0.20199850673365699 0.34997930770634939 0 -0.2050654323875207 0.37071951430893929 0 -0.18120211094625871 0.33756162513885007 0 -0.20199850673365699 0.34997930770634939 0 -0.18120211094625871 0.33756162513885007 0 -0.1865190324120527 0.35588477255942752 0 -0.20199850673365699 0.34997930770634939 0 -0.20199850673365699 0.34997930770634939 0 -0.22279490252105499 0.36239699027384897 0 -0.22283739836554031 0.33992153210861697 0 -0.20199850673365699 0.34997930770634939 0 -0.22279490252105499 0.36239699027384897 0 -0.2219514501235012 0.37937707448683278 0 -0.2050654323875207 0.37071951430893929 0 -0.22279490252105499 0.36239699027384897 0 -0.20199850673365699 0.34997930770634939 0 -0.2050654323875207 0.37071951430893929 0 -0.22279490252105499 0.36239699027384897 0 -0.2219514501235012 0.37937707448683278 0 -0.22279490252105499 0.36239699027384897 0 -0.24359129830845319 0.37481467284134862 0 -0.22279490252105499 0.36239699027384897 0 -0.24359129830845319 0.37481467284134862 0 -0.22279490252105499 0.36239699027384897 0 -0.23593365477403991 0.3475525902384447 0 -0.22283739836554031 0.33992153210861697 0 -0.24618019633247751 0.35885819993342177 0 -0.23593365477403991 0.3475525902384447 0 -0.2483319480430867 0.33830930815896842 0 -0.22279490252105499 0.36239699027384897 0 -0.24618019633247751 0.35885819993342177 0 -0.23593365477403991 0.3475525902384447 0 -0.25703873002436989 0.36938548258668602 0 -0.24618019633247751 0.35885819993342177 0 -0.24359129830845319 0.37481467284134862 0 -0.22279490252105499 0.36239699027384897 0 -0.24618019633247751 0.35885819993342177 0 -0.24359129830845319 0.37481467284134862 0 -0.24240988734276131 0.31710022151996209 0 -0.2483319480430867 0.33830930815896842 0 -0.22867449132344811 0.31674061759136379 0 -0.2483319480430867 0.33830930815896842 0 -0.22867449132344811 0.31674061759136379 0 -0.24240988734276131 0.31710022151996209 0 -0.22867449132344811 0.31674061759136379 0 -0.23575614214734719 0.30689061822995162 0 -0.2483319480430867 0.33830930815896842 0 -0.23366963939715921 0.3350474637183688 0 -0.22867449132344811 0.31674061759136379 0 -0.23593365477403991 0.3475525902384447 0 -0.2483319480430867 0.33830930815896842 0 -0.23366963939715921 0.3350474637183688 0 -0.23366963939715921 0.3350474637183688 0 -0.22283739836554031 0.33992153210861697 0 -0.22646728430246019 0.32950298359509689 0 -0.23593365477403991 0.3475525902384447 0 -0.23366963939715921 0.3350474637183688 0 -0.22283739836554031 0.33992153210861697 0 -0.22283739836554031 0.33992153210861697 0 -0.22646728430246019 0.32950298359509689 0 -0.21763589803508279 0.32469717751236138 0 -0.22646728430246019 0.32950298359509689 0 -0.22867449132344811 0.31674061759136379 0 -0.21763589803508279 0.32469717751236138 0 -0.22867449132344811 0.31674061759136379 0 -0.21763589803508279 0.32469717751236138 0 -0.21193996450761149 0.31225013766013171 0 -0.23366963939715921 0.3350474637183688 0 -0.22646728430246019 0.32950298359509689 0 -0.22867449132344811 0.31674061759136379 0 -0.21763589803508279 0.32469717751236138 0 -0.20547497334223969 0.3215711758898997 0 -0.21193996450761149 0.31225013766013171 0 -0.21763589803508279 0.32469717751236138 0 -0.20547497334223969 0.3215711758898997 0 -0.20825968240921541 0.33292961136047761 0 -0.20547497334223969 0.3215711758898997 0 -0.20505424949162571 0.31359398675248817 0 -0.21193996450761149 0.31225013766013171 0 -0.20199850673365699 0.34997930770634939 0 -0.22283739836554031 0.33992153210861697 0 -0.20825968240921541 0.33292961136047761 0 -0.22283739836554031 0.33992153210861697 0 -0.21763589803508279 0.32469717751236138 0 -0.20825968240921541 0.33292961136047761 0 -0.20547497334223969 0.3215711758898997 0 -0.20825968240921541 0.33292961136047761 0 -0.1969516532504543 0.33121222224855701 0 -0.18120211094625871 0.33756162513885007 0 -0.20199850673365699 0.34997930770634939 0 -0.1969516532504543 0.33121222224855701 0 -0.20199850673365699 0.34997930770634939 0 -0.20825968240921541 0.33292961136047761 0 -0.1969516532504543 0.33121222224855701 0 -0.18120211094625871 0.33756162513885007 0 -0.1969516532504543 0.33121222224855701 0 -0.1951095727750323 0.3163667760813057 0 -0.18120211094625871 0.33756162513885007 0 -0.1951095727750323 0.3163667760813057 0 -0.20505424949162571 0.31359398675248817 0 -0.1951095727750323 0.3163667760813057 0 -0.2059694287722619 0.30787203559347731 0 -0.20547497334223969 0.3215711758898997 0 -0.20505424949162571 0.31359398675248817 0 -0.1951095727750323 0.3163667760813057 0 -0.20547497334223969 0.3215711758898997 0 -0.1969516532504543 0.33121222224855701 0 -0.1951095727750323 0.3163667760813057 0 -0.1844350201415853 0.32133500971810519 0 -0.1951095727750323 0.3163667760813057 0 -0.19505145598408741 0.30641608357444239 0 -0.1844350201415853 0.32133500971810519 0 -0.19505145598408741 0.30641608357444239 0 -0.1951095727750323 0.3163667760813057 0 -0.20901703460380669 0.29517192702376188 0 -0.1951095727750323 0.3163667760813057 0 -0.19505145598408741 0.30641608357444239 0 -0.20901703460380669 0.29517192702376188 0 -0.19505145598408741 0.30641608357444239 0 -0.19041001229436849 0.29782869796890921 0 -0.18187386941247491 0.30179108725695242 0 -0.19505145598408741 0.30641608357444239 0 -0.19041001229436849 0.29782869796890921 0 -0.2056678918265859 0.29149715743077709 0 -0.19505145598408741 0.30641608357444239 0 -0.2056678918265859 0.29149715743077709 0 -0.1929248501463279 0.28797602173019271 0 -0.2056678918265859 0.29149715743077709 0 -0.18558900734588349 0.26946606498155712 0 -0.1929248501463279 0.28797602173019271 0 -0.18558900734588349 0.26946606498155712 0 -0.1850431458083745 0.29010820509669372 0 -0.19041001229436849 0.29782869796890921 0 -0.1929248501463279 0.28797602173019271 0 -0.1850431458083745 0.29010820509669372 0 -0.19041001229436849 0.29782869796890921 0 -0.1929248501463279 0.28797602173019271 0 -0.2056678918265859 0.29149715743077709 0 -0.2056678918265859 0.29149715743077709 0 -0.21882470202806081 0.28022512844735958 0 -0.2175180759443866 0.27484448564290431 0 -0.2056678918265859 0.29149715743077709 0 -0.2175180759443866 0.27484448564290431 0 -0.2095600902549305 0.27892751162405999 0 -0.2056678918265859 0.29149715743077709 0 -0.2175180759443866 0.27484448564290431 0 -0.2056678918265859 0.29149715743077709 0 -0.2095600902549305 0.27892751162405999 0 -0.20211103143438269 0.28029410956675699 0 -0.2056678918265859 0.29149715743077709 0 -0.20901703460380669 0.29517192702376188 0 -0.20901703460380669 0.29517192702376188 0 -0.22155729326669971 0.2968276216376608 0 -0.21925165326359189 0.29119643838241932 0 -0.2056678918265859 0.29149715743077709 0 -0.20901703460380669 0.29517192702376188 0 -0.21882470202806081 0.28022512844735958 0 -0.20901703460380669 0.29517192702376188 0 -0.21882470202806081 0.28022512844735958 0 -0.20901703460380669 0.29517192702376188 0 -0.21925165326359189 0.29119643838241932 0 -0.21882470202806081 0.28022512844735958 0 -0.1951095727750323 0.3163667760813057 0 -0.20901703460380669 0.29517192702376188 0 -0.2059694287722619 0.30787203559347731 0 -0.22867449132344811 0.31674061759136379 0 -0.20901703460380669 0.29517192702376188 0 -0.21193996450761149 0.31225013766013171 0 -0.20901703460380669 0.29517192702376188 0 -0.2059694287722619 0.30787203559347731 0 -0.21193996450761149 0.31225013766013171 0 -0.20901703460380669 0.29517192702376188 0 -0.2255419174775099 0.30701778172622501 0 -0.22155729326669971 0.2968276216376608 0 -0.20505424949162571 0.31359398675248817 0 -0.2059694287722619 0.30787203559347731 0 -0.21193996450761149 0.31225013766013171 0 -0.19505145598408741 0.30641608357444239 0 -0.2056678918265859 0.29149715743077709 0 -0.20901703460380669 0.29517192702376188 0 -0.22867449132344811 0.31674061759136379 0 -0.20901703460380669 0.29517192702376188 0 -0.2255419174775099 0.30701778172622501 0 -0.22867449132344811 0.31674061759136379 0 -0.20901703460380669 0.29517192702376188 0 -0.22838519580107181 0.29920937687903021 0 -0.23503487283344929 0.2905368208625228 0 -0.23575614214734719 0.30689061822995162 0 -0.22867449132344811 0.31674061759136379 0 -0.2255419174775099 0.30701778172622501 0 -0.23575614214734719 0.30689061822995162 0 -0.2255419174775099 0.30701778172622501 0 -0.22838519580107181 0.29920937687903021 0 -0.23575614214734719 0.30689061822995162 0 -0.2255419174775099 0.30701778172622501 0 -0.22838519580107181 0.29920937687903021 0 -0.22155729326669971 0.2968276216376608 0 -0.22155729326669971 0.2968276216376608 0 -0.21925165326359189 0.29119643838241932 0 -0.2259424786668878 0.29209886860152712 0 -0.21925165326359189 0.29119643838241932 0 -0.2259424786668878 0.29209886860152712 0 -0.22717208287060051 0.28539425048436762 0 -0.22838519580107181 0.29920937687903021 0 -0.22155729326669971 0.2968276216376608 0 -0.2259424786668878 0.29209886860152712 0 -0.21925165326359189 0.29119643838241932 0 -0.22717208287060051 0.28539425048436762 0 -0.21882470202806081 0.28022512844735958 0 -0.22717208287060051 0.28539425048436762 0 -0.23503487283344929 0.2905368208625228 0 -0.23737889447124019 0.28120523072043518 0 -0.2259424786668878 0.29209886860152712 0 -0.22717208287060051 0.28539425048436762 0 -0.23503487283344929 0.2905368208625228 0 -0.22838519580107181 0.29920937687903021 0 -0.2259424786668878 0.29209886860152712 0 -0.23503487283344929 0.2905368208625228 0 -0.23503487283344929 0.2905368208625228 0 -0.24592729348009709 0.28812892087307201 0 -0.23737889447124019 0.28120523072043518 0 -0.25022615952332511 0.27689649634511809 0 -0.24592729348009709 0.28812892087307201 0 -0.23737889447124019 0.28120523072043518 0 -0.23503487283344929 0.2905368208625228 0 -0.24592729348009709 0.28812892087307201 0 -0.24608185728779061 0.30066227872448348 0 -0.25823915363383748 0.31441894593498437 0 -0.24240988734276131 0.31710022151996209 0 -0.24608185728779061 0.30066227872448348 0 -0.24240988734276131 0.31710022151996209 0 -0.24608185728779061 0.30066227872448348 0 -0.23575614214734719 0.30689061822995162 0 -0.23503487283344929 0.2905368208625228 0 -0.24608185728779061 0.30066227872448348 0 -0.23575614214734719 0.30689061822995162 0 -0.2464792364988535 0.26323021167282251 0 -0.23699377164994481 0.27023422958879012 0 -0.22936826006218361 0.25819181385502887 0 -0.2464792364988535 0.26323021167282251 0 -0.22936826006218361 0.25819181385502887 0 -0.23517492167944401 0.25003190434355871 0 -0.2464792364988535 0.26323021167282251 0 -0.22936826006218361 0.25819181385502887 0 -0.23517492167944401 0.25003190434355871 0 -0.2464792364988535 0.26323021167282251 0 -0.24988911506187331 0.24815664401079651 0 -0.25022615952332511 0.27689649634511809 0 -0.2464792364988535 0.26323021167282251 0 -0.23699377164994481 0.27023422958879012 0 -0.25022615952332511 0.27689649634511809 0 -0.23737889447124019 0.28120523072043518 0 -0.23699377164994481 0.27023422958879012 0 -0.23737889447124019 0.28120523072043518 0 -0.23699377164994481 0.27023422958879012 0 -0.22987770989175069 0.27660329506837861 0 -0.22863236945231569 0.26527832987095767 0 -0.22936826006218361 0.25819181385502887 0 -0.2175180759443866 0.27484448564290431 0 -0.22936826006218361 0.25819181385502887 0 -0.2175180759443866 0.27484448564290431 0 -0.23699377164994481 0.27023422958879012 0 -0.22987770989175069 0.27660329506837861 0 -0.22863236945231569 0.26527832987095767 0 -0.21881913008686579 0.26508187198912703 0 -0.22936826006218361 0.25819181385502887 0 -0.2175180759443866 0.27484448564290431 0 -0.22717208287060051 0.28539425048436762 0 -0.23737889447124019 0.28120523072043518 0 -0.22987770989175069 0.27660329506837861 0 -0.22987770989175069 0.27660329506837861 0 -0.21882470202806081 0.28022512844735958 0 -0.22863236945231569 0.26527832987095767 0 -0.22717208287060051 0.28539425048436762 0 -0.22987770989175069 0.27660329506837861 0 -0.21882470202806081 0.28022512844735958 0 -0.21882470202806081 0.28022512844735958 0 -0.22863236945231569 0.26527832987095767 0 -0.2175180759443866 0.27484448564290431 0 -0.21882470202806081 0.28022512844735958 0 -0.22863236945231569 0.26527832987095767 0 -0.21881913008686579 0.26508187198912703 0 -0.22198171117434359 0.25941025216903091 0 -0.22936826006218361 0.25819181385502887 0 -0.22198171117434359 0.25941025216903091 0 -0.22368304628454491 0.25651777913252333 0 -0.21605640826377989 0.25784954369944463 0 -0.21881913008686579 0.26508187198912703 0 -0.22198171117434359 0.25941025216903091 0 -0.21605640826377989 0.25784954369944463 0 -0.22198171117434359 0.25941025216903091 0 -0.22936826006218361 0.25819181385502887 0 -0.22368304628454491 0.25651777913252333 0 -0.23699377164994481 0.27023422958879012 0 -0.22863236945231569 0.26527832987095767 0 -0.22936826006218361 0.25819181385502887 0 -0.23517492167944401 0.25003190434355871 0 -0.22936826006218361 0.25819181385502887 0 -0.22688817632513 0.2499194994399864 0 -0.23517492167944401 0.25003190434355871 0 -0.22936826006218361 0.25819181385502887 0 -0.22936826006218361 0.25819181385502887 0 -0.22368304628454491 0.25651777913252333 0 -0.22688817632513 0.2499194994399864 0 -0.22368304628454491 0.25651777913252333 0 -0.22688817632513 0.2499194994399864 0 -0.21740568396297191 0.24887085884641791 0 -0.22368304628454491 0.25651777913252333 0 -0.21605640826377989 0.25784954369944463 0 -0.21740568396297191 0.24887085884641791 0 -0.22936826006218361 0.25819181385502887 0 -0.22368304628454491 0.25651777913252333 0 -0.21605640826377989 0.25784954369944463 0 -0.20678538293090801 0.25409833089725919 0 -0.21740568396297191 0.24887085884641791 0 -0.21881913008686579 0.26508187198912703 0 -0.21605640826377989 0.25784954369944463 0 -0.2137215047804335 0.26471765372097578 0 -0.21605640826377989 0.25784954369944463 0 -0.2137215047804335 0.26471765372097578 0 -0.20890444487502999 0.26224502713102149 0 -0.20890444487502999 0.26224502713102149 0 -0.20678538293090801 0.25409833089725919 0 -0.201553161638272 0.26108721498311122 0 -0.21605640826377989 0.25784954369944463 0 -0.20890444487502999 0.26224502713102149 0 -0.20678538293090801 0.25409833089725919 0 -0.2137215047804335 0.26471765372097578 0 -0.20890444487502999 0.26224502713102149 0 -0.20992285213471179 0.26917922854906362 0 -0.20890444487502999 0.26224502713102149 0 -0.2014847168821905 0.26844848210473898 0 -0.201553161638272 0.26108721498311122 0 -0.2175180759443866 0.27484448564290431 0 -0.2117876125075617 0.27355096647332972 0 -0.2095600902549305 0.27892751162405999 0 -0.21881913008686579 0.26508187198912703 0 -0.2175180759443866 0.27484448564290431 0 -0.214558030645951 0.26962746723579101 0 -0.2175180759443866 0.27484448564290431 0 -0.2117876125075617 0.27355096647332972 0 -0.214558030645951 0.26962746723579101 0 -0.2117876125075617 0.27355096647332972 0 -0.214558030645951 0.26962746723579101 0 -0.20992285213471179 0.26917922854906362 0 -0.21881913008686579 0.26508187198912703 0 -0.2137215047804335 0.26471765372097578 0 -0.214558030645951 0.26962746723579101 0 -0.2137215047804335 0.26471765372097578 0 -0.214558030645951 0.26962746723579101 0 -0.20992285213471179 0.26917922854906362 0 -0.20992285213471179 0.26917922854906362 0 -0.20709490444948939 0.27367684310715967 0 -0.2014847168821905 0.26844848210473898 0 -0.20890444487502999 0.26224502713102149 0 -0.20992285213471179 0.26917922854906362 0 -0.2014847168821905 0.26844848210473898 0 -0.20709490444948939 0.27367684310715967 0 -0.20215103225137401 0.27527943436926661 0 -0.2014847168821905 0.26844848210473898 0 -0.2117876125075617 0.27355096647332972 0 -0.20992285213471179 0.26917922854906362 0 -0.20709490444948939 0.27367684310715967 0 -0.2117876125075617 0.27355096647332972 0 -0.20709490444948939 0.27367684310715967 0 -0.2095600902549305 0.27892751162405999 0 -0.20709490444948939 0.27367684310715967 0 -0.2095600902549305 0.27892751162405999 0 -0.20215103225137401 0.27527943436926661 0 -0.2095600902549305 0.27892751162405999 0 -0.20211103143438269 0.28029410956675699 0 -0.20215103225137401 0.27527943436926661 0 -0.20211103143438269 0.28029410956675699 0 -0.20215103225137401 0.27527943436926661 0 -0.18558900734588349 0.26946606498155712 0 -0.2014847168821905 0.26844848210473898 0 -0.194592006596537 0.26498261195492978 0 -0.18558900734588349 0.26946606498155712 0 -0.2056678918265859 0.29149715743077709 0 -0.20211103143438269 0.28029410956675699 0 -0.18558900734588349 0.26946606498155712 0 -0.2056678918265859 0.29149715743077709 0 -0.18558900734588349 0.26946606498155712 0 -0.20215103225137401 0.27527943436926661 0 -0.2014847168821905 0.26844848210473898 0 -0.18558900734588349 0.26946606498155712 0 -0.194592006596537 0.26498261195492978 0 -0.18558900734588349 0.26946606498155712 0 -0.1934721149429664 0.25575859930726641 0 -0.17271299311782051 0.25019068654833898 0 -0.20042804532634931 0.24408032080174541 0 -0.20678538293090801 0.25409833089725919 0 -0.1934721149429664 0.25575859930726641 0 -0.20042804532634931 0.24408032080174541 0 -0.20678538293090801 0.25409833089725919 0 -0.201553161638272 0.26108721498311122 0 -0.1934721149429664 0.25575859930726641 0 -0.201553161638272 0.26108721498311122 0 -0.194592006596537 0.26498261195492978 0 -0.1934721149429664 0.25575859930726641 0 -0.2014847168821905 0.26844848210473898 0 -0.201553161638272 0.26108721498311122 0 -0.194592006596537 0.26498261195492978 0 -0.194592006596537 0.26498261195492978 0 -0.1847611000479116 0.2601124306582141 0 -0.18558900734588349 0.26946606498155712 0 -0.194592006596537 0.26498261195492978 0 -0.1934721149429664 0.25575859930726641 0 -0.1847611000479116 0.2601124306582141 0 -0.1934721149429664 0.25575859930726641 0 -0.1847611000479116 0.2601124306582141 0 -0.17271299311782051 0.25019068654833898 0 -0.17659138942427521 0.25959363643881239 0 -0.1591598372212055 0.28262767251787441 0 -0.14499794090929169 0.25630105229493272 0 -0.17659138942427521 0.25959363643881239 0 -0.17271299311782051 0.25019068654833898 0 -0.14499794090929169 0.25630105229493272 0 -0.1847611000479116 0.2601124306582141 0 -0.17659138942427521 0.25959363643881239 0 -0.18558900734588349 0.26946606498155712 0 -0.17659138942427521 0.25959363643881239 0 -0.18558900734588349 0.26946606498155712 0 -0.1847611000479116 0.2601124306582141 0 -0.17659138942427521 0.25959363643881239 0 -0.17271299311782051 0.25019068654833898 0 -0.17271299311782051 0.25019068654833898 0 -0.14499794090929169 0.25630105229493272 0 -0.17659138942427521 0.25959363643881239 0 -0.18558900734588349 0.26946606498155712 0 -0.1591598372212055 0.28262767251787441 0 -0.18558900734588349 0.26946606498155712 0 -0.1591598372212055 0.28262767251787441 0 -0.18558900734588349 0.26946606498155712 0 -0.1591598372212055 0.28262767251787441 0 -0.17149310500737949 0.29119596476545989 0 -0.18558900734588349 0.26946606498155712 0 -0.1850431458083745 0.29010820509669372 0 -0.17149310500737949 0.29119596476545989 0 -0.19041001229436849 0.29782869796890921 0 -0.1850431458083745 0.29010820509669372 0 -0.18187386941247491 0.30179108725695242 0 -0.1850431458083745 0.29010820509669372 0 -0.18187386941247491 0.30179108725695242 0 -0.17149310500737949 0.29119596476545989 0 -0.19505145598408741 0.30641608357444239 0 -0.18127371490003169 0.31086872472419408 0 -0.18187386941247491 0.30179108725695242 0 -0.18187386941247491 0.30179108725695242 0 -0.17023182279482929 0.30640709219196799 0 -0.17149310500737949 0.29119596476545989 0 -0.18127371490003169 0.31086872472419408 0 -0.18187386941247491 0.30179108725695242 0 -0.17023182279482929 0.30640709219196799 0 -0.17269983515135801 0.31638532503025119 0 -0.18127371490003169 0.31086872472419408 0 -0.17023182279482929 0.30640709219196799 0 -0.16105934307198519 0.31414880121596372 0 -0.17269983515135801 0.31638532503025119 0 -0.17023182279482929 0.30640709219196799 0 -0.17023182279482929 0.30640709219196799 0 -0.1572681728193108 0.30032729964396793 0 -0.17149310500737949 0.29119596476545989 0 -0.16105934307198519 0.31414880121596372 0 -0.17023182279482929 0.30640709219196799 0 -0.1572681728193108 0.30032729964396793 0 -0.1572681728193108 0.30032729964396793 0 -0.1591598372212055 0.28262767251787441 0 -0.17149310500737949 0.29119596476545989 0 -0.1572681728193108 0.30032729964396793 0 -0.1591598372212055 0.28262767251787441 0 -0.13273066709652601 0.29578928005418892 0 -0.1591598372212055 0.28262767251787441 0 -0.13273066709652601 0.29578928005418892 0 -0.1591598372212055 0.28262767251787441 0 -0.13273066709652601 0.29578928005418892 0 -0.12500677789864439 0.27910034904785802 0 -0.1572681728193108 0.30032729964396793 0 -0.14866523487430719 0.30920609717359809 0 -0.13273066709652601 0.29578928005418892 0 -0.14254812364907929 0.31700176133992047 0 -0.14866523487430719 0.30920609717359809 0 -0.13273066709652601 0.29578928005418892 0 -0.16105934307198519 0.31414880121596372 0 -0.1572681728193108 0.30032729964396793 0 -0.14866523487430719 0.30920609717359809 0 -0.13216575609747361 0.31445389558194581 0 -0.13273066709652601 0.29578928005418892 0 -0.1241184775115281 0.31073445658254439 0 -0.13216575609747361 0.31445389558194581 0 -0.14254812364907929 0.31700176133992047 0 -0.13273066709652601 0.29578928005418892 0 -0.14254812364907929 0.31700176133992047 0 -0.13273066709652601 0.29578928005418892 0 -0.13273066709652601 0.29578928005418892 0 -0.12500677789864439 0.27910034904785802 0 -0.1190454906088638 0.29562839447753708 0 -0.13273066709652601 0.29578928005418892 0 -0.12500677789864439 0.27910034904785802 0 -0.1591598372212055 0.28262767251787441 0 -0.12500677789864439 0.27910034904785802 0 -0.14499794090929169 0.25630105229493272 0 -0.12500677789864439 0.27910034904785802 0 -0.14499794090929169 0.25630105229493272 0 -0.117282888700763 0.2624114180415269 0 -0.14499794090929169 0.25630105229493272 0 -0.117282888700763 0.2624114180415269 0 -0.12407642526108049 0.24260694432488919 0 -0.14499794090929169 0.25630105229493272 0 -0.117282888700763 0.2624114180415269 0 -0.10927713102515819 0.27661845497388837 0 -0.100188900762502 0.26618014694684278 0 -0.117282888700763 0.2624114180415269 0 -0.10927713102515819 0.27661845497388837 0 -0.096269390393991641 0.27725997098496158 0 -0.100188900762502 0.26618014694684278 0 -0.10927713102515819 0.27661845497388837 0 -0.096269390393991641 0.27725997098496158 0 -0.1012899692226753 0.28692166971516581 0 -0.100188900762502 0.26618014694684278 0 -0.117282888700763 0.2624114180415269 0 -0.100188900762502 0.26618014694684278 0 -0.1003366536562403 0.25404289617701331 0 -0.117282888700763 0.2624114180415269 0 -0.1003366536562403 0.25404289617701331 0 -0.117282888700763 0.2624114180415269 0 -0.1100263942159926 0.24673238216963819 0 -0.100188900762502 0.26618014694684278 0 -0.1003366536562403 0.25404289617701331 0 -0.08731169499250277 0.25544211376305759 0 -0.117282888700763 0.2624114180415269 0 -0.12407642526108049 0.24260694432488919 0 -0.1100263942159926 0.24673238216963819 0 -0.117282888700763 0.2624114180415269 0 -0.1100263942159926 0.24673238216963819 0 -0.12500677789864439 0.27910034904785802 0 -0.10927713102515819 0.27661845497388837 0 -0.117282888700763 0.2624114180415269 0 -0.12500677789864439 0.27910034904785802 0 -0.117282888700763 0.2624114180415269 0 -0.12500677789864439 0.27910034904785802 0 -0.10927713102515819 0.27661845497388837 0 -0.1122535572849179 0.28890695034120523 0 -0.12500677789864439 0.27910034904785802 0 -0.1190454906088638 0.29562839447753708 0 -0.1122535572849179 0.28890695034120523 0 -0.1190454906088638 0.29562839447753708 0 -0.1122535572849179 0.28890695034120523 0 -0.11085654435864591 0.29749490737646411 0 -0.1122535572849179 0.28890695034120523 0 -0.11085654435864591 0.29749490737646411 0 -0.1053337236509209 0.2950800360765099 0 -0.13273066709652601 0.29578928005418892 0 -0.1109276838354977 0.30664706739479569 0 -0.13273066709652601 0.29578928005418892 0 -0.1241184775115281 0.31073445658254439 0 -0.1109276838354977 0.30664706739479569 0 -0.13273066709652601 0.29578928005418892 0 -0.1190454906088638 0.29562839447753708 0 -0.1109276838354977 0.30664706739479569 0 -0.1241184775115281 0.31073445658254439 0 -0.1109276838354977 0.30664706739479569 0 -0.1170904616100794 0.31524790906640587 0 -0.1190454906088638 0.29562839447753708 0 -0.11085654435864591 0.29749490737646411 0 -0.1109276838354977 0.30664706739479569 0 -0.11085654435864591 0.29749490737646411 0 -0.1109276838354977 0.30664706739479569 0 -0.1067222664130295 0.3012120885922725 0 -0.1109276838354977 0.30664706739479569 0 -0.089124700574469293 0.31750485473540258 0 -0.1109276838354977 0.30664706739479569 0 -0.1058194421063524 0.30813495130436658 0 -0.089124700574469293 0.31750485473540258 0 -0.1058194421063524 0.30813495130436658 0 -0.09796223116913122 0.29610559042941748 0 -0.081045886896175895 0.29893089436257458 0 -0.1109276838354977 0.30664706739479569 0 -0.1058194421063524 0.30813495130436658 0 -0.1067222664130295 0.3012120885922725 0 -0.1058194421063524 0.30813495130436658 0 -0.1067222664130295 0.3012120885922725 0 -0.09796223116913122 0.29610559042941748 0 -0.1067222664130295 0.3012120885922725 0 -0.1053337236509209 0.2950800360765099 0 -0.09796223116913122 0.29610559042941748 0 -0.11085654435864591 0.29749490737646411 0 -0.1067222664130295 0.3012120885922725 0 -0.1053337236509209 0.2950800360765099 0 -0.10927713102515819 0.27661845497388837 0 -0.1122535572849179 0.28890695034120523 0 -0.1012899692226753 0.28692166971516581 0 -0.1122535572849179 0.28890695034120523 0 -0.1053337236509209 0.2950800360765099 0 -0.1012899692226753 0.28692166971516581 0 -0.1053337236509209 0.2950800360765099 0 -0.09796223116913122 0.29610559042941748 0 -0.1012899692226753 0.28692166971516581 0 -0.09796223116913122 0.29610559042941748 0 -0.1012899692226753 0.28692166971516581 0 -0.087259912711127083 0.2848067831680296 0 -0.096269390393991641 0.27725997098496158 0 -0.1012899692226753 0.28692166971516581 0 -0.087259912711127083 0.2848067831680296 0 -0.087259912711127083 0.2848067831680296 0 -0.081045886896175895 0.29893089436257458 0 -0.0737379722967208 0.28183526651526342 0 -0.09796223116913122 0.29610559042941748 0 -0.087259912711127083 0.2848067831680296 0 -0.081045886896175895 0.29893089436257458 0 -0.1058194421063524 0.30813495130436658 0 -0.081045886896175895 0.29893089436257458 0 -0.1058194421063524 0.30813495130436658 0 -0.081045886896175895 0.29893089436257458 0 -0.089124700574469293 0.31750485473540258 0 -0.081045886896175895 0.29893089436257458 0 -0.063357569296881827 0.3085984422943478 0 -0.056272331685999391 0.28972683742078259 0 -0.081045886896175895 0.29893089436257458 0 -0.063357569296881827 0.3085984422943478 0 -0.089124700574469293 0.31750485473540258 0 -0.081045886896175895 0.29893089436257458 0 -0.056272331685999391 0.28972683742078259 0 -0.081045886896175895 0.29893089436257458 0 -0.0737379722967208 0.28183526651526342 0 -0.056272331685999391 0.28972683742078259 0 -0.0737379722967208 0.28183526651526342 0 -0.06149948818165378 0.26812905636773582 0 -0.056272331685999391 0.28972683742078259 0 -0.0737379722967208 0.28183526651526342 0 -0.083094912824241127 0.26994887585215921 0 -0.06149948818165378 0.26812905636773582 0 -0.087259912711127083 0.2848067831680296 0 -0.0737379722967208 0.28183526651526342 0 -0.083094912824241127 0.26994887585215921 0 -0.100188900762502 0.26618014694684278 0 -0.083094912824241127 0.26994887585215921 0 -0.096269390393991641 0.27725997098496158 0 -0.100188900762502 0.26618014694684278 0 -0.083094912824241127 0.26994887585215921 0 -0.096269390393991641 0.27725997098496158 0 -0.087259912711127083 0.2848067831680296 0 -0.083094912824241127 0.26994887585215921 0 -0.08731169499250277 0.25544211376305759 0 -0.070655657643051234 0.25299893351715491 0 -0.079037820362342387 0.24384491960413701 0 -0.083094912824241127 0.26994887585215921 0 -0.08731169499250277 0.25544211376305759 0 -0.070655657643051234 0.25299893351715491 0 -0.100188900762502 0.26618014694684278 0 -0.083094912824241127 0.26994887585215921 0 -0.08731169499250277 0.25544211376305759 0 -0.1003366536562403 0.25404289617701331 0 -0.08731169499250277 0.25544211376305759 0 -0.090556224706639654 0.24563691048103881 0 -0.083094912824241127 0.26994887585215921 0 -0.070655657643051234 0.25299893351715491 0 -0.06149948818165378 0.26812905636773582 0 -0.070655657643051234 0.25299893351715491 0 -0.06149948818165378 0.26812905636773582 0 -0.05377149319123746 0.24612390281237889 0 -0.06149948818165378 0.26812905636773582 0 -0.041708044223906129 0.25706583692285451 0 -0.05377149319123746 0.24612390281237889 0 -0.047744660141845557 0.27386112779759092 0 -0.06149948818165378 0.26812905636773582 0 -0.056272331685999391 0.28972683742078259 0 -0.047744660141845557 0.27386112779759092 0 -0.06149948818165378 0.26812905636773582 0 -0.041708044223906129 0.25706583692285451 0 -0.047744660141845557 0.27386112779759092 0 -0.031498776475822887 0.28052278047899071 0 -0.041708044223906129 0.25706583692285451 0 -0.041708044223906129 0.25706583692285451 0 -0.01308835968565924 0.25819090906546471 0 -0.032749910844606163 0.2425536677074987 0 -0.031498776475822887 0.28052278047899071 0 -0.041708044223906129 0.25706583692285451 0 -0.01308835968565924 0.25819090906546471 0 -0.031498776475822887 0.28052278047899071 0 -0.01308835968565924 0.25819090906546471 0 -0.0053374564489368382 0.28451708928829611 0 -0.01308835968565924 0.25819090906546471 0 -0.0053374564489368382 0.28451708928829611 0 0.015110709574675271 0.27086670781104571 0 -0.017781292035993809 0.30575437130458072 0 -0.0038272708288328498 0.31483724708082161 0 0.0037304011536537958 0.30202466005627959 0 -0.0053374564489368382 0.28451708928829611 0 -0.017781292035993809 0.30575437130458072 0 0.0037304011536537958 0.30202466005627959 0 -0.031498776475822887 0.28052278047899071 0 -0.0053374564489368382 0.28451708928829611 0 -0.017781292035993809 0.30575437130458072 0 -0.031498776475822887 0.28052278047899071 0 -0.017781292035993809 0.30575437130458072 0 -0.043086980234705481 0.31143331694204268 0 -0.031498776475822887 0.28052278047899071 0 -0.056272331685999391 0.28972683742078259 0 -0.031498776475822887 0.28052278047899071 0 -0.043086980234705481 0.31143331694204268 0 -0.056272331685999391 0.28972683742078259 0 -0.047744660141845557 0.27386112779759092 0 -0.031498776475822887 0.28052278047899071 0 -0.056272331685999391 0.28972683742078259 0 -0.063357569296881827 0.3085984422943478 0 -0.043086980234705481 0.31143331694204268 0 -0.056272331685999391 0.28972683742078259 0 -0.063357569296881827 0.3085984422943478 0 -0.043086980234705481 0.31143331694204268 0 -0.067321717313440915 0.32836264207600951 0 -0.043086980234705481 0.31143331694204268 0 -0.045518734052412489 0.3392204294166164 0 -0.067321717313440915 0.32836264207600951 0 -0.045518734052412489 0.3392204294166164 0 -0.067321717313440915 0.32836264207600951 0 -0.045518734052412489 0.3392204294166164 0 -0.072399764184979662 0.34747246693366479 0 -0.067321717313440915 0.32836264207600951 0 -0.045518734052412489 0.3392204294166164 0 -0.030963945789581612 0.32830803849493911 0 -0.023715750791384091 0.35007821675722328 0 -0.043086980234705481 0.31143331694204268 0 -0.045518734052412489 0.3392204294166164 0 -0.030963945789581612 0.32830803849493911 0 -0.017781292035993809 0.30575437130458072 0 -0.043086980234705481 0.31143331694204268 0 -0.030963945789581612 0.32830803849493911 0 -0.017781292035993809 0.30575437130458072 0 -0.030963945789581612 0.32830803849493911 0 -0.013417117911275081 0.32528747708660172 0 -0.030963945789581612 0.32830803849493911 0 -0.013417117911275081 0.32528747708660172 0 -0.023715750791384091 0.35007821675722328 0 -0.0067893084873085711 0.34210904525134977 0 -0.013417117911275081 0.32528747708660172 0 0.001635960195835245 0.3298725894400395 0 -0.0067893084873085711 0.34210904525134977 0 0.0045016393447690024 0.34563200435747998 0 0.001635960195835245 0.3298725894400395 0 -0.0067893084873085711 0.34210904525134977 0 -0.013417117911275081 0.32528747708660172 0 -0.023715750791384091 0.35007821675722328 0 -0.0038272708288328498 0.31483724708082161 0 -0.013417117911275081 0.32528747708660172 0 0.001635960195835245 0.3298725894400395 0 -0.017781292035993809 0.30575437130458072 0 -0.0038272708288328498 0.31483724708082161 0 -0.013417117911275081 0.32528747708660172 0 -0.0014546766774108191 0.36071534143532219 0 -0.023715750791384091 0.35007821675722328 0 -0.021329449069597922 0.3724149785051698 0 -0.0014546766774108191 0.36071534143532219 0 -0.021329449069597922 0.3724149785051698 0 -0.005432213599170517 0.38664161186293788 0 -0.0067893084873085711 0.34210904525134977 0 -0.0014546766774108191 0.36071534143532219 0 -0.023715750791384091 0.35007821675722328 0 -0.0067893084873085711 0.34210904525134977 0 -0.0014546766774108191 0.36071534143532219 0 0.0045016393447690024 0.34563200435747998 0 -0.023715750791384091 0.35007821675722328 0 -0.021329449069597922 0.3724149785051698 0 -0.039548581165642867 0.36149601334927489 0 -0.021329449069597922 0.3724149785051698 0 -0.039548581165642867 0.36149601334927489 0 -0.041394232987871947 0.38324802132481661 0 -0.045518734052412489 0.3392204294166164 0 -0.023715750791384091 0.35007821675722328 0 -0.039548581165642867 0.36149601334927489 0 -0.045518734052412489 0.3392204294166164 0 -0.023715750791384091 0.35007821675722328 0 -0.045518734052412489 0.3392204294166164 0 -0.039548581165642867 0.36149601334927489 0 -0.060745935044474557 0.36357595241909502 0 -0.045518734052412489 0.3392204294166164 0 -0.060745935044474557 0.36357595241909502 0 -0.072399764184979662 0.34747246693366479 0 -0.039548581165642867 0.36149601334927489 0 -0.060745935044474557 0.36357595241909502 0 -0.041394232987871947 0.38324802132481661 0 -0.060745935044474557 0.36357595241909502 0 -0.076797934102975321 0.37179051447845601 0 -0.072399764184979662 0.34747246693366479 0 -0.060745935044474557 0.36357595241909502 0 -0.076797934102975321 0.37179051447845601 0 -0.062926523439964605 0.38658667471753849 0 -0.076797934102975321 0.37179051447845601 0 -0.091611753989525604 0.36179471608666908 0 -0.093418521303396757 0.38155120784409291 0 -0.076797934102975321 0.37179051447845601 0 -0.091611753989525604 0.36179471608666908 0 -0.072399764184979662 0.34747246693366479 0 -0.091611753989525604 0.36179471608666908 0 -0.072399764184979662 0.34747246693366479 0 -0.091732074980962627 0.33736316889714829 0 -0.072399764184979662 0.34747246693366479 0 -0.067321717313440915 0.32836264207600951 0 -0.091732074980962627 0.33736316889714829 0 -0.063357569296881827 0.3085984422943478 0 -0.067321717313440915 0.32836264207600951 0 -0.089124700574469293 0.31750485473540258 0 -0.067321717313440915 0.32836264207600951 0 -0.089124700574469293 0.31750485473540258 0 -0.091732074980962627 0.33736316889714829 0 -0.067321717313440915 0.32836264207600951 0 -0.089124700574469293 0.31750485473540258 0 -0.091732074980962627 0.33736316889714829 0 -0.11246550769986879 0.33427527191443362 0 -0.10666850786220571 0.35144120456028788 0 -0.091732074980962627 0.33736316889714829 0 -0.1061769232167917 0.32361737879956509 0 -0.11246550769986879 0.33427527191443362 0 -0.089124700574469293 0.31750485473540258 0 -0.1061769232167917 0.32361737879956509 0 -0.1058299423092095 0.31575430249904229 0 -0.089124700574469293 0.31750485473540258 0 -0.091732074980962627 0.33736316889714829 0 -0.1061769232167917 0.32361737879956509 0 -0.1109276838354977 0.30664706739479569 0 -0.089124700574469293 0.31750485473540258 0 -0.1058299423092095 0.31575430249904229 0 -0.1061769232167917 0.32361737879956509 0 -0.1226735434241156 0.32423587350874611 0 -0.11246550769986879 0.33427527191443362 0 -0.1061769232167917 0.32361737879956509 0 -0.1170904616100794 0.31524790906640587 0 -0.1226735434241156 0.32423587350874611 0 -0.1061769232167917 0.32361737879956509 0 -0.1058299423092095 0.31575430249904229 0 -0.1170904616100794 0.31524790906640587 0 -0.1109276838354977 0.30664706739479569 0 -0.1058299423092095 0.31575430249904229 0 -0.1170904616100794 0.31524790906640587 0 -0.1241184775115281 0.31073445658254439 0 -0.1170904616100794 0.31524790906640587 0 -0.1226735434241156 0.32423587350874611 0 -0.12872725386462211 0.33568422225544609 0 -0.1226735434241156 0.32423587350874611 0 -0.11246550769986879 0.33427527191443362 0 -0.12872725386462211 0.33568422225544609 0 -0.11246550769986879 0.33427527191443362 0 -0.11776703315280521 0.34436644401960742 0 -0.11246550769986879 0.33427527191443362 0 -0.11776703315280521 0.34436644401960742 0 -0.10666850786220571 0.35144120456028788 0 -0.12684247981597721 0.35792383386553001 0 -0.11776703315280521 0.34436644401960742 0 -0.10666850786220571 0.35144120456028788 0 -0.12684247981597721 0.35792383386553001 0 -0.12872725386462211 0.33568422225544609 0 -0.11776703315280521 0.34436644401960742 0 -0.13154430046032589 0.37412332416829119 0 -0.12684247981597721 0.35792383386553001 0 -0.11067901845588279 0.37274720954569929 0 -0.12684247981597721 0.35792383386553001 0 -0.11067901845588279 0.37274720954569929 0 -0.10666850786220571 0.35144120456028788 0 -0.091611753989525604 0.36179471608666908 0 -0.11067901845588279 0.37274720954569929 0 -0.10666850786220571 0.35144120456028788 0 -0.091611753989525604 0.36179471608666908 0 -0.11067901845588279 0.37274720954569929 0 -0.093418521303396757 0.38155120784409291 0 -0.091611753989525604 0.36179471608666908 0 -0.091732074980962627 0.33736316889714829 0 -0.10666850786220571 0.35144120456028788 0 -0.10877724055455069 0.39221866399300198 0 -0.092140738429498062 0.40006460583779629 0 -0.093418521303396757 0.38155120784409291 0 -0.10877724055455069 0.39221866399300198 0 -0.1091732914396456 0.40897329705335889 0 -0.092140738429498062 0.40006460583779629 0 -0.11067901845588279 0.37274720954569929 0 -0.10877724055455069 0.39221866399300198 0 -0.093418521303396757 0.38155120784409291 0 -0.11067901845588279 0.37274720954569929 0 -0.10877724055455069 0.39221866399300198 0 -0.12134993118536561 0.38606826928379062 0 -0.13154430046032589 0.37412332416829119 0 -0.11067901845588279 0.37274720954569929 0 -0.12134993118536561 0.38606826928379062 0 -0.10877724055455069 0.39221866399300198 0 -0.12275992732092469 0.39755179721442518 0 -0.1091732914396456 0.40897329705335889 0 -0.10877724055455069 0.39221866399300198 0 -0.12134993118536561 0.38606826928379062 0 -0.12275992732092469 0.39755179721442518 0 -0.12275992732092469 0.39755179721442518 0 -0.1242794984927641 0.40744291385392839 0 -0.1091732914396456 0.40897329705335889 0 -0.1183682456931659 0.41641334327951929 0 -0.10673826711982359 0.42656960577858871 0 -0.1091732914396456 0.40897329705335889 0 -0.12902600015629681 0.41707755739292918 0 -0.1242794984927641 0.40744291385392839 0 -0.1183682456931659 0.41641334327951929 0 -0.1242794984927641 0.40744291385392839 0 -0.1183682456931659 0.41641334327951929 0 -0.1091732914396456 0.40897329705335889 0 -0.12902600015629681 0.41707755739292918 0 -0.1183682456931659 0.41641334327951929 0 -0.1236378151455341 0.42570099897789171 0 -0.1236378151455341 0.42570099897789171 0 -0.10673826711982359 0.42656960577858871 0 -0.1046867584610497 0.44376753120832962 0 -0.1236378151455341 0.42570099897789171 0 -0.1046867584610497 0.44376753120832962 0 -0.1237631483686092 0.43940957706830502 0 -0.1236378151455341 0.42570099897789171 0 -0.1046867584610497 0.44376753120832962 0 -0.1183682456931659 0.41641334327951929 0 -0.1236378151455341 0.42570099897789171 0 -0.10673826711982359 0.42656960577858871 0 -0.094929953099989736 0.43263235870533479 0 -0.10673826711982359 0.42656960577858871 0 -0.1046867584610497 0.44376753120832962 0 -0.094929953099989736 0.43263235870533479 0 -0.10673826711982359 0.42656960577858871 0 -0.086833826399182454 0.42052472447718631 0 -0.1091732914396456 0.40897329705335889 0 -0.086833826399182454 0.42052472447718631 0 -0.092140738429498062 0.40006460583779629 0 -0.10673826711982359 0.42656960577858871 0 -0.1091732914396456 0.40897329705335889 0 -0.086833826399182454 0.42052472447718631 0 -0.086833826399182454 0.42052472447718631 0 -0.074480589892977123 0.40575883044873678 0 -0.092140738429498062 0.40006460583779629 0 -0.094929953099989736 0.43263235870533479 0 -0.086833826399182454 0.42052472447718631 0 -0.081460960419903153 0.43966757335723472 0 -0.086833826399182454 0.42052472447718631 0 -0.071497683622704575 0.43054991838749851 0 -0.081460960419903153 0.43966757335723472 0 -0.086833826399182454 0.42052472447718631 0 -0.071497683622704575 0.43054991838749851 0 -0.065216478464530284 0.41900998260419331 0 -0.071497683622704575 0.43054991838749851 0 -0.065581898116227735 0.44139256940051602 0 -0.081460960419903153 0.43966757335723472 0 -0.071497683622704575 0.43054991838749851 0 -0.065216478464530284 0.41900998260419331 0 -0.058395254713679269 0.43215474209836191 0 -0.071497683622704575 0.43054991838749851 0 -0.058395254713679269 0.43215474209836191 0 -0.065581898116227735 0.44139256940051602 0 -0.086833826399182454 0.42052472447718631 0 -0.065216478464530284 0.41900998260419331 0 -0.074480589892977123 0.40575883044873678 0 -0.065216478464530284 0.41900998260419331 0 -0.074480589892977123 0.40575883044873678 0 -0.054335444991306922 0.40364208849856797 0 -0.074480589892977123 0.40575883044873678 0 -0.062926523439964605 0.38658667471753849 0 -0.054335444991306922 0.40364208849856797 0 -0.074480589892977123 0.40575883044873678 0 -0.079685106655510762 0.38976206886967552 0 -0.062926523439964605 0.38658667471753849 0 -0.074480589892977123 0.40575883044873678 0 -0.092140738429498062 0.40006460583779629 0 -0.079685106655510762 0.38976206886967552 0 -0.092140738429498062 0.40006460583779629 0 -0.079685106655510762 0.38976206886967552 0 -0.093418521303396757 0.38155120784409291 0 -0.076797934102975321 0.37179051447845601 0 -0.079685106655510762 0.38976206886967552 0 -0.093418521303396757 0.38155120784409291 0 -0.076797934102975321 0.37179051447845601 0 -0.079685106655510762 0.38976206886967552 0 -0.062926523439964605 0.38658667471753849 0 -0.060745935044474557 0.36357595241909502 0 -0.062926523439964605 0.38658667471753849 0 -0.041394232987871947 0.38324802132481661 0 -0.062926523439964605 0.38658667471753849 0 -0.054335444991306922 0.40364208849856797 0 -0.041394232987871947 0.38324802132481661 0 -0.038533238633475568 0.40417603135096242 0 -0.041394232987871947 0.38324802132481661 0 -0.02294699576113645 0.39898224406211952 0 -0.054335444991306922 0.40364208849856797 0 -0.038533238633475568 0.40417603135096242 0 -0.041394232987871947 0.38324802132481661 0 -0.021329449069597922 0.3724149785051698 0 -0.041394232987871947 0.38324802132481661 0 -0.02294699576113645 0.39898224406211952 0 -0.021329449069597922 0.3724149785051698 0 -0.02294699576113645 0.39898224406211952 0 -0.005432213599170517 0.38664161186293788 0 -0.02294699576113645 0.39898224406211952 0 -0.005432213599170517 0.38664161186293788 0 -0.005464378443835083 0.41069403245826291 0 -0.003133518376922253 0.43347745745086319 0 -0.01935690240254859 0.42101363764889199 0 -0.019415353683030771 0.43755063681774758 0 -0.003133518376922253 0.43347745745086319 0 -0.005464378443835083 0.41069403245826291 0 -0.01935690240254859 0.42101363764889199 0 -0.02294699576113645 0.39898224406211952 0 -0.005464378443835083 0.41069403245826291 0 -0.01935690240254859 0.42101363764889199 0 -0.02294699576113645 0.39898224406211952 0 -0.01935690240254859 0.42101363764889199 0 -0.032783098825928843 0.41590657117853058 0 -0.01935690240254859 0.42101363764889199 0 -0.032398069324438207 0.42947088392582838 0 -0.032783098825928843 0.41590657117853058 0 -0.01935690240254859 0.42101363764889199 0 -0.032398069324438207 0.42947088392582838 0 -0.019415353683030771 0.43755063681774758 0 -0.032398069324438207 0.42947088392582838 0 -0.044052423739571342 0.43619719876618029 0 -0.031623216415397983 0.44589024652310638 0 -0.032398069324438207 0.42947088392582838 0 -0.044052423739571342 0.43619719876618029 0 -0.046175629199132963 0.42001441523573507 0 -0.054335444991306922 0.40364208849856797 0 -0.038533238633475568 0.40417603135096242 0 -0.046175629199132963 0.42001441523573507 0 -0.038533238633475568 0.40417603135096242 0 -0.032783098825928843 0.41590657117853058 0 -0.046175629199132963 0.42001441523573507 0 -0.038533238633475568 0.40417603135096242 0 -0.02294699576113645 0.39898224406211952 0 -0.032783098825928843 0.41590657117853058 0 -0.032398069324438207 0.42947088392582838 0 -0.032783098825928843 0.41590657117853058 0 -0.046175629199132963 0.42001441523573507 0 -0.065216478464530284 0.41900998260419331 0 -0.054335444991306922 0.40364208849856797 0 -0.046175629199132963 0.42001441523573507 0 -0.044052423739571342 0.43619719876618029 0 -0.046175629199132963 0.42001441523573507 0 -0.058395254713679269 0.43215474209836191 0 -0.065216478464530284 0.41900998260419331 0 -0.046175629199132963 0.42001441523573507 0 -0.058395254713679269 0.43215474209836191 0 -0.044052423739571342 0.43619719876618029 0 -0.058395254713679269 0.43215474209836191 0 -0.055042560870391853 0.44142076803804942 0 -0.058395254713679269 0.43215474209836191 0 -0.055042560870391853 0.44142076803804942 0 -0.065581898116227735 0.44139256940051602 0 -0.055042560870391853 0.44142076803804942 0 -0.05770605189053566 0.45038434735745442 0 -0.065581898116227735 0.44139256940051602 0 -0.05770605189053566 0.45038434735745442 0 -0.048004875309526213 0.4453568289857367 0 -0.046772013849146588 0.45621356977905902 0 -0.055042560870391853 0.44142076803804942 0 -0.05770605189053566 0.45038434735745442 0 -0.048004875309526213 0.4453568289857367 0 -0.044052423739571342 0.43619719876618029 0 -0.055042560870391853 0.44142076803804942 0 -0.048004875309526213 0.4453568289857367 0 -0.060518673507759517 0.45942034535546777 0 -0.0506130581910334 0.46764150341956368 0 -0.068890779280074921 0.46771373492293689 0 -0.05770605189053566 0.45038434735745442 0 -0.060518673507759517 0.45942034535546777 0 -0.052094798784994623 0.45472012223169123 0 -0.060518673507759517 0.45942034535546777 0 -0.052094798784994623 0.45472012223169123 0 -0.0506130581910334 0.46764150341956368 0 -0.05770605189053566 0.45038434735745442 0 -0.046772013849146588 0.45621356977905902 0 -0.05770605189053566 0.45038434735745442 0 -0.052094798784994623 0.45472012223169123 0 -0.046772013849146588 0.45621356977905902 0 -0.052094798784994623 0.45472012223169123 0 -0.0506130581910334 0.46764150341956368 0 -0.046772013849146588 0.45621356977905902 0 -0.052094798784994623 0.45472012223169123 0 -0.046772013849146588 0.45621356977905902 0 -0.0506130581910334 0.46764150341956368 0 -0.046772013849146588 0.45621356977905902 0 -0.026477500197810502 0.46703310722388219 0 -0.046772013849146588 0.45621356977905902 0 -0.026477500197810502 0.46703310722388219 0 -0.046772013849146588 0.45621356977905902 0 -0.023058460362196619 0.4628670319649808 0 -0.026477500197810502 0.46703310722388219 0 -0.046772013849146588 0.45621356977905902 0 -0.031623216415397983 0.44589024652310638 0 -0.023058460362196619 0.4628670319649808 0 -0.046772013849146588 0.45621356977905902 0 -0.023058460362196619 0.4628670319649808 0 -0.044052423739571342 0.43619719876618029 0 -0.048004875309526213 0.4453568289857367 0 -0.031623216415397983 0.44589024652310638 0 -0.048004875309526213 0.4453568289857367 0 -0.046772013849146588 0.45621356977905902 0 -0.031623216415397983 0.44589024652310638 0 -0.032398069324438207 0.42947088392582838 0 -0.031623216415397983 0.44589024652310638 0 -0.019415353683030771 0.43755063681774758 0 -0.031623216415397983 0.44589024652310638 0 -0.019415353683030771 0.43755063681774758 0 -0.0076613186398761038 0.4535755754222125 0 -0.031623216415397983 0.44589024652310638 0 -0.023058460362196619 0.4628670319649808 0 -0.0076613186398761038 0.4535755754222125 0 -0.023058460362196619 0.4628670319649808 0 0.00065509312475338366 0.46952049415090258 0 -0.023058460362196619 0.4628670319649808 0 -0.0076613186398761038 0.4535755754222125 0 0.00065509312475338366 0.46952049415090258 0 -0.003133518376922253 0.43347745745086319 0 -0.019415353683030771 0.43755063681774758 0 -0.0076613186398761038 0.4535755754222125 0 -0.003133518376922253 0.43347745745086319 0 -0.0076613186398761038 0.4535755754222125 0 0.0091819386731113607 0.44717551899794439 0 -0.02210320801230083 0.48327138966934929 0 -0.025383239749304679 0.5 0 0.0043028311702422717 0.5 0 -0.0061829865464744227 0.47785264466870542 0 -0.02210320801230083 0.48327138966934929 0 0.0043028311702422717 0.5 0 -0.023058460362196619 0.4628670319649808 0 -0.0061829865464744227 0.47785264466870542 0 0.00065509312475338366 0.46952049415090258 0 -0.026477500197810502 0.46703310722388219 0 -0.0061829865464744227 0.47785264466870542 0 -0.023058460362196619 0.4628670319649808 0 -0.026477500197810502 0.46703310722388219 0 -0.0061829865464744227 0.47785264466870542 0 -0.026477500197810502 0.46703310722388219 0 -0.02210320801230083 0.48327138966934929 0 -0.040019174968453933 0.48362927255951421 0 -0.026477500197810502 0.46703310722388219 0 -0.0061829865464744227 0.47785264466870542 0 -0.02210320801230083 0.48327138966934929 0 -0.02210320801230083 0.48327138966934929 0 -0.025383239749304679 0.5 0 -0.040019174968453933 0.48362927255951421 0 -0.025383239749304679 0.5 0 -0.040019174968453933 0.48362927255951421 0 -0.055069310668851679 0.5 0 -0.0506130581910334 0.46764150341956368 0 -0.026477500197810502 0.46703310722388219 0 -0.040019174968453933 0.48362927255951421 0 -0.0506130581910334 0.46764150341956368 0 -0.040019174968453933 0.48362927255951421 0 -0.063443997295930324 0.48288794478939329 0 -0.0506130581910334 0.46764150341956368 0 -0.063443997295930324 0.48288794478939329 0 -0.068890779280074921 0.46771373492293689 0 -0.040019174968453933 0.48362927255951421 0 -0.055069310668851679 0.5 0 -0.063443997295930324 0.48288794478939329 0 -0.055069310668851679 0.5 0 -0.084755381588398682 0.5 0 -0.063443997295930324 0.48288794478939329 0 -0.084755381588398682 0.5 0 -0.081316279078769413 0.47834315783434539 0 -0.063443997295930324 0.48288794478939329 0 -0.084755381588398682 0.5 0 -0.081316279078769413 0.47834315783434539 0 -0.1063552056281946 0.4733828125912613 0 -0.081316279078769413 0.47834315783434539 0 -0.085735701776565504 0.46183406343876737 0 -0.1063552056281946 0.4733828125912613 0 -0.081316279078769413 0.47834315783434539 0 -0.068890779280074921 0.46771373492293689 0 -0.085735701776565504 0.46183406343876737 0 -0.081316279078769413 0.47834315783434539 0 -0.063443997295930324 0.48288794478939329 0 -0.068890779280074921 0.46771373492293689 0 -0.068890779280074921 0.46771373492293689 0 -0.069935964398479517 0.45365190568329361 0 -0.085735701776565504 0.46183406343876737 0 -0.060518673507759517 0.45942034535546777 0 -0.068890779280074921 0.46771373492293689 0 -0.069935964398479517 0.45365190568329361 0 -0.05770605189053566 0.45038434735745442 0 -0.060518673507759517 0.45942034535546777 0 -0.069935964398479517 0.45365190568329361 0 -0.069935964398479517 0.45365190568329361 0 -0.065581898116227735 0.44139256940051602 0 -0.081460960419903153 0.43966757335723472 0 -0.05770605189053566 0.45038434735745442 0 -0.069935964398479517 0.45365190568329361 0 -0.065581898116227735 0.44139256940051602 0 -0.081460960419903153 0.43966757335723472 0 -0.085735701776565504 0.46183406343876737 0 -0.1046867584610497 0.44376753120832962 0 -0.094929953099989736 0.43263235870533479 0 -0.081460960419903153 0.43966757335723472 0 -0.1046867584610497 0.44376753120832962 0 -0.069935964398479517 0.45365190568329361 0 -0.081460960419903153 0.43966757335723472 0 -0.085735701776565504 0.46183406343876737 0 -0.085735701776565504 0.46183406343876737 0 -0.1046867584610497 0.44376753120832962 0 -0.1063552056281946 0.4733828125912613 0 -0.085735701776565504 0.46183406343876737 0 -0.1046867584610497 0.44376753120832962 0 -0.1046867584610497 0.44376753120832962 0 -0.1199239610330062 0.4528119882766678 0 -0.1237631483686092 0.43940957706830502 0 -0.1330863111759388 0.46290453175888718 0 -0.1199239610330062 0.4528119882766678 0 -0.1063552056281946 0.4733828125912613 0 -0.1046867584610497 0.44376753120832962 0 -0.1199239610330062 0.4528119882766678 0 -0.1063552056281946 0.4733828125912613 0 -0.1282215862201766 0.48369278937346333 0 -0.1330863111759388 0.46290453175888718 0 -0.1063552056281946 0.4733828125912613 0 -0.1282215862201766 0.48369278937346333 0 -0.1144414525079455 0.5 0 -0.1063552056281946 0.4733828125912613 0 -0.084755381588398682 0.5 0 -0.1144414525079455 0.5 0 -0.1063552056281946 0.4733828125912613 0 -0.16337959566044349 0.085065610152674692 0 -0.17250944911463439 0.093443746701654076 0 -0.16897177490063689 0.1011489748399246 0 -0.16337959566044349 0.085065610152674692 0 -0.17967097899071471 0.089170353357859208 0 -0.17250944911463439 0.093443746701654076 0 -0.16337959566044349 0.085065610152674692 0 -0.15182373414896499 0.058933634030521667 0 -0.1695790229446876 0.057570694791633889 0 -0.16337959566044349 0.085065610152674692 0 -0.180513692686319 0.06728296800085562 0 -0.1695790229446876 0.057570694791633889 0 -0.16337959566044349 0.085065610152674692 0 -0.1695790229446876 0.057570694791633889 0 -0.16337959566044349 0.085065610152674692 0 -0.180513692686319 0.06728296800085562 0 -0.1800801400547061 0.080710582450102153 0 -0.180513692686319 0.06728296800085562 0 -0.1800801400547061 0.080710582450102153 0 -0.18954747469181699 0.076756846896681913 0 -0.1800801400547061 0.080710582450102153 0 -0.17967097899071471 0.089170353357859208 0 -0.18787625935323191 0.085774280606860723 0 -0.16337959566044349 0.085065610152674692 0 -0.1800801400547061 0.080710582450102153 0 -0.17967097899071471 0.089170353357859208 0 -0.1800801400547061 0.080710582450102153 0 -0.18787625935323191 0.085774280606860723 0 -0.18954747469181699 0.076756846896681913 0 -0.17967097899071471 0.089170353357859208 0 -0.17250944911463439 0.093443746701654076 0 -0.1780154469067427 0.098390048456157841 0 -0.17967097899071471 0.089170353357859208 0 -0.18650081501980781 0.095049071481486447 0 -0.18787625935323191 0.085774280606860723 0 -0.18650081501980781 0.095049071481486447 0 -0.1851561337081124 0.10599720641954211 0 -0.1780154469067427 0.098390048456157841 0 -0.17967097899071471 0.089170353357859208 0 -0.18650081501980781 0.095049071481486447 0 -0.1780154469067427 0.098390048456157841 0 -0.1851561337081124 0.10599720641954211 0 -0.17571731184434469 0.10601619003985691 0 -0.17975543534056401 0.1140281980273376 0 -0.17571731184434469 0.10601619003985691 0 -0.1780154469067427 0.098390048456157841 0 -0.16897177490063689 0.1011489748399246 0 -0.1851561337081124 0.10599720641954211 0 -0.17571731184434469 0.10601619003985691 0 -0.1780154469067427 0.098390048456157841 0 -0.17250944911463439 0.093443746701654076 0 -0.1780154469067427 0.098390048456157841 0 -0.16897177490063689 0.1011489748399246 0 -0.1871336500724444 0.1241254930412863 0 -0.17964919145198041 0.1221112411776997 0 -0.17925220257449959 0.12857110755721279 0 -0.1871336500724444 0.1241254930412863 0 -0.17975543534056401 0.1140281980273376 0 -0.19426972642227941 0.12163972981989001 0 -0.1871336500724444 0.1241254930412863 0 -0.17975543534056401 0.1140281980273376 0 -0.17964919145198041 0.1221112411776997 0 -0.17571731184434469 0.10601619003985691 0 -0.17975543534056401 0.1140281980273376 0 -0.1704061726154362 0.1084384721052086 0 -0.17975543534056401 0.1140281980273376 0 -0.17245547782041379 0.1217201660849621 0 -0.17964919145198041 0.1221112411776997 0 -0.17245547782041379 0.1217201660849621 0 -0.17964919145198041 0.1221112411776997 0 -0.17925220257449959 0.12857110755721279 0 -0.17245547782041379 0.1217201660849621 0 -0.16399344112017189 0.1232226569518412 0 -0.1560889219263584 0.1124895809520171 0 -0.17975543534056401 0.1140281980273376 0 -0.1560889219263584 0.1124895809520171 0 -0.17975543534056401 0.1140281980273376 0 -0.1704061726154362 0.1084384721052086 0 -0.1560889219263584 0.1124895809520171 0 -0.17975543534056401 0.1140281980273376 0 -0.17245547782041379 0.1217201660849621 0 -0.1560889219263584 0.1124895809520171 0 -0.1562581965251835 0.1166495383929219 0 -0.16399344112017189 0.1232226569518412 0 -0.1560889219263584 0.1124895809520171 0 -0.1562581965251835 0.1166495383929219 0 -0.16399344112017189 0.1232226569518412 0 -0.1548464943090275 0.1229105414128 0 -0.16399344112017189 0.1232226569518412 0 -0.1560889219263584 0.1124895809520171 0 -0.16337959566044349 0.085065610152674692 0 -0.1545827108404893 0.097408054444495615 0 -0.1560889219263584 0.1124895809520171 0 -0.16337959566044349 0.085065610152674692 0 -0.16897177490063689 0.1011489748399246 0 -0.1560889219263584 0.1124895809520171 0 -0.16337959566044349 0.085065610152674692 0 -0.1560889219263584 0.1124895809520171 0 -0.16897177490063689 0.1011489748399246 0 -0.1704061726154362 0.1084384721052086 0 -0.1560889219263584 0.1124895809520171 0 -0.17571731184434469 0.10601619003985691 0 -0.16897177490063689 0.1011489748399246 0 -0.1704061726154362 0.1084384721052086 0 -0.1432807001410242 0.1034187532656107 0 -0.1560889219263584 0.1124895809520171 0 -0.14062717806597419 0.091494999513947822 0 -0.1545827108404893 0.097408054444495615 0 -0.1560889219263584 0.1124895809520171 0 -0.14062717806597419 0.091494999513947822 0 -0.1560889219263584 0.1124895809520171 0 -0.14062717806597419 0.091494999513947822 0 -0.1432807001410242 0.1034187532656107 0 -0.1560889219263584 0.1124895809520171 0 -0.1422157004383795 0.1115876493874665 0 -0.1562581965251835 0.1166495383929219 0 -0.1548464943090275 0.1229105414128 0 -0.14502536440496769 0.1232561868233123 0 -0.1548464943090275 0.1229105414128 0 -0.14502536440496769 0.1232561868233123 0 -0.1494853060173085 0.12764818496921759 0 -0.1562581965251835 0.1166495383929219 0 -0.1548464943090275 0.1229105414128 0 -0.1562581965251835 0.1166495383929219 0 -0.1560889219263584 0.1124895809520171 0 -0.1422157004383795 0.1115876493874665 0 -0.1562581965251835 0.1166495383929219 0 -0.1422157004383795 0.1115876493874665 0 -0.1560889219263584 0.1124895809520171 0 -0.1422157004383795 0.1115876493874665 0 -0.1562581965251835 0.1166495383929219 0 -0.1560889219263584 0.1124895809520171 0 -0.1562581965251835 0.1166495383929219 0 -0.1422157004383795 0.1115876493874665 0 -0.14502536440496769 0.1232561868233123 0 -0.1422157004383795 0.1115876493874665 0 -0.12618798283542201 0.1161929153010965 0 -0.1211427945544748 0.11021764898849939 0 -0.1422157004383795 0.1115876493874665 0 -0.1211427945544748 0.11021764898849939 0 -0.1422157004383795 0.1115876493874665 0 -0.12618798283542201 0.1161929153010965 0 -0.13205230688550099 0.1219956921549718 0 -0.1422157004383795 0.1115876493874665 0 -0.14502536440496769 0.1232561868233123 0 -0.13205230688550099 0.1219956921549718 0 -0.12618798283542201 0.1161929153010965 0 -0.13205230688550099 0.1219956921549718 0 -0.12003831912390731 0.12135060170994739 0 -0.13205230688550099 0.1219956921549718 0 -0.1239583793721125 0.13037080756173869 0 -0.12003831912390731 0.12135060170994739 0 -0.1422157004383795 0.1115876493874665 0 -0.1228410006829022 0.1046036645552828 0 -0.1211427945544748 0.11021764898849939 0 -0.1422157004383795 0.1115876493874665 0 -0.13104254518745831 0.1026439285275106 0 -0.1228410006829022 0.1046036645552828 0 -0.1422157004383795 0.1115876493874665 0 -0.1228410006829022 0.1046036645552828 0 -0.1432807001410242 0.1034187532656107 0 -0.13419100013338481 0.098102783209012626 0 -0.14062717806597419 0.091494999513947822 0 -0.1422157004383795 0.1115876493874665 0 -0.13419100013338481 0.098102783209012626 0 -0.13104254518745831 0.1026439285275106 0 -0.1432807001410242 0.1034187532656107 0 -0.1422157004383795 0.1115876493874665 0 -0.13419100013338481 0.098102783209012626 0 -0.13419100013338481 0.098102783209012626 0 -0.13104254518745831 0.1026439285275106 0 -0.12492247949516661 0.096281616958280719 0 -0.13104254518745831 0.1026439285275106 0 -0.12492247949516661 0.096281616958280719 0 -0.1228410006829022 0.1046036645552828 0 -0.13419100013338481 0.098102783209012626 0 -0.13074507735310009 0.087060905384808679 0 -0.12492247949516661 0.096281616958280719 0 -0.14062717806597419 0.091494999513947822 0 -0.1443842536261446 0.075054120127897528 0 -0.12516543420559009 0.070500418075878257 0 -0.13074507735310009 0.087060905384808679 0 -0.14062717806597419 0.091494999513947822 0 -0.12516543420559009 0.070500418075878257 0 -0.13074507735310009 0.087060905384808679 0 -0.12516543420559009 0.070500418075878257 0 -0.14062717806597419 0.091494999513947822 0 -0.12516543420559009 0.070500418075878257 0 -0.13419100013338481 0.098102783209012626 0 -0.13074507735310009 0.087060905384808679 0 -0.14062717806597419 0.091494999513947822 0 -0.14062717806597419 0.091494999513947822 0 -0.15074343454826289 0.087255696059753918 0 -0.1443842536261446 0.075054120127897528 0 -0.16337959566044349 0.085065610152674692 0 -0.15074343454826289 0.087255696059753918 0 -0.1443842536261446 0.075054120127897528 0 -0.16337959566044349 0.085065610152674692 0 -0.1545827108404893 0.097408054444495615 0 -0.15074343454826289 0.087255696059753918 0 -0.1545827108404893 0.097408054444495615 0 -0.14062717806597419 0.091494999513947822 0 -0.15074343454826289 0.087255696059753918 0 -0.16337959566044349 0.085065610152674692 0 -0.1443842536261446 0.075054120127897528 0 -0.15182373414896499 0.058933634030521667 0 -0.1443842536261446 0.075054120127897528 0 -0.1340198196665372 0.058575147362970328 0 -0.15182373414896499 0.058933634030521667 0 -0.1443842536261446 0.075054120127897528 0 -0.12516543420559009 0.070500418075878257 0 -0.1340198196665372 0.058575147362970328 0 -0.1340198196665372 0.058575147362970328 0 -0.1300716885813627 0.044256471292835657 0 -0.14423480704426461 0.041165514650706968 0 -0.12516543420559009 0.070500418075878257 0 -0.1340198196665372 0.058575147362970328 0 -0.1197541437206168 0.054439604681150187 0 -0.1340198196665372 0.058575147362970328 0 -0.12645840855353471 0.050913929995585951 0 -0.1300716885813627 0.044256471292835657 0 -0.1340198196665372 0.058575147362970328 0 -0.12645840855353471 0.050913929995585951 0 -0.1197541437206168 0.054439604681150187 0 -0.1300716885813627 0.044256471292835657 0 -0.14423480704426461 0.041165514650706968 0 -0.12788602183930911 0.029070465339318358 0 -0.12645840855353471 0.050913929995585951 0 -0.1300716885813627 0.044256471292835657 0 -0.1233281400318309 0.045129618450257369 0 -0.1300716885813627 0.044256471292835657 0 -0.12436078214384889 0.037941041534991893 0 -0.1233281400318309 0.045129618450257369 0 -0.1300716885813627 0.044256471292835657 0 -0.12788602183930911 0.029070465339318358 0 -0.12436078214384889 0.037941041534991893 0 -0.14423480704426461 0.041165514650706968 0 -0.12788602183930911 0.029070465339318358 0 -0.15292323361422169 0.02407419640479419 0 -0.14423480704426461 0.041165514650706968 0 -0.15292323361422169 0.02407419640479419 0 -0.15886784959621419 0.042363963861649957 0 -0.14423480704426461 0.041165514650706968 0 -0.15182373414896499 0.058933634030521667 0 -0.15886784959621419 0.042363963861649957 0 -0.1340198196665372 0.058575147362970328 0 -0.14423480704426461 0.041165514650706968 0 -0.15182373414896499 0.058933634030521667 0 -0.1265299462566174 -0.0091552116087020938 0 -0.13432024136225559 0.015142337860790681 0 -0.1180014881981651 0.0050774772644331711 0 -0.1561130154528631 -0.0027060153901822992 0 -0.1265299462566174 -0.0091552116087020938 0 -0.13432024136225559 0.015142337860790681 0 -0.13432024136225559 0.015142337860790681 0 -0.12788602183930911 0.029070465339318358 0 -0.15292323361422169 0.02407419640479419 0 -0.1561130154528631 -0.0027060153901822992 0 -0.13432024136225559 0.015142337860790681 0 -0.15292323361422169 0.02407419640479419 0 -0.1561130154528631 -0.0027060153901822992 0 -0.13432024136225559 0.015142337860790681 0 -0.1561130154528631 -0.0027060153901822992 0 -0.15292323361422169 0.02407419640479419 0 -0.1666981442022982 0.01350620612868933 0 -0.1561130154528631 -0.0027060153901822992 0 -0.1666981442022982 0.01350620612868933 0 -0.18197787751317601 0.002580864069552373 0 -0.15292323361422169 0.02407419640479419 0 -0.1666981442022982 0.01350620612868933 0 -0.17577845022893179 0.030075779430593069 0 -0.17577845022893179 0.030075779430593069 0 -0.18197787751317601 0.002580864069552373 0 -0.18911801172735559 0.015327632836035891 0 -0.17577845022893179 0.030075779430593069 0 -0.18197787751317601 0.002580864069552373 0 -0.17577845022893179 0.030075779430593069 0 -0.18648615888213069 0.034511278305950813 0 -0.18983972830568549 0.025560520902963471 0 -0.17577845022893179 0.030075779430593069 0 -0.18911801172735559 0.015327632836035891 0 -0.18983972830568549 0.025560520902963471 0 -0.1666981442022982 0.01350620612868933 0 -0.17577845022893179 0.030075779430593069 0 -0.18197787751317601 0.002580864069552373 0 -0.15182373414896499 0.058933634030521667 0 -0.1695790229446876 0.057570694791633889 0 -0.15886784959621419 0.042363963861649957 0 -0.17577845022893179 0.030075779430593069 0 -0.1695790229446876 0.057570694791633889 0 -0.15886784959621419 0.042363963861649957 0 -0.15292323361422169 0.02407419640479419 0 -0.17577845022893179 0.030075779430593069 0 -0.15886784959621419 0.042363963861649957 0 -0.17577845022893179 0.030075779430593069 0 -0.1695790229446876 0.057570694791633889 0 -0.18393473947192909 0.046116497776938603 0 -0.17577845022893179 0.030075779430593069 0 -0.1695790229446876 0.057570694791633889 0 -0.17577845022893179 0.030075779430593069 0 -0.18648615888213069 0.034511278305950813 0 -0.18393473947192909 0.046116497776938603 0 -0.180513692686319 0.06728296800085562 0 -0.18393473947192909 0.046116497776938603 0 -0.19656118329433089 0.057477575937102433 0 -0.180513692686319 0.06728296800085562 0 -0.1695790229446876 0.057570694791633889 0 -0.18393473947192909 0.046116497776938603 0 -0.18393473947192909 0.046116497776938603 0 -0.19656118329433089 0.057477575937102433 0 -0.19770189199020061 0.035173344131230841 0 -0.19656118329433089 0.057477575937102433 0 -0.19770189199020061 0.035173344131230841 0 -0.19656118329433089 0.057477575937102433 0 -0.19770189199020061 0.035173344131230841 0 -0.21022790862849 0.046523061355118037 0 -0.18648615888213069 0.034511278305950813 0 -0.19770189199020061 0.035173344131230841 0 -0.18983972830568549 0.025560520902963471 0 -0.18648615888213069 0.034511278305950813 0 -0.18393473947192909 0.046116497776938603 0 -0.19770189199020061 0.035173344131230841 0 -0.20310687525997501 0.035071491786781588 0 -0.21022790862849 0.046523061355118037 0 -0.2117542535117225 0.037528056937312072 0 -0.20310687525997501 0.035071491786781588 0 -0.2117542535117225 0.037528056937312072 0 -0.2135289827994227 0.029753883229343421 0 -0.20310687525997501 0.035071491786781588 0 -0.19770189199020061 0.035173344131230841 0 -0.21022790862849 0.046523061355118037 0 -0.2117542535117225 0.037528056937312072 0 -0.2135289827994227 0.029753883229343421 0 -0.22015324735900241 0.038763791378005258 0 -0.21022790862849 0.046523061355118037 0 -0.2117542535117225 0.037528056937312072 0 -0.22015324735900241 0.038763791378005258 0 -0.21022790862849 0.046523061355118037 0 -0.21511245436069951 0.060363236314964708 0 -0.2290388603556209 0.053543063347305707 0 -0.19656118329433089 0.057477575937102433 0 -0.21022790862849 0.046523061355118037 0 -0.21511245436069951 0.060363236314964708 0 -0.19656118329433089 0.057477575937102433 0 -0.21511245436069951 0.060363236314964708 0 -0.20710382762053589 0.066542748513462577 0 -0.19287385479693009 -0.0047544157747348393 0 -0.19249478430005099 0.0067662299420887233 0 -0.20091991820746721 0.0086415261327670405 0 -0.19287385479693009 -0.0047544157747348393 0 -0.18197787751317601 0.002580864069552373 0 -0.19249478430005099 0.0067662299420887233 0 -0.18197787751317601 0.002580864069552373 0 -0.19249478430005099 0.0067662299420887233 0 -0.18911801172735559 0.015327632836035891 0 -0.19249478430005099 0.0067662299420887233 0 -0.18911801172735559 0.015327632836035891 0 -0.19884260068607029 0.012869112325359269 0 -0.19249478430005099 0.0067662299420887233 0 -0.19884260068607029 0.012869112325359269 0 -0.20091991820746721 0.0086415261327670405 0 -0.20310687525997501 0.035071491786781588 0 -0.19884260068607029 0.012869112325359269 0 -0.20091991820746721 0.0086415261327670405 0 -0.19770189199020061 0.035173344131230841 0 -0.19884260068607029 0.012869112325359269 0 -0.19770189199020061 0.035173344131230841 0 -0.19884260068607029 0.012869112325359269 0 -0.18983972830568549 0.025560520902963471 0 -0.20310687525997501 0.035071491786781588 0 -0.20091991820746721 0.0086415261327670405 0 -0.20310687525997501 0.035071491786781588 0 -0.19770189199020061 0.035173344131230841 0 -0.19884260068607029 0.012869112325359269 0 -0.18911801172735559 0.015327632836035891 0 -0.19884260068607029 0.012869112325359269 0 -0.18983972830568549 0.025560520902963471 0 -0.20310687525997501 0.035071491786781588 0 -0.20091991820746721 0.0086415261327670405 0 -0.20586958163778951 0.018764079386812561 0 -0.20310687525997501 0.035071491786781588 0 -0.21054624167455091 0.020825171365684882 0 -0.20586958163778951 0.018764079386812561 0 -0.20310687525997501 0.035071491786781588 0 -0.2135289827994227 0.029753883229343421 0 -0.21054624167455091 0.020825171365684882 0 -0.2135289827994227 0.029753883229343421 0 -0.21054624167455091 0.020825171365684882 0 -0.21964824252277479 0.02066271085769349 0 -0.21054624167455091 0.020825171365684882 0 -0.21645924758712851 0.0136673831472909 0 -0.21964824252277479 0.02066271085769349 0 -0.21054624167455091 0.020825171365684882 0 -0.20586958163778951 0.018764079386812561 0 -0.208905291409165 0.010518128262016761 0 -0.20091991820746721 0.0086415261327670405 0 -0.20586958163778951 0.018764079386812561 0 -0.208905291409165 0.010518128262016761 0 -0.208905291409165 0.010518128262016761 0 -0.21645924758712851 0.0136673831472909 0 -0.21683052253175161 0.0043572582264946964 0 -0.21054624167455091 0.020825171365684882 0 -0.208905291409165 0.010518128262016761 0 -0.21645924758712851 0.0136673831472909 0 -0.20756371374763249 -0.00056276874902053413 0 -0.208905291409165 0.010518128262016761 0 -0.21683052253175161 0.0043572582264946964 0 -0.20756371374763249 -0.00056276874902053413 0 -0.20091991820746721 0.0086415261327670405 0 -0.208905291409165 0.010518128262016761 0 -0.23095668470091199 -0.0047838156192840237 0 -0.21683052253175161 0.0043572582264946964 0 -0.22636593979739991 0.01197364702456467 0 -0.23095668470091199 -0.0047838156192840237 0 -0.22636593979739991 0.01197364702456467 0 -0.24461315722809429 0.014085251873885171 0 -0.21645924758712851 0.0136673831472909 0 -0.22636593979739991 0.01197364702456467 0 -0.21964824252277479 0.02066271085769349 0 -0.21645924758712851 0.0136673831472909 0 -0.21683052253175161 0.0043572582264946964 0 -0.22636593979739991 0.01197364702456467 0 -0.22636593979739991 0.01197364702456467 0 -0.23109353145675671 0.022141502396543469 0 -0.24461315722809429 0.014085251873885171 0 -0.22636593979739991 0.01197364702456467 0 -0.23109353145675671 0.022141502396543469 0 -0.21964824252277479 0.02066271085769349 0 -0.2135289827994227 0.029753883229343421 0 -0.21964824252277479 0.02066271085769349 0 -0.22425000258596281 0.029027209094436211 0 -0.23109353145675671 0.022141502396543469 0 -0.21964824252277479 0.02066271085769349 0 -0.22425000258596281 0.029027209094436211 0 -0.23109353145675671 0.022141502396543469 0 -0.22425000258596281 0.029027209094436211 0 -0.23682600879185761 0.03381415761059544 0 -0.23109353145675671 0.022141502396543469 0 -0.24461315722809429 0.014085251873885171 0 -0.23682600879185761 0.03381415761059544 0 -0.24461315722809429 0.014085251873885171 0 -0.23682600879185761 0.03381415761059544 0 -0.26291621341345311 0.023431804120376602 0 -0.24461315722809429 0.014085251873885171 0 -0.23682600879185761 0.03381415761059544 0 -0.21511245436069951 0.060363236314964708 0 -0.2290388603556209 0.053543063347305707 0 -0.22125171191938409 0.073271969084015953 0 -0.2290388603556209 0.053543063347305707 0 -0.23682600879185761 0.03381415761059544 0 -0.22425000258596281 0.029027209094436211 0 -0.22015324735900241 0.038763791378005258 0 -0.23682600879185761 0.03381415761059544 0 -0.2290388603556209 0.053543063347305707 0 -0.22015324735900241 0.038763791378005258 0 -0.23682600879185761 0.03381415761059544 0 -0.21022790862849 0.046523061355118037 0 -0.2290388603556209 0.053543063347305707 0 -0.22015324735900241 0.038763791378005258 0 -0.2135289827994227 0.029753883229343421 0 -0.22425000258596281 0.029027209094436211 0 -0.22015324735900241 0.038763791378005258 0 -0.2290388603556209 0.053543063347305707 0 -0.23682600879185761 0.03381415761059544 0 -0.24196684736867291 0.049358387191694622 0 -0.25982138469659882 0.043223970520254597 0 -0.23682600879185761 0.03381415761059544 0 -0.24196684736867291 0.049358387191694622 0 -0.25038385702961918 0.05954766979570042 0 -0.24196684736867291 0.049358387191694622 0 -0.23220475733717369 0.066193942936271372 0 -0.2290388603556209 0.053543063347305707 0 -0.24196684736867291 0.049358387191694622 0 -0.23220475733717369 0.066193942936271372 0 -0.25038385702961918 0.05954766979570042 0 -0.24094632936263821 0.0758713690711455 0 -0.25038385702961918 0.05954766979570042 0 -0.24094632936263821 0.0758713690711455 0 -0.23220475733717369 0.066193942936271372 0 -0.24094632936263821 0.0758713690711455 0 -0.2471049901110669 0.091530476922023402 0 -0.2287581360507126 0.096952780363958782 0 -0.24094632936263821 0.0758713690711455 0 -0.2287581360507126 0.096952780363958782 0 -0.24094632936263821 0.0758713690711455 0 -0.2264270754457719 0.083958732579731576 0 -0.2287581360507126 0.096952780363958782 0 -0.2264270754457719 0.083958732579731576 0 -0.22125171191938409 0.073271969084015953 0 -0.21475212445035291 0.089738811799806723 0 -0.2264270754457719 0.083958732579731576 0 -0.21475212445035291 0.089738811799806723 0 -0.2287581360507126 0.096952780363958782 0 -0.21475212445035291 0.089738811799806723 0 -0.2287581360507126 0.096952780363958782 0 -0.2290388603556209 0.053543063347305707 0 -0.23220475733717369 0.066193942936271372 0 -0.22125171191938409 0.073271969084015953 0 -0.24094632936263821 0.0758713690711455 0 -0.2264270754457719 0.083958732579731576 0 -0.22125171191938409 0.073271969084015953 0 -0.2290388603556209 0.053543063347305707 0 -0.22125171191938409 0.073271969084015953 0 -0.24094632936263821 0.0758713690711455 0 -0.23220475733717369 0.066193942936271372 0 -0.22125171191938409 0.073271969084015953 0 -0.24094632936263821 0.0758713690711455 0 -0.22125171191938409 0.073271969084015953 0 -0.22125171191938409 0.073271969084015953 0 -0.2168012826006997 0.072684577836277853 0 -0.21511245436069951 0.060363236314964708 0 -0.2139511894685581 0.069206957255572021 0 -0.20710382762053589 0.066542748513462577 0 -0.21511245436069951 0.060363236314964708 0 -0.22125171191938409 0.073271969084015953 0 -0.2139511894685581 0.069206957255572021 0 -0.2139511894685581 0.069206957255572021 0 -0.20710382762053589 0.066542748513462577 0 -0.20948667084147091 0.073172254529138975 0 -0.20643122673559469 0.078003554464762356 0 -0.20948667084147091 0.073172254529138975 0 -0.20260405827864431 0.072064481188822513 0 -0.20710382762053589 0.066542748513462577 0 -0.20948667084147091 0.073172254529138975 0 -0.20260405827864431 0.072064481188822513 0 -0.20643122673559469 0.078003554464762356 0 -0.20948667084147091 0.073172254529138975 0 -0.21349287898166019 0.078161564732524516 0 -0.20948667084147091 0.073172254529138975 0 -0.2168012826006997 0.072684577836277853 0 -0.21349287898166019 0.078161564732524516 0 -0.2139511894685581 0.069206957255572021 0 -0.20948667084147091 0.073172254529138975 0 -0.2168012826006997 0.072684577836277853 0 -0.22125171191938409 0.073271969084015953 0 -0.2139511894685581 0.069206957255572021 0 -0.2168012826006997 0.072684577836277853 0 -0.22125171191938409 0.073271969084015953 0 -0.2168012826006997 0.072684577836277853 0 -0.21349287898166019 0.078161564732524516 0 -0.21475212445035291 0.089738811799806723 0 -0.2088440106586045 0.082205433847016535 0 -0.19542047459846079 0.079781807742974026 0 -0.22125171191938409 0.073271969084015953 0 -0.21349287898166019 0.078161564732524516 0 -0.21475212445035291 0.089738811799806723 0 -0.21349287898166019 0.078161564732524516 0 -0.21475212445035291 0.089738811799806723 0 -0.2088440106586045 0.082205433847016535 0 -0.21475212445035291 0.089738811799806723 0 -0.19542047459846079 0.079781807742974026 0 -0.21475212445035291 0.089738811799806723 0 -0.20401307824931961 0.092053841143642179 0 -0.19542047459846079 0.079781807742974026 0 -0.22125171191938409 0.073271969084015953 0 -0.21475212445035291 0.089738811799806723 0 -0.21475212445035291 0.089738811799806723 0 -0.2122606233620967 0.096051082654228501 0 -0.21475212445035291 0.089738811799806723 0 -0.20401307824931961 0.092053841143642179 0 -0.2122606233620967 0.096051082654228501 0 -0.20643122673559469 0.078003554464762356 0 -0.2088440106586045 0.082205433847016535 0 -0.19542047459846079 0.079781807742974026 0 -0.20643122673559469 0.078003554464762356 0 -0.21349287898166019 0.078161564732524516 0 -0.2088440106586045 0.082205433847016535 0 -0.20401307824931961 0.092053841143642179 0 -0.19542047459846079 0.079781807742974026 0 -0.19467728191987971 0.094313424657550979 0 -0.19542047459846079 0.079781807742974026 0 -0.19467728191987971 0.094313424657550979 0 -0.18650081501980781 0.095049071481486447 0 -0.18787625935323191 0.085774280606860723 0 -0.19467728191987971 0.094313424657550979 0 -0.19542047459846079 0.079781807742974026 0 -0.18787625935323191 0.085774280606860723 0 -0.19467728191987971 0.094313424657550979 0 -0.19542047459846079 0.079781807742974026 0 -0.18787625935323191 0.085774280606860723 0 -0.18954747469181699 0.076756846896681913 0 -0.19542047459846079 0.079781807742974026 0 -0.18954747469181699 0.076756846896681913 0 -0.180513692686319 0.06728296800085562 0 -0.19656118329433089 0.057477575937102433 0 -0.18954747469181699 0.076756846896681913 0 -0.19656118329433089 0.057477575937102433 0 -0.19542047459846079 0.079781807742974026 0 -0.18954747469181699 0.076756846896681913 0 -0.19656118329433089 0.057477575937102433 0 -0.19542047459846079 0.079781807742974026 0 -0.19656118329433089 0.057477575937102433 0 -0.19542047459846079 0.079781807742974026 0 -0.20260405827864431 0.072064481188822513 0 -0.19656118329433089 0.057477575937102433 0 -0.20710382762053589 0.066542748513462577 0 -0.20260405827864431 0.072064481188822513 0 -0.20643122673559469 0.078003554464762356 0 -0.19542047459846079 0.079781807742974026 0 -0.20260405827864431 0.072064481188822513 0 -0.1851561337081124 0.10599720641954211 0 -0.2023307023049298 0.1154958705409591 0 -0.1851561337081124 0.10599720641954211 0 -0.17975543534056401 0.1140281980273376 0 -0.2023307023049298 0.1154958705409591 0 -0.17975543534056401 0.1140281980273376 0 -0.2023307023049298 0.1154958705409591 0 -0.19426972642227941 0.12163972981989001 0 -0.17975543534056401 0.1140281980273376 0 -0.2023307023049298 0.1154958705409591 0 -0.2023307023049298 0.1154958705409591 0 -0.19426972642227941 0.12163972981989001 0 -0.2046858649024477 0.1245893280038847 0 -0.1851561337081124 0.10599720641954211 0 -0.2023307023049298 0.1154958705409591 0 -0.19434445720212121 0.10223599476622 0 -0.18650081501980781 0.095049071481486447 0 -0.1851561337081124 0.10599720641954211 0 -0.19434445720212121 0.10223599476622 0 -0.18650081501980781 0.095049071481486447 0 -0.19434445720212121 0.10223599476622 0 -0.19467728191987971 0.094313424657550979 0 -0.20401307824931961 0.092053841143642179 0 -0.19467728191987971 0.094313424657550979 0 -0.2031850731901598 0.1012943450675472 0 -0.19434445720212121 0.10223599476622 0 -0.19467728191987971 0.094313424657550979 0 -0.2031850731901598 0.1012943450675472 0 -0.2023307023049298 0.1154958705409591 0 -0.19434445720212121 0.10223599476622 0 -0.2031850731901598 0.1012943450675472 0 -0.2122606233620967 0.096051082654228501 0 -0.21163003694057711 0.1062071144757582 0 -0.2287581360507126 0.096952780363958782 0 -0.21475212445035291 0.089738811799806723 0 -0.2122606233620967 0.096051082654228501 0 -0.2287581360507126 0.096952780363958782 0 -0.2023307023049298 0.1154958705409591 0 -0.2031850731901598 0.1012943450675472 0 -0.21163003694057711 0.1062071144757582 0 -0.2031850731901598 0.1012943450675472 0 -0.2122606233620967 0.096051082654228501 0 -0.21163003694057711 0.1062071144757582 0 -0.20401307824931961 0.092053841143642179 0 -0.2031850731901598 0.1012943450675472 0 -0.2122606233620967 0.096051082654228501 0 -0.2023307023049298 0.1154958705409591 0 -0.21746848844565919 0.1164800145012904 0 -0.2023307023049298 0.1154958705409591 0 -0.21163003694057711 0.1062071144757582 0 -0.21746848844565919 0.1164800145012904 0 -0.2023307023049298 0.1154958705409591 0 -0.2046858649024477 0.1245893280038847 0 -0.21423198440969321 0.1220780609866764 0 -0.2023307023049298 0.1154958705409591 0 -0.21423198440969321 0.1220780609866764 0 -0.2046858649024477 0.1245893280038847 0 -0.21423198440969321 0.1220780609866764 0 -0.21211538700035301 0.12573905153594311 0 -0.2023307023049298 0.1154958705409591 0 -0.21746848844565919 0.1164800145012904 0 -0.21423198440969321 0.1220780609866764 0 -0.21423198440969321 0.1220780609866764 0 -0.21211538700035301 0.12573905153594311 0 -0.21746848844565919 0.1164800145012904 0 -0.21423198440969321 0.1220780609866764 0 -0.21746848844565919 0.1164800145012904 0 -0.21423198440969321 0.1220780609866764 0 -0.2316611454483625 0.11740271333852 0 -0.21423198440969321 0.1220780609866764 0 -0.2316611454483625 0.11740271333852 0 -0.23284591379889799 0.13237278613515041 0 -0.21746848844565919 0.1164800145012904 0 -0.2316611454483625 0.11740271333852 0 -0.2287581360507126 0.096952780363958782 0 -0.21746848844565919 0.1164800145012904 0 -0.2316611454483625 0.11740271333852 0 -0.21163003694057711 0.1062071144757582 0 -0.21746848844565919 0.1164800145012904 0 -0.2287581360507126 0.096952780363958782 0 -0.21746848844565919 0.1164800145012904 0 -0.2287581360507126 0.096952780363958782 0 -0.2287581360507126 0.096952780363958782 0 -0.24979018636467101 0.10778559659557969 0 -0.2471049901110669 0.091530476922023402 0 -0.2287581360507126 0.096952780363958782 0 -0.24979018636467101 0.10778559659557969 0 -0.2316611454483625 0.11740271333852 0 -0.2287581360507126 0.096952780363958782 0 -0.24979018636467101 0.10778559659557969 0 -0.2316611454483625 0.11740271333852 0 -0.24952094603642541 0.12518684568385141 0 -0.23284591379889799 0.13237278613515041 0 -0.2316611454483625 0.11740271333852 0 -0.24979018636467101 0.10778559659557969 0 -0.24952094603642541 0.12518684568385141 0 -0.25145984318810399 0.1426675112836224 0 -0.23284591379889799 0.13237278613515041 0 -0.25145984318810399 0.1426675112836224 0 -0.24952094603642541 0.12518684568385141 0 -0.23284591379889799 0.13237278613515041 0 -0.21423198440969321 0.1220780609866764 0 -0.23284591379889799 0.13237278613515041 0 -0.22036507419553281 0.13566712833412201 0 -0.23284591379889799 0.13237278613515041 0 -0.22036507419553281 0.13566712833412201 0 -0.23255520881260869 0.15055209335994449 0 -0.21423198440969321 0.1220780609866764 0 -0.23284591379889799 0.13237278613515041 0 -0.22036507419553281 0.13566712833412201 0 -0.23255520881260869 0.15055209335994449 0 -0.21419117604473839 0.15401317876892859 0 -0.2532962385335254 0.15580392097934451 0 -0.25145984318810399 0.1426675112836224 0 -0.23255520881260869 0.15055209335994449 0 -0.25145984318810399 0.1426675112836224 0 -0.23284591379889799 0.13237278613515041 0 -0.23255520881260869 0.15055209335994449 0 -0.2532962385335254 0.15580392097934451 0 -0.23255520881260869 0.15055209335994449 0 -0.2427552812361288 0.16631611434305291 0 -0.2427552812361288 0.16631611434305291 0 -0.24868285473123269 0.1826781688076492 0 -0.2341245742942798 0.18749840878014071 0 -0.2341245742942798 0.18749840878014071 0 -0.22338188704044051 0.16991465456412419 0 -0.21395978012601169 0.18809603572539041 0 -0.2427552812361288 0.16631611434305291 0 -0.2341245742942798 0.18749840878014071 0 -0.22338188704044051 0.16991465456412419 0 -0.23255520881260869 0.15055209335994449 0 -0.22338188704044051 0.16991465456412419 0 -0.21419117604473839 0.15401317876892859 0 -0.23255520881260869 0.15055209335994449 0 -0.2427552812361288 0.16631611434305291 0 -0.22338188704044051 0.16991465456412419 0 -0.22338188704044051 0.16991465456412419 0 -0.203135636782969 0.1689891583581053 0 -0.21419117604473839 0.15401317876892859 0 -0.203135636782969 0.1689891583581053 0 -0.19999249554299381 0.1535745015977403 0 -0.21419117604473839 0.15401317876892859 0 -0.22338188704044051 0.16991465456412419 0 -0.203135636782969 0.1689891583581053 0 -0.21395978012601169 0.18809603572539041 0 -0.203135636782969 0.1689891583581053 0 -0.1942385878456207 0.182917932980936 0 -0.21395978012601169 0.18809603572539041 0 -0.203135636782969 0.1689891583581053 0 -0.1942385878456207 0.182917932980936 0 -0.1856266518236544 0.17090785090733199 0 -0.203135636782969 0.1689891583581053 0 -0.19173988157908789 0.1603783430616795 0 -0.1856266518236544 0.17090785090733199 0 -0.203135636782969 0.1689891583581053 0 -0.19173988157908789 0.1603783430616795 0 -0.19999249554299381 0.1535745015977403 0 -0.19173988157908789 0.1603783430616795 0 -0.18950502398959851 0.1501893390821909 0 -0.1812797925499442 0.15791642875502271 0 -0.19173988157908789 0.1603783430616795 0 -0.18950502398959851 0.1501893390821909 0 -0.19999249554299381 0.1535745015977403 0 -0.19999249554299381 0.1535745015977403 0 -0.19695607671086571 0.14019534444254561 0 -0.20847043458818079 0.14068126797518371 0 -0.18950502398959851 0.1501893390821909 0 -0.19999249554299381 0.1535745015977403 0 -0.19695607671086571 0.14019534444254561 0 -0.18950502398959851 0.1501893390821909 0 -0.19695607671086571 0.14019534444254561 0 -0.18704886782719249 0.1416046441570846 0 -0.1877036038172786 0.13268686458166659 0 -0.1974429794910102 0.12995975948598351 0 -0.19695607671086571 0.14019534444254561 0 -0.1877036038172786 0.13268686458166659 0 -0.19695607671086571 0.14019534444254561 0 -0.18704886782719249 0.1416046441570846 0 -0.1871336500724444 0.1241254930412863 0 -0.1877036038172786 0.13268686458166659 0 -0.1974429794910102 0.12995975948598351 0 -0.1871336500724444 0.1241254930412863 0 -0.19426972642227941 0.12163972981989001 0 -0.1974429794910102 0.12995975948598351 0 -0.19426972642227941 0.12163972981989001 0 -0.2046858649024477 0.1245893280038847 0 -0.1974429794910102 0.12995975948598351 0 -0.2046858649024477 0.1245893280038847 0 -0.1974429794910102 0.12995975948598351 0 -0.20602154548582749 0.13216821772858409 0 -0.1974429794910102 0.12995975948598351 0 -0.19695607671086571 0.14019534444254561 0 -0.20602154548582749 0.13216821772858409 0 -0.20602154548582749 0.13216821772858409 0 -0.2117431103174735 0.13356391639345819 0 -0.20847043458818079 0.14068126797518371 0 -0.19695607671086571 0.14019534444254561 0 -0.20602154548582749 0.13216821772858409 0 -0.20847043458818079 0.14068126797518371 0 -0.20602154548582749 0.13216821772858409 0 -0.21211538700035301 0.12573905153594311 0 -0.2117431103174735 0.13356391639345819 0 -0.2046858649024477 0.1245893280038847 0 -0.20602154548582749 0.13216821772858409 0 -0.21211538700035301 0.12573905153594311 0 -0.22036507419553281 0.13566712833412201 0 -0.21211538700035301 0.12573905153594311 0 -0.2117431103174735 0.13356391639345819 0 -0.21423198440969321 0.1220780609866764 0 -0.22036507419553281 0.13566712833412201 0 -0.21211538700035301 0.12573905153594311 0 -0.22036507419553281 0.13566712833412201 0 -0.2117431103174735 0.13356391639345819 0 -0.20847043458818079 0.14068126797518371 0 -0.22036507419553281 0.13566712833412201 0 -0.21419117604473839 0.15401317876892859 0 -0.20847043458818079 0.14068126797518371 0 -0.19999249554299381 0.1535745015977403 0 -0.21419117604473839 0.15401317876892859 0 -0.20847043458818079 0.14068126797518371 0 -0.2281430975348781 0.23796995505515159 0 -0.22688817632513 0.2499194994399864 0 -0.21740568396297191 0.24887085884641791 0 -0.23517492167944401 0.25003190434355871 0 -0.2281430975348781 0.23796995505515159 0 -0.22688817632513 0.2499194994399864 0 -0.23517492167944401 0.25003190434355871 0 -0.2281430975348781 0.23796995505515159 0 -0.2407299013316524 0.23878502476213431 0 -0.23517492167944401 0.25003190434355871 0 -0.24988911506187331 0.24815664401079651 0 -0.2407299013316524 0.23878502476213431 0 -0.24988911506187331 0.24815664401079651 0 -0.2407299013316524 0.23878502476213431 0 -0.2499838687859956 0.233595069417703 0 -0.2281430975348781 0.23796995505515159 0 -0.2407299013316524 0.23878502476213431 0 -0.24045850359607079 0.22417155098346159 0 -0.25578594512282998 0.22294799939372439 0 -0.2499838687859956 0.233595069417703 0 -0.24045850359607079 0.22417155098346159 0 -0.2407299013316524 0.23878502476213431 0 -0.2499838687859956 0.233595069417703 0 -0.24045850359607079 0.22417155098346159 0 -0.25107150586961069 0.20986902571991481 0 -0.25578594512282998 0.22294799939372439 0 -0.24045850359607079 0.22417155098346159 0 -0.2281430975348781 0.23796995505515159 0 -0.22200289621814251 0.22024425714222931 0 -0.2115456539108222 0.2318545708016613 0 -0.2281430975348781 0.23796995505515159 0 -0.24045850359607079 0.22417155098346159 0 -0.22200289621814251 0.22024425714222931 0 -0.22200289621814251 0.22024425714222931 0 -0.23662661110648811 0.2065578725798308 0 -0.2227189990326523 0.20133494808205721 0 -0.24045850359607079 0.22417155098346159 0 -0.22200289621814251 0.22024425714222931 0 -0.23662661110648811 0.2065578725798308 0 -0.25107150586961069 0.20986902571991481 0 -0.24045850359607079 0.22417155098346159 0 -0.23662661110648811 0.2065578725798308 0 -0.25107150586961069 0.20986902571991481 0 -0.23662661110648811 0.2065578725798308 0 -0.24938318762817241 0.19622904477118119 0 -0.2341245742942798 0.18749840878014071 0 -0.23662661110648811 0.2065578725798308 0 -0.24938318762817241 0.19622904477118119 0 -0.24868285473123269 0.1826781688076492 0 -0.2341245742942798 0.18749840878014071 0 -0.24938318762817241 0.19622904477118119 0 -0.2341245742942798 0.18749840878014071 0 -0.2227189990326523 0.20133494808205721 0 -0.21395978012601169 0.18809603572539041 0 -0.2341245742942798 0.18749840878014071 0 -0.23662661110648811 0.2065578725798308 0 -0.2227189990326523 0.20133494808205721 0 -0.2227189990326523 0.20133494808205721 0 -0.21395978012601169 0.18809603572539041 0 -0.20580664754979699 0.20626197734267751 0 -0.1942385878456207 0.182917932980936 0 -0.21395978012601169 0.18809603572539041 0 -0.20199334903579719 0.1935272145435688 0 -0.21395978012601169 0.18809603572539041 0 -0.20199334903579719 0.1935272145435688 0 -0.20580664754979699 0.20626197734267751 0 -0.20199334903579719 0.1935272145435688 0 -0.189276083967585 0.196838459864701 0 -0.20580664754979699 0.20626197734267751 0 -0.1942385878456207 0.182917932980936 0 -0.20199334903579719 0.1935272145435688 0 -0.189276083967585 0.196838459864701 0 -0.189276083967585 0.196838459864701 0 -0.20580664754979699 0.20626197734267751 0 -0.183911658966147 0.21110474256762221 0 -0.20580664754979699 0.20626197734267751 0 -0.19390590912146541 0.22261208116473619 0 -0.183911658966147 0.21110474256762221 0 -0.22200289621814251 0.22024425714222931 0 -0.20580664754979699 0.20626197734267751 0 -0.19390590912146541 0.22261208116473619 0 -0.22200289621814251 0.22024425714222931 0 -0.2227189990326523 0.20133494808205721 0 -0.20580664754979699 0.20626197734267751 0 -0.22200289621814251 0.22024425714222931 0 -0.2115456539108222 0.2318545708016613 0 -0.19390590912146541 0.22261208116473619 0 -0.22200289621814251 0.22024425714222931 0 -0.19390590912146541 0.22261208116473619 0 -0.2115456539108222 0.2318545708016613 0 -0.19390590912146541 0.22261208116473619 0 -0.20042804532634931 0.24408032080174541 0 -0.19390590912146541 0.22261208116473619 0 -0.20042804532634931 0.24408032080174541 0 -0.1843864190128407 0.23722898517218391 0 -0.2281430975348781 0.23796995505515159 0 -0.2115456539108222 0.2318545708016613 0 -0.20042804532634931 0.24408032080174541 0 -0.2281430975348781 0.23796995505515159 0 -0.20042804532634931 0.24408032080174541 0 -0.21740568396297191 0.24887085884641791 0 -0.2281430975348781 0.23796995505515159 0 -0.20042804532634931 0.24408032080174541 0 -0.20678538293090801 0.25409833089725919 0 -0.20042804532634931 0.24408032080174541 0 -0.21740568396297191 0.24887085884641791 0 -0.1567875085499168 0.24064685904992161 0 -0.16992396067634161 0.23826160898942189 0 -0.16580892202478839 0.2249799051872432 0 -0.17271299311782051 0.25019068654833898 0 -0.14499794090929169 0.25630105229493272 0 -0.1567875085499168 0.24064685904992161 0 -0.17271299311782051 0.25019068654833898 0 -0.1567875085499168 0.24064685904992161 0 -0.16992396067634161 0.23826160898942189 0 -0.17271299311782051 0.25019068654833898 0 -0.20042804532634931 0.24408032080174541 0 -0.1843864190128407 0.23722898517218391 0 -0.17271299311782051 0.25019068654833898 0 -0.20042804532634931 0.24408032080174541 0 -0.17271299311782051 0.25019068654833898 0 -0.16992396067634161 0.23826160898942189 0 -0.1843864190128407 0.23722898517218391 0 -0.19390590912146541 0.22261208116473619 0 -0.1843864190128407 0.23722898517218391 0 -0.16580892202478839 0.2249799051872432 0 -0.19390590912146541 0.22261208116473619 0 -0.16580892202478839 0.2249799051872432 0 -0.19390590912146541 0.22261208116473619 0 -0.16580892202478839 0.2249799051872432 0 -0.183911658966147 0.21110474256762221 0 -0.16992396067634161 0.23826160898942189 0 -0.1843864190128407 0.23722898517218391 0 -0.16580892202478839 0.2249799051872432 0 -0.16580892202478839 0.2249799051872432 0 -0.16929538691328569 0.20321751059074419 0 -0.1443697465561683 0.20507696078472409 0 -0.189276083967585 0.196838459864701 0 -0.16929538691328569 0.20321751059074419 0 -0.183911658966147 0.21110474256762221 0 -0.16580892202478839 0.2249799051872432 0 -0.16929538691328569 0.20321751059074419 0 -0.183911658966147 0.21110474256762221 0 -0.189276083967585 0.196838459864701 0 -0.16929538691328569 0.20321751059074419 0 -0.17418853329615849 0.18422465068620519 0 -0.1942385878456207 0.182917932980936 0 -0.189276083967585 0.196838459864701 0 -0.17418853329615849 0.18422465068620519 0 -0.16929538691328569 0.20321751059074419 0 -0.1564430748011667 0.1884605756689435 0 -0.17418853329615849 0.18422465068620519 0 -0.16929538691328569 0.20321751059074419 0 -0.1564430748011667 0.1884605756689435 0 -0.1443697465561683 0.20507696078472409 0 -0.1564430748011667 0.1884605756689435 0 -0.1443697465561683 0.20507696078472409 0 -0.13857990318848681 0.1834280514942353 0 -0.1443697465561683 0.20507696078472409 0 -0.13857990318848681 0.1834280514942353 0 -0.12258363576039399 0.19375118523307189 0 -0.1443697465561683 0.20507696078472409 0 -0.1200001577285318 0.21396774352593709 0 -0.12258363576039399 0.19375118523307189 0 -0.1443697465561683 0.20507696078472409 0 -0.13771193492811151 0.22734772920975019 0 -0.1200001577285318 0.21396774352593709 0 -0.1567875085499168 0.24064685904992161 0 -0.16580892202478839 0.2249799051872432 0 -0.13771193492811151 0.22734772920975019 0 -0.16580892202478839 0.2249799051872432 0 -0.1443697465561683 0.20507696078472409 0 -0.13771193492811151 0.22734772920975019 0 -0.16580892202478839 0.2249799051872432 0 -0.13771193492811151 0.22734772920975019 0 -0.14499794090929169 0.25630105229493272 0 -0.13771193492811151 0.22734772920975019 0 -0.12407642526108049 0.24260694432488919 0 -0.14499794090929169 0.25630105229493272 0 -0.1567875085499168 0.24064685904992161 0 -0.13771193492811151 0.22734772920975019 0 -0.16367958330166921 0.1461406586705277 0 -0.16815528209882319 0.1330900732053884 0 -0.17264961410847479 0.1439817086257851 0 -0.17114220614887371 0.15302348144102501 0 -0.16367958330166921 0.1461406586705277 0 -0.17264961410847479 0.1439817086257851 0 -0.17114220614887371 0.15302348144102501 0 -0.15863161287237371 0.15596242829572421 0 -0.16367958330166921 0.1461406586705277 0 -0.15863161287237371 0.15596242829572421 0 -0.16367958330166921 0.1461406586705277 0 -0.14935029315675821 0.1435826642739666 0 -0.16367958330166921 0.1461406586705277 0 -0.15885584776448461 0.1380001117402542 0 -0.14935029315675821 0.1435826642739666 0 -0.16367958330166921 0.1461406586705277 0 -0.15885584776448461 0.1380001117402542 0 -0.16815528209882319 0.1330900732053884 0 -0.15885584776448461 0.1380001117402542 0 -0.1597926974991892 0.12977810481419971 0 -0.15311242220343901 0.13166714076071451 0 -0.15885584776448461 0.1380001117402542 0 -0.1597926974991892 0.12977810481419971 0 -0.16815528209882319 0.1330900732053884 0 -0.16399344112017189 0.1232226569518412 0 -0.1597926974991892 0.12977810481419971 0 -0.16815528209882319 0.1330900732053884 0 -0.16399344112017189 0.1232226569518412 0 -0.1548464943090275 0.1229105414128 0 -0.1597926974991892 0.12977810481419971 0 -0.17245547782041379 0.1217201660849621 0 -0.16399344112017189 0.1232226569518412 0 -0.16815528209882319 0.1330900732053884 0 -0.16815528209882319 0.1330900732053884 0 -0.17929286653467849 0.13777059620532209 0 -0.17925220257449959 0.12857110755721279 0 -0.16815528209882319 0.1330900732053884 0 -0.17929286653467849 0.13777059620532209 0 -0.17264961410847479 0.1439817086257851 0 -0.17245547782041379 0.1217201660849621 0 -0.16815528209882319 0.1330900732053884 0 -0.17925220257449959 0.12857110755721279 0 -0.1871336500724444 0.1241254930412863 0 -0.1877036038172786 0.13268686458166659 0 -0.17925220257449959 0.12857110755721279 0 -0.1877036038172786 0.13268686458166659 0 -0.17929286653467849 0.13777059620532209 0 -0.18704886782719249 0.1416046441570846 0 -0.1877036038172786 0.13268686458166659 0 -0.17929286653467849 0.13777059620532209 0 -0.17925220257449959 0.12857110755721279 0 -0.17929286653467849 0.13777059620532209 0 -0.18001302972750691 0.14746677247907281 0 -0.18704886782719249 0.1416046441570846 0 -0.18950502398959851 0.1501893390821909 0 -0.18001302972750691 0.14746677247907281 0 -0.18704886782719249 0.1416046441570846 0 -0.17929286653467849 0.13777059620532209 0 -0.18001302972750691 0.14746677247907281 0 -0.17264961410847479 0.1439817086257851 0 -0.17114220614887371 0.15302348144102501 0 -0.18001302972750691 0.14746677247907281 0 -0.17264961410847479 0.1439817086257851 0 -0.17114220614887371 0.15302348144102501 0 -0.18001302972750691 0.14746677247907281 0 -0.1812797925499442 0.15791642875502271 0 -0.18950502398959851 0.1501893390821909 0 -0.18001302972750691 0.14746677247907281 0 -0.1812797925499442 0.15791642875502271 0 -0.1812797925499442 0.15791642875502271 0 -0.1856266518236544 0.17090785090733199 0 -0.16947188381805051 0.16691067872135629 0 -0.19173988157908789 0.1603783430616795 0 -0.1812797925499442 0.15791642875502271 0 -0.1856266518236544 0.17090785090733199 0 -0.17114220614887371 0.15302348144102501 0 -0.1812797925499442 0.15791642875502271 0 -0.16947188381805051 0.16691067872135629 0 -0.1856266518236544 0.17090785090733199 0 -0.17418853329615849 0.18422465068620519 0 -0.16947188381805051 0.16691067872135629 0 -0.1942385878456207 0.182917932980936 0 -0.1856266518236544 0.17090785090733199 0 -0.17418853329615849 0.18422465068620519 0 -0.16318116459831791 0.17770779541539061 0 -0.16947188381805051 0.16691067872135629 0 -0.152621166477896 0.17123527658505741 0 -0.1564430748011667 0.1884605756689435 0 -0.16318116459831791 0.17770779541539061 0 -0.152621166477896 0.17123527658505741 0 -0.1564430748011667 0.1884605756689435 0 -0.17418853329615849 0.18422465068620519 0 -0.16318116459831791 0.17770779541539061 0 -0.17418853329615849 0.18422465068620519 0 -0.16318116459831791 0.17770779541539061 0 -0.16947188381805051 0.16691067872135629 0 -0.15863161287237371 0.15596242829572421 0 -0.16947188381805051 0.16691067872135629 0 -0.152621166477896 0.17123527658505741 0 -0.17114220614887371 0.15302348144102501 0 -0.15863161287237371 0.15596242829572421 0 -0.16947188381805051 0.16691067872135629 0 -0.15863161287237371 0.15596242829572421 0 -0.152621166477896 0.17123527658505741 0 -0.14807936183680759 0.15964718569249151 0 -0.152621166477896 0.17123527658505741 0 -0.14807936183680759 0.15964718569249151 0 -0.13708443649434429 0.16494410415321911 0 -0.14807936183680759 0.15964718569249151 0 -0.13708443649434429 0.16494410415321911 0 -0.13997919220539989 0.152657859335529 0 -0.152621166477896 0.17123527658505741 0 -0.13857990318848681 0.1834280514942353 0 -0.13708443649434429 0.16494410415321911 0 -0.1564430748011667 0.1884605756689435 0 -0.152621166477896 0.17123527658505741 0 -0.13857990318848681 0.1834280514942353 0 -0.13857990318848681 0.1834280514942353 0 -0.13708443649434429 0.16494410415321911 0 -0.1168586936229203 0.1701007121332504 0 -0.13857990318848681 0.1834280514942353 0 -0.1168586936229203 0.1701007121332504 0 -0.12258363576039399 0.19375118523307189 0 -0.13708443649434429 0.16494410415321911 0 -0.12672789541455021 0.15203305154510599 0 -0.1168586936229203 0.1701007121332504 0 -0.13708443649434429 0.16494410415321911 0 -0.12672789541455021 0.15203305154510599 0 -0.13997919220539989 0.152657859335529 0 -0.12672789541455021 0.15203305154510599 0 -0.13880705679906821 0.14168937006090901 0 -0.1283538973521918 0.1392034088341112 0 -0.12672789541455021 0.15203305154510599 0 -0.13880705679906821 0.14168937006090901 0 -0.13997919220539989 0.152657859335529 0 -0.14807936183680759 0.15964718569249151 0 -0.13997919220539989 0.152657859335529 0 -0.14935029315675821 0.1435826642739666 0 -0.15863161287237371 0.15596242829572421 0 -0.14807936183680759 0.15964718569249151 0 -0.14935029315675821 0.1435826642739666 0 -0.13880705679906821 0.14168937006090901 0 -0.13997919220539989 0.152657859335529 0 -0.14935029315675821 0.1435826642739666 0 -0.1548464943090275 0.1229105414128 0 -0.1597926974991892 0.12977810481419971 0 -0.15311242220343901 0.13166714076071451 0 -0.1548464943090275 0.1229105414128 0 -0.1494853060173085 0.12764818496921759 0 -0.15311242220343901 0.13166714076071451 0 -0.1494853060173085 0.12764818496921759 0 -0.15311242220343901 0.13166714076071451 0 -0.14495694315179991 0.13275887088004351 0 -0.15885584776448461 0.1380001117402542 0 -0.14935029315675821 0.1435826642739666 0 -0.15311242220343901 0.13166714076071451 0 -0.14935029315675821 0.1435826642739666 0 -0.15311242220343901 0.13166714076071451 0 -0.14495694315179991 0.13275887088004351 0 -0.13880705679906821 0.14168937006090901 0 -0.14935029315675821 0.1435826642739666 0 -0.14495694315179991 0.13275887088004351 0 -0.14502536440496769 0.1232561868233123 0 -0.14495694315179991 0.13275887088004351 0 -0.13552565799427349 0.13154572271918111 0 -0.14502536440496769 0.1232561868233123 0 -0.1494853060173085 0.12764818496921759 0 -0.14495694315179991 0.13275887088004351 0 -0.14502536440496769 0.1232561868233123 0 -0.13205230688550099 0.1219956921549718 0 -0.13552565799427349 0.13154572271918111 0 -0.13880705679906821 0.14168937006090901 0 -0.14495694315179991 0.13275887088004351 0 -0.13552565799427349 0.13154572271918111 0 -0.13880705679906821 0.14168937006090901 0 -0.13552565799427349 0.13154572271918111 0 -0.1283538973521918 0.1392034088341112 0 -0.13552565799427349 0.13154572271918111 0 -0.1283538973521918 0.1392034088341112 0 -0.1239583793721125 0.13037080756173869 0 -0.13205230688550099 0.1219956921549718 0 -0.13552565799427349 0.13154572271918111 0 -0.1239583793721125 0.13037080756173869 0 -0.1239583793721125 0.13037080756173869 0 -0.1105803264299268 0.12824567511097651 0 -0.12003831912390731 0.12135060170994739 0 -0.1283538973521918 0.1392034088341112 0 -0.1239583793721125 0.13037080756173869 0 -0.11705392513018591 0.1408761436112117 0 -0.1239583793721125 0.13037080756173869 0 -0.1105803264299268 0.12824567511097651 0 -0.11705392513018591 0.1408761436112117 0 -0.1105803264299268 0.12824567511097651 0 -0.10281921136450051 0.14113229874256061 0 -0.11705392513018591 0.1408761436112117 0 -0.1105803264299268 0.12824567511097651 0 -0.098796514398586721 0.12914657233383331 0 -0.1000728983846448 0.11928503660288919 0 -0.098796514398586721 0.12914657233383331 0 -0.10281921136450051 0.14113229874256061 0 -0.086935492253532851 0.13459051655033491 0 -0.1105803264299268 0.12824567511097651 0 -0.098796514398586721 0.12914657233383331 0 -0.10281921136450051 0.14113229874256061 0 -0.10281921136450051 0.14113229874256061 0 -0.097963112221662735 0.15972541942713189 0 -0.086400602995349199 0.14932568505513641 0 -0.10281921136450051 0.14113229874256061 0 -0.1109269198377718 0.15400474329133221 0 -0.097963112221662735 0.15972541942713189 0 -0.12672789541455021 0.15203305154510599 0 -0.1109269198377718 0.15400474329133221 0 -0.11705392513018591 0.1408761436112117 0 -0.10281921136450051 0.14113229874256061 0 -0.1109269198377718 0.15400474329133221 0 -0.11705392513018591 0.1408761436112117 0 -0.12672789541455021 0.15203305154510599 0 -0.1283538973521918 0.1392034088341112 0 -0.11705392513018591 0.1408761436112117 0 -0.12672789541455021 0.15203305154510599 0 -0.1109269198377718 0.15400474329133221 0 -0.1168586936229203 0.1701007121332504 0 -0.1168586936229203 0.1701007121332504 0 -0.099992259158005234 0.17771634432382749 0 -0.12258363576039399 0.19375118523307189 0 -0.099992259158005234 0.17771634432382749 0 -0.12258363576039399 0.19375118523307189 0 -0.1109269198377718 0.15400474329133221 0 -0.1168586936229203 0.1701007121332504 0 -0.097963112221662735 0.15972541942713189 0 -0.1168586936229203 0.1701007121332504 0 -0.099992259158005234 0.17771634432382749 0 -0.097963112221662735 0.15972541942713189 0 -0.099992259158005234 0.17771634432382749 0 -0.097963112221662735 0.15972541942713189 0 -0.077400882555616238 0.16168150341458309 0 -0.097963112221662735 0.15972541942713189 0 -0.077400882555616238 0.16168150341458309 0 -0.086400602995349199 0.14932568505513641 0 -0.099992259158005234 0.17771634432382749 0 -0.077400882555616238 0.16168150341458309 0 -0.099992259158005234 0.17771634432382749 0 -0.074598356887999789 0.1794505480931641 0 -0.086545286155671142 0.1931608321999676 0 -0.099992259158005234 0.17771634432382749 0 -0.074598356887999789 0.1794505480931641 0 -0.077400882555616238 0.16168150341458309 0 -0.074598356887999789 0.1794505480931641 0 -0.063220606559309972 0.18680786746002331 0 -0.070354272292238548 0.19604436538219941 0 -0.074598356887999789 0.1794505480931641 0 -0.063197939687501578 0.16674527801908759 0 -0.05915787425450067 0.17687456266846019 0 -0.074598356887999789 0.1794505480931641 0 -0.063220606559309972 0.18680786746002331 0 -0.05915787425450067 0.17687456266846019 0 -0.074598356887999789 0.1794505480931641 0 -0.077400882555616238 0.16168150341458309 0 -0.063197939687501578 0.16674527801908759 0 -0.077400882555616238 0.16168150341458309 0 -0.063197939687501578 0.16674527801908759 0 -0.056792195776226892 0.15401278589392109 0 -0.077400882555616238 0.16168150341458309 0 -0.054809505953227339 0.14564666250533839 0 -0.077400882555616238 0.16168150341458309 0 -0.074222045126272923 0.14553951437125009 0 -0.054809505953227339 0.14564666250533839 0 -0.077400882555616238 0.16168150341458309 0 -0.054809505953227339 0.14564666250533839 0 -0.056792195776226892 0.15401278589392109 0 -0.074222045126272923 0.14553951437125009 0 -0.074418124088822452 0.13219988096100579 0 -0.054809505953227339 0.14564666250533839 0 -0.074418124088822452 0.13219988096100579 0 -0.054809505953227339 0.14564666250533839 0 -0.074418124088822452 0.13219988096100579 0 -0.061754871186555302 0.12571426841303179 0 -0.07954386169817948 0.1217721069269224 0 -0.074418124088822452 0.13219988096100579 0 -0.061754871186555302 0.12571426841303179 0 -0.054809505953227339 0.14564666250533839 0 -0.074222045126272923 0.14553951437125009 0 -0.074418124088822452 0.13219988096100579 0 -0.086935492253532851 0.13459051655033491 0 -0.074418124088822452 0.13219988096100579 0 -0.086935492253532851 0.13459051655033491 0 -0.07954386169817948 0.1217721069269224 0 -0.086935492253532851 0.13459051655033491 0 -0.07954386169817948 0.1217721069269224 0 -0.09112152864570898 0.1235557802608673 0 -0.098796514398586721 0.12914657233383331 0 -0.086935492253532851 0.13459051655033491 0 -0.09112152864570898 0.1235557802608673 0 -0.10281921136450051 0.14113229874256061 0 -0.086935492253532851 0.13459051655033491 0 -0.086400602995349199 0.14932568505513641 0 -0.077400882555616238 0.16168150341458309 0 -0.074222045126272923 0.14553951437125009 0 -0.086400602995349199 0.14932568505513641 0 -0.074222045126272923 0.14553951437125009 0 -0.086935492253532851 0.13459051655033491 0 -0.086400602995349199 0.14932568505513641 0 -0.1100263942159926 0.24673238216963819 0 -0.10276989973122411 0.23105334629774851 0 -0.1100263942159926 0.24673238216963819 0 -0.1096149478314347 0.22971555323225709 0 -0.10276989973122411 0.23105334629774851 0 -0.098986006688460193 0.2422833996042143 0 -0.1100263942159926 0.24673238216963819 0 -0.10276989973122411 0.23105334629774851 0 -0.1003366536562403 0.25404289617701331 0 -0.098986006688460193 0.2422833996042143 0 -0.090556224706639654 0.24563691048103881 0 -0.098986006688460193 0.2422833996042143 0 -0.10276989973122411 0.23105334629774851 0 -0.091240861132204296 0.23395146289563279 0 -0.1003366536562403 0.25404289617701331 0 -0.098986006688460193 0.2422833996042143 0 -0.1100263942159926 0.24673238216963819 0 -0.12407642526108049 0.24260694432488919 0 -0.1100263942159926 0.24673238216963819 0 -0.1096149478314347 0.22971555323225709 0 -0.13771193492811151 0.22734772920975019 0 -0.1096149478314347 0.22971555323225709 0 -0.1096149478314347 0.22971555323225709 0 -0.1040879187675036 0.21961638823264551 0 -0.1200001577285318 0.21396774352593709 0 -0.13771193492811151 0.22734772920975019 0 -0.1096149478314347 0.22971555323225709 0 -0.1200001577285318 0.21396774352593709 0 -0.13771193492811151 0.22734772920975019 0 -0.12407642526108049 0.24260694432488919 0 -0.1096149478314347 0.22971555323225709 0 -0.1096149478314347 0.22971555323225709 0 -0.1040879187675036 0.21961638823264551 0 -0.10343901466918259 0.2267240522781992 0 -0.1040879187675036 0.21961638823264551 0 -0.10343901466918259 0.2267240522781992 0 -0.097283292346568045 0.22651092135014561 0 -0.1096149478314347 0.22971555323225709 0 -0.10276989973122411 0.23105334629774851 0 -0.10343901466918259 0.2267240522781992 0 -0.10276989973122411 0.23105334629774851 0 -0.10343901466918259 0.2267240522781992 0 -0.097283292346568045 0.22651092135014561 0 -0.10276989973122411 0.23105334629774851 0 -0.097283292346568045 0.22651092135014561 0 -0.091240861132204296 0.23395146289563279 0 -0.1040879187675036 0.21961638823264551 0 -0.097283292346568045 0.22651092135014561 0 -0.091065807426349635 0.22012627361907899 0 -0.1044091586294441 0.2081646409633138 0 -0.090580345161334966 0.20701601133752701 0 -0.091065807426349635 0.22012627361907899 0 -0.1040879187675036 0.21961638823264551 0 -0.1044091586294441 0.2081646409633138 0 -0.091065807426349635 0.22012627361907899 0 -0.1044091586294441 0.2081646409633138 0 -0.10202804161556001 0.19444847407606131 0 -0.090580345161334966 0.20701601133752701 0 -0.1044091586294441 0.2081646409633138 0 -0.1200001577285318 0.21396774352593709 0 -0.12258363576039399 0.19375118523307189 0 -0.1040879187675036 0.21961638823264551 0 -0.1044091586294441 0.2081646409633138 0 -0.1200001577285318 0.21396774352593709 0 -0.1044091586294441 0.2081646409633138 0 -0.12258363576039399 0.19375118523307189 0 -0.10202804161556001 0.19444847407606131 0 -0.099992259158005234 0.17771634432382749 0 -0.10202804161556001 0.19444847407606131 0 -0.086545286155671142 0.1931608321999676 0 -0.099992259158005234 0.17771634432382749 0 -0.12258363576039399 0.19375118523307189 0 -0.10202804161556001 0.19444847407606131 0 -0.086545286155671142 0.1931608321999676 0 -0.070354272292238548 0.19604436538219941 0 -0.079093624697583645 0.20483345559772631 0 -0.10202804161556001 0.19444847407606131 0 -0.086545286155671142 0.1931608321999676 0 -0.090580345161334966 0.20701601133752701 0 -0.086545286155671142 0.1931608321999676 0 -0.079093624697583645 0.20483345559772631 0 -0.090580345161334966 0.20701601133752701 0 -0.074598356887999789 0.1794505480931641 0 -0.086545286155671142 0.1931608321999676 0 -0.070354272292238548 0.19604436538219941 0 -0.063220606559309972 0.18680786746002331 0 -0.070354272292238548 0.19604436538219941 0 -0.058816764220705843 0.1944707332894057 0 -0.070354272292238548 0.19604436538219941 0 -0.069570065877044701 0.2093998610357333 0 -0.079093624697583645 0.20483345559772631 0 -0.070354272292238548 0.19604436538219941 0 -0.069570065877044701 0.2093998610357333 0 -0.057992314539822148 0.20682559792094179 0 -0.069570065877044701 0.2093998610357333 0 -0.066558072132088003 0.2208881505350222 0 -0.057992314539822148 0.20682559792094179 0 -0.069570065877044701 0.2093998610357333 0 -0.079093624697583645 0.20483345559772631 0 -0.079274156935450535 0.2187690842322533 0 -0.069570065877044701 0.2093998610357333 0 -0.079274156935450535 0.2187690842322533 0 -0.066558072132088003 0.2208881505350222 0 -0.079093624697583645 0.20483345559772631 0 -0.090580345161334966 0.20701601133752701 0 -0.079274156935450535 0.2187690842322533 0 -0.090580345161334966 0.20701601133752701 0 -0.091065807426349635 0.22012627361907899 0 -0.079274156935450535 0.2187690842322533 0 -0.091065807426349635 0.22012627361907899 0 -0.091240861132204296 0.23395146289563279 0 -0.079642138932354861 0.2313461885984921 0 -0.097283292346568045 0.22651092135014561 0 -0.091065807426349635 0.22012627361907899 0 -0.091240861132204296 0.23395146289563279 0 -0.091065807426349635 0.22012627361907899 0 -0.079642138932354861 0.2313461885984921 0 -0.079274156935450535 0.2187690842322533 0 -0.079642138932354861 0.2313461885984921 0 -0.079274156935450535 0.2187690842322533 0 -0.066558072132088003 0.2208881505350222 0 -0.066558072132088003 0.2208881505350222 0 -0.067745278126848163 0.23768818072731679 0 -0.05567246784636503 0.22992505387814419 0 -0.079642138932354861 0.2313461885984921 0 -0.066558072132088003 0.2208881505350222 0 -0.067745278126848163 0.23768818072731679 0 -0.079642138932354861 0.2313461885984921 0 -0.067745278126848163 0.23768818072731679 0 -0.079037820362342387 0.24384491960413701 0 -0.070655657643051234 0.25299893351715491 0 -0.067745278126848163 0.23768818072731679 0 -0.05377149319123746 0.24612390281237889 0 -0.070655657643051234 0.25299893351715491 0 -0.067745278126848163 0.23768818072731679 0 -0.079037820362342387 0.24384491960413701 0 -0.08731169499250277 0.25544211376305759 0 -0.079037820362342387 0.24384491960413701 0 -0.090556224706639654 0.24563691048103881 0 -0.091240861132204296 0.23395146289563279 0 -0.079642138932354861 0.2313461885984921 0 -0.079037820362342387 0.24384491960413701 0 -0.098986006688460193 0.2422833996042143 0 -0.091240861132204296 0.23395146289563279 0 -0.090556224706639654 0.24563691048103881 0 -0.091240861132204296 0.23395146289563279 0 -0.079037820362342387 0.24384491960413701 0 -0.090556224706639654 0.24563691048103881 0 -0.032749910844606163 0.2425536677074987 0 -0.05377149319123746 0.24612390281237889 0 -0.038749000119703177 0.227773584553148 0 -0.041708044223906129 0.25706583692285451 0 -0.032749910844606163 0.2425536677074987 0 -0.05377149319123746 0.24612390281237889 0 -0.05377149319123746 0.24612390281237889 0 -0.05567246784636503 0.22992505387814419 0 -0.038749000119703177 0.227773584553148 0 -0.067745278126848163 0.23768818072731679 0 -0.05377149319123746 0.24612390281237889 0 -0.05567246784636503 0.22992505387814419 0 -0.066558072132088003 0.2208881505350222 0 -0.05567246784636503 0.22992505387814419 0 -0.049266001200177767 0.21748384162224599 0 -0.05567246784636503 0.22992505387814419 0 -0.038749000119703177 0.227773584553148 0 -0.049266001200177767 0.21748384162224599 0 -0.038749000119703177 0.227773584553148 0 -0.037886592773506388 0.2094944323132496 0 -0.049266001200177767 0.21748384162224599 0 -0.038749000119703177 0.227773584553148 0 -0.037886592773506388 0.2094944323132496 0 -0.02387917629132473 0.21719235066093259 0 -0.037886592773506388 0.2094944323132496 0 -0.033859854091491691 0.19746599056399189 0 -0.025396012094920341 0.2048924319424017 0 -0.037886592773506388 0.2094944323132496 0 -0.048025169129067291 0.207871171295855 0 -0.046955768002762847 0.19768081332698281 0 -0.037886592773506388 0.2094944323132496 0 -0.049266001200177767 0.21748384162224599 0 -0.048025169129067291 0.207871171295855 0 -0.066558072132088003 0.2208881505350222 0 -0.049266001200177767 0.21748384162224599 0 -0.057992314539822148 0.20682559792094179 0 -0.057992314539822148 0.20682559792094179 0 -0.048025169129067291 0.207871171295855 0 -0.046955768002762847 0.19768081332698281 0 -0.049266001200177767 0.21748384162224599 0 -0.057992314539822148 0.20682559792094179 0 -0.048025169129067291 0.207871171295855 0 -0.057992314539822148 0.20682559792094179 0 -0.046955768002762847 0.19768081332698281 0 -0.058816764220705843 0.1944707332894057 0 -0.070354272292238548 0.19604436538219941 0 -0.057992314539822148 0.20682559792094179 0 -0.058816764220705843 0.1944707332894057 0 -0.063220606559309972 0.18680786746002331 0 -0.058816764220705843 0.1944707332894057 0 -0.053175765141104933 0.1871991278668873 0 -0.046955768002762847 0.19768081332698281 0 -0.041098908271777729 0.19034787859474031 0 -0.053175765141104933 0.1871991278668873 0 -0.046955768002762847 0.19768081332698281 0 -0.058816764220705843 0.1944707332894057 0 -0.053175765141104933 0.1871991278668873 0 -0.046955768002762847 0.19768081332698281 0 -0.041098908271777729 0.19034787859474031 0 -0.033859854091491691 0.19746599056399189 0 -0.037886592773506388 0.2094944323132496 0 -0.046955768002762847 0.19768081332698281 0 -0.033859854091491691 0.19746599056399189 0 -0.041098908271777729 0.19034787859474031 0 -0.033859854091491691 0.19746599056399189 0 -0.03147272390199693 0.18733722651771159 0 -0.020715751478594099 0.19355274249888249 0 -0.03147272390199693 0.18733722651771159 0 -0.02328125274191379 0.1830981202494244 0 -0.033859854091491691 0.19746599056399189 0 -0.020715751478594099 0.19355274249888249 0 -0.03147272390199693 0.18733722651771159 0 -0.033859854091491691 0.19746599056399189 0 -0.020715751478594099 0.19355274249888249 0 -0.025396012094920341 0.2048924319424017 0 -0.020715751478594099 0.19355274249888249 0 -0.010638685839684799 0.20675664367495189 0 -0.025396012094920341 0.2048924319424017 0 -0.0052797069524591952 0.19245795308139141 0 -0.010638685839684799 0.20675664367495189 0 0.0076861917004834414 0.20191458754709579 0 -0.020715751478594099 0.19355274249888249 0 -0.0052797069524591952 0.19245795308139141 0 -0.01286242568488891 0.18235097089514121 0 -0.0052797069524591952 0.19245795308139141 0 -0.0024472500322689559 0.18155453789301659 0 0.0063371419076450261 0.18932807500027471 0 -0.020715751478594099 0.19355274249888249 0 -0.0052797069524591952 0.19245795308139141 0 -0.010638685839684799 0.20675664367495189 0 -0.010638685839684799 0.20675664367495189 0 -0.0108233758370047 0.2236176064325851 0 0.0046620056774691922 0.22230564090753011 0 -0.010638685839684799 0.20675664367495189 0 -0.02387917629132473 0.21719235066093259 0 -0.0108233758370047 0.2236176064325851 0 -0.010638685839684799 0.20675664367495189 0 -0.025396012094920341 0.2048924319424017 0 -0.02387917629132473 0.21719235066093259 0 -0.037886592773506388 0.2094944323132496 0 -0.025396012094920341 0.2048924319424017 0 -0.02387917629132473 0.21719235066093259 0 -0.038749000119703177 0.227773584553148 0 -0.02387917629132473 0.21719235066093259 0 -0.02006399864690931 0.23405027243826321 0 -0.02387917629132473 0.21719235066093259 0 -0.02006399864690931 0.23405027243826321 0 -0.0108233758370047 0.2236176064325851 0 -0.02006399864690931 0.23405027243826321 0 -0.0108233758370047 0.2236176064325851 0 -0.0041970240845738372 0.2377831244812478 0 -0.0108233758370047 0.2236176064325851 0 -0.0041970240845738372 0.2377831244812478 0 0.0046620056774691922 0.22230564090753011 0 -0.01308835968565924 0.25819090906546471 0 -0.02006399864690931 0.23405027243826321 0 -0.0041970240845738372 0.2377831244812478 0 -0.01308835968565924 0.25819090906546471 0 -0.0041970240845738372 0.2377831244812478 0 0.013547880526749699 0.24484547967947251 0 -0.01308835968565924 0.25819090906546471 0 -0.032749910844606163 0.2425536677074987 0 -0.02006399864690931 0.23405027243826321 0 -0.032749910844606163 0.2425536677074987 0 -0.038749000119703177 0.227773584553148 0 -0.02006399864690931 0.23405027243826321 0 -0.040901934848503463 0.15267932295174591 0 -0.032659351287805602 0.1519876301107056 0 -0.038137849204025402 0.13381350296079589 0 -0.040901934848503463 0.15267932295174591 0 -0.038137849204025402 0.13381350296079589 0 -0.049341736831965403 0.14176576540327171 0 -0.032659351287805602 0.1519876301107056 0 -0.038137849204025402 0.13381350296079589 0 -0.02580238316287093 0.1397719466501913 0 -0.032659351287805602 0.1519876301107056 0 -0.038137849204025402 0.13381350296079589 0 -0.040901934848503463 0.15267932295174591 0 -0.049341736831965403 0.14176576540327171 0 -0.044156004100281337 0.15295239466392599 0 -0.040901934848503463 0.15267932295174591 0 -0.049341736831965403 0.14176576540327171 0 -0.044156004100281337 0.15295239466392599 0 -0.040901934848503463 0.15267932295174591 0 -0.03677813464771551 0.15801183322839821 0 -0.044156004100281337 0.15295239466392599 0 -0.03677813464771551 0.15801183322839821 0 -0.044156004100281337 0.15295239466392599 0 -0.040901934848503463 0.15267932295174591 0 -0.040901934848503463 0.15267932295174591 0 -0.032659351287805602 0.1519876301107056 0 -0.03677813464771551 0.15801183322839821 0 -0.040901934848503463 0.15267932295174591 0 -0.032659351287805602 0.1519876301107056 0 -0.040901934848503463 0.15267932295174591 0 -0.03677813464771551 0.15801183322839821 0 -0.038137849204025402 0.13381350296079589 0 -0.028024240808470258 0.1266350957085331 0 -0.032004776369967257 0.11558093592401671 0 -0.038137849204025402 0.13381350296079589 0 -0.028024240808470258 0.1266350957085331 0 -0.038137849204025402 0.13381350296079589 0 -0.049341736831965403 0.14176576540327171 0 -0.038137849204025402 0.13381350296079589 0 -0.050299222131052541 0.1269258307056732 0 -0.049341736831965403 0.14176576540327171 0 -0.061754871186555302 0.12571426841303179 0 -0.054809505953227339 0.14564666250533839 0 -0.049341736831965403 0.14176576540327171 0 -0.061754871186555302 0.12571426841303179 0 -0.049341736831965403 0.14176576540327171 0 -0.061754871186555302 0.12571426841303179 0 -0.050299222131052541 0.1269258307056732 0 -0.049341736831965403 0.14176576540327171 0 -0.054809505953227339 0.14564666250533839 0 -0.049341736831965403 0.14176576540327171 0 -0.044156004100281337 0.15295239466392599 0 -0.054809505953227339 0.14564666250533839 0 -0.049341736831965403 0.14176576540327171 0 -0.044156004100281337 0.15295239466392599 0 -0.056792195776226892 0.15401278589392109 0 -0.044156004100281337 0.15295239466392599 0 -0.054809505953227339 0.14564666250533839 0 -0.056792195776226892 0.15401278589392109 0 -0.044156004100281337 0.15295239466392599 0 -0.054809505953227339 0.14564666250533839 0 -0.044156004100281337 0.15295239466392599 0 -0.056792195776226892 0.15401278589392109 0 -0.050747600231503452 0.1603168471618564 0 -0.063197939687501578 0.16674527801908759 0 -0.056792195776226892 0.15401278589392109 0 -0.050747600231503452 0.1603168471618564 0 -0.063197939687501578 0.16674527801908759 0 -0.050438786188552201 0.16878380766566839 0 -0.050747600231503452 0.1603168471618564 0 -0.063197939687501578 0.16674527801908759 0 -0.050438786188552201 0.16878380766566839 0 -0.05915787425450067 0.17687456266846019 0 -0.050438786188552201 0.16878380766566839 0 -0.050747600231503452 0.1603168471618564 0 -0.043766508782037181 0.16221132464957111 0 -0.063220606559309972 0.18680786746002331 0 -0.05915787425450067 0.17687456266846019 0 -0.053175765141104933 0.1871991278668873 0 -0.050438786188552201 0.16878380766566839 0 -0.05915787425450067 0.17687456266846019 0 -0.048309226501425759 0.1783402455384602 0 -0.05915787425450067 0.17687456266846019 0 -0.048309226501425759 0.1783402455384602 0 -0.053175765141104933 0.1871991278668873 0 -0.041098908271777729 0.19034787859474031 0 -0.048309226501425759 0.1783402455384602 0 -0.053175765141104933 0.1871991278668873 0 -0.041098908271777729 0.19034787859474031 0 -0.048309226501425759 0.1783402455384602 0 -0.038990801033385238 0.18099015439041649 0 -0.048309226501425759 0.1783402455384602 0 -0.038990801033385238 0.18099015439041649 0 -0.038446281768494697 0.16962338267472291 0 -0.050438786188552201 0.16878380766566839 0 -0.048309226501425759 0.1783402455384602 0 -0.038446281768494697 0.16962338267472291 0 -0.038446281768494697 0.16962338267472291 0 -0.027052224597908361 0.1705884646763681 0 -0.030889775794819042 0.17856847280881399 0 -0.038990801033385238 0.18099015439041649 0 -0.038446281768494697 0.16962338267472291 0 -0.030889775794819042 0.17856847280881399 0 -0.038990801033385238 0.18099015439041649 0 -0.03147272390199693 0.18733722651771159 0 -0.030889775794819042 0.17856847280881399 0 -0.041098908271777729 0.19034787859474031 0 -0.038990801033385238 0.18099015439041649 0 -0.03147272390199693 0.18733722651771159 0 -0.044156004100281337 0.15295239466392599 0 -0.043766508782037181 0.16221132464957111 0 -0.03677813464771551 0.15801183322839821 0 -0.043766508782037181 0.16221132464957111 0 -0.038446281768494697 0.16962338267472291 0 -0.03677813464771551 0.15801183322839821 0 -0.044156004100281337 0.15295239466392599 0 -0.050747600231503452 0.1603168471618564 0 -0.043766508782037181 0.16221132464957111 0 -0.050438786188552201 0.16878380766566839 0 -0.043766508782037181 0.16221132464957111 0 -0.038446281768494697 0.16962338267472291 0 -0.038446281768494697 0.16962338267472291 0 -0.03677813464771551 0.15801183322839821 0 -0.027052224597908361 0.1705884646763681 0 -0.03677813464771551 0.15801183322839821 0 -0.027052224597908361 0.1705884646763681 0 -0.032659351287805602 0.1519876301107056 0 -0.03677813464771551 0.15801183322839821 0 -0.02929687043766941 0.163142175652953 0 -0.03677813464771551 0.15801183322839821 0 -0.02929687043766941 0.163142175652953 0 -0.032659351287805602 0.1519876301107056 0 -0.02929687043766941 0.163142175652953 0 -0.032659351287805602 0.1519876301107056 0 -0.02929687043766941 0.163142175652953 0 -0.018268392008105941 0.1591498735953871 0 -0.03677813464771551 0.15801183322839821 0 -0.02929687043766941 0.163142175652953 0 -0.027052224597908361 0.1705884646763681 0 -0.02929687043766941 0.163142175652953 0 -0.027052224597908361 0.1705884646763681 0 -0.01587206023496919 0.1723483567729848 0 -0.02929687043766941 0.163142175652953 0 -0.027052224597908361 0.1705884646763681 0 -0.02929687043766941 0.163142175652953 0 -0.01587206023496919 0.1723483567729848 0 -0.02929687043766941 0.163142175652953 0 -0.017091991992314329 0.16552372721610009 0 -0.01587206023496919 0.1723483567729848 0 -0.02929687043766941 0.163142175652953 0 -0.017091991992314329 0.16552372721610009 0 -0.018268392008105941 0.1591498735953871 0 -0.03147272390199693 0.18733722651771159 0 -0.030889775794819042 0.17856847280881399 0 -0.02328125274191379 0.1830981202494244 0 -0.027052224597908361 0.1705884646763681 0 -0.024246079096424879 0.17421710791703171 0 -0.02328125274191379 0.1830981202494244 0 -0.027052224597908361 0.1705884646763681 0 -0.030889775794819042 0.17856847280881399 0 -0.02328125274191379 0.1830981202494244 0 -0.027052224597908361 0.1705884646763681 0 -0.02328125274191379 0.1830981202494244 0 -0.027052224597908361 0.1705884646763681 0 -0.024246079096424879 0.17421710791703171 0 -0.027052224597908361 0.1705884646763681 0 -0.024246079096424879 0.17421710791703171 0 -0.01587206023496919 0.1723483567729848 0 -0.01897568752070897 0.17813745178970031 0 -0.01587206023496919 0.1723483567729848 0 -0.01286242568488891 0.18235097089514121 0 -0.024246079096424879 0.17421710791703171 0 -0.01897568752070897 0.17813745178970031 0 -0.01587206023496919 0.1723483567729848 0 -0.024246079096424879 0.17421710791703171 0 -0.01897568752070897 0.17813745178970031 0 -0.02328125274191379 0.1830981202494244 0 -0.01897568752070897 0.17813745178970031 0 -0.02328125274191379 0.1830981202494244 0 -0.01286242568488891 0.18235097089514121 0 -0.020715751478594099 0.19355274249888249 0 -0.02328125274191379 0.1830981202494244 0 -0.01286242568488891 0.18235097089514121 0 -0.0024472500322689559 0.18155453789301659 0 -0.01159904199462301 0.1712073361316388 0 0.01118903132104584 0.17722651040097959 0 -0.01159904199462301 0.1712073361316388 0 0.01118903132104584 0.17722651040097959 0 -0.01587206023496919 0.1723483567729848 0 -0.0024472500322689559 0.18155453789301659 0 -0.01587206023496919 0.1723483567729848 0 -0.0024472500322689559 0.18155453789301659 0 -0.01159904199462301 0.1712073361316388 0 -0.01587206023496919 0.1723483567729848 0 -0.01286242568488891 0.18235097089514121 0 -0.0024472500322689559 0.18155453789301659 0 -0.0052797069524591952 0.19245795308139141 0 -0.01286242568488891 0.18235097089514121 0 -0.0024472500322689559 0.18155453789301659 0 -0.017091991992314329 0.16552372721610009 0 -0.018268392008105941 0.1591498735953871 0 -0.010423595286204139 0.16177089392753671 0 -0.018268392008105941 0.1591498735953871 0 -0.010423595286204139 0.16177089392753671 0 -0.0099790016848354361 0.1500843633331046 0 -0.017091991992314329 0.16552372721610009 0 -0.010423595286204139 0.16177089392753671 0 -0.01159904199462301 0.1712073361316388 0 -0.017091991992314329 0.16552372721610009 0 -0.01587206023496919 0.1723483567729848 0 -0.01159904199462301 0.1712073361316388 0 -0.010423595286204139 0.16177089392753671 0 -0.01159904199462301 0.1712073361316388 0 0.0029596138382182581 0.1622359487091253 0 -0.010423595286204139 0.16177089392753671 0 -0.0099790016848354361 0.1500843633331046 0 0.0029596138382182581 0.1622359487091253 0 -0.032659351287805602 0.1519876301107056 0 -0.0099790016848354361 0.1500843633331046 0 -0.032659351287805602 0.1519876301107056 0 -0.0099790016848354361 0.1500843633331046 0 -0.02580238316287093 0.1397719466501913 0 -0.032659351287805602 0.1519876301107056 0 -0.018268392008105941 0.1591498735953871 0 -0.0099790016848354361 0.1500843633331046 0 -0.0099790016848354361 0.1500843633331046 0 -0.02580238316287093 0.1397719466501913 0 -0.01629615731571368 0.13180737549869981 0 -0.038137849204025402 0.13381350296079589 0 -0.028024240808470258 0.1266350957085331 0 -0.02580238316287093 0.1397719466501913 0 -0.028024240808470258 0.1266350957085331 0 -0.02580238316287093 0.1397719466501913 0 -0.01629615731571368 0.13180737549869981 0 -0.0099790016848354361 0.1500843633331046 0 -0.01629615731571368 0.13180737549869981 0 -0.00056034267106301703 0.12767961900641081 0 -0.00056034267106301703 0.12767961900641081 0 -0.0050487394642760811 0.1034560721251353 0 -0.019624190436728708 0.1128889239755002 0 -0.01629615731571368 0.13180737549869981 0 -0.00056034267106301703 0.12767961900641081 0 -0.019624190436728708 0.1128889239755002 0 -0.0050487394642760811 0.1034560721251353 0 -0.027807410129979959 0.095903322279244446 0 -0.012461937762589749 0.089039053710428473 0 -0.027807410129979959 0.095903322279244446 0 -0.019624190436728708 0.1128889239755002 0 -0.032004776369967257 0.11558093592401671 0 -0.0050487394642760811 0.1034560721251353 0 -0.027807410129979959 0.095903322279244446 0 -0.019624190436728708 0.1128889239755002 0 -0.028024240808470258 0.1266350957085331 0 -0.01629615731571368 0.13180737549869981 0 -0.019624190436728708 0.1128889239755002 0 -0.028024240808470258 0.1266350957085331 0 -0.019624190436728708 0.1128889239755002 0 -0.032004776369967257 0.11558093592401671 0 -0.00081666008360734878 0.065887092891724688 0 -0.017444099613059809 0.074011650706997084 0 0.0016764790563875 0.081107402001422496 0 -0.00081666008360734878 0.065887092891724688 0 -0.017444099613059809 0.074011650706997084 0 -0.0085399239001310075 0.05277675138592422 0 -0.0050487394642760811 0.1034560721251353 0 -0.012461937762589749 0.089039053710428473 0 0.0016764790563875 0.081107402001422496 0 -0.012461937762589749 0.089039053710428473 0 -0.017444099613059809 0.074011650706997084 0 0.0016764790563875 0.081107402001422496 0 -0.027807410129979959 0.095903322279244446 0 -0.012461937762589749 0.089039053710428473 0 -0.017444099613059809 0.074011650706997084 0 -0.027807410129979959 0.095903322279244446 0 -0.017444099613059809 0.074011650706997084 0 -0.036116318851388787 0.07487300415714547 0 -0.017444099613059809 0.074011650706997084 0 -0.036116318851388787 0.07487300415714547 0 -0.028241473345289331 0.053920003811974128 0 -0.036116318851388787 0.07487300415714547 0 -0.052033888974724211 0.087715394038398342 0 -0.05198012186777716 0.060259540749906963 0 -0.036116318851388787 0.07487300415714547 0 -0.05198012186777716 0.060259540749906963 0 -0.028241473345289331 0.053920003811974128 0 -0.027807410129979959 0.095903322279244446 0 -0.036116318851388787 0.07487300415714547 0 -0.052033888974724211 0.087715394038398342 0 -0.052033888974724211 0.087715394038398342 0 -0.073566626479776742 0.075798551347363907 0 -0.05198012186777716 0.060259540749906963 0 -0.038137849204025402 0.13381350296079589 0 -0.045085869089374439 0.110764448499597 0 -0.038137849204025402 0.13381350296079589 0 -0.045085869089374439 0.110764448499597 0 -0.032004776369967257 0.11558093592401671 0 -0.038137849204025402 0.13381350296079589 0 -0.050299222131052541 0.1269258307056732 0 -0.045085869089374439 0.110764448499597 0 -0.027807410129979959 0.095903322279244446 0 -0.045085869089374439 0.110764448499597 0 -0.032004776369967257 0.11558093592401671 0 -0.027807410129979959 0.095903322279244446 0 -0.052033888974724211 0.087715394038398342 0 -0.045085869089374439 0.110764448499597 0 -0.052033888974724211 0.087715394038398342 0 -0.045085869089374439 0.110764448499597 0 -0.059667116263607371 0.1112742562094762 0 -0.052033888974724211 0.087715394038398342 0 -0.059667116263607371 0.1112742562094762 0 -0.068705447686240276 0.095017333581789071 0 -0.052033888974724211 0.087715394038398342 0 -0.045085869089374439 0.110764448499597 0 -0.050299222131052541 0.1269258307056732 0 -0.045085869089374439 0.110764448499597 0 -0.059667116263607371 0.1112742562094762 0 -0.061754871186555302 0.12571426841303179 0 -0.050299222131052541 0.1269258307056732 0 -0.059667116263607371 0.1112742562094762 0 -0.061754871186555302 0.12571426841303179 0 -0.074168005541145193 0.1096627714227919 0 -0.061754871186555302 0.12571426841303179 0 -0.074168005541145193 0.1096627714227919 0 -0.07954386169817948 0.1217721069269224 0 -0.061754871186555302 0.12571426841303179 0 -0.059667116263607371 0.1112742562094762 0 -0.074168005541145193 0.1096627714227919 0 -0.074168005541145193 0.1096627714227919 0 -0.07954386169817948 0.1217721069269224 0 -0.089168377090469791 0.1139752105686475 0 -0.089168377090469791 0.1139752105686475 0 -0.09112152864570898 0.1235557802608673 0 -0.1000728983846448 0.11928503660288919 0 -0.07954386169817948 0.1217721069269224 0 -0.089168377090469791 0.1139752105686475 0 -0.09112152864570898 0.1235557802608673 0 -0.074168005541145193 0.1096627714227919 0 -0.089168377090469791 0.1139752105686475 0 -0.090064383258410374 0.1029138769717394 0 -0.074168005541145193 0.1096627714227919 0 -0.090064383258410374 0.1029138769717394 0 -0.084091601171947875 0.090635694890915081 0 -0.090064383258410374 0.1029138769717394 0 -0.084091601171947875 0.090635694890915081 0 -0.10346630092742511 0.097619679723098957 0 -0.089168377090469791 0.1139752105686475 0 -0.090064383258410374 0.1029138769717394 0 -0.1000698886705701 0.1088476485895325 0 -0.074168005541145193 0.1096627714227919 0 -0.068705447686240276 0.095017333581789071 0 -0.084091601171947875 0.090635694890915081 0 -0.059667116263607371 0.1112742562094762 0 -0.074168005541145193 0.1096627714227919 0 -0.068705447686240276 0.095017333581789071 0 -0.068705447686240276 0.095017333581789071 0 -0.073566626479776742 0.075798551347363907 0 -0.084091601171947875 0.090635694890915081 0 -0.052033888974724211 0.087715394038398342 0 -0.068705447686240276 0.095017333581789071 0 -0.073566626479776742 0.075798551347363907 0 -0.073566626479776742 0.075798551347363907 0 -0.073513416379363122 0.057703675577514428 0 -0.05198012186777716 0.060259540749906963 0 -0.073566626479776742 0.075798551347363907 0 -0.091597452428002865 0.061842135657936739 0 -0.073513416379363122 0.057703675577514428 0 -0.073566626479776742 0.075798551347363907 0 -0.094217922881036531 0.080388194585305911 0 -0.091597452428002865 0.061842135657936739 0 -0.073566626479776742 0.075798551347363907 0 -0.084091601171947875 0.090635694890915081 0 -0.094217922881036531 0.080388194585305911 0 -0.084091601171947875 0.090635694890915081 0 -0.094217922881036531 0.080388194585305911 0 -0.10346630092742511 0.097619679723098957 0 -0.094217922881036531 0.080388194585305911 0 -0.10830471976275551 0.084643524678412602 0 -0.10346630092742511 0.097619679723098957 0 -0.094217922881036531 0.080388194585305911 0 -0.10830471976275551 0.084643524678412602 0 -0.1070027927101022 0.073684391310012615 0 -0.1070027927101022 0.073684391310012615 0 -0.1073438632868333 0.063461598230614966 0 -0.091597452428002865 0.061842135657936739 0 -0.094217922881036531 0.080388194585305911 0 -0.1070027927101022 0.073684391310012615 0 -0.091597452428002865 0.061842135657936739 0 -0.12516543420559009 0.070500418075878257 0 -0.1070027927101022 0.073684391310012615 0 -0.1073438632868333 0.063461598230614966 0 -0.12516543420559009 0.070500418075878257 0 -0.1070027927101022 0.073684391310012615 0 -0.11863756689592291 0.081319396243865458 0 -0.12516543420559009 0.070500418075878257 0 -0.1073438632868333 0.063461598230614966 0 -0.11470410163950449 0.056295597423522338 0 -0.12516543420559009 0.070500418075878257 0 -0.11470410163950449 0.056295597423522338 0 -0.13074507735310009 0.087060905384808679 0 -0.12516543420559009 0.070500418075878257 0 -0.11863756689592291 0.081319396243865458 0 -0.10830471976275551 0.084643524678412602 0 -0.1166965171786743 0.091283189702598772 0 -0.10346630092742511 0.097619679723098957 0 -0.10830471976275551 0.084643524678412602 0 -0.1070027927101022 0.073684391310012615 0 -0.11863756689592291 0.081319396243865458 0 -0.10830471976275551 0.084643524678412602 0 -0.1166965171786743 0.091283189702598772 0 -0.11863756689592291 0.081319396243865458 0 -0.13074507735310009 0.087060905384808679 0 -0.1166965171786743 0.091283189702598772 0 -0.12492247949516661 0.096281616958280719 0 -0.13074507735310009 0.087060905384808679 0 -0.1166965171786743 0.091283189702598772 0 -0.11863756689592291 0.081319396243865458 0 -0.11187999620884299 0.10532216046410341 0 -0.1228410006829022 0.1046036645552828 0 -0.10346630092742511 0.097619679723098957 0 -0.11187999620884299 0.10532216046410341 0 -0.1211427945544748 0.11021764898849939 0 -0.1000698886705701 0.1088476485895325 0 -0.1228410006829022 0.1046036645552828 0 -0.10346630092742511 0.097619679723098957 0 -0.1166965171786743 0.091283189702598772 0 -0.1228410006829022 0.1046036645552828 0 -0.10346630092742511 0.097619679723098957 0 -0.1166965171786743 0.091283189702598772 0 -0.12492247949516661 0.096281616958280719 0 -0.1228410006829022 0.1046036645552828 0 -0.11187999620884299 0.10532216046410341 0 -0.1228410006829022 0.1046036645552828 0 -0.1211427945544748 0.11021764898849939 0 -0.1211427945544748 0.11021764898849939 0 -0.1101492439645024 0.11656357792140459 0 -0.1000698886705701 0.1088476485895325 0 -0.1211427945544748 0.11021764898849939 0 -0.1000698886705701 0.1088476485895325 0 -0.12618798283542201 0.1161929153010965 0 -0.1211427945544748 0.11021764898849939 0 -0.1193795851195766 0.11608118598023701 0 -0.12618798283542201 0.1161929153010965 0 -0.1193795851195766 0.11608118598023701 0 -0.12003831912390731 0.12135060170994739 0 -0.1193795851195766 0.11608118598023701 0 -0.12003831912390731 0.12135060170994739 0 -0.1101492439645024 0.11656357792140459 0 -0.1105803264299268 0.12824567511097651 0 -0.12003831912390731 0.12135060170994739 0 -0.1101492439645024 0.11656357792140459 0 -0.1211427945544748 0.11021764898849939 0 -0.1193795851195766 0.11608118598023701 0 -0.1101492439645024 0.11656357792140459 0 -0.1101492439645024 0.11656357792140459 0 -0.1000728983846448 0.11928503660288919 0 -0.1000698886705701 0.1088476485895325 0 -0.1105803264299268 0.12824567511097651 0 -0.1101492439645024 0.11656357792140459 0 -0.1000728983846448 0.11928503660288919 0 -0.098796514398586721 0.12914657233383331 0 -0.09112152864570898 0.1235557802608673 0 -0.1000728983846448 0.11928503660288919 0 -0.089168377090469791 0.1139752105686475 0 -0.1000728983846448 0.11928503660288919 0 -0.1000698886705701 0.1088476485895325 0 -0.084091601171947875 0.090635694890915081 0 -0.10346630092742511 0.097619679723098957 0 -0.090064383258410374 0.1029138769717394 0 -0.1000698886705701 0.1088476485895325 0 -0.10346630092742511 0.097619679723098957 0 -0.11187999620884299 0.10532216046410341 0 -0.1000698886705701 0.1088476485895325 0 -0.10346630092742511 0.097619679723098957 0 -0.1048338662708769 0.02733149066245423 0 -0.10875064752583161 0.036083918835242611 0 -0.085838897785807916 0.025943338957054911 0 -0.10875064752583161 0.036083918835242611 0 -0.085838897785807916 0.025943338957054911 0 -0.10753411968457451 0.01817034021143098 0 -0.1048338662708769 0.02733149066245423 0 -0.085838897785807916 0.025943338957054911 0 -0.10753411968457451 0.01817034021143098 0 -0.1048338662708769 0.02733149066245423 0 -0.1125274672716471 0.032990691111762817 0 -0.10753411968457451 0.01817034021143098 0 -0.1025407720975053 0.0033499893110981241 0 -0.085673454086752934 0.0077646032934569741 0 -0.10753411968457451 0.01817034021143098 0 -0.1025407720975053 0.0033499893110981241 0 -0.1180014881981651 0.0050774772644331711 0 -0.10753411968457451 0.01817034021143098 0 -0.1025407720975053 0.0033499893110981241 0 -0.13432024136225559 0.015142337860790681 0 -0.10753411968457451 0.01817034021143098 0 -0.1180014881981651 0.0050774772644331711 0 -0.1076971159400493 -0.0068600754753500581 0 -0.1025407720975053 0.0033499893110981241 0 -0.1180014881981651 0.0050774772644331711 0 -0.13432024136225559 0.015142337860790681 0 -0.10753411968457451 0.01817034021143098 0 -0.1125274672716471 0.032990691111762817 0 -0.13432024136225559 0.015142337860790681 0 -0.1125274672716471 0.032990691111762817 0 -0.13432024136225559 0.015142337860790681 0 -0.12788602183930911 0.029070465339318358 0 -0.1125274672716471 0.032990691111762817 0 -0.10753411968457451 0.01817034021143098 0 -0.1125274672716471 0.032990691111762817 0 -0.11434285323564281 0.038378791286422298 0 -0.1197541437206168 0.054439604681150187 0 -0.11427959280060521 0.047342111689856359 0 -0.11434285323564281 0.038378791286422298 0 -0.1197541437206168 0.054439604681150187 0 -0.12788602183930911 0.029070465339318358 0 -0.1194459868471941 0.036287951715174321 0 -0.1125274672716471 0.032990691111762817 0 -0.12788602183930911 0.029070465339318358 0 -0.1194459868471941 0.036287951715174321 0 -0.12436078214384889 0.037941041534991893 0 -0.11855908013154121 0.043344453035470451 0 -0.11434285323564281 0.038378791286422298 0 -0.1197541437206168 0.054439604681150187 0 -0.1194459868471941 0.036287951715174321 0 -0.1205739318296022 0.040275999416564831 0 -0.1164496237235641 0.039297914389094489 0 -0.1194459868471941 0.036287951715174321 0 -0.12436078214384889 0.037941041534991893 0 -0.1205739318296022 0.040275999416564831 0 -0.12436078214384889 0.037941041534991893 0 -0.1233281400318309 0.045129618450257369 0 -0.1205739318296022 0.040275999416564831 0 -0.1233281400318309 0.045129618450257369 0 -0.11855908013154121 0.043344453035470451 0 -0.1205739318296022 0.040275999416564831 0 -0.11855908013154121 0.043344453035470451 0 -0.1205739318296022 0.040275999416564831 0 -0.1164496237235641 0.039297914389094489 0 -0.11855908013154121 0.043344453035470451 0 -0.1164496237235641 0.039297914389094489 0 -0.11434285323564281 0.038378791286422298 0 -0.1124877702732545 0.041845629690302477 0 -0.11434285323564281 0.038378791286422298 0 -0.11427959280060521 0.047342111689856359 0 -0.1105915884442893 0.042489303148280061 0 -0.11427959280060521 0.047342111689856359 0 -0.1042427690734188 0.042090776771166558 0 -0.1124877702732545 0.041845629690302477 0 -0.1105915884442893 0.042489303148280061 0 -0.11427959280060521 0.047342111689856359 0 -0.1124877702732545 0.041845629690302477 0 -0.11073704661247979 0.039172312636651468 0 -0.11434285323564281 0.038378791286422298 0 -0.1124877702732545 0.041845629690302477 0 -0.1105915884442893 0.042489303148280061 0 -0.11073704661247979 0.039172312636651468 0 -0.11434285323564281 0.038378791286422298 0 -0.10875064752583161 0.036083918835242611 0 -0.11073704661247979 0.039172312636651468 0 -0.11434285323564281 0.038378791286422298 0 -0.10875064752583161 0.036083918835242611 0 -0.1125274672716471 0.032990691111762817 0 -0.11434285323564281 0.038378791286422298 0 -0.10875064752583161 0.036083918835242611 0 -0.1125274672716471 0.032990691111762817 0 -0.10875064752583161 0.036083918835242611 0 -0.1194459868471941 0.036287951715174321 0 -0.1125274672716471 0.032990691111762817 0 -0.11434285323564281 0.038378791286422298 0 -0.1194459868471941 0.036287951715174321 0 -0.1164496237235641 0.039297914389094489 0 -0.11434285323564281 0.038378791286422298 0 -0.1125274672716471 0.032990691111762817 0 -0.11434285323564281 0.038378791286422298 0 -0.1164496237235641 0.039297914389094489 0 -0.11434285323564281 0.038378791286422298 0 -0.12516543420559009 0.070500418075878257 0 -0.1197541437206168 0.054439604681150187 0 -0.12516543420559009 0.070500418075878257 0 -0.1197541437206168 0.054439604681150187 0 -0.11470410163950449 0.056295597423522338 0 -0.12645840855353471 0.050913929995585951 0 -0.1233281400318309 0.045129618450257369 0 -0.1197541437206168 0.054439604681150187 0 -0.1233281400318309 0.045129618450257369 0 -0.11855908013154121 0.043344453035470451 0 -0.1197541437206168 0.054439604681150187 0 -0.1197541437206168 0.054439604681150187 0 -0.11427959280060521 0.047342111689856359 0 -0.11470410163950449 0.056295597423522338 0 -0.11427959280060521 0.047342111689856359 0 -0.11470410163950449 0.056295597423522338 0 -0.1042427690734188 0.042090776771166558 0 -0.11470410163950449 0.056295597423522338 0 -0.1042427690734188 0.042090776771166558 0 -0.1073438632868333 0.063461598230614966 0 -0.11470410163950449 0.056295597423522338 0 -0.10729097048086041 0.056323460431739129 0 -0.1073438632868333 0.063461598230614966 0 -0.1004943550108941 0.055805952434653243 0 -0.091597452428002865 0.061842135657936739 0 -0.1073438632868333 0.063461598230614966 0 -0.10729097048086041 0.056323460431739129 0 -0.1004943550108941 0.055805952434653243 0 -0.11470410163950449 0.056295597423522338 0 -0.1043958470739703 0.050947934233073131 0 -0.1042427690734188 0.042090776771166558 0 -0.11470410163950449 0.056295597423522338 0 -0.10729097048086041 0.056323460431739129 0 -0.1043958470739703 0.050947934233073131 0 -0.10729097048086041 0.056323460431739129 0 -0.1043958470739703 0.050947934233073131 0 -0.1004943550108941 0.055805952434653243 0 -0.1043958470739703 0.050947934233073131 0 -0.094952369450405666 0.047034358199349202 0 -0.1004943550108941 0.055805952434653243 0 -0.094952369450405666 0.047034358199349202 0 -0.1004943550108941 0.055805952434653243 0 -0.091597452428002865 0.061842135657936739 0 -0.10875064752583161 0.036083918835242611 0 -0.1042427690734188 0.042090776771166558 0 -0.085838897785807916 0.025943338957054911 0 -0.094952369450405666 0.047034358199349202 0 -0.1042427690734188 0.042090776771166558 0 -0.085838897785807916 0.025943338957054911 0 -0.1048338662708769 0.02733149066245423 0 -0.1125274672716471 0.032990691111762817 0 -0.10875064752583161 0.036083918835242611 0 -0.11073704661247979 0.039172312636651468 0 -0.10875064752583161 0.036083918835242611 0 -0.1042427690734188 0.042090776771166558 0 -0.1105915884442893 0.042489303148280061 0 -0.11073704661247979 0.039172312636651468 0 -0.1042427690734188 0.042090776771166558 0 -0.1043958470739703 0.050947934233073131 0 -0.094952369450405666 0.047034358199349202 0 -0.1042427690734188 0.042090776771166558 0 -0.094952369450405666 0.047034358199349202 0 -0.082997560472955992 0.046981248189743058 0 -0.085838897785807916 0.025943338957054911 0 -0.082997560472955992 0.046981248189743058 0 -0.067425320648302867 0.043636901942621542 0 -0.085838897785807916 0.025943338957054911 0 -0.091597452428002865 0.061842135657936739 0 -0.082997560472955992 0.046981248189743058 0 -0.073513416379363122 0.057703675577514428 0 -0.094952369450405666 0.047034358199349202 0 -0.091597452428002865 0.061842135657936739 0 -0.082997560472955992 0.046981248189743058 0 -0.073513416379363122 0.057703675577514428 0 -0.067425320648302867 0.043636901942621542 0 -0.05198012186777716 0.060259540749906963 0 -0.082997560472955992 0.046981248189743058 0 -0.073513416379363122 0.057703675577514428 0 -0.067425320648302867 0.043636901942621542 0 -0.067425320648302867 0.043636901942621542 0 -0.063108557994115078 0.029649040851931749 0 -0.085838897785807916 0.025943338957054911 0 -0.062874081375730098 0.015924452973921491 0 -0.085838897785807916 0.025943338957054911 0 -0.063108557994115078 0.029649040851931749 0 -0.062874081375730098 0.015924452973921491 0 -0.085838897785807916 0.025943338957054911 0 -0.062874081375730098 0.015924452973921491 0 -0.085838897785807916 0.025943338957054911 0 -0.085673454086752934 0.0077646032934569741 0 -0.10753411968457451 0.01817034021143098 0 -0.085838897785807916 0.025943338957054911 0 -0.085673454086752934 0.0077646032934569741 0 -0.092656867032008747 -0.0043380744301229441 0 -0.1025407720975053 0.0033499893110981241 0 -0.085673454086752934 0.0077646032934569741 0 -0.080138123164894798 -0.0073693103607884386 0 -0.085673454086752934 0.0077646032934569741 0 -0.069162159864054204 0.0026359032753514671 0 -0.062874081375730098 0.015924452973921491 0 -0.085673454086752934 0.0077646032934569741 0 -0.069162159864054204 0.0026359032753514671 0 -0.062874081375730098 0.015924452973921491 0 -0.039909264965651808 0.0059055669907889571 0 -0.062874081375730098 0.015924452973921491 0 -0.049821090865640849 0.02012840920984494 0 -0.039909264965651808 0.0059055669907889571 0 -0.062874081375730098 0.015924452973921491 0 -0.054696358660004059 0.0051589329570539454 0 -0.039909264965651808 0.0059055669907889571 0 -0.054696358660004059 0.0051589329570539454 0 -0.039909264965651808 0.0059055669907889571 0 -0.062874081375730098 0.015924452973921491 0 -0.069162159864054204 0.0026359032753514671 0 -0.054696358660004059 0.0051589329570539454 0 -0.063108557994115078 0.029649040851931749 0 -0.062874081375730098 0.015924452973921491 0 -0.049821090865640849 0.02012840920984494 0 -0.063108557994115078 0.029649040851931749 0 -0.049821090865640849 0.02012840920984494 0 -0.043637964613873703 0.030406613010368549 0 -0.049821090865640849 0.02012840920984494 0 -0.039575585378833517 0.01875637222221279 0 -0.043637964613873703 0.030406613010368549 0 -0.043637964613873703 0.030406613010368549 0 -0.029843576400429051 0.036559568826660171 0 -0.031189760964446391 0.024166061434695001 0 -0.039575585378833517 0.01875637222221279 0 -0.043637964613873703 0.030406613010368549 0 -0.031189760964446391 0.024166061434695001 0 -0.039575585378833517 0.01875637222221279 0 -0.030783808726712849 0.014639989050165029 0 -0.031189760964446391 0.024166061434695001 0 -0.045903381417340579 -0.003151097283543449 0 -0.039909264965651808 0.0059055669907889571 0 -0.027234326059742409 0.00037585730472358258 0 -0.039575585378833517 0.01875637222221279 0 -0.039909264965651808 0.0059055669907889571 0 -0.030783808726712849 0.014639989050165029 0 -0.039909264965651808 0.0059055669907889571 0 -0.027234326059742409 0.00037585730472358258 0 -0.045903381417340579 -0.003151097283543449 0 -0.054696358660004059 0.0051589329570539454 0 -0.039909264965651808 0.0059055669907889571 0 -0.049821090865640849 0.02012840920984494 0 -0.039575585378833517 0.01875637222221279 0 -0.039909264965651808 0.0059055669907889571 0 -0.05198012186777716 0.060259540749906963 0 -0.052298075125375307 0.041932521561463723 0 -0.038164630011940141 0.044046826108672929 0 -0.067425320648302867 0.043636901942621542 0 -0.05198012186777716 0.060259540749906963 0 -0.052298075125375307 0.041932521561463723 0 -0.063108557994115078 0.029649040851931749 0 -0.043637964613873703 0.030406613010368549 0 -0.052298075125375307 0.041932521561463723 0 -0.067425320648302867 0.043636901942621542 0 -0.063108557994115078 0.029649040851931749 0 -0.052298075125375307 0.041932521561463723 0 -0.038164630011940141 0.044046826108672929 0 -0.028241473345289331 0.053920003811974128 0 -0.029843576400429051 0.036559568826660171 0 -0.043637964613873703 0.030406613010368549 0 -0.052298075125375307 0.041932521561463723 0 -0.038164630011940141 0.044046826108672929 0 -0.043637964613873703 0.030406613010368549 0 -0.038164630011940141 0.044046826108672929 0 -0.029843576400429051 0.036559568826660171 0 -0.05198012186777716 0.060259540749906963 0 -0.038164630011940141 0.044046826108672929 0 -0.028241473345289331 0.053920003811974128 0 -0.017444099613059809 0.074011650706997084 0 -0.028241473345289331 0.053920003811974128 0 -0.0085399239001310075 0.05277675138592422 0 -0.028241473345289331 0.053920003811974128 0 -0.015664418804675988 0.034523759196624447 0 -0.0085399239001310075 0.05277675138592422 0 -0.028241473345289331 0.053920003811974128 0 -0.029843576400429051 0.036559568826660171 0 -0.015664418804675988 0.034523759196624447 0 -0.029843576400429051 0.036559568826660171 0 -0.015664418804675988 0.034523759196624447 0 -0.031189760964446391 0.024166061434695001 0 -0.015664418804675988 0.034523759196624447 0 -0.0044714463246720154 0.04061758558136374 0 0.0023989555695786841 0.02974627589542175 0 -0.015664418804675988 0.034523759196624447 0 -0.0044714463246720154 0.04061758558136374 0 -0.0085399239001310075 0.05277675138592422 0 -0.00081666008360734878 0.065887092891724688 0 -0.0085399239001310075 0.05277675138592422 0 0.0054394485071677804 0.049166102774164687 0 -0.0044714463246720154 0.04061758558136374 0 -0.0085399239001310075 0.05277675138592422 0 0.0054394485071677804 0.049166102774164687 0 -0.039909264965651808 0.0059055669907889571 0 -0.020675265574364669 0.0068767354196401648 0 -0.027234326059742409 0.00037585730472358258 0 -0.039909264965651808 0.0059055669907889571 0 -0.020675265574364669 0.0068767354196401648 0 -0.039909264965651808 0.0059055669907889571 0 -0.020675265574364669 0.0068767354196401648 0 -0.030783808726712849 0.014639989050165029 0 -0.020675265574364669 0.0068767354196401648 0 -0.020627542001774541 0.018366153265782299 0 -0.0091381550023931432 0.01831150565753107 0 -0.01839154054478408 -0.00065956125568771332 0 -0.01073318287111422 -0.00094344511831280552 0 -0.020675265574364669 0.0068767354196401648 0 -0.01839154054478408 -0.00065956125568771332 0 -0.02377673107797533 -0.0011325915014671829 0 -0.020675265574364669 0.0068767354196401648 0 -0.02377673107797533 -0.0011325915014671829 0 -0.020675265574364669 0.0068767354196401648 0 -0.027234326059742409 0.00037585730472358258 0 -0.020675265574364669 0.0068767354196401648 0 -0.027234326059742409 0.00037585730472358258 0 -0.020675265574364669 0.0068767354196401648 0 -0.030783808726712849 0.014639989050165029 0 -0.020627542001774541 0.018366153265782299 0 -0.015664418804675988 0.034523759196624447 0 -0.031189760964446391 0.024166061434695001 0 -0.020627542001774541 0.018366153265782299 0 -0.030783808726712849 0.014639989050165029 0 -0.031189760964446391 0.024166061434695001 0 -0.020627542001774541 0.018366153265782299 0 -0.015664418804675988 0.034523759196624447 0 -0.020627542001774541 0.018366153265782299 0 -0.0091381550023931432 0.01831150565753107 0 -0.015664418804675988 0.034523759196624447 0 -0.0091381550023931432 0.01831150565753107 0 0.0023989555695786841 0.02974627589542175 0 -0.0091381550023931432 0.01831150565753107 0 0.0023989555695786841 0.02974627589542175 0 -0.020675265574364669 0.0068767354196401648 0 0.0061287660557067906 0.0082301320146713954 0 -0.020675265574364669 0.0068767354196401648 0 -0.0091381550023931432 0.01831150565753107 0 0.0061287660557067906 0.0082301320146713954 0 -0.01073318287111422 -0.00094344511831280552 0 -0.020675265574364669 0.0068767354196401648 0 0.0061287660557067906 0.0082301320146713954 0 -0.020675265574364669 0.0068767354196401648 0 -0.0091381550023931432 0.01831150565753107 0 -0.0091381550023931432 0.01831150565753107 0 0.0061287660557067906 0.0082301320146713954 0 0.0076232977050503456 0.019570560301900981 0 0.0076232977050503456 0.019570560301900981 0 0.0023989555695786841 0.02974627589542175 0 0.01889369823512722 0.021524277395118269 0 -0.0091381550023931432 0.01831150565753107 0 0.0076232977050503456 0.019570560301900981 0 0.0023989555695786841 0.02974627589542175 0 0.0023989555695786841 0.02974627589542175 0 0.01889369823512722 0.021524277395118269 0 0.0174809191968168 0.040509422249009282 0 0.0061287660557067906 0.0082301320146713954 0 0.0076232977050503456 0.019570560301900981 0 0.01889369823512722 0.021524277395118269 0 0.01889369823512722 0.021524277395118269 0 0.026907407061950391 0.031428357963534402 0 0.0174809191968168 0.040509422249009282 0 0.01889369823512722 0.021524277395118269 0 0.026907407061950391 0.031428357963534402 0 0.032932797685778122 0.0095835286097031257 0 0.0061287660557067906 0.0082301320146713954 0 0.032932797685778122 0.0095835286097031257 0 0.0061287660557067906 0.0082301320146713954 0 0.032932797685778122 0.0095835286097031257 0 0.026242347348416541 -0.0013883572531308351 0 0.0061287660557067906 0.0082301320146713954 0 0.01889369823512722 0.021524277395118269 0 0.032932797685778122 0.0095835286097031257 0 -0.00081666008360734878 0.065887092891724688 0 0.0054394485071677804 0.049166102774164687 0 0.01432416182326255 0.062949566015154335 0 0.0054394485071677804 0.049166102774164687 0 0.016355465145768671 0.052406953818360649 0 0.01432416182326255 0.062949566015154335 0 0.0054394485071677804 0.049166102774164687 0 0.0174809191968168 0.040509422249009282 0 0.016355465145768671 0.052406953818360649 0 -0.0044714463246720154 0.04061758558136374 0 0.0023989555695786841 0.02974627589542175 0 0.0054394485071677804 0.049166102774164687 0 0.0023989555695786841 0.02974627589542175 0 0.0054394485071677804 0.049166102774164687 0 0.0174809191968168 0.040509422249009282 0 0.026907407061950391 0.031428357963534402 0 0.0174809191968168 0.040509422249009282 0 0.028177331055827551 0.057002724235114308 0 0.0174809191968168 0.040509422249009282 0 0.016355465145768671 0.052406953818360649 0 0.028177331055827551 0.057002724235114308 0 0.016355465145768671 0.052406953818360649 0 0.028177331055827551 0.057002724235114308 0 0.01432416182326255 0.062949566015154335 0 0.028177331055827551 0.057002724235114308 0 0.041623565032251487 0.061254766176661202 0 0.041891105602522162 0.050120160260361382 0 0.041891105602522162 0.050120160260361382 0 0.057663895733917871 0.050695626671380938 0 0.039631737044218518 0.030794506585738349 0 0.028177331055827551 0.057002724235114308 0 0.039631737044218518 0.030794506585738349 0 0.028177331055827551 0.057002724235114308 0 0.041891105602522162 0.050120160260361382 0 0.039631737044218518 0.030794506585738349 0 0.026907407061950391 0.031428357963534402 0 0.028177331055827551 0.057002724235114308 0 0.039631737044218518 0.030794506585738349 0 0.057663895733917871 0.050695626671380938 0 0.039631737044218518 0.030794506585738349 0 0.062810382944092344 0.027912540294634049 0 0.041623565032251487 0.061254766176661202 0 0.057663895733917871 0.050695626671380938 0 0.04830670336968057 0.075203811044523172 0 0.041623565032251487 0.061254766176661202 0 0.041891105602522162 0.050120160260361382 0 0.057663895733917871 0.050695626671380938 0 0.032932797685778122 0.0095835286097031257 0 0.051086143032609797 0.0045862889363625266 0 0.026242347348416541 -0.0013883572531308351 0 0.032932797685778122 0.0095835286097031257 0 0.039631737044218518 0.030794506585738349 0 0.051086143032609797 0.0045862889363625266 0 0.051086143032609797 0.0045862889363625266 0 0.026242347348416541 -0.0013883572531308351 0 0.026907407061950391 0.031428357963534402 0 0.032932797685778122 0.0095835286097031257 0 0.039631737044218518 0.030794506585738349 0 0.039631737044218518 0.030794506585738349 0 0.051086143032609797 0.0045862889363625266 0 0.039631737044218518 0.030794506585738349 0 0.051086143032609797 0.0045862889363625266 0 0.062810382944092344 0.027912540294634049 0 0.051086143032609797 0.0045862889363625266 0 0.079680941360938451 0.01146300797895573 0 0.062810382944092344 0.027912540294634049 0 0.051086143032609797 0.0045862889363625266 0 0.079680941360938451 0.01146300797895573 0 0.079680941360938451 0.01146300797895573 0 0.1001505973892798 0.0023223027587165671 0 0.09191763830615414 -0.01046730032093122 0 0.079680941360938451 0.01146300797895573 0 0.093719753181289875 0.02986924290871491 0 0.078342974293318823 0.027660233192507998 0 0.079680941360938451 0.01146300797895573 0 0.078342974293318823 0.027660233192507998 0 0.062810382944092344 0.027912540294634049 0 0.057663895733917871 0.050695626671380938 0 0.062810382944092344 0.027912540294634049 0 0.080617538945053982 0.043027451826370328 0 0.078342974293318823 0.027660233192507998 0 0.062810382944092344 0.027912540294634049 0 0.080617538945053982 0.043027451826370328 0 0.057663895733917871 0.050695626671380938 0 0.080617538945053982 0.043027451826370328 0 0.074104322263829916 0.066335146920077331 0 0.057663895733917871 0.050695626671380938 0 0.074104322263829916 0.066335146920077331 0 0.080617538945053982 0.043027451826370328 0 0.09660307533837191 0.060956046671289933 0 0.074104322263829916 0.066335146920077331 0 0.093719753181289875 0.02986924290871491 0 0.080617538945053982 0.043027451826370328 0 0.1047527990749217 0.044805051494857903 0 0.093719753181289875 0.02986924290871491 0 0.078342974293318823 0.027660233192507998 0 0.080617538945053982 0.043027451826370328 0 0.093719753181289875 0.02986924290871491 0 0.1047527990749217 0.044805051494857903 0 0.1099132918303871 0.030542924261484972 0 0.1047527990749217 0.044805051494857903 0 0.09660307533837191 0.060956046671289933 0 0.1159059598654327 0.053892045558380633 0 0.09660307533837191 0.060956046671289933 0 0.1159059598654327 0.053892045558380633 0 0.1132861312221857 0.06990610420564064 0 0.080617538945053982 0.043027451826370328 0 0.1047527990749217 0.044805051494857903 0 0.09660307533837191 0.060956046671289933 0 0.1159059598654327 0.053892045558380633 0 0.1132861312221857 0.06990610420564064 0 0.1299250325243464 0.06362079478078464 0 0.1159059598654327 0.053892045558380633 0 0.11908667438900911 0.038012130888872862 0 0.1315089981119569 0.044765471809418887 0 0.1047527990749217 0.044805051494857903 0 0.1159059598654327 0.053892045558380633 0 0.11908667438900911 0.038012130888872862 0 0.1047527990749217 0.044805051494857903 0 0.11908667438900911 0.038012130888872862 0 0.1099132918303871 0.030542924261484972 0 0.11908667438900911 0.038012130888872862 0 0.1215231945613777 0.024030587716514729 0 0.13010047120459761 0.03113009059246671 0 0.11908667438900911 0.038012130888872862 0 0.1215231945613777 0.024030587716514729 0 0.1099132918303871 0.030542924261484972 0 0.1215231945613777 0.024030587716514729 0 0.1099132918303871 0.030542924261484972 0 0.10827573968926769 0.01833972702154708 0 0.1215231945613777 0.024030587716514729 0 0.1214144444442069 0.009554123459867267 0 0.10827573968926769 0.01833972702154708 0 0.1214144444442069 0.009554123459867267 0 0.10827573968926769 0.01833972702154708 0 0.1154193981372644 -0.0016161727601085791 0 0.1214144444442069 0.009554123459867267 0 0.12615006859766659 0.001368105735046596 0 0.1154193981372644 -0.0016161727601085791 0 0.079680941360938451 0.01146300797895573 0 0.1001505973892798 0.0023223027587165671 0 0.10827573968926769 0.01833972702154708 0 0.1001505973892798 0.0023223027587165671 0 0.10827573968926769 0.01833972702154708 0 0.1154193981372644 -0.0016161727601085791 0 0.079680941360938451 0.01146300797895573 0 0.10827573968926769 0.01833972702154708 0 0.079680941360938451 0.01146300797895573 0 0.093719753181289875 0.02986924290871491 0 0.10827573968926769 0.01833972702154708 0 0.093719753181289875 0.02986924290871491 0 0.1099132918303871 0.030542924261484972 0 0.10827573968926769 0.01833972702154708 0 0.10698517532365399 0.097614187417470119 0 0.090544748793741969 0.081974667168773718 0 0.084795866504153383 0.10277512413986049 0 0.10698517532365399 0.097614187417470119 0 0.098781673187613092 0.1126250873255619 0 0.084795866504153383 0.10277512413986049 0 0.098781673187613092 0.1126250873255619 0 0.085899155775477853 0.12619631736649051 0 0.10631381469069461 0.12798384403710381 0 0.098781673187613092 0.1126250873255619 0 0.1234256018535666 0.1132537076661659 0 0.10631381469069461 0.12798384403710381 0 0.1234256018535666 0.1132537076661659 0 0.10631381469069461 0.12798384403710381 0 0.10698517532365399 0.097614187417470119 0 0.1234256018535666 0.1132537076661659 0 0.10698517532365399 0.097614187417470119 0 0.1234256018535666 0.1132537076661659 0 0.12460576341235401 0.093994698552283776 0 0.10698517532365399 0.097614187417470119 0 0.098781673187613092 0.1126250873255619 0 0.1234256018535666 0.1132537076661659 0 0.10698517532365399 0.097614187417470119 0 0.12460576341235401 0.093994698552283776 0 0.11294161371712109 0.084573948800473156 0 0.12460576341235401 0.093994698552283776 0 0.11294161371712109 0.084573948800473156 0 0.1292862498336699 0.079380086658197568 0 0.1132861312221857 0.06990610420564064 0 0.1299250325243464 0.06362079478078464 0 0.1292862498336699 0.079380086658197568 0 0.11294161371712109 0.084573948800473156 0 0.1132861312221857 0.06990610420564064 0 0.1292862498336699 0.079380086658197568 0 0.09660307533837191 0.060956046671289933 0 0.1132861312221857 0.06990610420564064 0 0.090544748793741969 0.081974667168773718 0 0.10698517532365399 0.097614187417470119 0 0.090544748793741969 0.081974667168773718 0 0.11294161371712109 0.084573948800473156 0 0.1132861312221857 0.06990610420564064 0 0.090544748793741969 0.081974667168773718 0 0.10698517532365399 0.097614187417470119 0 0.11294161371712109 0.084573948800473156 0 0.090544748793741969 0.081974667168773718 0 0.090544748793741969 0.081974667168773718 0 0.068633373702802244 0.089484821386333069 0 0.084795866504153383 0.10277512413986049 0 0.09660307533837191 0.060956046671289933 0 0.090544748793741969 0.081974667168773718 0 0.074104322263829916 0.066335146920077331 0 0.090544748793741969 0.081974667168773718 0 0.074104322263829916 0.066335146920077331 0 0.074104322263829916 0.066335146920077331 0 0.068633373702802244 0.089484821386333069 0 0.04830670336968057 0.075203811044523172 0 0.090544748793741969 0.081974667168773718 0 0.074104322263829916 0.066335146920077331 0 0.068633373702802244 0.089484821386333069 0 0.068633373702802244 0.089484821386333069 0 0.084795866504153383 0.10277512413986049 0 0.065324244141874654 0.11267777744737439 0 0.098781673187613092 0.1126250873255619 0 0.084795866504153383 0.10277512413986049 0 0.085899155775477853 0.12619631736649051 0 0.084795866504153383 0.10277512413986049 0 0.065324244141874654 0.11267777744737439 0 0.085899155775477853 0.12619631736649051 0 0.065324244141874654 0.11267777744737439 0 0.085899155775477853 0.12619631736649051 0 0.069148160696047414 0.13527877756716741 0 0.065324244141874654 0.11267777744737439 0 0.048579733402490582 0.1151750767504022 0 0.056132158239075101 0.12753011204389181 0 0.065324244141874654 0.11267777744737439 0 0.048579733402490582 0.1151750767504022 0 0.048724357143533042 0.097942401597389261 0 0.068633373702802244 0.089484821386333069 0 0.065324244141874654 0.11267777744737439 0 0.048724357143533042 0.097942401597389261 0 0.048579733402490582 0.1151750767504022 0 0.048724357143533042 0.097942401597389261 0 0.031769750031378059 0.1107497676488737 0 0.048724357143533042 0.097942401597389261 0 0.031769750031378059 0.1107497676488737 0 0.023046955927320301 0.086849666832014033 0 0.031769750031378059 0.1107497676488737 0 0.040492544135435807 0.13464986846573351 0 0.048579733402490582 0.1151750767504022 0 0.031769750031378059 0.1107497676488737 0 0.040492544135435807 0.13464986846573351 0 0.057663895733917871 0.050695626671380938 0 0.074104322263829916 0.066335146920077331 0 0.04830670336968057 0.075203811044523172 0 0.068633373702802244 0.089484821386333069 0 0.048724357143533042 0.097942401597389261 0 0.04830670336968057 0.075203811044523172 0 0.048724357143533042 0.097942401597389261 0 0.04830670336968057 0.075203811044523172 0 0.023046955927320301 0.086849666832014033 0 0.041623565032251487 0.061254766176661202 0 0.04830670336968057 0.075203811044523172 0 0.029832900388717859 0.069733025283682831 0 0.04830670336968057 0.075203811044523172 0 0.029832900388717859 0.069733025283682831 0 0.023046955927320301 0.086849666832014033 0 0.028177331055827551 0.057002724235114308 0 0.041623565032251487 0.061254766176661202 0 0.029832900388717859 0.069733025283682831 0 0.029832900388717859 0.069733025283682831 0 0.023046955927320301 0.086849666832014033 0 0.01432416182326255 0.062949566015154335 0 0.023046955927320301 0.086849666832014033 0 0.01432416182326255 0.062949566015154335 0 0.028177331055827551 0.057002724235114308 0 0.029832900388717859 0.069733025283682831 0 0.01432416182326255 0.062949566015154335 0 0.023046955927320301 0.086849666832014033 0 0.0016764790563875 0.081107402001422496 0 0.012683023593064479 0.099388681903750928 0 0.023046955927320301 0.086849666832014033 0 0.0016764790563875 0.081107402001422496 0 0.01432416182326255 0.062949566015154335 0 -0.00081666008360734878 0.065887092891724688 0 0.0016764790563875 0.081107402001422496 0 0.01432416182326255 0.062949566015154335 0 0.031769750031378059 0.1107497676488737 0 0.01197067241451262 0.11478050091130899 0 0.022919875128937912 0.13386330778198069 0 0.031769750031378059 0.1107497676488737 0 0.023046955927320301 0.086849666832014033 0 0.031769750031378059 0.1107497676488737 0 0.023046955927320301 0.086849666832014033 0 0.012683023593064479 0.099388681903750928 0 0.031769750031378059 0.1107497676488737 0 0.012683023593064479 0.099388681903750928 0 0.01197067241451262 0.11478050091130899 0 -0.0050487394642760811 0.1034560721251353 0 0.012683023593064479 0.099388681903750928 0 0.01197067241451262 0.11478050091130899 0 -0.0050487394642760811 0.1034560721251353 0 0.0016764790563875 0.081107402001422496 0 0.012683023593064479 0.099388681903750928 0 -0.00056034267106301703 0.12767961900641081 0 -0.0050487394642760811 0.1034560721251353 0 0.01197067241451262 0.11478050091130899 0 -0.00056034267106301703 0.12767961900641081 0 0.01197067241451262 0.11478050091130899 0 0.022919875128937912 0.13386330778198069 0 -0.00056034267106301703 0.12767961900641081 0 0.022919875128937912 0.13386330778198069 0 0.012701347918134631 0.14818109655550399 0 0.012701347918134631 0.14818109655550399 0 0.035381697521104628 0.14627782977790341 0 0.012701347918134631 0.14818109655550399 0 0.025100073221132922 0.16283144482068551 0 0.035381697521104628 0.14627782977790341 0 0.022919875128937912 0.13386330778198069 0 0.012701347918134631 0.14818109655550399 0 0.035381697521104628 0.14627782977790341 0 -0.0099790016848354361 0.1500843633331046 0 0.012701347918134631 0.14818109655550399 0 -0.0099790016848354361 0.1500843633331046 0 0.012701347918134631 0.14818109655550399 0 0.0029596138382182581 0.1622359487091253 0 -0.0099790016848354361 0.1500843633331046 0 -0.00056034267106301703 0.12767961900641081 0 0.012701347918134631 0.14818109655550399 0 -0.01159904199462301 0.1712073361316388 0 0.0029596138382182581 0.1622359487091253 0 0.01118903132104584 0.17722651040097959 0 0.0029596138382182581 0.1622359487091253 0 0.01298751657463291 0.16261875012157359 0 0.01118903132104584 0.17722651040097959 0 0.012701347918134631 0.14818109655550399 0 0.0029596138382182581 0.1622359487091253 0 0.01298751657463291 0.16261875012157359 0 0.01118903132104584 0.17722651040097959 0 0.0063371419076450261 0.18932807500027471 0 0.020537443501423999 0.19348678607888989 0 -0.0024472500322689559 0.18155453789301659 0 0.01118903132104584 0.17722651040097959 0 0.0063371419076450261 0.18932807500027471 0 0.01118903132104584 0.17722651040097959 0 0.033977104636714738 0.1832456846703204 0 0.020537443501423999 0.19348678607888989 0 0.01118903132104584 0.17722651040097959 0 0.033977104636714738 0.1832456846703204 0 0.01118903132104584 0.17722651040097959 0 0.034574051942115443 0.17063867809734309 0 0.033977104636714738 0.1832456846703204 0 0.01118903132104584 0.17722651040097959 0 0.025100073221132922 0.16283144482068551 0 0.034574051942115443 0.17063867809734309 0 0.012701347918134631 0.14818109655550399 0 0.01298751657463291 0.16261875012157359 0 0.025100073221132922 0.16283144482068551 0 0.01298751657463291 0.16261875012157359 0 0.01118903132104584 0.17722651040097959 0 0.025100073221132922 0.16283144482068551 0 0.025100073221132922 0.16283144482068551 0 0.037924640274603072 0.15845357374315219 0 0.034574051942115443 0.17063867809734309 0 0.034574051942115443 0.17063867809734309 0 0.047019406925645643 0.17626000596900959 0 0.048676593966480518 0.16425907820358601 0 0.037924640274603072 0.15845357374315219 0 0.034574051942115443 0.17063867809734309 0 0.048676593966480518 0.16425907820358601 0 0.033977104636714738 0.1832456846703204 0 0.056765177952383637 0.18926485893966111 0 0.033977104636714738 0.1832456846703204 0 0.047019406925645643 0.17626000596900959 0 0.056765177952383637 0.18926485893966111 0 0.034574051942115443 0.17063867809734309 0 0.033977104636714738 0.1832456846703204 0 0.047019406925645643 0.17626000596900959 0 0.047019406925645643 0.17626000596900959 0 0.060486491320278668 0.17362163084102539 0 0.056765177952383637 0.18926485893966111 0 0.048676593966480518 0.16425907820358601 0 0.061118361434695102 0.16029539352154171 0 0.058062047124074631 0.1443745630003028 0 0.047019406925645643 0.17626000596900959 0 0.060486491320278668 0.17362163084102539 0 0.048676593966480518 0.16425907820358601 0 0.060486491320278668 0.17362163084102539 0 0.048676593966480518 0.16425907820358601 0 0.061118361434695102 0.16029539352154171 0 0.037924640274603072 0.15845357374315219 0 0.048676593966480518 0.16425907820358601 0 0.058062047124074631 0.1443745630003028 0 0.048579733402490582 0.1151750767504022 0 0.056132158239075101 0.12753011204389181 0 0.040492544135435807 0.13464986846573351 0 0.058062047124074631 0.1443745630003028 0 0.056132158239075101 0.12753011204389181 0 0.069148160696047414 0.13527877756716741 0 0.058062047124074631 0.1443745630003028 0 0.056132158239075101 0.12753011204389181 0 0.040492544135435807 0.13464986846573351 0 0.031769750031378059 0.1107497676488737 0 0.022919875128937912 0.13386330778198069 0 0.040492544135435807 0.13464986846573351 0 0.022919875128937912 0.13386330778198069 0 0.040492544135435807 0.13464986846573351 0 0.035381697521104628 0.14627782977790341 0 0.058062047124074631 0.1443745630003028 0 0.035381697521104628 0.14627782977790341 0 0.025100073221132922 0.16283144482068551 0 0.037924640274603072 0.15845357374315219 0 0.035381697521104628 0.14627782977790341 0 0.037924640274603072 0.15845357374315219 0 0.058062047124074631 0.1443745630003028 0 0.035381697521104628 0.14627782977790341 0 0.058062047124074631 0.1443745630003028 0 0.040492544135435807 0.13464986846573351 0 0.035381697521104628 0.14627782977790341 0 0.013547880526749699 0.24484547967947251 0 0.040184120739158641 0.23150005029348031 0 0.0314387120317784 0.25500959105052112 0 0.013547880526749699 0.24484547967947251 0 0.040184120739158641 0.23150005029348031 0 -0.0041970240845738372 0.2377831244812478 0 0.013547880526749699 0.24484547967947251 0 0.0046620056774691922 0.22230564090753011 0 0.013547880526749699 0.24484547967947251 0 0.0046620056774691922 0.22230564090753011 0 0.022673382767339309 0.21501969910550359 0 0.013547880526749699 0.24484547967947251 0 0.022673382767339309 0.21501969910550359 0 0.040184120739158641 0.23150005029348031 0 0.022673382767339309 0.21501969910550359 0 0.020537443501423999 0.19348678607888989 0 0.040892991629366951 0.2062415297856881 0 0.022673382767339309 0.21501969910550359 0 0.0076861917004834414 0.20191458754709579 0 0.020537443501423999 0.19348678607888989 0 -0.010638685839684799 0.20675664367495189 0 0.0046620056774691922 0.22230564090753011 0 0.0076861917004834414 0.20191458754709579 0 0.0046620056774691922 0.22230564090753011 0 0.022673382767339309 0.21501969910550359 0 0.0076861917004834414 0.20191458754709579 0 -0.0052797069524591952 0.19245795308139141 0 0.0076861917004834414 0.20191458754709579 0 0.0063371419076450261 0.18932807500027471 0 0.0076861917004834414 0.20191458754709579 0 0.0063371419076450261 0.18932807500027471 0 0.020537443501423999 0.19348678607888989 0 0.033977104636714738 0.1832456846703204 0 0.020537443501423999 0.19348678607888989 0 0.040892991629366951 0.2062415297856881 0 0.033977104636714738 0.1832456846703204 0 0.056765177952383637 0.18926485893966111 0 0.040892991629366951 0.2062415297856881 0 0.056765177952383637 0.18926485893966111 0 0.06100794545034266 0.20223626071046011 0 0.040892991629366951 0.2062415297856881 0 0.040892991629366951 0.2062415297856881 0 0.040184120739158641 0.23150005029348031 0 0.066820360951567778 0.21815462090748799 0 0.06100794545034266 0.20223626071046011 0 0.040892991629366951 0.2062415297856881 0 0.066820360951567778 0.21815462090748799 0 0.022673382767339309 0.21501969910550359 0 0.040892991629366951 0.2062415297856881 0 0.040184120739158641 0.23150005029348031 0 0.040184120739158641 0.23150005029348031 0 0.059043565921408137 0.2384380449823173 0 0.066820360951567778 0.21815462090748799 0 0.040184120739158641 0.23150005029348031 0 0.066820360951567778 0.21815462090748799 0 0.059043565921408137 0.2384380449823173 0 0.049675920242726657 0.25394562834035372 0 0.071234717691498695 0.254542374838503 0 0.040184120739158641 0.23150005029348031 0 0.059043565921408137 0.2384380449823173 0 0.049675920242726657 0.25394562834035372 0 0.040184120739158641 0.23150005029348031 0 0.0314387120317784 0.25500959105052112 0 0.049675920242726657 0.25394562834035372 0 0.090550552383547131 0.24486982933742321 0 0.074555036999627733 0.23681266409843779 0 0.086636889512104201 0.22863451575284821 0 0.090550552383547131 0.24486982933742321 0 0.074555036999627733 0.23681266409843779 0 0.071234717691498695 0.254542374838503 0 0.059043565921408137 0.2384380449823173 0 0.074555036999627733 0.23681266409843779 0 0.071234717691498695 0.254542374838503 0 0.074555036999627733 0.23681266409843779 0 0.086636889512104201 0.22863451575284821 0 0.066820360951567778 0.21815462090748799 0 0.059043565921408137 0.2384380449823173 0 0.074555036999627733 0.23681266409843779 0 0.066820360951567778 0.21815462090748799 0 0.086636889512104201 0.22863451575284821 0 0.089935029663167673 0.21783103207064819 0 0.066820360951567778 0.21815462090748799 0 0.090550552383547131 0.24486982933742321 0 0.086636889512104201 0.22863451575284821 0 0.10041824610133521 0.2276372277595369 0 0.086636889512104201 0.22863451575284821 0 0.089935029663167673 0.21783103207064819 0 0.10041824610133521 0.2276372277595369 0 0.066820360951567778 0.21815462090748799 0 0.093827740276419686 0.20423713148561989 0 0.066820360951567778 0.21815462090748799 0 0.079553251268052266 0.19528403320900309 0 0.093827740276419686 0.20423713148561989 0 0.089935029663167673 0.21783103207064819 0 0.066820360951567778 0.21815462090748799 0 0.093827740276419686 0.20423713148561989 0 0.06100794545034266 0.20223626071046011 0 0.066820360951567778 0.21815462090748799 0 0.079553251268052266 0.19528403320900309 0 0.056765177952383637 0.18926485893966111 0 0.077235132507048859 0.19379534119777739 0 0.070402522973906423 0.1837258444506735 0 0.056765177952383637 0.18926485893966111 0 0.079553251268052266 0.19528403320900309 0 0.056765177952383637 0.18926485893966111 0 0.077235132507048859 0.19379534119777739 0 0.079553251268052266 0.19528403320900309 0 0.056765177952383637 0.18926485893966111 0 0.06100794545034266 0.20223626071046011 0 0.079553251268052266 0.19528403320900309 0 0.077235132507048859 0.19379534119777739 0 0.078050427949866219 0.18881813662008221 0 0.070402522973906423 0.1837258444506735 0 0.080973470390808017 0.19565916568650879 0 0.086664359669374788 0.1943942585799702 0 0.098196815245151156 0.20041263155814479 0 0.080973470390808017 0.19565916568650879 0 0.098196815245151156 0.20041263155814479 0 0.093827740276419686 0.20423713148561989 0 0.078050427949866219 0.18881813662008221 0 0.080930514799635478 0.19189883019991719 0 0.079206709932733516 0.1927029435651626 0 0.078050427949866219 0.18881813662008221 0 0.081930731766528458 0.1885445575283225 0 0.080930514799635478 0.19189883019991719 0 0.081930731766528458 0.1885445575283225 0 0.083651795116132993 0.19157713448983071 0 0.086198546429905668 0.18942030250912831 0 0.081930731766528458 0.1885445575283225 0 0.083651795116132993 0.19157713448983071 0 0.080930514799635478 0.19189883019991719 0 0.083651795116132993 0.19157713448983071 0 0.086198546429905668 0.18942030250912831 0 0.086664359669374788 0.1943942585799702 0 0.082534822915220574 0.19362772363181541 0 0.080973470390808017 0.19565916568650879 0 0.086664359669374788 0.1943942585799702 0 0.083651795116132993 0.19157713448983071 0 0.082534822915220574 0.19362772363181541 0 0.086664359669374788 0.1943942585799702 0 0.083651795116132993 0.19157713448983071 0 0.082534822915220574 0.19362772363181541 0 0.080930514799635478 0.19189883019991719 0 0.077235132507048859 0.19379534119777739 0 0.078050427949866219 0.18881813662008221 0 0.079206709932733516 0.1927029435651626 0 0.082534822915220574 0.19362772363181541 0 0.080930514799635478 0.19189883019991719 0 0.079553251268052266 0.19528403320900309 0 0.082534822915220574 0.19362772363181541 0 0.079553251268052266 0.19528403320900309 0 0.080973470390808017 0.19565916568650879 0 0.080930514799635478 0.19189883019991719 0 0.079206709932733516 0.1927029435651626 0 0.079553251268052266 0.19528403320900309 0 0.077235132507048859 0.19379534119777739 0 0.079553251268052266 0.19528403320900309 0 0.077235132507048859 0.19379534119777739 0 0.079206709932733516 0.1927029435651626 0 0.079553251268052266 0.19528403320900309 0 0.079553251268052266 0.19528403320900309 0 0.080973470390808017 0.19565916568650879 0 0.093827740276419686 0.20423713148561989 0 0.079553251268052266 0.19528403320900309 0 0.080973470390808017 0.19565916568650879 0 0.079553251268052266 0.19528403320900309 0 0.093827740276419686 0.20423713148561989 0 0.091500077671248459 0.19235269551924061 0 0.086664359669374788 0.1943942585799702 0 0.098196815245151156 0.20041263155814479 0 0.091500077671248459 0.19235269551924061 0 0.089613993039519613 0.18509931289298781 0 0.097521341595231362 0.18733143439347391 0 0.091500077671248459 0.19235269551924061 0 0.086198546429905668 0.18942030250912831 0 0.089613993039519613 0.18509931289298781 0 0.091500077671248459 0.19235269551924061 0 0.086198546429905668 0.18942030250912831 0 0.086664359669374788 0.1943942585799702 0 0.097651426009113473 0.193612484063518 0 0.1043501325514571 0.1928099672868045 0 0.097521341595231362 0.18733143439347391 0 0.091500077671248459 0.19235269551924061 0 0.097651426009113473 0.193612484063518 0 0.097521341595231362 0.18733143439347391 0 0.091500077671248459 0.19235269551924061 0 0.097651426009113473 0.193612484063518 0 0.098196815245151156 0.20041263155814479 0 0.097651426009113473 0.193612484063518 0 0.098196815245151156 0.20041263155814479 0 0.1043501325514571 0.1928099672868045 0 0.098196815245151156 0.20041263155814479 0 0.1075191009765773 0.20091831678093089 0 0.1043501325514571 0.1928099672868045 0 0.1043501325514571 0.1928099672868045 0 0.116649819797758 0.19547381409145281 0 0.1072661747824073 0.18198431616494851 0 0.116649819797758 0.19547381409145281 0 0.1189428611386853 0.1846191848096034 0 0.13154010596620619 0.19102276271060359 0 0.116649819797758 0.19547381409145281 0 0.11592141998045009 0.20721275239889819 0 0.1279622786354036 0.20519685109549499 0 0.1075191009765773 0.20091831678093089 0 0.1043501325514571 0.1928099672868045 0 0.116649819797758 0.19547381409145281 0 0.1075191009765773 0.20091831678093089 0 0.116649819797758 0.19547381409145281 0 0.11592141998045009 0.20721275239889819 0 0.1023430505868544 0.2099196044118721 0 0.1251328499056571 0.22455517561474009 0 0.11592141998045009 0.20721275239889819 0 0.1023430505868544 0.2099196044118721 0 0.1251328499056571 0.22455517561474009 0 0.11592141998045009 0.20721275239889819 0 0.1251328499056571 0.22455517561474009 0 0.1279622786354036 0.20519685109549499 0 0.089935029663167673 0.21783103207064819 0 0.1023430505868544 0.2099196044118721 0 0.10041824610133521 0.2276372277595369 0 0.098196815245151156 0.20041263155814479 0 0.1075191009765773 0.20091831678093089 0 0.1023430505868544 0.2099196044118721 0 0.1075191009765773 0.20091831678093089 0 0.11592141998045009 0.20721275239889819 0 0.1023430505868544 0.2099196044118721 0 0.098196815245151156 0.20041263155814479 0 0.1023430505868544 0.2099196044118721 0 0.093827740276419686 0.20423713148561989 0 0.1023430505868544 0.2099196044118721 0 0.093827740276419686 0.20423713148561989 0 0.089935029663167673 0.21783103207064819 0 0.1023430505868544 0.2099196044118721 0 0.093827740276419686 0.20423713148561989 0 0.1023430505868544 0.2099196044118721 0 0.10041824610133521 0.2276372277595369 0 0.1251328499056571 0.22455517561474009 0 0.10041824610133521 0.2276372277595369 0 0.1045576226681757 0.24246127190420191 0 0.1251328499056571 0.22455517561474009 0 0.1045576226681757 0.24246127190420191 0 0.1251328499056571 0.22455517561474009 0 0.1154445232046005 0.25083713922327727 0 0.13282715172793591 0.2493817210630638 0 0.1251328499056571 0.22455517561474009 0 0.1154445232046005 0.25083713922327727 0 0.090550552383547131 0.24486982933742321 0 0.1045576226681757 0.24246127190420191 0 0.1036997528795266 0.25964015775820609 0 0.090550552383547131 0.24486982933742321 0 0.10041824610133521 0.2276372277595369 0 0.1045576226681757 0.24246127190420191 0 0.079824409716267197 0.1468310335107762 0 0.087948974407843633 0.15430274913030939 0 0.080773816437209545 0.16266019343833479 0 0.079824409716267197 0.1468310335107762 0 0.087948974407843633 0.15430274913030939 0 0.097086345954891462 0.1463002842121294 0 0.087948974407843633 0.15430274913030939 0 0.094111325523006328 0.16141948535999701 0 0.097086345954891462 0.1463002842121294 0 0.079824409716267197 0.1468310335107762 0 0.085899155775477853 0.12619631736649051 0 0.097086345954891462 0.1463002842121294 0 0.079824409716267197 0.1468310335107762 0 0.085899155775477853 0.12619631736649051 0 0.069148160696047414 0.13527877756716741 0 0.065324244141874654 0.11267777744737439 0 0.056132158239075101 0.12753011204389181 0 0.069148160696047414 0.13527877756716741 0 0.079824409716267197 0.1468310335107762 0 0.069148160696047414 0.13527877756716741 0 0.069646949179515125 0.15406286203416869 0 0.079824409716267197 0.1468310335107762 0 0.069646949179515125 0.15406286203416869 0 0.080773816437209545 0.16266019343833479 0 0.058062047124074631 0.1443745630003028 0 0.069148160696047414 0.13527877756716741 0 0.069646949179515125 0.15406286203416869 0 0.061118361434695102 0.16029539352154171 0 0.058062047124074631 0.1443745630003028 0 0.069646949179515125 0.15406286203416869 0 0.061118361434695102 0.16029539352154171 0 0.069646949179515125 0.15406286203416869 0 0.068719725583126556 0.1651588335286254 0 0.060486491320278668 0.17362163084102539 0 0.061118361434695102 0.16029539352154171 0 0.068719725583126556 0.1651588335286254 0 0.060486491320278668 0.17362163084102539 0 0.068719725583126556 0.1651588335286254 0 0.073359178688677834 0.17413934985506649 0 0.068719725583126556 0.1651588335286254 0 0.073359178688677834 0.17413934985506649 0 0.080773816437209545 0.16266019343833479 0 0.069646949179515125 0.15406286203416869 0 0.068719725583126556 0.1651588335286254 0 0.080773816437209545 0.16266019343833479 0 0.060486491320278668 0.17362163084102539 0 0.056765177952383637 0.18926485893966111 0 0.070402522973906423 0.1837258444506735 0 0.060486491320278668 0.17362163084102539 0 0.073359178688677834 0.17413934985506649 0 0.070402522973906423 0.1837258444506735 0 0.078050427949866219 0.18881813662008221 0 0.070402522973906423 0.1837258444506735 0 0.078799154432472582 0.1823507750440285 0 0.073359178688677834 0.17413934985506649 0 0.070402522973906423 0.1837258444506735 0 0.078799154432472582 0.1823507750440285 0 0.078799154432472582 0.1823507750440285 0 0.084491754152246537 0.18327189273609409 0 0.082358008714550179 0.17542000028358831 0 0.081930731766528458 0.1885445575283225 0 0.086198546429905668 0.18942030250912831 0 0.084491754152246537 0.18327189273609409 0 0.081930731766528458 0.1885445575283225 0 0.078799154432472582 0.1823507750440285 0 0.084491754152246537 0.18327189273609409 0 0.078050427949866219 0.18881813662008221 0 0.081930731766528458 0.1885445575283225 0 0.078799154432472582 0.1823507750440285 0 0.084491754152246537 0.18327189273609409 0 0.082358008714550179 0.17542000028358831 0 0.088050090530502848 0.17879640815850981 0 0.073359178688677834 0.17413934985506649 0 0.078799154432472582 0.1823507750440285 0 0.082358008714550179 0.17542000028358831 0 0.082358008714550179 0.17542000028358831 0 0.088050090530502848 0.17879640815850981 0 0.089698767746867983 0.17054985246277199 0 0.088050090530502848 0.17879640815850981 0 0.089698767746867983 0.17054985246277199 0 0.094521225222068753 0.17862864872008741 0 0.084491754152246537 0.18327189273609409 0 0.088050090530502848 0.17879640815850981 0 0.089613993039519613 0.18509931289298781 0 0.088050090530502848 0.17879640815850981 0 0.089613993039519613 0.18509931289298781 0 0.094521225222068753 0.17862864872008741 0 0.086198546429905668 0.18942030250912831 0 0.084491754152246537 0.18327189273609409 0 0.089613993039519613 0.18509931289298781 0 0.073359178688677834 0.17413934985506649 0 0.082358008714550179 0.17542000028358831 0 0.080773816437209545 0.16266019343833479 0 0.082358008714550179 0.17542000028358831 0 0.080773816437209545 0.16266019343833479 0 0.089698767746867983 0.17054985246277199 0 0.080773816437209545 0.16266019343833479 0 0.089698767746867983 0.17054985246277199 0 0.094111325523006328 0.16141948535999701 0 0.087948974407843633 0.15430274913030939 0 0.080773816437209545 0.16266019343833479 0 0.094111325523006328 0.16141948535999701 0 0.094111325523006328 0.16141948535999701 0 0.10529646125143211 0.16154459378579239 0 0.097086345954891462 0.1463002842121294 0 0.094111325523006328 0.16141948535999701 0 0.10007646932860639 0.17074279910447851 0 0.10529646125143211 0.16154459378579239 0 0.089698767746867983 0.17054985246277199 0 0.094111325523006328 0.16141948535999701 0 0.10007646932860639 0.17074279910447851 0 0.10007646932860639 0.17074279910447851 0 0.10529646125143211 0.16154459378579239 0 0.1097137234555461 0.17115595057307501 0 0.097521341595231362 0.18733143439347391 0 0.094521225222068753 0.17862864872008741 0 0.1072661747824073 0.18198431616494851 0 0.089613993039519613 0.18509931289298781 0 0.097521341595231362 0.18733143439347391 0 0.094521225222068753 0.17862864872008741 0 0.089698767746867983 0.17054985246277199 0 0.10007646932860639 0.17074279910447851 0 0.094521225222068753 0.17862864872008741 0 0.10007646932860639 0.17074279910447851 0 0.094521225222068753 0.17862864872008741 0 0.1072661747824073 0.18198431616494851 0 0.10007646932860639 0.17074279910447851 0 0.1072661747824073 0.18198431616494851 0 0.1097137234555461 0.17115595057307501 0 0.1043501325514571 0.1928099672868045 0 0.097521341595231362 0.18733143439347391 0 0.1072661747824073 0.18198431616494851 0 0.116649819797758 0.19547381409145281 0 0.1072661747824073 0.18198431616494851 0 0.1189428611386853 0.1846191848096034 0 0.1072661747824073 0.18198431616494851 0 0.11649255294371259 0.1761299373020899 0 0.1189428611386853 0.1846191848096034 0 0.1072661747824073 0.18198431616494851 0 0.11649255294371259 0.1761299373020899 0 0.1097137234555461 0.17115595057307501 0 0.11649255294371259 0.1761299373020899 0 0.1182924412232683 0.1655894349713358 0 0.12634492397373179 0.17674183906102719 0 0.11649255294371259 0.1761299373020899 0 0.1189428611386853 0.1846191848096034 0 0.12634492397373179 0.17674183906102719 0 0.10529646125143211 0.16154459378579239 0 0.1182924412232683 0.1655894349713358 0 0.1125541388709129 0.15265896618797581 0 0.11649255294371259 0.1761299373020899 0 0.1097137234555461 0.17115595057307501 0 0.1182924412232683 0.1655894349713358 0 0.10529646125143211 0.16154459378579239 0 0.1097137234555461 0.17115595057307501 0 0.1182924412232683 0.1655894349713358 0 0.1182924412232683 0.1655894349713358 0 0.12964801278516369 0.16813886556667049 0 0.12634492397373179 0.17674183906102719 0 0.1182924412232683 0.1655894349713358 0 0.1125541388709129 0.15265896618797581 0 0.12762409060536911 0.15205584116813969 0 0.112243536370335 0.13990643599366029 0 0.1245964680193976 0.13487273291573459 0 0.12762409060536911 0.15205584116813969 0 0.1125541388709129 0.15265896618797581 0 0.112243536370335 0.13990643599366029 0 0.12762409060536911 0.15205584116813969 0 0.10529646125143211 0.16154459378579239 0 0.1125541388709129 0.15265896618797581 0 0.097086345954891462 0.1463002842121294 0 0.1125541388709129 0.15265896618797581 0 0.097086345954891462 0.1463002842121294 0 0.112243536370335 0.13990643599366029 0 0.085899155775477853 0.12619631736649051 0 0.097086345954891462 0.1463002842121294 0 0.10631381469069461 0.12798384403710381 0 0.097086345954891462 0.1463002842121294 0 0.10631381469069461 0.12798384403710381 0 0.112243536370335 0.13990643599366029 0 0.1234256018535666 0.1132537076661659 0 0.10631381469069461 0.12798384403710381 0 0.1245964680193976 0.13487273291573459 0 0.10631381469069461 0.12798384403710381 0 0.112243536370335 0.13990643599366029 0 0.1245964680193976 0.13487273291573459 0 0.1245964680193976 0.13487273291573459 0 0.13840629433953819 0.1390841377815524 0 0.13537260010573521 0.1246186999755807 0 0.15265266776209219 0.12545170747125689 0 0.15436538722630261 0.14388870533358949 0 0.15265266776209219 0.12545170747125689 0 0.15436538722630261 0.14388870533358949 0 0.1461423919447149 0.14443990350189739 0 0.13840629433953819 0.1390841377815524 0 0.15265266776209219 0.12545170747125689 0 0.13537260010573521 0.1246186999755807 0 0.15265266776209219 0.12545170747125689 0 0.15436538722630261 0.14388870533358949 0 0.1614890329353996 0.14356742494122371 0 0.13840629433953819 0.1390841377815524 0 0.15265266776209219 0.12545170747125689 0 0.1461423919447149 0.14443990350189739 0 0.15436538722630261 0.14388870533358949 0 0.15607810669051311 0.16232570319592199 0 0.14995879246178151 0.1506814215185088 0 0.15436538722630261 0.14388870533358949 0 0.15607810669051311 0.16232570319592199 0 0.14995879246178151 0.1506814215185088 0 0.14324928398559569 0.1520713740426263 0 0.15607810669051311 0.16232570319592199 0 0.14995879246178151 0.1506814215185088 0 0.15436538722630261 0.14388870533358949 0 0.1461423919447149 0.14443990350189739 0 0.13840629433953819 0.1390841377815524 0 0.1461423919447149 0.14443990350189739 0 0.14324928398559569 0.1520713740426263 0 0.14995879246178151 0.1506814215185088 0 0.1461423919447149 0.14443990350189739 0 0.14324928398559569 0.1520713740426263 0 0.14324928398559569 0.1520713740426263 0 0.12762409060536911 0.15205584116813969 0 0.1405949793455305 0.16445139241001669 0 0.1245964680193976 0.13487273291573459 0 0.13840629433953819 0.1390841377815524 0 0.12762409060536911 0.15205584116813969 0 0.13840629433953819 0.1390841377815524 0 0.14324928398559569 0.1520713740426263 0 0.12762409060536911 0.15205584116813969 0 0.12762409060536911 0.15205584116813969 0 0.12964801278516369 0.16813886556667049 0 0.1405949793455305 0.16445139241001669 0 0.1182924412232683 0.1655894349713358 0 0.12762409060536911 0.15205584116813969 0 0.12964801278516369 0.16813886556667049 0 0.12964801278516369 0.16813886556667049 0 0.1405949793455305 0.16445139241001669 0 0.13810717065604011 0.17748378521681499 0 0.13810717065604011 0.17748378521681499 0 0.13154010596620619 0.19102276271060359 0 0.15078143487042911 0.19056921211356029 0 0.1189428611386853 0.1846191848096034 0 0.12634492397373179 0.17674183906102719 0 0.13154010596620619 0.19102276271060359 0 0.12634492397373179 0.17674183906102719 0 0.13810717065604011 0.17748378521681499 0 0.13154010596620619 0.19102276271060359 0 0.12964801278516369 0.16813886556667049 0 0.12634492397373179 0.17674183906102719 0 0.13810717065604011 0.17748378521681499 0 0.14973356699517909 0.17397863943901201 0 0.16383573699646981 0.176061557195723 0 0.15078143487042911 0.19056921211356029 0 0.13810717065604011 0.17748378521681499 0 0.14973356699517909 0.17397863943901201 0 0.15078143487042911 0.19056921211356029 0 0.1405949793455305 0.16445139241001669 0 0.13810717065604011 0.17748378521681499 0 0.14973356699517909 0.17397863943901201 0 0.14324928398559569 0.1520713740426263 0 0.1405949793455305 0.16445139241001669 0 0.15607810669051311 0.16232570319592199 0 0.1405949793455305 0.16445139241001669 0 0.14973356699517909 0.17397863943901201 0 0.15607810669051311 0.16232570319592199 0 0.14973356699517909 0.17397863943901201 0 0.15607810669051311 0.16232570319592199 0 0.16383573699646981 0.176061557195723 0 0.15607810669051311 0.16232570319592199 0 0.17032539810870689 0.16168314241119039 0 0.16383573699646981 0.176061557195723 0 0.17032539810870689 0.16168314241119039 0 0.16383573699646981 0.176061557195723 0 0.17916176328201411 0.1797988598811571 0 0.16383573699646981 0.176061557195723 0 0.15078143487042911 0.19056921211356029 0 0.1678472595071864 0.19207006882930189 0 0.16383573699646981 0.176061557195723 0 0.17916176328201411 0.1797988598811571 0 0.1678472595071864 0.19207006882930189 0 0.17916176328201411 0.1797988598811571 0 0.18531028340678449 0.17428534721390321 0 0.18196072472732 0.2015698107083996 0 0.17916176328201411 0.1797988598811571 0 0.18531028340678449 0.17428534721390321 0 0.178320226745107 0.17014150612980181 0 0.18531028340678449 0.17428534721390321 0 0.178320226745107 0.17014150612980181 0 0.18531028340678449 0.17428534721390321 0 0.17980235477841669 0.16027357114065921 0 0.18842626190150449 0.14890355527512761 0 0.17032539810870689 0.16168314241119039 0 0.17916176328201411 0.1797988598811571 0 0.18531028340678449 0.17428534721390321 0 0.18842626190150449 0.14890355527512761 0 0.17032539810870689 0.16168314241119039 0 0.17916176328201411 0.1797988598811571 0 0.178320226745107 0.17014150612980181 0 0.17032539810870689 0.16168314241119039 0 0.17980235477841669 0.16027357114065921 0 0.1758973935584682 0.1555026161536093 0 0.17032539810870689 0.16168314241119039 0 0.178320226745107 0.17014150612980181 0 0.17980235477841669 0.16027357114065921 0 0.18531028340678449 0.17428534721390321 0 0.178320226745107 0.17014150612980181 0 0.17980235477841669 0.16027357114065921 0 0.17980235477841669 0.16027357114065921 0 0.1802769999231392 0.15097828998878021 0 0.18842626190150449 0.14890355527512761 0 0.17032539810870689 0.16168314241119039 0 0.1758973935584682 0.1555026161536093 0 0.17318482142361019 0.14907546107380751 0 0.17980235477841669 0.16027357114065921 0 0.1802769999231392 0.15097828998878021 0 0.1758973935584682 0.1555026161536093 0 0.1802769999231392 0.15097828998878021 0 0.1758973935584682 0.1555026161536093 0 0.17318482142361019 0.14907546107380751 0 0.17318482142361019 0.14907546107380751 0 0.183265544588224 0.1409817010775371 0 0.1717461174029542 0.1369589488233029 0 0.1802769999231392 0.15097828998878021 0 0.17318482142361019 0.14907546107380751 0 0.183265544588224 0.1409817010775371 0 0.1802769999231392 0.15097828998878021 0 0.183265544588224 0.1409817010775371 0 0.18842626190150449 0.14890355527512761 0 0.183265544588224 0.1409817010775371 0 0.17271249347622511 0.12365285860334579 0 0.183265544588224 0.1409817010775371 0 0.1717461174029542 0.1369589488233029 0 0.17271249347622511 0.12365285860334579 0 0.183265544588224 0.1409817010775371 0 0.18991427691240989 0.1227431847461575 0 0.17271249347622511 0.12365285860334579 0 0.15265266776209219 0.12545170747125689 0 0.1717461174029542 0.1369589488233029 0 0.1614890329353996 0.14356742494122371 0 0.15265266776209219 0.12545170747125689 0 0.1717461174029542 0.1369589488233029 0 0.17271249347622511 0.12365285860334579 0 0.15265266776209219 0.12545170747125689 0 0.1614890329353996 0.14356742494122371 0 0.17032539810870689 0.16168314241119039 0 0.1614890329353996 0.14356742494122371 0 0.17032539810870689 0.16168314241119039 0 0.17318482142361019 0.14907546107380751 0 0.1614890329353996 0.14356742494122371 0 0.15436538722630261 0.14388870533358949 0 0.15607810669051311 0.16232570319592199 0 0.1614890329353996 0.14356742494122371 0 0.15607810669051311 0.16232570319592199 0 0.17032539810870689 0.16168314241119039 0 0.1614890329353996 0.14356742494122371 0 0.17318482142361019 0.14907546107380751 0 0.1717461174029542 0.1369589488233029 0 0.1614890329353996 0.14356742494122371 0 0.14792264922445991 0.2391907468176081 0 0.13282715172793591 0.2493817210630638 0 0.1471367866487811 0.25554499019176918 0 0.14792264922445991 0.2391907468176081 0 0.13282715172793591 0.2493817210630638 0 0.1251328499056571 0.22455517561474009 0 0.14792264922445991 0.2391907468176081 0 0.1251328499056571 0.22455517561474009 0 0.14792264922445991 0.2391907468176081 0 0.1251328499056571 0.22455517561474009 0 0.14131962073325691 0.21001188177864261 0 0.14792264922445991 0.2391907468176081 0 0.14131962073325691 0.21001188177864261 0 0.16065480157417569 0.2141463025026184 0 0.14131962073325691 0.21001188177864261 0 0.15078143487042911 0.19056921211356029 0 0.16065480157417569 0.2141463025026184 0 0.1251328499056571 0.22455517561474009 0 0.14131962073325691 0.21001188177864261 0 0.1279622786354036 0.20519685109549499 0 0.14131962073325691 0.21001188177864261 0 0.1279622786354036 0.20519685109549499 0 0.13154010596620619 0.19102276271060359 0 0.116649819797758 0.19547381409145281 0 0.1279622786354036 0.20519685109549499 0 0.13154010596620619 0.19102276271060359 0 0.14131962073325691 0.21001188177864261 0 0.13154010596620619 0.19102276271060359 0 0.15078143487042911 0.19056921211356029 0 0.15078143487042911 0.19056921211356029 0 0.1678472595071864 0.19207006882930189 0 0.16065480157417569 0.2141463025026184 0 0.1678472595071864 0.19207006882930189 0 0.18196072472732 0.2015698107083996 0 0.16065480157417569 0.2141463025026184 0 0.18531028340678449 0.17428534721390321 0 0.18196072472732 0.2015698107083996 0 0.17916176328201411 0.1797988598811571 0 0.1678472595071864 0.19207006882930189 0 0.18196072472732 0.2015698107083996 0 0.18196072472732 0.2015698107083996 0 0.16065480157417569 0.2141463025026184 0 0.17861116604785671 0.2288542742028962 0 0.18196072472732 0.2015698107083996 0 0.17861116604785671 0.2288542742028962 0 0.18905727559295679 0.218187373520497 0 0.18196072472732 0.2015698107083996 0 0.17861116604785671 0.2288542742028962 0 0.16065480157417569 0.2141463025026184 0 0.17861116604785671 0.2288542742028962 0 0.16459702882489549 0.2366575629725545 0 0.14792264922445991 0.2391907468176081 0 0.16065480157417569 0.2141463025026184 0 0.16459702882489549 0.2366575629725545 0 0.17861116604785671 0.2288542742028962 0 0.1864748736775052 0.2390373076785921 0 0.19711678048497611 0.2282530184461089 0 0.17861116604785671 0.2288542742028962 0 0.1864748736775052 0.2390373076785921 0 0.17634324328383211 0.2473280678530145 0 0.17861116604785671 0.2288542742028962 0 0.17634324328383211 0.2473280678530145 0 0.1707124485432627 0.25382631802047623 0 0.17861116604785671 0.2288542742028962 0 0.17634324328383211 0.2473280678530145 0 0.1864748736775052 0.2390373076785921 0 0.18580574303400291 0.24790069894970571 0 0.17634324328383211 0.2473280678530145 0 0.14792264922445991 0.2391907468176081 0 0.16459702882489549 0.2366575629725545 0 0.1707124485432627 0.25382631802047623 0 0.14792264922445991 0.2391907468176081 0 0.1707124485432627 0.25382631802047623 0 0.14792264922445991 0.2391907468176081 0 0.1603207668959982 0.25663681054467208 0 0.1707124485432627 0.25382631802047623 0 0.17861116604785671 0.2288542742028962 0 0.16459702882489549 0.2366575629725545 0 0.1707124485432627 0.25382631802047623 0 0.21063535925104199 0.24137180102493419 0 0.22214752469699811 0.24250596013778869 0 0.21605607629655391 0.25069239513677849 0 0.2169635223020531 0.23593843087244479 0 0.21063535925104199 0.24137180102493419 0 0.2099810878414195 0.2297614720480228 0 0.2169635223020531 0.23593843087244479 0 0.21063535925104199 0.24137180102493419 0 0.22214752469699811 0.24250596013778869 0 0.21063535925104199 0.24137180102493419 0 0.19997992813205709 0.23956541263346501 0 0.2099810878414195 0.2297614720480228 0 0.21063535925104199 0.24137180102493419 0 0.19997992813205709 0.23956541263346501 0 0.2047562489228 0.25043904943886391 0 0.21063535925104199 0.24137180102493419 0 0.2047562489228 0.25043904943886391 0 0.21605607629655391 0.25069239513677849 0 0.19432513662305631 0.24923070947276491 0 0.19997992813205709 0.23956541263346501 0 0.2047562489228 0.25043904943886391 0 0.1864748736775052 0.2390373076785921 0 0.18580574303400291 0.24790069894970571 0 0.19432513662305631 0.24923070947276491 0 0.1864748736775052 0.2390373076785921 0 0.19432513662305631 0.24923070947276491 0 0.19997992813205709 0.23956541263346501 0 0.1864748736775052 0.2390373076785921 0 0.19997992813205709 0.23956541263346501 0 0.19711678048497611 0.2282530184461089 0 0.17861116604785671 0.2288542742028962 0 0.19711678048497611 0.2282530184461089 0 0.18905727559295679 0.218187373520497 0 0.19997992813205709 0.23956541263346501 0 0.19711678048497611 0.2282530184461089 0 0.2099810878414195 0.2297614720480228 0 0.19711678048497611 0.2282530184461089 0 0.19854043111167441 0.21407239072458339 0 0.18905727559295679 0.218187373520497 0 0.19711678048497611 0.2282530184461089 0 0.2047601263153889 0.22297798524957649 0 0.19854043111167441 0.21407239072458339 0 0.2047601263153889 0.22297798524957649 0 0.2099810878414195 0.2297614720480228 0 0.21232497612261439 0.2176922391364316 0 0.19711678048497611 0.2282530184461089 0 0.2047601263153889 0.22297798524957649 0 0.2099810878414195 0.2297614720480228 0 0.2169635223020531 0.23593843087244479 0 0.2099810878414195 0.2297614720480228 0 0.21776530646928779 0.22511387628319551 0 0.2099810878414195 0.2297614720480228 0 0.21776530646928779 0.22511387628319551 0 0.21232497612261439 0.2176922391364316 0 0.21776530646928779 0.22511387628319551 0 0.21232497612261439 0.2176922391364316 0 0.2238052566082662 0.21932755024552961 0 0.21232497612261439 0.2176922391364316 0 0.2156663568041359 0.2072105676109002 0 0.20601191062186289 0.20193591769440569 0 0.21232497612261439 0.2176922391364316 0 0.19854043111167441 0.21407239072458339 0 0.20601191062186289 0.20193591769440569 0 0.21232497612261439 0.2176922391364316 0 0.2156663568041359 0.2072105676109002 0 0.2238052566082662 0.21932755024552961 0 0.2047601263153889 0.22297798524957649 0 0.21232497612261439 0.2176922391364316 0 0.19854043111167441 0.21407239072458339 0 0.18196072472732 0.2015698107083996 0 0.19854043111167441 0.21407239072458339 0 0.18905727559295679 0.218187373520497 0 0.18196072472732 0.2015698107083996 0 0.19854043111167441 0.21407239072458339 0 0.20601191062186289 0.20193591769440569 0 0.18196072472732 0.2015698107083996 0 0.20601191062186289 0.20193591769440569 0 0.20360857436372851 0.18513292878672749 0 0.22190686532067219 0.19598051035955219 0 0.20360857436372851 0.18513292878672749 0 0.20601191062186289 0.20193591769440569 0 0.22190686532067219 0.19598051035955219 0 0.20360857436372851 0.18513292878672749 0 0.2156663568041359 0.2072105676109002 0 0.20601191062186289 0.20193591769440569 0 0.22190686532067219 0.19598051035955219 0 0.22190686532067219 0.19598051035955219 0 0.24020515627761529 0.20682809193237789 0 0.22190686532067219 0.19598051035955219 0 0.2370693522801911 0.19369345111936959 0 0.24020515627761529 0.20682809193237789 0 0.22190686532067219 0.19598051035955219 0 0.2370693522801911 0.19369345111936959 0 0.2310049465777034 0.18691580147062589 0 0.2370693522801911 0.19369345111936959 0 0.2310049465777034 0.18691580147062589 0 0.2370693522801911 0.19369345111936959 0 0.25147406885978979 0.20979232824855959 0 0.25422330199456261 0.1928385510250292 0 0.2370693522801911 0.19369345111936959 0 0.25147406885978979 0.20979232824855959 0 0.2370693522801911 0.19369345111936959 0 0.25500299124216341 0.17666048562343309 0 0.25422330199456261 0.1928385510250292 0 0.2370693522801911 0.19369345111936959 0 0.24020515627761529 0.20682809193237789 0 0.2370693522801911 0.19369345111936959 0 0.24020515627761529 0.20682809193237789 0 0.25147406885978979 0.20979232824855959 0 0.24020515627761529 0.20682809193237789 0 0.24527403457358951 0.209833021241222 0 0.25147406885978979 0.20979232824855959 0 0.24020515627761529 0.20682809193237789 0 0.24527403457358951 0.209833021241222 0 0.24225137431164431 0.21539888874371069 0 0.24020515627761529 0.20682809193237789 0 0.24527403457358951 0.209833021241222 0 0.24225137431164431 0.21539888874371069 0 0.25147406885978979 0.20979232824855959 0 0.24527403457358951 0.209833021241222 0 0.24225137431164431 0.21539888874371069 0 0.25147406885978979 0.20979232824855959 0 0.24225137431164431 0.21539888874371069 0 0.25411629243233008 0.2245276064402377 0 0.25147406885978979 0.20979232824855959 0 0.24020515627761529 0.20682809193237789 0 0.24225137431164431 0.21539888874371069 0 0.24225137431164431 0.21539888874371069 0 0.23600953662288629 0.21919335904955881 0 0.24020515627761529 0.20682809193237789 0 0.24225137431164431 0.21539888874371069 0 0.23507614184544559 0.21342627881829651 0 0.24225137431164431 0.21539888874371069 0 0.23507614184544559 0.21342627881829651 0 0.23600953662288629 0.21919335904955881 0 0.22190686532067219 0.19598051035955219 0 0.24020515627761529 0.20682809193237789 0 0.2265085652685582 0.20907517975340939 0 0.23028958460003299 0.21722605276817589 0 0.2265085652685582 0.20907517975340939 0 0.2238052566082662 0.21932755024552961 0 0.23507614184544559 0.21342627881829651 0 0.23028958460003299 0.21722605276817589 0 0.2265085652685582 0.20907517975340939 0 0.23507614184544559 0.21342627881829651 0 0.23028958460003299 0.21722605276817589 0 0.23600953662288629 0.21919335904955881 0 0.24020515627761529 0.20682809193237789 0 0.23507614184544559 0.21342627881829651 0 0.2265085652685582 0.20907517975340939 0 0.2156663568041359 0.2072105676109002 0 0.22190686532067219 0.19598051035955219 0 0.2265085652685582 0.20907517975340939 0 0.2156663568041359 0.2072105676109002 0 0.2265085652685582 0.20907517975340939 0 0.2238052566082662 0.21932755024552961 0 0.21776530646928779 0.22511387628319551 0 0.2238052566082662 0.21932755024552961 0 0.22364003218049 0.23085377401489721 0 0.2238052566082662 0.21932755024552961 0 0.22364003218049 0.23085377401489721 0 0.23004842265500891 0.22510789597408529 0 0.2169635223020531 0.23593843087244479 0 0.21776530646928779 0.22511387628319551 0 0.22364003218049 0.23085377401489721 0 0.23004842265500891 0.22510789597408529 0 0.2372702571708816 0.2274192063481868 0 0.2306079607156821 0.23667761428236009 0 0.22364003218049 0.23085377401489721 0 0.23004842265500891 0.22510789597408529 0 0.2306079607156821 0.23667761428236009 0 0.23028958460003299 0.21722605276817589 0 0.23004842265500891 0.22510789597408529 0 0.23600953662288629 0.21919335904955881 0 0.23028958460003299 0.21722605276817589 0 0.2238052566082662 0.21932755024552961 0 0.23004842265500891 0.22510789597408529 0 0.24225137431164431 0.21539888874371069 0 0.2479454897291847 0.23924928271558671 0 0.25411629243233008 0.2245276064402377 0 0.23004842265500891 0.22510789597408529 0 0.23600953662288629 0.21919335904955881 0 0.2372702571708816 0.2274192063481868 0 0.24225137431164431 0.21539888874371069 0 0.2372702571708816 0.2274192063481868 0 0.2479454897291847 0.23924928271558671 0 0.24225137431164431 0.21539888874371069 0 0.2479454897291847 0.23924928271558671 0 0.24225137431164431 0.21539888874371069 0 0.23600953662288629 0.21919335904955881 0 0.2372702571708816 0.2274192063481868 0 0.2479454897291847 0.23924928271558671 0 0.2306079607156821 0.23667761428236009 0 0.230939882362065 0.25181918210426868 0 0.2372702571708816 0.2274192063481868 0 0.2479454897291847 0.23924928271558671 0 0.2306079607156821 0.23667761428236009 0 0.2306079607156821 0.23667761428236009 0 0.22214752469699811 0.24250596013778869 0 0.230939882362065 0.25181918210426868 0 0.22364003218049 0.23085377401489721 0 0.2306079607156821 0.23667761428236009 0 0.22214752469699811 0.24250596013778869 0 0.2169635223020531 0.23593843087244479 0 0.22364003218049 0.23085377401489721 0 0.22214752469699811 0.24250596013778869 0 0.22214752469699811 0.24250596013778869 0 0.21605607629655391 0.25069239513677849 0 0.230939882362065 0.25181918210426868 0 0.20813804793850699 0.1445380425606223 0 0.21551587805408129 0.15733899755383091 0 0.2251398205612144 0.14372536818920209 0 0.20813804793850699 0.1445380425606223 0 0.20016062299799969 0.15300978707184751 0 0.21551587805408129 0.15733899755383091 0 0.2082757183070354 0.12785548915276421 0 0.2251398205612144 0.14372536818920209 0 0.2191750547017268 0.11874132672411809 0 0.20813804793850699 0.1445380425606223 0 0.2082757183070354 0.12785548915276421 0 0.2251398205612144 0.14372536818920209 0 0.20813804793850699 0.1445380425606223 0 0.2082757183070354 0.12785548915276421 0 0.19576000289630641 0.13848405617530421 0 0.2082757183070354 0.12785548915276421 0 0.19576000289630641 0.13848405617530421 0 0.18991427691240989 0.1227431847461575 0 0.183265544588224 0.1409817010775371 0 0.19576000289630641 0.13848405617530421 0 0.18991427691240989 0.1227431847461575 0 0.19576000289630641 0.13848405617530421 0 0.20016062299799969 0.15300978707184751 0 0.18842626190150449 0.14890355527512761 0 0.183265544588224 0.1409817010775371 0 0.19576000289630641 0.13848405617530421 0 0.18842626190150449 0.14890355527512761 0 0.20813804793850699 0.1445380425606223 0 0.19576000289630641 0.13848405617530421 0 0.20016062299799969 0.15300978707184751 0 0.20016062299799969 0.15300978707184751 0 0.18842626190150449 0.14890355527512761 0 0.195212598586433 0.16284266265216449 0 0.18531028340678449 0.17428534721390321 0 0.18842626190150449 0.14890355527512761 0 0.195212598586433 0.16284266265216449 0 0.18531028340678449 0.17428534721390321 0 0.195212598586433 0.16284266265216449 0 0.1995936886863309 0.17341624933737049 0 0.195212598586433 0.16284266265216449 0 0.1995936886863309 0.17341624933737049 0 0.20395466850008079 0.16369205105687831 0 0.20016062299799969 0.15300978707184751 0 0.195212598586433 0.16284266265216449 0 0.20395466850008079 0.16369205105687831 0 0.18531028340678449 0.17428534721390321 0 0.20360857436372851 0.18513292878672749 0 0.18531028340678449 0.17428534721390321 0 0.1995936886863309 0.17341624933737049 0 0.20360857436372851 0.18513292878672749 0 0.18531028340678449 0.17428534721390321 0 0.18196072472732 0.2015698107083996 0 0.20360857436372851 0.18513292878672749 0 0.1995936886863309 0.17341624933737049 0 0.20360857436372851 0.18513292878672749 0 0.2165184748651991 0.17677790510984051 0 0.22190686532067219 0.19598051035955219 0 0.20360857436372851 0.18513292878672749 0 0.2165184748651991 0.17677790510984051 0 0.2165184748651991 0.17677790510984051 0 0.20395466850008079 0.16369205105687831 0 0.21551587805408129 0.15733899755383091 0 0.1995936886863309 0.17341624933737049 0 0.2165184748651991 0.17677790510984051 0 0.20395466850008079 0.16369205105687831 0 0.20016062299799969 0.15300978707184751 0 0.20395466850008079 0.16369205105687831 0 0.21551587805408129 0.15733899755383091 0 0.2165184748651991 0.17677790510984051 0 0.21551587805408129 0.15733899755383091 0 0.23110458642070161 0.1687094096542861 0 0.21551587805408129 0.15733899755383091 0 0.23110458642070161 0.1687094096542861 0 0.2251398205612144 0.14372536818920209 0 0.23110458642070161 0.1687094096542861 0 0.26351046238600229 0.15677608333082049 0 0.25500299124216341 0.17666048562343309 0 0.22190686532067219 0.19598051035955219 0 0.2165184748651991 0.17677790510984051 0 0.2310049465777034 0.18691580147062589 0 0.2370693522801911 0.19369345111936959 0 0.23110458642070161 0.1687094096542861 0 0.2370693522801911 0.19369345111936959 0 0.23110458642070161 0.1687094096542861 0 0.2310049465777034 0.18691580147062589 0 0.2165184748651991 0.17677790510984051 0 0.23110458642070161 0.1687094096542861 0 0.2310049465777034 0.18691580147062589 0 0.2370693522801911 0.19369345111936959 0 0.23110458642070161 0.1687094096542861 0 0.25500299124216341 0.17666048562343309 0 0.23110458642070161 0.1687094096542861 0 0.2461331472257009 0.1406368281012936 0 0.26351046238600229 0.15677608333082049 0 0.23110458642070161 0.1687094096542861 0 0.2251398205612144 0.14372536818920209 0 0.23110458642070161 0.1687094096542861 0 0.2461331472257009 0.1406368281012936 0 0.2251398205612144 0.14372536818920209 0 0.2251398205612144 0.14372536818920209 0 0.23511834808504009 0.12614723442919551 0 0.2191750547017268 0.11874132672411809 0 0.2251398205612144 0.14372536818920209 0 0.2191750547017268 0.11874132672411809 0 0.2461331472257009 0.1406368281012936 0 0.23511834808504009 0.12614723442919551 0 0.24783924017293521 0.1154554207338977 0 0.2461331472257009 0.1406368281012936 0 0.2251398205612144 0.14372536818920209 0 0.23511834808504009 0.12614723442919551 0 0.23511834808504009 0.12614723442919551 0 0.24783924017293521 0.1154554207338977 0 0.23891898485587321 0.1022312035488771 0 0.23891898485587321 0.1022312035488771 0 0.25866291501001981 0.08572108037363621 0 0.24783924017293521 0.1154554207338977 0 0.23891898485587321 0.1022312035488771 0 0.25262747288809573 0.1018910486738928 0 0.23891898485587321 0.1022312035488771 0 0.2191750547017268 0.11874132672411809 0 0.2138313580704061 0.096358698242330565 0 0.23511834808504009 0.12614723442919551 0 0.23891898485587321 0.1022312035488771 0 0.2191750547017268 0.11874132672411809 0 0.23891898485587321 0.1022312035488771 0 0.2191750547017268 0.11874132672411809 0 0.2082757183070354 0.12785548915276421 0 0.2191750547017268 0.11874132672411809 0 0.2034417217148064 0.11100050094047779 0 0.2082757183070354 0.12785548915276421 0 0.2191750547017268 0.11874132672411809 0 0.2191750547017268 0.11874132672411809 0 0.2034417217148064 0.11100050094047779 0 0.2138313580704061 0.096358698242330565 0 0.2191750547017268 0.11874132672411809 0 0.2138313580704061 0.096358698242330565 0 0.2034417217148064 0.11100050094047779 0 0.2138313580704061 0.096358698242330565 0 0.19935037059749189 0.091881076988367422 0 0.2034417217148064 0.11100050094047779 0 0.1879414552696371 0.1022015144821278 0 0.19935037059749189 0.091881076988367422 0 0.2034417217148064 0.11100050094047779 0 0.1879414552696371 0.1022015144821278 0 0.18991427691240989 0.1227431847461575 0 0.2082757183070354 0.12785548915276421 0 0.2034417217148064 0.11100050094047779 0 0.18991427691240989 0.1227431847461575 0 0.20848766143908509 0.073976069760543106 0 0.1850420157294366 0.060120343742594423 0 0.18597455745972599 0.08317123895130292 0 0.1879414552696371 0.1022015144821278 0 0.19935037059749189 0.091881076988367422 0 0.18597455745972599 0.08317123895130292 0 0.19935037059749189 0.091881076988367422 0 0.20848766143908509 0.073976069760543106 0 0.18597455745972599 0.08317123895130292 0 0.2138313580704061 0.096358698242330565 0 0.19935037059749189 0.091881076988367422 0 0.20848766143908509 0.073976069760543106 0 0.2138313580704061 0.096358698242330565 0 0.20848766143908509 0.073976069760543106 0 0.2138313580704061 0.096358698242330565 0 0.20848766143908509 0.073976069760543106 0 0.2327494177674892 0.079602148100783754 0 0.20848766143908509 0.073976069760543106 0 0.2031439648077642 0.051593441278755682 0 0.20848766143908509 0.073976069760543106 0 0.2327494177674892 0.079602148100783754 0 0.22639141485866951 0.057872473936210839 0 0.23891898485587321 0.1022312035488771 0 0.2138313580704061 0.096358698242330565 0 0.2327494177674892 0.079602148100783754 0 0.23891898485587321 0.1022312035488771 0 0.2327494177674892 0.079602148100783754 0 0.25866291501001981 0.08572108037363621 0 0.2327494177674892 0.079602148100783754 0 0.25020417237088122 0.061453362743104693 0 0.25866291501001981 0.08572108037363621 0 0.2327494177674892 0.079602148100783754 0 0.22639141485866951 0.057872473936210839 0 0.25020417237088122 0.061453362743104693 0 0.2417454297317429 0.037185645112573218 0 0.22639141485866951 0.057872473936210839 0 0.25020417237088122 0.061453362743104693 0 0.2417454297317429 0.037185645112573218 0 0.25020417237088122 0.061453362743104693 0 0.2417454297317429 0.037185645112573218 0 0.22639141485866951 0.057872473936210839 0 0.21871095263608731 0.040133446815246158 0 0.2417454297317429 0.037185645112573218 0 0.21554347763452439 0.021064370139504691 0 0.21871095263608731 0.040133446815246158 0 0.23328668709260661 0.01291792748204096 0 0.25252718089966042 0.0040840364167999913 0 0.2490121542277674 0.022861414807485339 0 0.23328668709260661 0.01291792748204096 0 0.25252718089966042 0.0040840364167999913 0 0.23328668709260661 0.01291792748204096 0 0.25252718089966042 0.0040840364167999913 0 0.2347284504925318 -0.014962685971270231 0 0.2417454297317429 0.037185645112573218 0 0.23328668709260661 0.01291792748204096 0 0.2417454297317429 0.037185645112573218 0 0.2490121542277674 0.022861414807485339 0 0.23328668709260661 0.01291792748204096 0 0.2417454297317429 0.037185645112573218 0 0.2490121542277674 0.022861414807485339 0 0.2558319181659906 0.03224134446296413 0 0.23328668709260661 0.01291792748204096 0 0.21554347763452439 0.021064370139504691 0 0.2417454297317429 0.037185645112573218 0 0.23328668709260661 0.01291792748204096 0 0.21554347763452439 0.021064370139504691 0 0.23328668709260661 0.01291792748204096 0 0.2182319648880206 0.0064963606874450597 0 0.22510820358900421 -0.01054574043864936 0 0.23328668709260661 0.01291792748204096 0 0.2182319648880206 0.0064963606874450597 0 0.21554347763452439 0.021064370139504691 0 0.23328668709260661 0.01291792748204096 0 0.22510820358900421 -0.01054574043864936 0 0.2182319648880206 0.0064963606874450597 0 0.2060662797783501 0.01231801998259398 0 0.20820189245955881 -0.002313028373043808 0 0.2060662797783501 0.01231801998259398 0 0.19773735889018049 0.0035370700800855361 0 0.20820189245955881 -0.002313028373043808 0 0.2182319648880206 0.0064963606874450597 0 0.2060662797783501 0.01231801998259398 0 0.21554347763452439 0.021064370139504691 0 0.21554347763452439 0.021064370139504691 0 0.1978002681764422 0.029210812796968449 0 0.21871095263608731 0.040133446815246158 0 0.2060662797783501 0.01231801998259398 0 0.21554347763452439 0.021064370139504691 0 0.1978002681764422 0.029210812796968449 0 0.21554347763452439 0.021064370139504691 0 0.1978002681764422 0.029210812796968449 0 0.2060662797783501 0.01231801998259398 0 0.1978002681764422 0.029210812796968449 0 0.19475212548321749 0.016443350463486332 0 0.1978002681764422 0.029210812796968449 0 0.19475212548321749 0.016443350463486332 0 0.18249343125083711 0.024319887137445938 0 0.1978002681764422 0.029210812796968449 0 0.19475212548321749 0.016443350463486332 0 0.2060662797783501 0.01231801998259398 0 0.19475212548321749 0.016443350463486332 0 0.19773735889018049 0.0035370700800855361 0 0.19475212548321749 0.016443350463486332 0 0.19773735889018049 0.0035370700800855361 0 0.18552665683133959 0.001467737439133264 0 0.22639141485866951 0.057872473936210839 0 0.2031439648077642 0.051593441278755682 0 0.21871095263608731 0.040133446815246158 0 0.20848766143908509 0.073976069760543106 0 0.22639141485866951 0.057872473936210839 0 0.2031439648077642 0.051593441278755682 0 0.1978002681764422 0.029210812796968449 0 0.2031439648077642 0.051593441278755682 0 0.21871095263608731 0.040133446815246158 0 0.1978002681764422 0.029210812796968449 0 0.2031439648077642 0.051593441278755682 0 0.1900975943259838 0.045219321001513477 0 0.1978002681764422 0.029210812796968449 0 0.2031439648077642 0.051593441278755682 0 0.20848766143908509 0.073976069760543106 0 0.2031439648077642 0.051593441278755682 0 0.1850420157294366 0.060120343742594423 0 0.2031439648077642 0.051593441278755682 0 0.1900975943259838 0.045219321001513477 0 0.1850420157294366 0.060120343742594423 0 0.1900975943259838 0.045219321001513477 0 0.1850420157294366 0.060120343742594423 0 0.1744041285902922 0.039952686187735537 0 0.1850420157294366 0.060120343742594423 0 0.1744041285902922 0.039952686187735537 0 0.1643073527787165 0.05650314340922595 0 0.1978002681764422 0.029210812796968449 0 0.1744041285902922 0.039952686187735537 0 0.1978002681764422 0.029210812796968449 0 0.1900975943259838 0.045219321001513477 0 0.1744041285902922 0.039952686187735537 0 0.1744041285902922 0.039952686187735537 0 0.15885585549473791 0.041452250998432041 0 0.1643073527787165 0.05650314340922595 0 0.1744041285902922 0.039952686187735537 0 0.15885585549473791 0.041452250998432041 0 0.1654342654360679 0.02322270571834403 0 0.15885585549473791 0.041452250998432041 0 0.1643073527787165 0.05650314340922595 0 0.14632609152906009 0.057347692236013617 0 0.18007636856816561 0.01276988052069554 0 0.16972956067406469 0.0081443476722657376 0 0.17543905916404101 -0.0012346199626770661 0 0.18552665683133959 0.001467737439133264 0 0.18007636856816561 0.01276988052069554 0 0.17543905916404101 -0.0012346199626770661 0 0.19475212548321749 0.016443350463486332 0 0.18552665683133959 0.001467737439133264 0 0.18007636856816561 0.01276988052069554 0 0.1744041285902922 0.039952686187735537 0 0.18249343125083711 0.024319887137445938 0 0.1654342654360679 0.02322270571834403 0 0.1978002681764422 0.029210812796968449 0 0.1744041285902922 0.039952686187735537 0 0.18249343125083711 0.024319887137445938 0 0.18007636856816561 0.01276988052069554 0 0.18249343125083711 0.024319887137445938 0 0.1654342654360679 0.02322270571834403 0 0.19475212548321749 0.016443350463486332 0 0.18007636856816561 0.01276988052069554 0 0.18249343125083711 0.024319887137445938 0 0.1654342654360679 0.02322270571834403 0 0.160059189154515 0.0093042787933961379 0 0.15503999210048 0.017253518912195259 0 0.18007636856816561 0.01276988052069554 0 0.1654342654360679 0.02322270571834403 0 0.16972956067406469 0.0081443476722657376 0 0.1654342654360679 0.02322270571834403 0 0.16972956067406469 0.0081443476722657376 0 0.160059189154515 0.0093042787933961379 0 0.160059189154515 0.0093042787933961379 0 0.15535990932759591 -0.0021715904441531519 0 0.16560174991193791 -0.0020902916207684789 0 0.16972956067406469 0.0081443476722657376 0 0.17543905916404101 -0.0012346199626770661 0 0.16560174991193791 -0.0020902916207684789 0 0.16972956067406469 0.0081443476722657376 0 0.160059189154515 0.0093042787933961379 0 0.16560174991193791 -0.0020902916207684789 0 0.14128878675004511 0.0031223626456684389 0 0.15062296880227649 0.009707815203381473 0 0.1438074391395526 0.030235027440841031 0 0.14128878675004511 0.0031223626456684389 0 0.15062296880227649 0.009707815203381473 0 0.1491096304618871 -0.00053725345899157057 0 0.15062296880227649 0.009707815203381473 0 0.1491096304618871 -0.00053725345899157057 0 0.15535990932759591 -0.0021715904441531519 0 0.160059189154515 0.0093042787933961379 0 0.15062296880227649 0.009707815203381473 0 0.15535990932759591 -0.0021715904441531519 0 0.160059189154515 0.0093042787933961379 0 0.15062296880227649 0.009707815203381473 0 0.15503999210048 0.017253518912195259 0 0.14128878675004511 0.0031223626456684389 0 0.1438074391395526 0.030235027440841031 0 0.1654342654360679 0.02322270571834403 0 0.15503999210048 0.017253518912195259 0 0.1438074391395526 0.030235027440841031 0 0.15062296880227649 0.009707815203381473 0 0.15503999210048 0.017253518912195259 0 0.1438074391395526 0.030235027440841031 0 0.14128878675004511 0.0031223626456684389 0 0.1438074391395526 0.030235027440841031 0 0.13457604982109159 0.018607235106686021 0 0.1215231945613777 0.024030587716514729 0 0.13457604982109159 0.018607235106686021 0 0.13534502576450419 0.005611493237825893 0 0.1438074391395526 0.030235027440841031 0 0.13010047120459761 0.03113009059246671 0 0.13457604982109159 0.018607235106686021 0 0.1215231945613777 0.024030587716514729 0 0.13010047120459761 0.03113009059246671 0 0.13457604982109159 0.018607235106686021 0 0.1215231945613777 0.024030587716514729 0 0.13534502576450419 0.005611493237825893 0 0.1215231945613777 0.024030587716514729 0 0.1214144444442069 0.009554123459867267 0 0.13534502576450419 0.005611493237825893 0 0.14128878675004511 0.0031223626456684389 0 0.13457604982109159 0.018607235106686021 0 0.13534502576450419 0.005611493237825893 0 0.1214144444442069 0.009554123459867267 0 0.12615006859766659 0.001368105735046596 0 0.13534502576450419 0.005611493237825893 0 0.1643073527787165 0.05650314340922595 0 0.14632609152906009 0.057347692236013617 0 0.15713114160000219 0.067759512833817939 0 0.15885585549473791 0.041452250998432041 0 0.1438074391395526 0.030235027440841031 0 0.14632609152906009 0.057347692236013617 0 0.15885585549473791 0.041452250998432041 0 0.1654342654360679 0.02322270571834403 0 0.1438074391395526 0.030235027440841031 0 0.1438074391395526 0.030235027440841031 0 0.14632609152906009 0.057347692236013617 0 0.1438074391395526 0.030235027440841031 0 0.14632609152906009 0.057347692236013617 0 0.1315089981119569 0.044765471809418887 0 0.1438074391395526 0.030235027440841031 0 0.13010047120459761 0.03113009059246671 0 0.1315089981119569 0.044765471809418887 0 0.11908667438900911 0.038012130888872862 0 0.13010047120459761 0.03113009059246671 0 0.1315089981119569 0.044765471809418887 0 0.1159059598654327 0.053892045558380633 0 0.1315089981119569 0.044765471809418887 0 0.1299250325243464 0.06362079478078464 0 0.14632609152906009 0.057347692236013617 0 0.1315089981119569 0.044765471809418887 0 0.1299250325243464 0.06362079478078464 0 0.14632609152906009 0.057347692236013617 0 0.1299250325243464 0.06362079478078464 0 0.14357274543868001 0.075803369567316647 0 0.1299250325243464 0.06362079478078464 0 0.14357274543868001 0.075803369567316647 0 0.1292862498336699 0.079380086658197568 0 0.14632609152906009 0.057347692236013617 0 0.14357274543868001 0.075803369567316647 0 0.1488447439185677 0.084460357031186317 0 0.14632609152906009 0.057347692236013617 0 0.1488447439185677 0.084460357031186317 0 0.14632609152906009 0.057347692236013617 0 0.1488447439185677 0.084460357031186317 0 0.15713114160000219 0.067759512833817939 0 0.14943930344950959 0.090860642092479793 0 0.1488447439185677 0.084460357031186317 0 0.15160639125222769 0.088995173654963178 0 0.14943930344950959 0.090860642092479793 0 0.1488447439185677 0.084460357031186317 0 0.15160639125222769 0.088995173654963178 0 0.1488447439185677 0.084460357031186317 0 0.15160639125222769 0.088995173654963178 0 0.14943930344950959 0.090860642092479793 0 0.14357274543868001 0.075803369567316647 0 0.1488447439185677 0.084460357031186317 0 0.14357274543868001 0.075803369567316647 0 0.1488447439185677 0.084460357031186317 0 0.13993048209821821 0.08333028138980679 0 0.1488447439185677 0.084460357031186317 0 0.1431635080044657 0.088215878493262109 0 0.13993048209821821 0.08333028138980679 0 0.14943930344950959 0.090860642092479793 0 0.1431635080044657 0.088215878493262109 0 0.13643245265153839 0.1020571748793232 0 0.14943930344950959 0.090860642092479793 0 0.1488447439185677 0.084460357031186317 0 0.1431635080044657 0.088215878493262109 0 0.1431635080044657 0.088215878493262109 0 0.1347851632957078 0.088791715199071322 0 0.13993048209821821 0.08333028138980679 0 0.1431635080044657 0.088215878493262109 0 0.1347851632957078 0.088791715199071322 0 0.13643245265153839 0.1020571748793232 0 0.14357274543868001 0.075803369567316647 0 0.13993048209821821 0.08333028138980679 0 0.1292862498336699 0.079380086658197568 0 0.1347851632957078 0.088791715199071322 0 0.13993048209821821 0.08333028138980679 0 0.1292862498336699 0.079380086658197568 0 0.12460576341235401 0.093994698552283776 0 0.1347851632957078 0.088791715199071322 0 0.1292862498336699 0.079380086658197568 0 0.12460576341235401 0.093994698552283776 0 0.1347851632957078 0.088791715199071322 0 0.13643245265153839 0.1020571748793232 0 0.1234256018535666 0.1132537076661659 0 0.12460576341235401 0.093994698552283776 0 0.13643245265153839 0.1020571748793232 0 0.1234256018535666 0.1132537076661659 0 0.13643245265153839 0.1020571748793232 0 0.13717696001319801 0.1122819481209871 0 0.1234256018535666 0.1132537076661659 0 0.13643245265153839 0.1020571748793232 0 0.13643245265153839 0.1020571748793232 0 0.13717696001319801 0.1122819481209871 0 0.14132887979497299 0.1057283530477407 0 0.1234256018535666 0.1132537076661659 0 0.1245964680193976 0.13487273291573459 0 0.13537260010573521 0.1246186999755807 0 0.1234256018535666 0.1132537076661659 0 0.13537260010573521 0.1246186999755807 0 0.1234256018535666 0.1132537076661659 0 0.13717696001319801 0.1122819481209871 0 0.13537260010573521 0.1246186999755807 0 0.13717696001319801 0.1122819481209871 0 0.13537260010573521 0.1246186999755807 0 0.14169615193610199 0.1182321081246494 0 0.15265266776209219 0.12545170747125689 0 0.1510459856057999 0.10815617478186849 0 0.15265266776209219 0.12545170747125689 0 0.13537260010573521 0.1246186999755807 0 0.14169615193610199 0.1182321081246494 0 0.15265266776209219 0.12545170747125689 0 0.1510459856057999 0.10815617478186849 0 0.15808392327183171 0.1162247733570969 0 0.15265266776209219 0.12545170747125689 0 0.1450673413762425 0.1099007850016155 0 0.1510459856057999 0.10815617478186849 0 0.15265266776209219 0.12545170747125689 0 0.14169615193610199 0.1182321081246494 0 0.1450673413762425 0.1099007850016155 0 0.13717696001319801 0.1122819481209871 0 0.14169615193610199 0.1182321081246494 0 0.1450673413762425 0.1099007850016155 0 0.15265266776209219 0.12545170747125689 0 0.1450673413762425 0.1099007850016155 0 0.14943930344950959 0.090860642092479793 0 0.14590760061108321 0.09991111576238812 0 0.1510459856057999 0.10815617478186849 0 0.15160639125222769 0.088995173654963178 0 0.14943930344950959 0.090860642092479793 0 0.1621594423642263 0.1063240161291545 0 0.14943930344950959 0.090860642092479793 0 0.1510459856057999 0.10815617478186849 0 0.14943930344950959 0.090860642092479793 0 0.1510459856057999 0.10815617478186849 0 0.1621594423642263 0.1063240161291545 0 0.14943930344950959 0.090860642092479793 0 0.13643245265153839 0.1020571748793232 0 0.14590760061108321 0.09991111576238812 0 0.14943930344950959 0.090860642092479793 0 0.13643245265153839 0.1020571748793232 0 0.14590760061108321 0.09991111576238812 0 0.14577213493728219 0.105899322156115 0 0.1510459856057999 0.10815617478186849 0 0.14590760061108321 0.09991111576238812 0 0.14132887979497299 0.1057283530477407 0 0.14577213493728219 0.105899322156115 0 0.13717696001319801 0.1122819481209871 0 0.1450673413762425 0.1099007850016155 0 0.14132887979497299 0.1057283530477407 0 0.13643245265153839 0.1020571748793232 0 0.14590760061108321 0.09991111576238812 0 0.14132887979497299 0.1057283530477407 0 0.1450673413762425 0.1099007850016155 0 0.14132887979497299 0.1057283530477407 0 0.14577213493728219 0.105899322156115 0 0.1450673413762425 0.1099007850016155 0 0.14577213493728219 0.105899322156115 0 0.1510459856057999 0.10815617478186849 0 0.15160639125222769 0.088995173654963178 0 0.1621594423642263 0.1063240161291545 0 0.1709961293122424 0.093135528084706903 0 0.15160639125222769 0.088995173654963178 0 0.1621594423642263 0.1063240161291545 0 0.1621594423642263 0.1063240161291545 0 0.17600427533636229 0.10977044394052191 0 0.1709961293122424 0.093135528084706903 0 0.1621594423642263 0.1063240161291545 0 0.17271249347622511 0.12365285860334579 0 0.1621594423642263 0.1063240161291545 0 0.15808392327183171 0.1162247733570969 0 0.17271249347622511 0.12365285860334579 0 0.1621594423642263 0.1063240161291545 0 0.17271249347622511 0.12365285860334579 0 0.17600427533636229 0.10977044394052191 0 0.15265266776209219 0.12545170747125689 0 0.15808392327183171 0.1162247733570969 0 0.17271249347622511 0.12365285860334579 0 0.1510459856057999 0.10815617478186849 0 0.1621594423642263 0.1063240161291545 0 0.15808392327183171 0.1162247733570969 0 0.1879414552696371 0.1022015144821278 0 0.18991427691240989 0.1227431847461575 0 0.17600427533636229 0.10977044394052191 0 0.18991427691240989 0.1227431847461575 0 0.17271249347622511 0.12365285860334579 0 0.17600427533636229 0.10977044394052191 0 0.1879414552696371 0.1022015144821278 0 0.17600427533636229 0.10977044394052191 0 0.1709961293122424 0.093135528084706903 0 0.1879414552696371 0.1022015144821278 0 0.18597455745972599 0.08317123895130292 0 0.1709961293122424 0.093135528084706903 0 0.18597455745972599 0.08317123895130292 0 0.1689518513943617 0.074063887350477003 0 0.1709961293122424 0.093135528084706903 0 0.1850420157294366 0.060120343742594423 0 0.1643073527787165 0.05650314340922595 0 0.1689518513943617 0.074063887350477003 0 0.1850420157294366 0.060120343742594423 0 0.18597455745972599 0.08317123895130292 0 0.1689518513943617 0.074063887350477003 0 0.1488447439185677 0.084460357031186317 0 0.1689518513943617 0.074063887350477003 0 0.15713114160000219 0.067759512833817939 0 0.1643073527787165 0.05650314340922595 0 0.1689518513943617 0.074063887350477003 0 0.15713114160000219 0.067759512833817939 0 0.15160639125222769 0.088995173654963178 0 0.1689518513943617 0.074063887350477003 0 0.15160639125222769 0.088995173654963178 0 0.1689518513943617 0.074063887350477003 0 0.1709961293122424 0.093135528084706903 0 0.15160639125222769 0.088995173654963178 0 0.1488447439185677 0.084460357031186317 0 0.1689518513943617 0.074063887350477003 0 0.1092868658787547 0.50000000000000067 0 0.084644389524285157 0.5 0 0.08888531061872075 0.4942758061742496 0 0.1003058804064156 0.47843560286453618 0 0.1092868658787547 0.50000000000000067 0 0.08888531061872075 0.4942758061742496 0 0.1092868658787547 0.50000000000000067 0 0.08888531061872075 0.4942758061742496 0 0.1003058804064156 0.47843560286453618 0 0.1092868658787547 0.50000000000000067 0 0.1196485737237418 0.48239472081715151 0 0.1092868658787547 0.50000000000000067 0 0.1196485737237418 0.48239472081715151 0 0.12808841886351599 0.49999999999999889 0 0.1003058804064156 0.47843560286453618 0 0.1196485737237418 0.48239472081715151 0 0.11383376748065489 0.46502214040079959 0 0.1196485737237418 0.48239472081715151 0 0.11383376748065489 0.46502214040079959 0 0.128337320719766 0.46932391149759151 0 0.11383376748065489 0.46502214040079959 0 0.1135708252652337 0.45174717294014372 0 0.12974778145820071 0.45309565738984442 0 0.11383376748065489 0.46502214040079959 0 0.12974778145820071 0.45309565738984442 0 0.128337320719766 0.46932391149759151 0 0.1135708252652337 0.45174717294014372 0 0.11428965185400999 0.43546695487559922 0 0.12974778145820071 0.45309565738984442 0 0.096412100268069414 0.45340393909433169 0 0.087422148529536295 0.43489197649096478 0 0.11428965185400999 0.43546695487559922 0 0.1135708252652337 0.45174717294014372 0 0.096412100268069414 0.45340393909433169 0 0.11428965185400999 0.43546695487559922 0 0.1003058804064156 0.47843560286453618 0 0.11383376748065489 0.46502214040079959 0 0.096412100268069414 0.45340393909433169 0 0.11383376748065489 0.46502214040079959 0 0.1135708252652337 0.45174717294014372 0 0.096412100268069414 0.45340393909433169 0 0.08421564104933614 0.45354337389987548 0 0.069649711202233802 0.45654756256177847 0 0.083378604197504924 0.46933001745242747 0 0.096412100268069414 0.45340393909433169 0 0.08421564104933614 0.45354337389987548 0 0.083378604197504924 0.46933001745242747 0 0.1003058804064156 0.47843560286453618 0 0.096412100268069414 0.45340393909433169 0 0.083378604197504924 0.46933001745242747 0 0.096412100268069414 0.45340393909433169 0 0.08421564104933614 0.45354337389987548 0 0.087422148529536295 0.43489197649096478 0 0.08421564104933614 0.45354337389987548 0 0.069649711202233802 0.45654756256177847 0 0.087422148529536295 0.43489197649096478 0 0.069649711202233802 0.45654756256177847 0 0.087422148529536295 0.43489197649096478 0 0.069649711202233802 0.45654756256177847 0 0.063304514330465453 0.43437584671941321 0 0.087422148529536295 0.43489197649096478 0 0.069649711202233802 0.45654756256177847 0 0.054907484350884293 0.44282163070551062 0 0.063304514330465453 0.43437584671941321 0 0.069649711202233802 0.45654756256177847 0 0.071206437430894928 0.47527960346382447 0 0.058865955650443391 0.46968749054226172 0 0.069649711202233802 0.45654756256177847 0 0.071206437430894928 0.47527960346382447 0 0.083378604197504924 0.46933001745242747 0 0.069649711202233802 0.45654756256177847 0 0.083378604197504924 0.46933001745242747 0 0.069649711202233802 0.45654756256177847 0 0.058865955650443391 0.46968749054226172 0 0.071206437430894928 0.47527960346382447 0 0.068483755358686907 0.48855161234849798 0 0.058865955650443391 0.46968749054226172 0 0.071206437430894928 0.47527960346382447 0 0.083378604197504924 0.46933001745242747 0 0.08888531061872075 0.4942758061742496 0 0.1003058804064156 0.47843560286453618 0 0.083378604197504924 0.46933001745242747 0 0.08888531061872075 0.4942758061742496 0 0.084644389524285157 0.5 0 0.08888531061872075 0.4942758061742496 0 0.068483755358686907 0.48855161234849798 0 0.08888531061872075 0.4942758061742496 0 0.068483755358686907 0.48855161234849798 0 0.084644389524285157 0.5 0 0.068483755358686907 0.48855161234849798 0 0.060001913169815728 0.5 0 0.071206437430894928 0.47527960346382447 0 0.08888531061872075 0.4942758061742496 0 0.068483755358686907 0.48855161234849798 0 0.060001913169815728 0.5 0 0.048082200098653403 0.48282741852274508 0 0.034406040756197707 0.49949171955835209 0 0.068483755358686907 0.48855161234849798 0 0.048082200098653403 0.48282741852274508 0 0.068483755358686907 0.48855161234849798 0 0.060001913169815728 0.5 0 0.048082200098653403 0.48282741852274508 0 0.068483755358686907 0.48855161234849798 0 0.058865955650443391 0.46968749054226172 0 0.048082200098653403 0.48282741852274508 0 0.058865955650443391 0.46968749054226172 0 0.048082200098653403 0.48282741852274508 0 0.058865955650443391 0.46968749054226172 0 0.048082200098653403 0.48282741852274508 0 0.045969055388882352 0.46970193750967709 0 0.048082200098653403 0.48282741852274508 0 0.024368646611703269 0.47617395633682452 0 0.045969055388882352 0.46970193750967709 0 0.024368646611703269 0.47617395633682452 0 0.035128283688647538 0.46271567141004227 0 0.048082200098653403 0.48282741852274508 0 0.045969055388882352 0.46970193750967709 0 0.024368646611703269 0.47617395633682452 0 0.048082200098653403 0.48282741852274508 0 0.034406040756197707 0.49949171955835209 0 0.048082200098653403 0.48282741852274508 0 0.034406040756197707 0.49949171955835209 0 0.024368646611703269 0.47617395633682452 0 0.034406040756197707 0.49949171955835209 0 0.014111527104861681 0.48867218211352859 0 0.034406040756197707 0.49949171955835209 0 0.014111527104861681 0.48867218211352859 0 0.0043028311702422717 0.5 0 0.034406040756197707 0.49949171955835209 0 0.024368646611703269 0.47617395633682452 0 0.014111527104861681 0.48867218211352859 0 0.024368646611703269 0.47617395633682452 0 0.01316331912027404 0.47025266829667473 0 0.035128283688647538 0.46271567141004227 0 -0.0061829865464744227 0.47785264466870542 0 0.014111527104861681 0.48867218211352859 0 0.024368646611703269 0.47617395633682452 0 0.00065509312475338366 0.46952049415090258 0 0.024368646611703269 0.47617395633682452 0 0.01316331912027404 0.47025266829667473 0 0.00065509312475338366 0.46952049415090258 0 0.024368646611703269 0.47617395633682452 0 0.00065509312475338366 0.46952049415090258 0 0.014111527104861681 0.48867218211352859 0 -0.0061829865464744227 0.47785264466870542 0 0.00065509312475338366 0.46952049415090258 0 0.014111527104861681 0.48867218211352859 0 -0.0061829865464744227 0.47785264466870542 0 0.014111527104861681 0.48867218211352859 0 0.0043028311702422717 0.5 0 -0.003133518376922253 0.43347745745086319 0 0.0091819386731113607 0.44717551899794439 0 0.01836466084427393 0.43511661242996402 0 -0.0076613186398761038 0.4535755754222125 0 0.0091819386731113607 0.44717551899794439 0 0.0089030399092750283 0.45850743125556109 0 -0.0076613186398761038 0.4535755754222125 0 0.00065509312475338366 0.46952049415090258 0 0.0089030399092750283 0.45850743125556109 0 0.01316331912027404 0.47025266829667473 0 0.00065509312475338366 0.46952049415090258 0 0.0089030399092750283 0.45850743125556109 0 0.01316331912027404 0.47025266829667473 0 0.029176167268112459 0.4520128994100715 0 0.01316331912027404 0.47025266829667473 0 0.029176167268112459 0.4520128994100715 0 0.035128283688647538 0.46271567141004227 0 0.01316331912027404 0.47025266829667473 0 0.0089030399092750283 0.45850743125556109 0 0.029176167268112459 0.4520128994100715 0 0.029176167268112459 0.4520128994100715 0 0.030261278984812401 0.43474131666669852 0 0.01836466084427393 0.43511661242996402 0 0.0091819386731113607 0.44717551899794439 0 0.029176167268112459 0.4520128994100715 0 0.01836466084427393 0.43511661242996402 0 0.0091819386731113607 0.44717551899794439 0 0.0089030399092750283 0.45850743125556109 0 0.029176167268112459 0.4520128994100715 0 0.035128283688647538 0.46271567141004227 0 0.054907484350884293 0.44282163070551062 0 0.029176167268112459 0.4520128994100715 0 0.045189015415950967 0.43377313052346839 0 0.029176167268112459 0.4520128994100715 0 0.045189015415950967 0.43377313052346839 0 0.030261278984812401 0.43474131666669852 0 0.029176167268112459 0.4520128994100715 0 0.041100237680899203 0.44783083301227278 0 0.045189015415950967 0.43377313052346839 0 0.041100237680899203 0.44783083301227278 0 0.035128283688647538 0.46271567141004227 0 0.054907484350884293 0.44282163070551062 0 0.045969055388882352 0.46970193750967709 0 0.035128283688647538 0.46271567141004227 0 0.052904098056218408 0.46029485854585378 0 0.029176167268112459 0.4520128994100715 0 0.041100237680899203 0.44783083301227278 0 0.035128283688647538 0.46271567141004227 0 0.035128283688647538 0.46271567141004227 0 0.052904098056218408 0.46029485854585378 0 0.054907484350884293 0.44282163070551062 0 0.069649711202233802 0.45654756256177847 0 0.058865955650443391 0.46968749054226172 0 0.052904098056218408 0.46029485854585378 0 0.069649711202233802 0.45654756256177847 0 0.052904098056218408 0.46029485854585378 0 0.054907484350884293 0.44282163070551062 0 0.058865955650443391 0.46968749054226172 0 0.045969055388882352 0.46970193750967709 0 0.052904098056218408 0.46029485854585378 0 0.054907484350884293 0.44282163070551062 0 0.045189015415950967 0.43377313052346839 0 0.041100237680899203 0.44783083301227278 0 0.054907484350884293 0.44282163070551062 0 0.045189015415950967 0.43377313052346839 0 0.069649711202233802 0.45654756256177847 0 0.054907484350884293 0.44282163070551062 0 0.054907484350884293 0.44282163070551062 0 0.063304514330465453 0.43437584671941321 0 0.054907484350884293 0.44282163070551062 0 0.061112587243262399 0.43432893835280351 0 0.063304514330465453 0.43437584671941321 0 0.061112587243262399 0.43432893835280351 0 0.063304514330465453 0.43437584671941321 0 0.061112587243262399 0.43432893835280351 0 0.055714138020277623 0.42178426995140278 0 0.061112587243262399 0.43432893835280351 0 0.055714138020277623 0.42178426995140278 0 0.063502158715745854 0.4256731237565709 0 0.061112587243262399 0.43432893835280351 0 0.052457587949755288 0.43091176157768613 0 0.055714138020277623 0.42178426995140278 0 0.055714138020277623 0.42178426995140278 0 0.045189015415950967 0.43377313052346839 0 0.052457587949755288 0.43091176157768613 0 0.055714138020277623 0.42178426995140278 0 0.045189015415950967 0.43377313052346839 0 0.055714138020277623 0.42178426995140278 0 0.042446457557870639 0.41982182676198349 0 0.045189015415950967 0.43377313052346839 0 0.061112587243262399 0.43432893835280351 0 0.047808543699309189 0.43404422498090539 0 0.054907484350884293 0.44282163070551062 0 0.061112587243262399 0.43432893835280351 0 0.047808543699309189 0.43404422498090539 0 0.061112587243262399 0.43432893835280351 0 0.047808543699309189 0.43404422498090539 0 0.052457587949755288 0.43091176157768613 0 0.054907484350884293 0.44282163070551062 0 0.047808543699309189 0.43404422498090539 0 0.045189015415950967 0.43377313052346839 0 0.047808543699309189 0.43404422498090539 0 0.052457587949755288 0.43091176157768613 0 0.045189015415950967 0.43377313052346839 0 0.055714138020277623 0.42178426995140278 0 0.046093481242395228 0.39995802121678059 0 0.068860504699531894 0.40680962660786318 0 0.055714138020277623 0.42178426995140278 0 0.042446457557870639 0.41982182676198349 0 0.046093481242395228 0.39995802121678059 0 0.055714138020277623 0.42178426995140278 0 0.046093481242395228 0.39995802121678059 0 0.055714138020277623 0.42178426995140278 0 0.068860504699531894 0.40680962660786318 0 0.042446457557870639 0.41982182676198349 0 0.02831527241091121 0.41806262430329089 0 0.046093481242395228 0.39995802121678059 0 0.045189015415950967 0.43377313052346839 0 0.030261278984812401 0.43474131666669852 0 0.02831527241091121 0.41806262430329089 0 0.042446457557870639 0.41982182676198349 0 0.045189015415950967 0.43377313052346839 0 0.02831527241091121 0.41806262430329089 0 0.045189015415950967 0.43377313052346839 0 0.02831527241091121 0.41806262430329089 0 0.030261278984812401 0.43474131666669852 0 0.01836466084427393 0.43511661242996402 0 0.02831527241091121 0.41806262430329089 0 0.01836466084427393 0.43511661242996402 0 0.02831527241091121 0.41806262430329089 0 0.0094722548011107362 0.42047175168937267 0 0.02831527241091121 0.41806262430329089 0 0.0094722548011107362 0.42047175168937267 0 0.011441529405870321 0.40235211808311427 0 0.02831527241091121 0.41806262430329089 0 0.011441529405870321 0.40235211808311427 0 -0.003133518376922253 0.43347745745086319 0 -0.005464378443835083 0.41069403245826291 0 0.0094722548011107362 0.42047175168937267 0 -0.005464378443835083 0.41069403245826291 0 0.0094722548011107362 0.42047175168937267 0 0.011441529405870321 0.40235211808311427 0 -0.003133518376922253 0.43347745745086319 0 0.01836466084427393 0.43511661242996402 0 0.0094722548011107362 0.42047175168937267 0 -0.005432213599170517 0.38664161186293788 0 0.011441529405870321 0.40235211808311427 0 0.016765618376059058 0.3741899083860859 0 -0.005432213599170517 0.38664161186293788 0 -0.005464378443835083 0.41069403245826291 0 0.011441529405870321 0.40235211808311427 0 -0.005432213599170517 0.38664161186293788 0 0.011441529405870321 0.40235211808311427 0 0.02831527241091121 0.41806262430329089 0 0.011441529405870321 0.40235211808311427 0 0.028325426086826599 0.39475645284605898 0 0.028325426086826599 0.39475645284605898 0 0.036472824464513873 0.37813177248215768 0 0.016765618376059058 0.3741899083860859 0 0.011441529405870321 0.40235211808311427 0 0.028325426086826599 0.39475645284605898 0 0.016765618376059058 0.3741899083860859 0 0.036472824464513873 0.37813177248215768 0 0.046093481242395228 0.39995802121678059 0 0.036472824464513873 0.37813177248215768 0 0.046093481242395228 0.39995802121678059 0 0.054857725695230598 0.38997492565442171 0 0.036472824464513873 0.37813177248215768 0 0.054857725695230598 0.38997492565442171 0 0.040854946690931787 0.37314022470097807 0 0.028325426086826599 0.39475645284605898 0 0.036472824464513873 0.37813177248215768 0 0.046093481242395228 0.39995802121678059 0 0.02831527241091121 0.41806262430329089 0 0.028325426086826599 0.39475645284605898 0 0.046093481242395228 0.39995802121678059 0 0.054857725695230598 0.38997492565442171 0 0.068860504699531894 0.40680962660786318 0 0.046093481242395228 0.39995802121678059 0 0.054857725695230598 0.38997492565442171 0 0.068860504699531894 0.40680962660786318 0 0.054857725695230598 0.38997492565442171 0 0.066933581011160398 0.37165334218560309 0 0.040854946690931787 0.37314022470097807 0 0.054857725695230598 0.38997492565442171 0 0.040854946690931787 0.37314022470097807 0 0.054857725695230598 0.38997492565442171 0 0.069720641187398763 0.38829585876540063 0 0.066933581011160398 0.37165334218560309 0 0.069720641187398763 0.38829585876540063 0 0.088230753343674639 0.38474554061371219 0 0.066933581011160398 0.37165334218560309 0 0.088230753343674639 0.38474554061371219 0 0.068860504699531894 0.40680962660786318 0 0.088230753343674639 0.38474554061371219 0 0.083151761443434544 0.40504533262900988 0 0.068860504699531894 0.40680962660786318 0 0.088230753343674639 0.38474554061371219 0 0.083151761443434544 0.40504533262900988 0 0.096857309589334736 0.40062824053302082 0 0.069720641187398763 0.38829585876540063 0 0.088230753343674639 0.38474554061371219 0 0.068860504699531894 0.40680962660786318 0 0.054857725695230598 0.38997492565442171 0 0.069720641187398763 0.38829585876540063 0 0.068860504699531894 0.40680962660786318 0 0.068860504699531894 0.40680962660786318 0 0.063502158715745854 0.4256731237565709 0 0.078814088160241616 0.4187762227331624 0 0.055714138020277623 0.42178426995140278 0 0.068860504699531894 0.40680962660786318 0 0.063502158715745854 0.4256731237565709 0 0.068860504699531894 0.40680962660786318 0 0.078814088160241616 0.4187762227331624 0 0.083151761443434544 0.40504533262900988 0 0.068860504699531894 0.40680962660786318 0 0.078814088160241616 0.4187762227331624 0 0.063304514330465453 0.43437584671941321 0 0.087422148529536295 0.43489197649096478 0 0.063304514330465453 0.43437584671941321 0 0.087422148529536295 0.43489197649096478 0 0.078814088160241616 0.4187762227331624 0 0.061112587243262399 0.43432893835280351 0 0.063304514330465453 0.43437584671941321 0 0.063502158715745854 0.4256731237565709 0 0.063304514330465453 0.43437584671941321 0 0.063502158715745854 0.4256731237565709 0 0.078814088160241616 0.4187762227331624 0 0.063304514330465453 0.43437584671941321 0 0.078814088160241616 0.4187762227331624 0 0.087422148529536295 0.43489197649096478 0 0.078814088160241616 0.4187762227331624 0 0.1015489964801007 0.41767851465291089 0 0.078814088160241616 0.4187762227331624 0 0.1015489964801007 0.41767851465291089 0 0.096857309589334736 0.40062824053302082 0 0.078814088160241616 0.4187762227331624 0 0.096857309589334736 0.40062824053302082 0 0.083151761443434544 0.40504533262900988 0 0.078814088160241616 0.4187762227331624 0 0.096857309589334736 0.40062824053302082 0 0.1015489964801007 0.41767851465291089 0 0.1146017208497466 0.40360046857105669 0 0.096857309589334736 0.40062824053302082 0 0.087422148529536295 0.43489197649096478 0 0.1015489964801007 0.41767851465291089 0 0.087422148529536295 0.43489197649096478 0 0.1015489964801007 0.41767851465291089 0 0.11428965185400999 0.43546695487559922 0 0.087422148529536295 0.43489197649096478 0 0.11428965185400999 0.43546695487559922 0 0.1015489964801007 0.41767851465291089 0 0.11428965185400999 0.43546695487559922 0 0.11661155782873241 0.41867291588196309 0 0.11428965185400999 0.43546695487559922 0 0.11661155782873241 0.41867291588196309 0 0.12851778219744209 0.42437710140160012 0 0.1015489964801007 0.41767851465291089 0 0.11661155782873241 0.41867291588196309 0 0.1146017208497466 0.40360046857105669 0 0.11661155782873241 0.41867291588196309 0 0.12926616995071261 0.40978285187868108 0 0.12851778219744209 0.42437710140160012 0 0.11661155782873241 0.41867291588196309 0 0.1146017208497466 0.40360046857105669 0 0.12926616995071261 0.40978285187868108 0 0.1146017208497466 0.40360046857105669 0 0.11490053101842899 0.3824802583328803 0 0.1297309447292268 0.39274199120116959 0 0.1146017208497466 0.40360046857105669 0 0.1297309447292268 0.39274199120116959 0 0.12926616995071261 0.40978285187868108 0 0.11490053101842899 0.3824802583328803 0 0.12614541861072109 0.37237662975091601 0 0.1297309447292268 0.39274199120116959 0 0.088230753343674639 0.38474554061371219 0 0.11490053101842899 0.3824802583328803 0 0.10760100198781709 0.36268145461956081 0 0.088230753343674639 0.38474554061371219 0 0.11490053101842899 0.3824802583328803 0 0.096857309589334736 0.40062824053302082 0 0.1146017208497466 0.40360046857105669 0 0.11490053101842899 0.3824802583328803 0 0.096857309589334736 0.40062824053302082 0 0.11490053101842899 0.3824802583328803 0 0.096857309589334736 0.40062824053302082 0 0.10760100198781709 0.36268145461956081 0 0.1084191459973762 0.34241651382727811 0 0.088179749443504055 0.35457962706372242 0 0.088230753343674639 0.38474554061371219 0 0.10760100198781709 0.36268145461956081 0 0.11490053101842899 0.3824802583328803 0 0.10760100198781709 0.36268145461956081 0 0.12614541861072109 0.37237662975091601 0 0.10760100198781709 0.36268145461956081 0 0.1217372865874381 0.3522301190044213 0 0.12614541861072109 0.37237662975091601 0 0.10760100198781709 0.36268145461956081 0 0.1217372865874381 0.3522301190044213 0 0.1084191459973762 0.34241651382727811 0 0.1217372865874381 0.3522301190044213 0 0.1084191459973762 0.34241651382727811 0 0.13015465518456079 0.33475423409974209 0 0.11103267497508219 0.32546839270900951 0 0.1084191459973762 0.34241651382727811 0 0.13015465518456079 0.33475423409974209 0 0.11103267497508219 0.32546839270900951 0 0.12262350952712921 0.30988173838374861 0 0.13015465518456079 0.33475423409974209 0 0.11103267497508219 0.32546839270900951 0 0.1052702602604091 0.30959046451132638 0 0.12262350952712921 0.30988173838374861 0 0.11103267497508219 0.32546839270900951 0 0.088695803905935733 0.33069901272295199 0 0.1052702602604091 0.30959046451132638 0 0.088695803905935733 0.33069901272295199 0 0.089211858368367411 0.30681839838218172 0 0.1052702602604091 0.30959046451132638 0 0.1084191459973762 0.34241651382727811 0 0.088695803905935733 0.33069901272295199 0 0.088179749443504055 0.35457962706372242 0 0.11103267497508219 0.32546839270900951 0 0.1084191459973762 0.34241651382727811 0 0.088695803905935733 0.33069901272295199 0 0.088695803905935733 0.33069901272295199 0 0.088179749443504055 0.35457962706372242 0 0.088695803905935733 0.33069901272295199 0 0.076713900170332333 0.34500167422975619 0 0.088179749443504055 0.35457962706372242 0 0.088695803905935733 0.33069901272295199 0 0.089211858368367411 0.30681839838218172 0 0.088695803905935733 0.33069901272295199 0 0.075101711971729407 0.31624983419840891 0 0.089211858368367411 0.30681839838218172 0 0.088695803905935733 0.33069901272295199 0 0.075101711971729407 0.31624983419840891 0 0.067712967264072166 0.33197927724534232 0 0.075101711971729407 0.31624983419840891 0 0.067712967264072166 0.33197927724534232 0 0.061200485699864443 0.31397399819427879 0 0.067712967264072166 0.33197927724534232 0 0.064327219445256309 0.34904457264612632 0 0.076713900170332333 0.34500167422975619 0 0.088695803905935733 0.33069901272295199 0 0.067712967264072166 0.33197927724534232 0 0.076713900170332333 0.34500167422975619 0 0.064327219445256309 0.34904457264612632 0 0.07619323047309115 0.35766352473338697 0 0.076713900170332333 0.34500167422975619 0 0.07619323047309115 0.35766352473338697 0 0.076713900170332333 0.34500167422975619 0 0.088179749443504055 0.35457962706372242 0 0.10760100198781709 0.36268145461956081 0 0.088179749443504055 0.35457962706372242 0 0.084811702295202671 0.36803840754172662 0 0.088230753343674639 0.38474554061371219 0 0.084811702295202671 0.36803840754172662 0 0.066933581011160398 0.37165334218560309 0 0.088230753343674639 0.38474554061371219 0 0.10760100198781709 0.36268145461956081 0 0.084811702295202671 0.36803840754172662 0 0.07619323047309115 0.35766352473338697 0 0.088179749443504055 0.35457962706372242 0 0.084811702295202671 0.36803840754172662 0 0.064327219445256309 0.34904457264612632 0 0.07619323047309115 0.35766352473338697 0 0.066933581011160398 0.37165334218560309 0 0.07619323047309115 0.35766352473338697 0 0.084811702295202671 0.36803840754172662 0 0.066933581011160398 0.37165334218560309 0 0.066933581011160398 0.37165334218560309 0 0.050825683874500129 0.3553647220141114 0 0.040854946690931787 0.37314022470097807 0 0.064327219445256309 0.34904457264612632 0 0.066933581011160398 0.37165334218560309 0 0.050825683874500129 0.3553647220141114 0 0.064327219445256309 0.34904457264612632 0 0.050825683874500129 0.3553647220141114 0 0.053962520019261231 0.34061731539872908 0 0.050825683874500129 0.3553647220141114 0 0.040735538756390612 0.34248617215533078 0 0.053962520019261231 0.34061731539872908 0 0.050825683874500129 0.3553647220141114 0 0.038114230131744441 0.35488628000610312 0 0.040735538756390612 0.34248617215533078 0 0.038114230131744441 0.35488628000610312 0 0.031302813650267193 0.34713475741255989 0 0.02685216768663273 0.35630552374753482 0 0.038114230131744441 0.35488628000610312 0 0.031302813650267193 0.34713475741255989 0 0.040735538756390612 0.34248617215533078 0 0.040854946690931787 0.37314022470097807 0 0.02685216768663273 0.35630552374753482 0 0.036472824464513873 0.37813177248215768 0 0.02685216768663273 0.35630552374753482 0 0.038114230131744441 0.35488628000610312 0 0.040854946690931787 0.37314022470097807 0 0.02685216768663273 0.35630552374753482 0 0.050825683874500129 0.3553647220141114 0 0.038114230131744441 0.35488628000610312 0 0.040854946690931787 0.37314022470097807 0 0.036472824464513873 0.37813177248215768 0 0.040854946690931787 0.37314022470097807 0 0.02685216768663273 0.35630552374753482 0 0.016765618376059058 0.3741899083860859 0 0.02685216768663273 0.35630552374753482 0 0.011913551098863009 0.35411302435227859 0 0.036472824464513873 0.37813177248215768 0 0.016765618376059058 0.3741899083860859 0 0.02685216768663273 0.35630552374753482 0 0.02685216768663273 0.35630552374753482 0 0.011913551098863009 0.35411302435227859 0 0.011261832892993869 0.33756219973060858 0 0.02685216768663273 0.35630552374753482 0 0.011261832892993869 0.33756219973060858 0 0.021168556246837011 0.34341119440391582 0 0.02685216768663273 0.35630552374753482 0 0.011261832892993869 0.33756219973060858 0 0.031302813650267193 0.34713475741255989 0 0.02685216768663273 0.35630552374753482 0 0.021168556246837011 0.34341119440391582 0 0.02685216768663273 0.35630552374753482 0 0.021168556246837011 0.34341119440391582 0 0.011913551098863009 0.35411302435227859 0 0.0045016393447690024 0.34563200435747998 0 0.011261832892993869 0.33756219973060858 0 -0.0014546766774108191 0.36071534143532219 0 0.011913551098863009 0.35411302435227859 0 0.0045016393447690024 0.34563200435747998 0 -0.0014546766774108191 0.36071534143532219 0 -0.005432213599170517 0.38664161186293788 0 0.016765618376059058 0.3741899083860859 0 -0.0014546766774108191 0.36071534143532219 0 0.016765618376059058 0.3741899083860859 0 0.011913551098863009 0.35411302435227859 0 0.01229727067614042 0.32572918616503949 0 0.0072556924991670768 0.31728144649665402 0 0.0188074665687895 0.31416803070852062 0 -0.0038272708288328498 0.31483724708082161 0 0.0072556924991670768 0.31728144649665402 0 0.001635960195835245 0.3298725894400395 0 0.01229727067614042 0.32572918616503949 0 0.0072556924991670768 0.31728144649665402 0 0.001635960195835245 0.3298725894400395 0 0.0045016393447690024 0.34563200435747998 0 0.001635960195835245 0.3298725894400395 0 0.011261832892993869 0.33756219973060858 0 0.01229727067614042 0.32572918616503949 0 0.001635960195835245 0.3298725894400395 0 0.011261832892993869 0.33756219973060858 0 0.01229727067614042 0.32572918616503949 0 0.011261832892993869 0.33756219973060858 0 0.02252540122391641 0.32976166444937471 0 0.011261832892993869 0.33756219973060858 0 0.02252540122391641 0.32976166444937471 0 0.021168556246837011 0.34341119440391582 0 0.02252540122391641 0.32976166444937471 0 0.021168556246837011 0.34341119440391582 0 0.029617508237475429 0.33822419175811702 0 0.031302813650267193 0.34713475741255989 0 0.021168556246837011 0.34341119440391582 0 0.029617508237475429 0.33822419175811702 0 0.02252540122391641 0.32976166444937471 0 0.029617508237475429 0.33822419175811702 0 0.035222507453006209 0.32993972667961591 0 0.02252540122391641 0.32976166444937471 0 0.029158939273500141 0.31926645512819352 0 0.035222507453006209 0.32993972667961591 0 0.02252540122391641 0.32976166444937471 0 0.0188074665687895 0.31416803070852062 0 0.029158939273500141 0.31926645512819352 0 0.01229727067614042 0.32572918616503949 0 0.02252540122391641 0.32976166444937471 0 0.0188074665687895 0.31416803070852062 0 0.0188074665687895 0.31416803070852062 0 0.029158939273500141 0.31926645512819352 0 0.032552786936011602 0.30922968948386348 0 0.039296125737244177 0.32017878858362903 0 0.049802441598204517 0.32707484565107048 0 0.046063129055497032 0.31020098179169908 0 0.029158939273500141 0.31926645512819352 0 0.039296125737244177 0.32017878858362903 0 0.032552786936011602 0.30922968948386348 0 0.029158939273500141 0.31926645512819352 0 0.039296125737244177 0.32017878858362903 0 0.035222507453006209 0.32993972667961591 0 0.039296125737244177 0.32017878858362903 0 0.035222507453006209 0.32993972667961591 0 0.049802441598204517 0.32707484565107048 0 0.039296125737244177 0.32017878858362903 0 0.046063129055497032 0.31020098179169908 0 0.032552786936011602 0.30922968948386348 0 0.029617508237475429 0.33822419175811702 0 0.035222507453006209 0.32993972667961591 0 0.040735538756390612 0.34248617215533078 0 0.031302813650267193 0.34713475741255989 0 0.029617508237475429 0.33822419175811702 0 0.040735538756390612 0.34248617215533078 0 0.035222507453006209 0.32993972667961591 0 0.040735538756390612 0.34248617215533078 0 0.049802441598204517 0.32707484565107048 0 0.067712967264072166 0.33197927724534232 0 0.064327219445256309 0.34904457264612632 0 0.053962520019261231 0.34061731539872908 0 0.067712967264072166 0.33197927724534232 0 0.053962520019261231 0.34061731539872908 0 0.049802441598204517 0.32707484565107048 0 0.040735538756390612 0.34248617215533078 0 0.053962520019261231 0.34061731539872908 0 0.049802441598204517 0.32707484565107048 0 0.049802441598204517 0.32707484565107048 0 0.061200485699864443 0.31397399819427879 0 0.046063129055497032 0.31020098179169908 0 0.067712967264072166 0.33197927724534232 0 0.049802441598204517 0.32707484565107048 0 0.061200485699864443 0.31397399819427879 0 0.061200485699864443 0.31397399819427879 0 0.053074415412676761 0.30001327102170772 0 0.068687444620407337 0.29777848444728972 0 0.061200485699864443 0.31397399819427879 0 0.053074415412676761 0.30001327102170772 0 0.046063129055497032 0.31020098179169908 0 0.053074415412676761 0.30001327102170772 0 0.054665995293404282 0.28613278468256731 0 0.038994503990691168 0.29429821267893441 0 0.053074415412676761 0.30001327102170772 0 0.054665995293404282 0.28613278468256731 0 0.068687444620407337 0.29777848444728972 0 0.038994503990691168 0.29429821267893441 0 0.025280860629182521 0.28546697324528142 0 0.038674929075581732 0.27389008912825302 0 0.054665995293404282 0.28613278468256731 0 0.038994503990691168 0.29429821267893441 0 0.038674929075581732 0.27389008912825302 0 0.053074415412676761 0.30001327102170772 0 0.038994503990691168 0.29429821267893441 0 0.046063129055497032 0.31020098179169908 0 0.038994503990691168 0.29429821267893441 0 0.046063129055497032 0.31020098179169908 0 0.032552786936011602 0.30922968948386348 0 0.0188074665687895 0.31416803070852062 0 0.032552786936011602 0.30922968948386348 0 0.02212158172943858 0.29853674959475829 0 0.038994503990691168 0.29429821267893441 0 0.032552786936011602 0.30922968948386348 0 0.02212158172943858 0.29853674959475829 0 0.025280860629182521 0.28546697324528142 0 0.01150257877552585 0.28974310701341549 0 0.015110709574675271 0.27086670781104571 0 0.038994503990691168 0.29429821267893441 0 0.02212158172943858 0.29853674959475829 0 0.025280860629182521 0.28546697324528142 0 0.02212158172943858 0.29853674959475829 0 0.025280860629182521 0.28546697324528142 0 0.01150257877552585 0.28974310701341549 0 0.02212158172943858 0.29853674959475829 0 0.01150257877552585 0.28974310701341549 0 0.0037304011536537958 0.30202466005627959 0 -0.0053374564489368382 0.28451708928829611 0 0.01150257877552585 0.28974310701341549 0 0.0037304011536537958 0.30202466005627959 0 -0.0053374564489368382 0.28451708928829611 0 0.01150257877552585 0.28974310701341549 0 0.015110709574675271 0.27086670781104571 0 0.0188074665687895 0.31416803070852062 0 0.02212158172943858 0.29853674959475829 0 0.0037304011536537958 0.30202466005627959 0 -0.0038272708288328498 0.31483724708082161 0 0.0072556924991670768 0.31728144649665402 0 0.0037304011536537958 0.30202466005627959 0 0.0072556924991670768 0.31728144649665402 0 0.0188074665687895 0.31416803070852062 0 0.0037304011536537958 0.30202466005627959 0 -0.01308835968565924 0.25819090906546471 0 0.013547880526749699 0.24484547967947251 0 -0.01308835968565924 0.25819090906546471 0 0.013547880526749699 0.24484547967947251 0 0.015110709574675271 0.27086670781104571 0 0.025280860629182521 0.28546697324528142 0 0.015110709574675271 0.27086670781104571 0 0.038674929075581732 0.27389008912825302 0 0.015110709574675271 0.27086670781104571 0 0.0314387120317784 0.25500959105052112 0 0.038674929075581732 0.27389008912825302 0 0.013547880526749699 0.24484547967947251 0 0.015110709574675271 0.27086670781104571 0 0.0314387120317784 0.25500959105052112 0 0.0314387120317784 0.25500959105052112 0 0.038674929075581732 0.27389008912825302 0 0.049675920242726657 0.25394562834035372 0 0.038674929075581732 0.27389008912825302 0 0.06005045591793564 0.27130002513962459 0 0.049675920242726657 0.25394562834035372 0 0.054665995293404282 0.28613278468256731 0 0.038674929075581732 0.27389008912825302 0 0.06005045591793564 0.27130002513962459 0 0.054665995293404282 0.28613278468256731 0 0.06005045591793564 0.27130002513962459 0 0.067059966774064686 0.28249854264454088 0 0.06005045591793564 0.27130002513962459 0 0.049675920242726657 0.25394562834035372 0 0.071234717691498695 0.254542374838503 0 0.090550552383547131 0.24486982933742321 0 0.071234717691498695 0.254542374838503 0 0.090139232607173117 0.26390380668941732 0 0.090550552383547131 0.24486982933742321 0 0.090139232607173117 0.26390380668941732 0 0.071234717691498695 0.254542374838503 0 0.090139232607173117 0.26390380668941732 0 0.074626572810886249 0.27185382196171798 0 0.090139232607173117 0.26390380668941732 0 0.089727912830801976 0.2829377840414114 0 0.090139232607173117 0.26390380668941732 0 0.08424898093261074 0.27741266391862057 0 0.089727912830801976 0.2829377840414114 0 0.090139232607173117 0.26390380668941732 0 0.089727912830801976 0.2829377840414114 0 0.099752658809073635 0.2726675971854195 0 0.090139232607173117 0.26390380668941732 0 0.08424898093261074 0.27741266391862057 0 0.074626572810886249 0.27185382196171798 0 0.08424898093261074 0.27741266391862057 0 0.074626572810886249 0.27185382196171798 0 0.077269365227689929 0.28542759699150477 0 0.06005045591793564 0.27130002513962459 0 0.071234717691498695 0.254542374838503 0 0.074626572810886249 0.27185382196171798 0 0.074626572810886249 0.27185382196171798 0 0.067059966774064686 0.28249854264454088 0 0.077269365227689929 0.28542759699150477 0 0.06005045591793564 0.27130002513962459 0 0.074626572810886249 0.27185382196171798 0 0.067059966774064686 0.28249854264454088 0 0.054665995293404282 0.28613278468256731 0 0.067059966774064686 0.28249854264454088 0 0.068687444620407337 0.29777848444728972 0 0.067059966774064686 0.28249854264454088 0 0.077269365227689929 0.28542759699150477 0 0.068687444620407337 0.29777848444728972 0 0.075101711971729407 0.31624983419840891 0 0.061200485699864443 0.31397399819427879 0 0.068687444620407337 0.29777848444728972 0 0.075101711971729407 0.31624983419840891 0 0.068687444620407337 0.29777848444728972 0 0.089211858368367411 0.30681839838218172 0 0.077269365227689929 0.28542759699150477 0 0.089211858368367411 0.30681839838218172 0 0.089727912830801976 0.2829377840414114 0 0.089211858368367411 0.30681839838218172 0 0.089727912830801976 0.2829377840414114 0 0.098601789266568679 0.29507542950345939 0 0.089211858368367411 0.30681839838218172 0 0.089727912830801976 0.2829377840414114 0 0.077269365227689929 0.28542759699150477 0 0.068687444620407337 0.29777848444728972 0 0.089211858368367411 0.30681839838218172 0 0.08424898093261074 0.27741266391862057 0 0.077269365227689929 0.28542759699150477 0 0.089727912830801976 0.2829377840414114 0 0.089727912830801976 0.2829377840414114 0 0.098601789266568679 0.29507542950345939 0 0.107224662540458 0.28275819861084073 0 0.089727912830801976 0.2829377840414114 0 0.107224662540458 0.28275819861084073 0 0.098601789266568679 0.29507542950345939 0 0.107224662540458 0.28275819861084073 0 0.1100704371272562 0.29627456577350142 0 0.089211858368367411 0.30681839838218172 0 0.098601789266568679 0.29507542950345939 0 0.1052702602604091 0.30959046451132638 0 0.098601789266568679 0.29507542950345939 0 0.1052702602604091 0.30959046451132638 0 0.1100704371272562 0.29627456577350142 0 0.12262350952712921 0.30988173838374861 0 0.11509236386969771 0.28500924266775512 0 0.12947566927234161 0.29667607955967329 0 0.1052702602604091 0.30959046451132638 0 0.12262350952712921 0.30988173838374861 0 0.1100704371272562 0.29627456577350142 0 0.12262350952712921 0.30988173838374861 0 0.11509236386969771 0.28500924266775512 0 0.12262350952712921 0.30988173838374861 0 0.11509236386969771 0.28500924266775512 0 0.1100704371272562 0.29627456577350142 0 0.107224662540458 0.28275819861084073 0 0.124721412250114 0.28257861318027061 0 0.107224662540458 0.28275819861084073 0 0.124721412250114 0.28257861318027061 0 0.11441101548400261 0.27842948087693309 0 0.107224662540458 0.28275819861084073 0 0.11509236386969771 0.28500924266775512 0 0.124721412250114 0.28257861318027061 0 0.107224662540458 0.28275819861084073 0 0.11509236386969771 0.28500924266775512 0 0.1100704371272562 0.29627456577350142 0 0.11509236386969771 0.28500924266775512 0 0.124721412250114 0.28257861318027061 0 0.12947566927234161 0.29667607955967329 0 0.124721412250114 0.28257861318027061 0 0.1193642947234918 0.27730471206157192 0 0.11441101548400261 0.27842948087693309 0 0.124721412250114 0.28257861318027061 0 0.1193642947234918 0.27730471206157192 0 0.12884456271056691 0.27303262984356608 0 0.124721412250114 0.28257861318027061 0 0.1193642947234918 0.27730471206157192 0 0.1193642947234918 0.27730471206157192 0 0.11441101548400261 0.27842948087693309 0 0.10953975947013241 0.2716733326630198 0 0.107224662540458 0.28275819861084073 0 0.11441101548400261 0.27842948087693309 0 0.10953975947013241 0.2716733326630198 0 0.1193642947234918 0.27730471206157192 0 0.10953975947013241 0.2716733326630198 0 0.1203043946056109 0.26427895004491792 0 0.1193642947234918 0.27730471206157192 0 0.1203043946056109 0.26427895004491792 0 0.12884456271056691 0.27303262984356608 0 0.13282715172793591 0.2493817210630638 0 0.1203043946056109 0.26427895004491792 0 0.1154445232046005 0.25083713922327727 0 0.1203043946056109 0.26427895004491792 0 0.1154445232046005 0.25083713922327727 0 0.1036997528795266 0.25964015775820609 0 0.10953975947013241 0.2716733326630198 0 0.1203043946056109 0.26427895004491792 0 0.1036997528795266 0.25964015775820609 0 0.1045576226681757 0.24246127190420191 0 0.1154445232046005 0.25083713922327727 0 0.1036997528795266 0.25964015775820609 0 0.090550552383547131 0.24486982933742321 0 0.090139232607173117 0.26390380668941732 0 0.1036997528795266 0.25964015775820609 0 0.090139232607173117 0.26390380668941732 0 0.1036997528795266 0.25964015775820609 0 0.099752658809073635 0.2726675971854195 0 0.089727912830801976 0.2829377840414114 0 0.107224662540458 0.28275819861084073 0 0.099752658809073635 0.2726675971854195 0 0.107224662540458 0.28275819861084073 0 0.10953975947013241 0.2716733326630198 0 0.099752658809073635 0.2726675971854195 0 0.10953975947013241 0.2716733326630198 0 0.1036997528795266 0.25964015775820609 0 0.099752658809073635 0.2726675971854195 0 0.15609647720169281 0.26759158085067869 0 0.13851688819381891 0.26492409168282349 0 0.14790330610799651 0.28234067582281791 0 0.14792264922445991 0.2391907468176081 0 0.1471367866487811 0.25554499019176918 0 0.1603207668959982 0.25663681054467208 0 0.15609647720169281 0.26759158085067869 0 0.1471367866487811 0.25554499019176918 0 0.1603207668959982 0.25663681054467208 0 0.15609647720169281 0.26759158085067869 0 0.1471367866487811 0.25554499019176918 0 0.13851688819381891 0.26492409168282349 0 0.13282715172793591 0.2493817210630638 0 0.1203043946056109 0.26427895004491792 0 0.13851688819381891 0.26492409168282349 0 0.13282715172793591 0.2493817210630638 0 0.1471367866487811 0.25554499019176918 0 0.13851688819381891 0.26492409168282349 0 0.13851688819381891 0.26492409168282349 0 0.12884456271056691 0.27303262984356608 0 0.14790330610799651 0.28234067582281791 0 0.124721412250114 0.28257861318027061 0 0.12884456271056691 0.27303262984356608 0 0.14790330610799651 0.28234067582281791 0 0.1203043946056109 0.26427895004491792 0 0.13851688819381891 0.26492409168282349 0 0.12884456271056691 0.27303262984356608 0 0.124721412250114 0.28257861318027061 0 0.14364583339352749 0.30120906609510911 0 0.14790330610799651 0.28234067582281791 0 0.124721412250114 0.28257861318027061 0 0.14364583339352749 0.30120906609510911 0 0.124721412250114 0.28257861318027061 0 0.12947566927234161 0.29667607955967329 0 0.14364583339352749 0.30120906609510911 0 0.124721412250114 0.28257861318027061 0 0.14790330610799651 0.28234067582281791 0 0.12262350952712921 0.30988173838374861 0 0.12947566927234161 0.29667607955967329 0 0.14364583339352749 0.30120906609510911 0 0.12262350952712921 0.30988173838374861 0 0.14364583339352749 0.30120906609510911 0 0.1432517589767954 0.32053609896879448 0 0.14364583339352749 0.30120906609510911 0 0.16257025453694141 0.31983951900994728 0 0.14364583339352749 0.30120906609510911 0 0.14790330610799651 0.28234067582281791 0 0.1628259435125152 0.2993756425261544 0 0.14790330610799651 0.28234067582281791 0 0.1710851999658792 0.28210273846536588 0 0.1628259435125152 0.2993756425261544 0 0.14790330610799651 0.28234067582281791 0 0.1710851999658792 0.28210273846536588 0 0.14364583339352749 0.30120906609510911 0 0.1628259435125152 0.2993756425261544 0 0.16257025453694141 0.31983951900994728 0 0.1628259435125152 0.2993756425261544 0 0.18287086892032331 0.30095525612792778 0 0.16257025453694141 0.31983951900994728 0 0.1710851999658792 0.28210273846536588 0 0.19426709382376181 0.28186480110791318 0 0.1710851999658792 0.28210273846536588 0 0.1628259435125152 0.2993756425261544 0 0.18287086892032331 0.30095525612792778 0 0.1710851999658792 0.28210273846536588 0 0.18287086892032331 0.30095525612792778 0 0.19426709382376181 0.28186480110791318 0 0.1710851999658792 0.28210273846536588 0 0.1854687446189428 0.26461651578530099 0 0.19426709382376181 0.28186480110791318 0 0.1710851999658792 0.28210273846536588 0 0.17461549848667171 0.26567127134004148 0 0.1854687446189428 0.26461651578530099 0 0.1710851999658792 0.28210273846536588 0 0.17461549848667171 0.26567127134004148 0 0.16719078507265131 0.26655863917822809 0 0.15609647720169281 0.26759158085067869 0 0.14790330610799651 0.28234067582281791 0 0.1710851999658792 0.28210273846536588 0 0.15609647720169281 0.26759158085067869 0 0.1710851999658792 0.28210273846536588 0 0.16719078507265131 0.26655863917822809 0 0.15609647720169281 0.26759158085067869 0 0.16719078507265131 0.26655863917822809 0 0.1603207668959982 0.25663681054467208 0 0.16719078507265131 0.26655863917822809 0 0.1603207668959982 0.25663681054467208 0 0.1703606361004539 0.26014935540602557 0 0.17461549848667171 0.26567127134004148 0 0.16719078507265131 0.26655863917822809 0 0.1703606361004539 0.26014935540602557 0 0.1603207668959982 0.25663681054467208 0 0.1703606361004539 0.26014935540602557 0 0.1707124485432627 0.25382631802047623 0 0.17634324328383211 0.2473280678530145 0 0.1854687446189428 0.26461651578530099 0 0.18839185059620761 0.25497909010618702 0 0.17634324328383211 0.2473280678530145 0 0.17526160736839341 0.2561387376973927 0 0.1854687446189428 0.26461651578530099 0 0.17634324328383211 0.2473280678530145 0 0.17526160736839341 0.2561387376973927 0 0.17634324328383211 0.2473280678530145 0 0.1854687446189428 0.26461651578530099 0 0.17634324328383211 0.2473280678530145 0 0.1707124485432627 0.25382631802047623 0 0.17526160736839341 0.2561387376973927 0 0.1703606361004539 0.26014935540602557 0 0.1707124485432627 0.25382631802047623 0 0.17526160736839341 0.2561387376973927 0 0.17461549848667171 0.26567127134004148 0 0.1703606361004539 0.26014935540602557 0 0.17526160736839341 0.2561387376973927 0 0.17461549848667171 0.26567127134004148 0 0.17526160736839341 0.2561387376973927 0 0.1854687446189428 0.26461651578530099 0 0.18580574303400291 0.24790069894970571 0 0.17634324328383211 0.2473280678530145 0 0.18839185059620761 0.25497909010618702 0 0.19432513662305631 0.24923070947276491 0 0.18839185059620761 0.25497909010618702 0 0.19799873600345819 0.25963103641679958 0 0.18580574303400291 0.24790069894970571 0 0.19432513662305631 0.24923070947276491 0 0.18839185059620761 0.25497909010618702 0 0.1854687446189428 0.26461651578530099 0 0.19799873600345819 0.25963103641679958 0 0.20181629871402551 0.27095484981938511 0 0.1854687446189428 0.26461651578530099 0 0.18839185059620761 0.25497909010618702 0 0.19799873600345819 0.25963103641679958 0 0.19432513662305631 0.24923070947276491 0 0.19799873600345819 0.25963103641679958 0 0.2047562489228 0.25043904943886391 0 0.1854687446189428 0.26461651578530099 0 0.19426709382376181 0.28186480110791318 0 0.1854687446189428 0.26461651578530099 0 0.20181629871402551 0.27095484981938511 0 0.19426709382376181 0.28186480110791318 0 0.20181629871402551 0.27095484981938511 0 0.21020516869190259 0.26287557150901009 0 0.21727268183284931 0.28162867334151698 0 0.20181629871402551 0.27095484981938511 0 0.21727268183284931 0.28162867334151698 0 0.19426709382376181 0.28186480110791318 0 0.21020516869190259 0.26287557150901009 0 0.221900010545003 0.26370724620981528 0 0.21727268183284931 0.28162867334151698 0 0.19799873600345819 0.25963103641679958 0 0.2047562489228 0.25043904943886391 0 0.21020516869190259 0.26287557150901009 0 0.2047562489228 0.25043904943886391 0 0.21020516869190259 0.26287557150901009 0 0.21605607629655391 0.25069239513677849 0 0.19799873600345819 0.25963103641679958 0 0.20181629871402551 0.27095484981938511 0 0.21020516869190259 0.26287557150901009 0 0.21020516869190259 0.26287557150901009 0 0.21605607629655391 0.25069239513677849 0 0.221900010545003 0.26370724620981528 0 0.230939882362065 0.25181918210426868 0 0.221900010545003 0.26370724620981528 0 0.235026243541644 0.27152040895750229 0 0.21605607629655391 0.25069239513677849 0 0.230939882362065 0.25181918210426868 0 0.221900010545003 0.26370724620981528 0 0.221900010545003 0.26370724620981528 0 0.235026243541644 0.27152040895750229 0 0.21727268183284931 0.28162867334151698 0 0.235026243541644 0.27152040895750229 0 0.25933372056426268 0.2869500706593392 0 0.25363960514672368 0.26309967668746298 0 0.230939882362065 0.25181918210426868 0 0.235026243541644 0.27152040895750229 0 0.25363960514672368 0.26309967668746298 0 0.2479454897291847 0.23924928271558671 0 0.230939882362065 0.25181918210426868 0 0.25363960514672368 0.26309967668746298 0 0.23720351705065221 0.31199438423560832 0 0.23693396142754949 0.29228931784991002 0 0.25037333219039798 0.30288838984523148 0 0.23720351705065221 0.31199438423560832 0 0.25075992824446391 0.31528290356284 0 0.25037333219039798 0.30288838984523148 0 0.235026243541644 0.27152040895750229 0 0.23693396142754949 0.29228931784991002 0 0.25933372056426268 0.2869500706593392 0 0.23693396142754949 0.29228931784991002 0 0.25933372056426268 0.2869500706593392 0 0.25037333219039798 0.30288838984523148 0 0.23693396142754949 0.29228931784991002 0 0.22242553916794011 0.30148068078269757 0 0.21727268183284931 0.28162867334151698 0 0.235026243541644 0.27152040895750229 0 0.23693396142754949 0.29228931784991002 0 0.21727268183284931 0.28162867334151698 0 0.23720351705065221 0.31199438423560832 0 0.22242553916794011 0.30148068078269757 0 0.21576434678777781 0.32400801958491238 0 0.23720351705065221 0.31199438423560832 0 0.23693396142754949 0.29228931784991002 0 0.22242553916794011 0.30148068078269757 0 0.22242553916794011 0.30148068078269757 0 0.2050157203057705 0.3029364103464125 0 0.21576434678777781 0.32400801958491238 0 0.22242553916794011 0.30148068078269757 0 0.2050157203057705 0.3029364103464125 0 0.21727268183284931 0.28162867334151698 0 0.2050157203057705 0.3029364103464125 0 0.21727268183284931 0.28162867334151698 0 0.19426709382376181 0.28186480110791318 0 0.21727268183284931 0.28162867334151698 0 0.19426709382376181 0.28186480110791318 0 0.18287086892032331 0.30095525612792778 0 0.2050157203057705 0.3029364103464125 0 0.19426709382376181 0.28186480110791318 0 0.2050157203057705 0.3029364103464125 0 0.19426709382376181 0.28186480110791318 0 0.18287086892032331 0.30095525612792778 0 0.2050157203057705 0.3029364103464125 0 0.1945431266395834 0.32155572113325609 0 0.1945431266395834 0.32155572113325609 0 0.19999948013206981 0.34830730462586951 0 0.18149467568035529 0.33846997192478551 0 0.21576434678777781 0.32400801958491238 0 0.22194364940373029 0.34867742672659979 0 0.19999948013206981 0.34830730462586951 0 0.1945431266395834 0.32155572113325609 0 0.21576434678777781 0.32400801958491238 0 0.19999948013206981 0.34830730462586951 0 0.2050157203057705 0.3029364103464125 0 0.21576434678777781 0.32400801958491238 0 0.2050157203057705 0.3029364103464125 0 0.1945431266395834 0.32155572113325609 0 0.21576434678777781 0.32400801958491238 0 0.23720351705065221 0.31199438423560832 0 0.21576434678777781 0.32400801958491238 0 0.23411414725743951 0.33231685685932538 0 0.23411414725743951 0.33231685685932538 0 0.24291908941464491 0.34897757597918411 0 0.22194364940373029 0.34867742672659979 0 0.21576434678777781 0.32400801958491238 0 0.23411414725743951 0.33231685685932538 0 0.22194364940373029 0.34867742672659979 0 0.23411414725743951 0.33231685685932538 0 0.24377559928734671 0.33404935588796691 0 0.24409569777908 0.3250139704081586 0 0.24377559928734671 0.33404935588796691 0 0.24291908941464491 0.34897757597918411 0 0.25397346269822241 0.32988902030519968 0 0.24291908941464491 0.34897757597918411 0 0.25397346269822241 0.32988902030519968 0 0.23411414725743951 0.33231685685932538 0 0.24377559928734671 0.33404935588796691 0 0.24291908941464491 0.34897757597918411 0 0.24377559928734671 0.33404935588796691 0 0.24409569777908 0.3250139704081586 0 0.25397346269822241 0.32988902030519968 0 0.24409569777908 0.3250139704081586 0 0.25075992824446391 0.31528290356284 0 0.25397346269822241 0.32988902030519968 0 0.23720351705065221 0.31199438423560832 0 0.23411414725743951 0.33231685685932538 0 0.24409569777908 0.3250139704081586 0 0.23720351705065221 0.31199438423560832 0 0.24409569777908 0.3250139704081586 0 0.25075992824446391 0.31528290356284 0 0.2446491880112252 0.36479811907701121 0 0.24958701205023251 0.37703497002863601 0 0.25518754947287081 0.35685673600123718 0 0.2446491880112252 0.36479811907701121 0 0.24291908941464491 0.34897757597918411 0 0.23186471613106741 0.36806613165316843 0 0.2446491880112252 0.36479811907701121 0 0.23186471613106741 0.36806613165316843 0 0.23896991946370619 0.37861040355281939 0 0.2446491880112252 0.36479811907701121 0 0.24958701205023251 0.37703497002863601 0 0.23896991946370619 0.37861040355281939 0 0.2446491880112252 0.36479811907701121 0 0.24291908941464491 0.34897757597918411 0 0.25518754947287081 0.35685673600123718 0 0.24291908941464491 0.34897757597918411 0 0.23186471613106741 0.36806613165316843 0 0.24291908941464491 0.34897757597918411 0 0.22194364940373029 0.34867742672659979 0 0.23186471613106741 0.36806613165316843 0 0.22194364940373029 0.34867742672659979 0 0.23186471613106741 0.36806613165316843 0 0.21444450029613521 0.36855338888860728 0 0.23186471613106741 0.36806613165316843 0 0.21444450029613521 0.36855338888860728 0 0.22527735522582709 0.37812234527443078 0 0.23186471613106741 0.36806613165316843 0 0.22527735522582709 0.37812234527443078 0 0.23896991946370619 0.37861040355281939 0 0.22194364940373029 0.34867742672659979 0 0.21444450029613521 0.36855338888860728 0 0.19999948013206981 0.34830730462586951 0 0.19999948013206981 0.34830730462586951 0 0.19271640494464651 0.37232127037070017 0 0.18410535655559551 0.35683093329526039 0 0.19999948013206981 0.34830730462586951 0 0.18410535655559551 0.35683093329526039 0 0.18149467568035529 0.33846997192478551 0 0.21444450029613521 0.36855338888860728 0 0.19999948013206981 0.34830730462586951 0 0.19271640494464651 0.37232127037070017 0 0.19271640494464651 0.37232127037070017 0 0.16684036137424921 0.3640216297958509 0 0.18410535655559551 0.35683093329526039 0 0.16684036137424921 0.3640216297958509 0 0.18149467568035529 0.33846997192478551 0 0.15409481884142859 0.34049646431615432 0 0.16684036137424921 0.3640216297958509 0 0.18410535655559551 0.35683093329526039 0 0.18149467568035529 0.33846997192478551 0 0.18287086892032331 0.30095525612792778 0 0.1945431266395834 0.32155572113325609 0 0.16257025453694141 0.31983951900994728 0 0.1945431266395834 0.32155572113325609 0 0.18149467568035529 0.33846997192478551 0 0.16257025453694141 0.31983951900994728 0 0.18149467568035529 0.33846997192478551 0 0.16257025453694141 0.31983951900994728 0 0.18149467568035529 0.33846997192478551 0 0.16257025453694141 0.31983951900994728 0 0.15409481884142859 0.34049646431615432 0 0.15409481884142859 0.34049646431615432 0 0.1432517589767954 0.32053609896879448 0 0.13015465518456079 0.33475423409974209 0 0.14364583339352749 0.30120906609510911 0 0.16257025453694141 0.31983951900994728 0 0.1432517589767954 0.32053609896879448 0 0.16257025453694141 0.31983951900994728 0 0.15409481884142859 0.34049646431615432 0 0.1432517589767954 0.32053609896879448 0 0.12262350952712921 0.30988173838374861 0 0.1432517589767954 0.32053609896879448 0 0.13015465518456079 0.33475423409974209 0 0.12262350952712921 0.30988173838374861 0 0.13015465518456079 0.33475423409974209 0 0.1217372865874381 0.3522301190044213 0 0.13015465518456079 0.33475423409974209 0 0.1376858008419922 0.3596267298157354 0 0.13015465518456079 0.33475423409974209 0 0.1376858008419922 0.3596267298157354 0 0.1217372865874381 0.3522301190044213 0 0.12614541861072109 0.37237662975091601 0 0.1376858008419922 0.3596267298157354 0 0.12614541861072109 0.37237662975091601 0 0.1376858008419922 0.3596267298157354 0 0.14521694649942371 0.38449922553172872 0 0.1376858008419922 0.3596267298157354 0 0.14521694649942371 0.38449922553172872 0 0.16684036137424921 0.3640216297958509 0 0.1376858008419922 0.3596267298157354 0 0.14521694649942371 0.38449922553172872 0 0.15409481884142859 0.34049646431615432 0 0.13015465518456079 0.33475423409974209 0 0.1376858008419922 0.3596267298157354 0 0.16684036137424921 0.3640216297958509 0 0.15409481884142859 0.34049646431615432 0 0.1376858008419922 0.3596267298157354 0 0.14648223732707821 0.40213536984823528 0 0.14521694649942371 0.38449922553172872 0 0.17190440348606101 0.39314923933787183 0 0.12614541861072109 0.37237662975091601 0 0.14521694649942371 0.38449922553172872 0 0.1297309447292268 0.39274199120116959 0 0.14648223732707821 0.40213536984823528 0 0.14521694649942371 0.38449922553172872 0 0.1297309447292268 0.39274199120116959 0 0.14648223732707821 0.40213536984823528 0 0.1297309447292268 0.39274199120116959 0 0.12926616995071261 0.40978285187868108 0 0.14648223732707821 0.40213536984823528 0 0.12926616995071261 0.40978285187868108 0 0.1430874134036233 0.41861963511887562 0 0.12926616995071261 0.40978285187868108 0 0.12851778219744209 0.42437710140160012 0 0.1430874134036233 0.41861963511887562 0 0.11428965185400999 0.43546695487559922 0 0.14115715517848371 0.43604193326023383 0 0.12851778219744209 0.42437710140160012 0 0.14115715517848371 0.43604193326023383 0 0.1430874134036233 0.41861963511887562 0 0.11428965185400999 0.43546695487559922 0 0.12851778219744209 0.42437710140160012 0 0.14115715517848371 0.43604193326023383 0 0.14115715517848371 0.43604193326023383 0 0.15559673021618789 0.42625766266685883 0 0.16802465850295739 0.43661691164486838 0 0.14115715517848371 0.43604193326023383 0 0.16802465850295739 0.43661691164486838 0 0.14115715517848371 0.43604193326023383 0 0.15559673021618789 0.42625766266685883 0 0.1430874134036233 0.41861963511887562 0 0.15559673021618789 0.42625766266685883 0 0.1430874134036233 0.41861963511887562 0 0.1596875458934218 0.41401927602108551 0 0.14648223732707821 0.40213536984823528 0 0.1430874134036233 0.41861963511887562 0 0.1596875458934218 0.41401927602108551 0 0.1596875458934218 0.41401927602108551 0 0.1814020157272738 0.41750557776732461 0 0.17190440348606101 0.39314923933787183 0 0.1596875458934218 0.41401927602108551 0 0.16864302842139439 0.42465460333634719 0 0.1814020157272738 0.41750557776732461 0 0.15559673021618789 0.42625766266685883 0 0.1596875458934218 0.41401927602108551 0 0.16864302842139439 0.42465460333634719 0 0.15559673021618789 0.42625766266685883 0 0.16864302842139439 0.42465460333634719 0 0.16802465850295739 0.43661691164486838 0 0.16864302842139439 0.42465460333634719 0 0.16802465850295739 0.43661691164486838 0 0.178504191767131 0.42887358858159902 0 0.16802465850295739 0.43661691164486838 0 0.19489216182743119 0.43719189002950298 0 0.16802465850295739 0.43661691164486838 0 0.178504191767131 0.42887358858159902 0 0.19489216182743119 0.43719189002950298 0 0.178504191767131 0.42887358858159902 0 0.1814020157272738 0.41750557776732461 0 0.19489216182743119 0.43719189002950298 0 0.16864302842139439 0.42465460333634719 0 0.178504191767131 0.42887358858159902 0 0.1814020157272738 0.41750557776732461 0 0.17190440348606101 0.39314923933787183 0 0.19880147248610791 0.40574879503932021 0 0.1814020157272738 0.41750557776732461 0 0.17190440348606101 0.39314923933787183 0 0.19880147248610791 0.40574879503932021 0 0.14648223732707821 0.40213536984823528 0 0.1596875458934218 0.41401927602108551 0 0.17190440348606101 0.39314923933787183 0 0.16684036137424921 0.3640216297958509 0 0.14521694649942371 0.38449922553172872 0 0.17190440348606101 0.39314923933787183 0 0.19271640494464651 0.37232127037070017 0 0.16684036137424921 0.3640216297958509 0 0.17190440348606101 0.39314923933787183 0 0.19271640494464651 0.37232127037070017 0 0.17190440348606101 0.39314923933787183 0 0.19414061724344839 0.38940924418339218 0 0.19271640494464651 0.37232127037070017 0 0.19414061724344839 0.38940924418339218 0 0.2131401880569784 0.38641767198567673 0 0.19414061724344839 0.38940924418339218 0 0.19880147248610791 0.40574879503932021 0 0.2131401880569784 0.38641767198567673 0 0.17190440348606101 0.39314923933787183 0 0.19414061724344839 0.38940924418339218 0 0.19880147248610791 0.40574879503932021 0 0.19880147248610791 0.40574879503932021 0 0.2131401880569784 0.38641767198567673 0 0.22048943929127321 0.40039470607086752 0 0.21444450029613521 0.36855338888860728 0 0.2131401880569784 0.38641767198567673 0 0.22527735522582709 0.37812234527443078 0 0.21444450029613521 0.36855338888860728 0 0.19271640494464651 0.37232127037070017 0 0.2131401880569784 0.38641767198567673 0 0.2131401880569784 0.38641767198567673 0 0.22527735522582709 0.37812234527443078 0 0.22912739907484139 0.38937783541807691 0 0.22527735522582709 0.37812234527443078 0 0.22912739907484139 0.38937783541807691 0 0.23896991946370619 0.37861040355281939 0 0.2131401880569784 0.38641767198567673 0 0.22912739907484139 0.38937783541807691 0 0.22048943929127321 0.40039470607086752 0 0.22912739907484139 0.38937783541807691 0 0.22048943929127321 0.40039470607086752 0 0.23485829826569041 0.40225939435418279 0 0.22912739907484139 0.38937783541807691 0 0.23485829826569041 0.40225939435418279 0 0.24202919414557311 0.39046249127048471 0 0.23485829826569041 0.40225939435418279 0 0.24804174735343701 0.40400047496944258 0 0.24202919414557311 0.39046249127048471 0 0.24804174735343701 0.40400047496944258 0 0.24202919414557311 0.39046249127048471 0 0.25191163841066588 0.39483770451307632 0 0.249627629666656 0.38892499160726141 0 0.24202919414557311 0.39046249127048471 0 0.25191163841066588 0.39483770451307632 0 0.24943327452058389 0.38258944933161598 0 0.23896991946370619 0.37861040355281939 0 0.24202919414557311 0.39046249127048471 0 0.249627629666656 0.38892499160726141 0 0.24943327452058389 0.38258944933161598 0 0.24202919414557311 0.39046249127048471 0 0.24943327452058389 0.38258944933161598 0 0.24958701205023251 0.37703497002863601 0 0.23896991946370619 0.37861040355281939 0 0.22912739907484139 0.38937783541807691 0 0.23896991946370619 0.37861040355281939 0 0.24202919414557311 0.39046249127048471 0 0.23513208539277261 0.43401078496043571 0 0.22569854148615481 0.41834835074076843 0 0.25259561048620149 0.4309479064422167 0 0.22569854148615481 0.41834835074076843 0 0.25259561048620149 0.4309479064422167 0 0.2427208981280489 0.41482904019898947 0 0.22569854148615481 0.41834835074076843 0 0.25259561048620149 0.4309479064422167 0 0.2427208981280489 0.41482904019898947 0 0.25432916296999469 0.41862521128792551 0 0.25259561048620149 0.4309479064422167 0 0.23485829826569041 0.40225939435418279 0 0.2427208981280489 0.41482904019898947 0 0.22569854148615481 0.41834835074076843 0 0.24804174735343701 0.40400047496944258 0 0.2427208981280489 0.41482904019898947 0 0.25432916296999469 0.41862521128792551 0 0.23485829826569041 0.40225939435418279 0 0.24804174735343701 0.40400047496944258 0 0.2427208981280489 0.41482904019898947 0 0.22048943929127321 0.40039470607086752 0 0.23485829826569041 0.40225939435418279 0 0.22569854148615481 0.41834835074076843 0 0.23513208539277261 0.43401078496043571 0 0.22569854148615481 0.41834835074076843 0 0.2217596651519049 0.4377668684141377 0 0.2071054646704826 0.4243769609365598 0 0.19489216182743119 0.43719189002950298 0 0.2217596651519049 0.4377668684141377 0 0.22569854148615481 0.41834835074076843 0 0.2071054646704826 0.4243769609365598 0 0.2217596651519049 0.4377668684141377 0 0.19489216182743119 0.43719189002950298 0 0.2217596651519049 0.4377668684141377 0 0.19880147248610791 0.40574879503932021 0 0.22569854148615481 0.41834835074076843 0 0.2071054646704826 0.4243769609365598 0 0.19880147248610791 0.40574879503932021 0 0.22048943929127321 0.40039470607086752 0 0.22569854148615481 0.41834835074076843 0 0.19880147248610791 0.40574879503932021 0 0.22569854148615481 0.41834835074076843 0 0.1814020157272738 0.41750557776732461 0 0.19880147248610791 0.40574879503932021 0 0.2071054646704826 0.4243769609365598 0 0.1814020157272738 0.41750557776732461 0 0.2071054646704826 0.4243769609365598 0 0.19489216182743119 0.43719189002950298 0 0.19489216182743119 0.43719189002950298 0 0.2076466932657898 0.45237022263367649 0 0.18281856052649981 0.4588138376871943 0 0.2076466932657898 0.45237022263367649 0 0.1993388758068568 0.47731901255092363 0 0.18281856052649981 0.4588138376871943 0 0.21593605312109401 0.4687107608697097 0 0.2076466932657898 0.45237022263367649 0 0.1993388758068568 0.47731901255092363 0 0.21593605312109401 0.4687107608697097 0 0.2076466932657898 0.45237022263367649 0 0.22456186720690249 0.45431418569263171 0 0.19489216182743119 0.43719189002950298 0 0.2076466932657898 0.45237022263367649 0 0.2217596651519049 0.4377668684141377 0 0.2076466932657898 0.45237022263367649 0 0.2217596651519049 0.4377668684141377 0 0.22456186720690249 0.45431418569263171 0 0.2217596651519049 0.4377668684141377 0 0.22456186720690249 0.45431418569263171 0 0.24047452444682921 0.44898001424462008 0 0.23513208539277261 0.43401078496043571 0 0.2217596651519049 0.4377668684141377 0 0.24047452444682921 0.44898001424462008 0 0.21593605312109401 0.4687107608697097 0 0.22456186720690249 0.45431418569263171 0 0.23946637802224791 0.46703458452927898 0 0.22456186720690249 0.45431418569263171 0 0.23946637802224791 0.46703458452927898 0 0.24047452444682921 0.44898001424462008 0 0.23946637802224791 0.46703458452927898 0 0.24047452444682921 0.44898001424462008 0 0.25596863475111092 0.45618252110823421 0 0.23513208539277261 0.43401078496043571 0 0.24047452444682921 0.44898001424462008 0 0.25259561048620149 0.4309479064422167 0 0.24051919799988961 0.5 0 0.22550807888528021 0.48493315528217679 0 0.25269118558641263 0.48527443898502032 0 0.23946637802224791 0.46703458452927898 0 0.22550807888528021 0.48493315528217679 0 0.25269118558641263 0.48527443898502032 0 0.21593605312109401 0.4687107608697097 0 0.23946637802224791 0.46703458452927898 0 0.22550807888528021 0.48493315528217679 0 0.24051919799988961 0.5 0 0.22550807888528021 0.48493315528217679 0 0.2124115032157963 0.5 0 0.22550807888528021 0.48493315528217679 0 0.2124115032157963 0.5 0 0.1993388758068568 0.47731901255092363 0 0.21593605312109401 0.4687107608697097 0 0.22550807888528021 0.48493315528217679 0 0.1993388758068568 0.47731901255092363 0 0.2124115032157963 0.5 0 0.1993388758068568 0.47731901255092363 0 0.18430380843170291 0.5 0 0.1993388758068568 0.47731901255092363 0 0.18430380843170291 0.5 0 0.16670287080178689 0.47691145289415898 0 0.1993388758068568 0.47731901255092363 0 0.16670287080178689 0.47691145289415898 0 0.18281856052649981 0.4588138376871943 0 0.18430380843170291 0.5 0 0.16670287080178689 0.47691145289415898 0 0.15619611364760941 0.5 0 0.18281856052649981 0.4588138376871943 0 0.17202735836015559 0.44989907956042929 0 0.16605954166496831 0.45834866215068171 0 0.16802465850295739 0.43661691164486838 0 0.19489216182743119 0.43719189002950298 0 0.17202735836015559 0.44989907956042929 0 0.19489216182743119 0.43719189002950298 0 0.18281856052649981 0.4588138376871943 0 0.17202735836015559 0.44989907956042929 0 0.14115715517848371 0.43604193326023383 0 0.16802465850295739 0.43661691164486838 0 0.15963166740913631 0.44367136436697568 0 0.16802465850295739 0.43661691164486838 0 0.17202735836015559 0.44989907956042929 0 0.15963166740913631 0.44367136436697568 0 0.17202735836015559 0.44989907956042929 0 0.15963166740913631 0.44367136436697568 0 0.16605954166496831 0.45834866215068171 0 0.15963166740913631 0.44367136436697568 0 0.16605954166496831 0.45834866215068171 0 0.14911725122726269 0.46244757624464988 0 0.16670287080178689 0.47691145289415898 0 0.16605954166496831 0.45834866215068171 0 0.14911725122726269 0.46244757624464988 0 0.16670287080178689 0.47691145289415898 0 0.18281856052649981 0.4588138376871943 0 0.16605954166496831 0.45834866215068171 0 0.14911725122726269 0.46244757624464988 0 0.1454278039958789 0.44880138820047999 0 0.12974778145820071 0.45309565738984442 0 0.14115715517848371 0.43604193326023383 0 0.15963166740913631 0.44367136436697568 0 0.1454278039958789 0.44880138820047999 0 0.15963166740913631 0.44367136436697568 0 0.14911725122726269 0.46244757624464988 0 0.1454278039958789 0.44880138820047999 0 0.15963166740913631 0.44367136436697568 0 0.14911725122726269 0.46244757624464988 0 0.11428965185400999 0.43546695487559922 0 0.14115715517848371 0.43604193326023383 0 0.12974778145820071 0.45309565738984442 0 0.14115715517848371 0.43604193326023383 0 0.1454278039958789 0.44880138820047999 0 0.12974778145820071 0.45309565738984442 0 0.14911725122726269 0.46244757624464988 0 0.12974778145820071 0.45309565738984442 0 0.128337320719766 0.46932391149759151 0 0.1196485737237418 0.48239472081715151 0 0.128337320719766 0.46932391149759151 0 0.13860283504538909 0.48122378812232419 0 0.14911725122726269 0.46244757624464988 0 0.128337320719766 0.46932391149759151 0 0.13860283504538909 0.48122378812232419 0 0.1196485737237418 0.48239472081715151 0 0.13860283504538909 0.48122378812232419 0 0.12808841886351599 0.49999999999999889 0 0.13860283504538909 0.48122378812232419 0 0.12808841886351599 0.49999999999999889 0 0.16670287080178689 0.47691145289415898 0 0.13860283504538909 0.48122378812232419 0 0.15619611364760941 0.5 0 0.13860283504538909 0.48122378812232419 0 0.12808841886351599 0.49999999999999889 0 0.15619611364760941 0.5 0 0.14911725122726269 0.46244757624464988 0 0.13860283504538909 0.48122378812232419 0 0.16670287080178689 0.47691145289415898 0 0.14911725122726269 0.46244757624464988 0 0.13860283504538909 0.48122378812232419 0 0.3544941811797867 0.48784306859486998 0 0.3580776376608038 0.4596318779716615 0 0.34046368465063398 0.47649428767570923 0 0.3544941811797867 0.48784306859486998 0 0.3580776376608038 0.4596318779716615 0 0.3443201363617302 0.49412316856491162 0 0.3544941811797867 0.48784306859486998 0 0.34046368465063398 0.47649428767570923 0 0.3443201363617302 0.49412316856491162 0 0.3544941811797867 0.48784306859486998 0 0.3443201363617302 0.49412316856491162 0 0.35294997713626269 0.50000000000000422 0 0.3544941811797867 0.48784306859486998 0 0.35294997713626269 0.50000000000000422 0 0.3544941811797867 0.48784306859486998 0 0.3544941811797867 0.48784306859486998 0 0.37854029911636661 0.47300019860228032 0 0.38277485620541879 0.5 0 0.35294997713626269 0.50000000000000422 0 0.3544941811797867 0.48784306859486998 0 0.38277485620541879 0.5 0 0.3544941811797867 0.48784306859486998 0 0.3580776376608038 0.4596318779716615 0 0.37854029911636661 0.47300019860228032 0 0.3544941811797867 0.48784306859486998 0 0.37854029911636661 0.47300019860228032 0 0.37239059619635118 0.45314175251904038 0 0.3580776376608038 0.4596318779716615 0 0.37854029911636661 0.47300019860228032 0 0.3580776376608038 0.4596318779716615 0 0.36166109414181991 0.43142068734845279 0 0.37239059619635118 0.45314175251904038 0 0.3580776376608038 0.4596318779716615 0 0.36166109414181991 0.43142068734845279 0 0.37239059619635118 0.45314175251904038 0 0.36166109414181991 0.43142068734845279 0 0.37851849014967381 0.44130429881417171 0 0.3580776376608038 0.4596318779716615 0 0.33857221771909901 0.44638934959556181 0 0.36166109414181991 0.43142068734845279 0 0.3580776376608038 0.4596318779716615 0 0.34071286035410969 0.4614399504149912 0 0.34046368465063398 0.47649428767570923 0 0.3580776376608038 0.4596318779716615 0 0.34071286035410969 0.4614399504149912 0 0.33857221771909901 0.44638934959556181 0 0.34071286035410969 0.4614399504149912 0 0.33857221771909901 0.44638934959556181 0 0.32538465882053458 0.4665810318421848 0 0.34071286035410969 0.4614399504149912 0 0.32538465882053458 0.4665810318421848 0 0.34046368465063398 0.47649428767570923 0 0.33857221771909901 0.44638934959556181 0 0.32538465882053458 0.4665810318421848 0 0.31128940628224372 0.44639543828400219 0 0.33857221771909901 0.44638934959556181 0 0.31128940628224372 0.44639543828400219 0 0.32462206420859202 0.43165093638767149 0 0.32538465882053458 0.4665810318421848 0 0.30629874279755781 0.46733295448013268 0 0.31128940628224372 0.44639543828400219 0 0.32538465882053458 0.4665810318421848 0 0.3139208965813447 0.4831088649277977 0 0.32978633175328259 0.48406147060212068 0 0.32538465882053458 0.4665810318421848 0 0.3139208965813447 0.4831088649277977 0 0.30629874279755781 0.46733295448013268 0 0.32538465882053458 0.4665810318421848 0 0.32978633175328259 0.48406147060212068 0 0.34046368465063398 0.47649428767570923 0 0.3443201363617302 0.49412316856491162 0 0.35294997713626269 0.50000000000000422 0 0.32484228235216939 0.5 0 0.3443201363617302 0.49412316856491162 0 0.32978633175328259 0.48406147060212068 0 0.34046368465063398 0.47649428767570923 0 0.3443201363617302 0.49412316856491162 0 0.32978633175328259 0.48406147060212068 0 0.32484228235216939 0.5 0 0.3139208965813447 0.4831088649277977 0 0.32978633175328259 0.48406147060212068 0 0.32484228235216939 0.5 0 0.3139208965813447 0.4831088649277977 0 0.32484228235216939 0.5 0 0.29673458756807608 0.5 0 0.3139208965813447 0.4831088649277977 0 0.29382535103829222 0.48223929002609739 0 0.29673458756807608 0.5 0 0.29382535103829222 0.48223929002609739 0 0.29065853171376332 0.45691716516179881 0 0.30629874279755781 0.46733295448013268 0 0.3139208965813447 0.4831088649277977 0 0.29382535103829222 0.48223929002609739 0 0.30629874279755781 0.46733295448013268 0 0.29382535103829222 0.48223929002609739 0 0.27573851185849368 0.48505294264556081 0 0.27969827743933612 0.47133004092628922 0 0.29382535103829222 0.48223929002609739 0 0.27969827743933612 0.47133004092628922 0 0.29065853171376332 0.45691716516179881 0 0.29382535103829222 0.48223929002609739 0 0.29065853171376332 0.45691716516179881 0 0.29382535103829222 0.48223929002609739 0 0.29673458756807608 0.5 0 0.27573851185849368 0.48505294264556081 0 0.29673458756807608 0.5 0 0.27573851185849368 0.48505294264556081 0 0.26862689278398288 0.5 0 0.27573851185849368 0.48505294264556081 0 0.26862689278398288 0.5 0 0.25269118558641263 0.48527443898502032 0 0.27573851185849368 0.48505294264556081 0 0.27969827743933612 0.47133004092628922 0 0.26285477673486313 0.47147388593595818 0 0.23946637802224791 0.46703458452927898 0 0.26285477673486313 0.47147388593595818 0 0.25269118558641263 0.48527443898502032 0 0.27573851185849368 0.48505294264556081 0 0.26285477673486313 0.47147388593595818 0 0.25269118558641263 0.48527443898502032 0 0.24051919799988961 0.5 0 0.26862689278398288 0.5 0 0.25269118558641263 0.48527443898502032 0 0.2639831184180314 0.44028752727106008 0 0.25596863475111092 0.45618252110823421 0 0.27284037726105631 0.45570712726469731 0 0.24047452444682921 0.44898001424462008 0 0.2639831184180314 0.44028752727106008 0 0.24047452444682921 0.44898001424462008 0 0.2639831184180314 0.44028752727106008 0 0.25596863475111092 0.45618252110823421 0 0.24047452444682921 0.44898001424462008 0 0.2639831184180314 0.44028752727106008 0 0.25259561048620149 0.4309479064422167 0 0.23946637802224791 0.46703458452927898 0 0.26285477673486313 0.47147388593595818 0 0.25596863475111092 0.45618252110823421 0 0.26285477673486313 0.47147388593595818 0 0.25596863475111092 0.45618252110823421 0 0.27284037726105631 0.45570712726469731 0 0.27969827743933612 0.47133004092628922 0 0.26285477673486313 0.47147388593595818 0 0.27284037726105631 0.45570712726469731 0 0.27969827743933612 0.47133004092628922 0 0.27284037726105631 0.45570712726469731 0 0.29065853171376332 0.45691716516179881 0 0.2639831184180314 0.44028752727106008 0 0.27284037726105631 0.45570712726469731 0 0.28749171238923388 0.43159504029750029 0 0.29065853171376332 0.45691716516179881 0 0.28749171238923388 0.43159504029750029 0 0.29065853171376332 0.45691716516179881 0 0.31128940628224372 0.44639543828400219 0 0.28749171238923388 0.43159504029750029 0 0.27284037726105631 0.45570712726469731 0 0.29065853171376332 0.45691716516179881 0 0.28749171238923388 0.43159504029750029 0 0.29065853171376332 0.45691716516179881 0 0.30629874279755781 0.46733295448013268 0 0.31128940628224372 0.44639543828400219 0 0.30873469112397101 0.4237402823244153 0 0.28749171238923388 0.43159504029750029 0 0.31128940628224372 0.44639543828400219 0 0.30873469112397101 0.4237402823244153 0 0.28749171238923388 0.43159504029750029 0 0.30873469112397101 0.4237402823244153 0 0.28464230018554643 0.40881092658037671 0 0.30863292748382781 0.40272170956616532 0 0.28464230018554643 0.40881092658037671 0 0.28749171238923388 0.43159504029750029 0 0.30873469112397101 0.4237402823244153 0 0.28464230018554643 0.40881092658037671 0 0.28749171238923388 0.43159504029750029 0 0.2639831184180314 0.44028752727106008 0 0.28749171238923388 0.43159504029750029 0 0.26842274197548283 0.42152254483267992 0 0.2639831184180314 0.44028752727106008 0 0.28749171238923388 0.43159504029750029 0 0.28464230018554643 0.40881092658037671 0 0.28749171238923388 0.43159504029750029 0 0.26842274197548283 0.42152254483267992 0 0.28464230018554643 0.40881092658037671 0 0.26919238621528552 0.40724051954476392 0 0.26842274197548283 0.42152254483267992 0 0.26919238621528552 0.40724051954476392 0 0.26842274197548283 0.42152254483267992 0 0.2625413025308706 0.41386175591904778 0 0.26842274197548283 0.42152254483267992 0 0.2625413025308706 0.41386175591904778 0 0.25432916296999469 0.41862521128792551 0 0.2625413025308706 0.41386175591904778 0 0.25781536445032949 0.40799648674100047 0 0.25432916296999469 0.41862521128792551 0 0.26919238621528552 0.40724051954476392 0 0.2625413025308706 0.41386175591904778 0 0.25781536445032949 0.40799648674100047 0 0.24804174735343701 0.40400047496944258 0 0.25781536445032949 0.40799648674100047 0 0.25432916296999469 0.41862521128792551 0 0.2639831184180314 0.44028752727106008 0 0.26842274197548283 0.42152254483267992 0 0.25259561048620149 0.4309479064422167 0 0.26842274197548283 0.42152254483267992 0 0.25432916296999469 0.41862521128792551 0 0.25259561048620149 0.4309479064422167 0 0.24943327452058389 0.38258944933161598 0 0.24958701205023251 0.37703497002863601 0 0.26950208204739012 0.3798616530754626 0 0.24943327452058389 0.38258944933161598 0 0.26950208204739012 0.3798616530754626 0 0.24958701205023251 0.37703497002863601 0 0.26950208204739012 0.3798616530754626 0 0.26135514817214323 0.36912416898010392 0 0.24943327452058389 0.38258944933161598 0 0.26178357937442048 0.38205392382428061 0 0.26950208204739012 0.3798616530754626 0 0.26178357937442048 0.38205392382428061 0 0.26229187946408827 0.39154764534079273 0 0.26829225119914141 0.39099617561226058 0 0.26178357937442048 0.38205392382428061 0 0.25554775930091722 0.38938288264568433 0 0.26229187946408827 0.39154764534079273 0 0.24943327452058389 0.38258944933161598 0 0.26178357937442048 0.38205392382428061 0 0.25554775930091722 0.38938288264568433 0 0.249627629666656 0.38892499160726141 0 0.24943327452058389 0.38258944933161598 0 0.25554775930091722 0.38938288264568433 0 0.25554775930091722 0.38938288264568433 0 0.25191163841066588 0.39483770451307632 0 0.25820934248496979 0.39902615083296011 0 0.249627629666656 0.38892499160726141 0 0.25554775930091722 0.38938288264568433 0 0.25191163841066588 0.39483770451307632 0 0.24804174735343701 0.40400047496944258 0 0.25191163841066588 0.39483770451307632 0 0.25820934248496979 0.39902615083296011 0 0.24804174735343701 0.40400047496944258 0 0.25781536445032949 0.40799648674100047 0 0.25820934248496979 0.39902615083296011 0 0.26919238621528552 0.40724051954476392 0 0.25820934248496979 0.39902615083296011 0 0.26681853335695488 0.3968241710639876 0 0.26919238621528552 0.40724051954476392 0 0.25781536445032949 0.40799648674100047 0 0.25820934248496979 0.39902615083296011 0 0.25820934248496979 0.39902615083296011 0 0.26229187946408827 0.39154764534079273 0 0.26681853335695488 0.3968241710639876 0 0.25554775930091722 0.38938288264568433 0 0.25820934248496979 0.39902615083296011 0 0.26229187946408827 0.39154764534079273 0 0.26829225119914141 0.39099617561226058 0 0.2746174837064036 0.39626294822790697 0 0.27594978009383969 0.38829218960433542 0 0.28464230018554643 0.40881092658037671 0 0.2746174837064036 0.39626294822790697 0 0.28179288798185809 0.38602681286325308 0 0.26229187946408827 0.39154764534079273 0 0.26829225119914141 0.39099617561226058 0 0.26681853335695488 0.3968241710639876 0 0.26829225119914141 0.39099617561226058 0 0.26681853335695488 0.3968241710639876 0 0.2746174837064036 0.39626294822790697 0 0.26919238621528552 0.40724051954476392 0 0.26681853335695488 0.3968241710639876 0 0.2746174837064036 0.39626294822790697 0 0.28464230018554643 0.40881092658037671 0 0.26919238621528552 0.40724051954476392 0 0.2746174837064036 0.39626294822790697 0 0.26178357937442048 0.38205392382428061 0 0.26950208204739012 0.3798616530754626 0 0.28426160569289749 0.38148319095271122 0 0.26950208204739012 0.3798616530754626 0 0.28426160569289749 0.38148319095271122 0 0.28957088957419608 0.37713385681930822 0 0.26950208204739012 0.3798616530754626 0 0.28957088957419608 0.37713385681930822 0 0.2746174837064036 0.39626294822790697 0 0.27594978009383969 0.38829218960433542 0 0.28179288798185809 0.38602681286325308 0 0.27594978009383969 0.38829218960433542 0 0.28426160569289749 0.38148319095271122 0 0.28179288798185809 0.38602681286325308 0 0.26178357937442048 0.38205392382428061 0 0.27594978009383969 0.38829218960433542 0 0.28426160569289749 0.38148319095271122 0 0.26950208204739012 0.3798616530754626 0 0.28957088957419608 0.37713385681930822 0 0.27870492714756728 0.37095785832593658 0 0.26178357937442048 0.38205392382428061 0 0.28426160569289749 0.38148319095271122 0 0.27594978009383969 0.38829218960433542 0 0.28426160569289749 0.38148319095271122 0 0.26178357937442048 0.38205392382428061 0 0.26829225119914141 0.39099617561226058 0 0.27594978009383969 0.38829218960433542 0 0.28426160569289749 0.38148319095271122 0 0.28957088957419608 0.37713385681930822 0 0.30781607687742341 0.3808851263901526 0 0.28426160569289749 0.38148319095271122 0 0.30781607687742341 0.3808851263901526 0 0.28426160569289749 0.38148319095271122 0 0.29435082955842151 0.39209627410716358 0 0.30781607687742341 0.3808851263901526 0 0.28426160569289749 0.38148319095271122 0 0.28957088957419608 0.37713385681930822 0 0.28426160569289749 0.38148319095271122 0 0.28179288798185809 0.38602681286325308 0 0.29435082955842151 0.39209627410716358 0 0.28464230018554643 0.40881092658037671 0 0.28179288798185809 0.38602681286325308 0 0.28464230018554643 0.40881092658037671 0 0.29435082955842151 0.39209627410716358 0 0.30863292748382781 0.40272170956616532 0 0.28464230018554643 0.40881092658037671 0 0.28179288798185809 0.38602681286325308 0 0.29435082955842151 0.39209627410716358 0 0.29435082955842151 0.39209627410716358 0 0.30863292748382781 0.40272170956616532 0 0.30781607687742341 0.3808851263901526 0 0.28957088957419608 0.37713385681930822 0 0.30777935744652501 0.37465892200187739 0 0.28957088957419608 0.37713385681930822 0 0.30781607687742341 0.3808851263901526 0 0.30777935744652501 0.37465892200187739 0 0.30781607687742341 0.3808851263901526 0 0.32598782531885367 0.37218398718444562 0 0.30777935744652501 0.37465892200187739 0 0.30781607687742341 0.3808851263901526 0 0.33137054806194938 0.38028706182759192 0 0.32661939567490561 0.39665967873270669 0 0.30781607687742341 0.3808851263901526 0 0.33137054806194938 0.38028706182759192 0 0.32598782531885367 0.37218398718444562 0 0.30781607687742341 0.3808851263901526 0 0.33137054806194938 0.38028706182759192 0 0.33137054806194938 0.38028706182759192 0 0.35492501924647529 0.37968899726503108 0 0.34397626350069022 0.3958564140324759 0 0.33137054806194938 0.38028706182759192 0 0.35492501924647529 0.37968899726503108 0 0.33137054806194938 0.38028706182759192 0 0.35492501924647529 0.37968899726503108 0 0.34042832465074091 0.36843078927944872 0 0.33794288826683461 0.40432223622852409 0 0.32661939567490561 0.39665967873270669 0 0.34397626350069022 0.3958564140324759 0 0.33794288826683461 0.40432223622852409 0 0.32661939567490561 0.39665967873270669 0 0.32997766985870819 0.41588552435133053 0 0.33137054806194938 0.38028706182759192 0 0.32661939567490561 0.39665967873270669 0 0.34397626350069022 0.3958564140324759 0 0.30863292748382781 0.40272170956616532 0 0.32661939567490561 0.39665967873270669 0 0.32997766985870819 0.41588552435133053 0 0.30863292748382781 0.40272170956616532 0 0.30781607687742341 0.3808851263901526 0 0.32661939567490561 0.39665967873270669 0 0.30873469112397101 0.4237402823244153 0 0.32997766985870819 0.41588552435133053 0 0.30873469112397101 0.4237402823244153 0 0.30863292748382781 0.40272170956616532 0 0.32997766985870819 0.41588552435133053 0 0.31128940628224372 0.44639543828400219 0 0.30873469112397101 0.4237402823244153 0 0.32462206420859202 0.43165093638767149 0 0.30873469112397101 0.4237402823244153 0 0.32462206420859202 0.43165093638767149 0 0.32997766985870819 0.41588552435133053 0 0.33857221771909901 0.44638934959556181 0 0.32462206420859202 0.43165093638767149 0 0.34276984353419421 0.42715368471823362 0 0.32462206420859202 0.43165093638767149 0 0.34276984353419421 0.42715368471823362 0 0.32997766985870819 0.41588552435133053 0 0.33794288826683461 0.40432223622852409 0 0.32997766985870819 0.41588552435133053 0 0.35122064859344548 0.40803076637824559 0 0.32997766985870819 0.41588552435133053 0 0.35122064859344548 0.40803076637824559 0 0.34598618170960033 0.41832964890357011 0 0.34276984353419421 0.42715368471823362 0 0.32997766985870819 0.41588552435133053 0 0.34598618170960033 0.41832964890357011 0 0.32997766985870819 0.41588552435133053 0 0.35122064859344548 0.40803076637824559 0 0.35122064859344548 0.40803076637824559 0 0.34598618170960033 0.41832964890357011 0 0.35399744151215923 0.41324392592410703 0 0.34276984353419421 0.42715368471823362 0 0.34598618170960033 0.41832964890357011 0 0.35674404314019598 0.41939614490345561 0 0.34598618170960033 0.41832964890357011 0 0.35674404314019598 0.41939614490345561 0 0.35399744151215923 0.41324392592410703 0 0.35674404314019598 0.41939614490345561 0 0.35399744151215923 0.41324392592410703 0 0.36203889260539501 0.40721914351115679 0 0.35122064859344548 0.40803076637824559 0 0.35399744151215923 0.41324392592410703 0 0.36203889260539501 0.40721914351115679 0 0.34276984353419421 0.42715368471823362 0 0.35674404314019598 0.41939614490345561 0 0.36166109414181991 0.43142068734845279 0 0.33857221771909901 0.44638934959556181 0 0.34276984353419421 0.42715368471823362 0 0.36166109414181991 0.43142068734845279 0 0.36166109414181991 0.43142068734845279 0 0.37188152038625572 0.42225689776970787 0 0.37851849014967381 0.44130429881417171 0 0.36166109414181991 0.43142068734845279 0 0.36524455062283678 0.40320949672524442 0 0.37188152038625572 0.42225689776970787 0 0.36524455062283678 0.40320949672524442 0 0.36166109414181991 0.43142068734845279 0 0.36203889260539501 0.40721914351115679 0 0.36524455062283678 0.40320949672524442 0 0.36166109414181991 0.43142068734845279 0 0.37188152038625572 0.42225689776970787 0 0.36524455062283678 0.40320949672524442 0 0.37188152038625572 0.42225689776970787 0 0.37343240748704548 0.41147117818633011 0 0.36524455062283678 0.40320949672524442 0 0.35674404314019598 0.41939614490345561 0 0.36166109414181991 0.43142068734845279 0 0.36203889260539501 0.40721914351115679 0 0.37343240748704548 0.41147117818633011 0 0.37352845926032791 0.40466723270294369 0 0.36524455062283678 0.40320949672524442 0 0.36524455062283678 0.40320949672524442 0 0.36591575376865748 0.39792536951622642 0 0.35703032632604348 0.37963554204000138 0 0.36203889260539501 0.40721914351115679 0 0.36524455062283678 0.40320949672524442 0 0.35492501924647529 0.37968899726503108 0 0.37352845926032791 0.40466723270294369 0 0.37086448354688661 0.40073877054602319 0 0.36524455062283678 0.40320949672524442 0 0.36524455062283678 0.40320949672524442 0 0.35703032632604348 0.37963554204000138 0 0.37086448354688661 0.40073877054602319 0 0.37308379948957049 0.39512160762198739 0 0.37697747880121629 0.4012168873649079 0 0.37352845926032791 0.40466723270294369 0 0.37086448354688661 0.40073877054602319 0 0.37697747880121629 0.4012168873649079 0 0.37086448354688661 0.40073877054602319 0 0.36524455062283678 0.40320949672524442 0 0.36591575376865748 0.39792536951622642 0 0.36524455062283678 0.40320949672524442 0 0.36591575376865748 0.39792536951622642 0 0.36591575376865748 0.39792536951622642 0 0.3694070798218414 0.39284409866894349 0 0.36634057669041697 0.38915697294795748 0 0.36591575376865748 0.39792536951622642 0 0.3694070798218414 0.39284409866894349 0 0.37308379948957049 0.39512160762198739 0 0.37086448354688661 0.40073877054602319 0 0.36591575376865748 0.39792536951622642 0 0.37308379948957049 0.39512160762198739 0 0.3694070798218414 0.39284409866894349 0 0.37308379948957049 0.39512160762198739 0 0.37416532358117821 0.38846364648540699 0 0.37416532358117821 0.38846364648540699 0 0.36634057669041697 0.38915697294795748 0 0.35703032632604348 0.37963554204000138 0 0.35703032632604348 0.37963554204000138 0 0.3865872293620829 0.37888507151801881 0 0.37416532358117821 0.38846364648540699 0 0.35703032632604348 0.37963554204000138 0 0.38086009512903318 0.38504302471825569 0 0.35703032632604348 0.37963554204000138 0 0.37602404691284808 0.37161696185854892 0 0.3865872293620829 0.37888507151801881 0 0.3694070798218414 0.39284409866894349 0 0.37416532358117821 0.38846364648540699 0 0.36634057669041697 0.38915697294795748 0 0.35703032632604348 0.37963554204000138 0 0.3865872293620829 0.37888507151801881 0 0.38086009512903318 0.38504302471825569 0 0.36591575376865748 0.39792536951622642 0 0.36634057669041697 0.38915697294795748 0 0.35703032632604348 0.37963554204000138 0 0.36524455062283678 0.40320949672524442 0 0.35703032632604348 0.37963554204000138 0 0.35492501924647529 0.37968899726503108 0 0.35703032632604348 0.37963554204000138 0 0.35492501924647529 0.37968899726503108 0 0.36203889260539501 0.40721914351115679 0 0.35492501924647529 0.37968899726503108 0 0.36203889260539501 0.40721914351115679 0 0.35492501924647529 0.37968899726503108 0 0.34397626350069022 0.3958564140324759 0 0.35122064859344548 0.40803076637824559 0 0.36203889260539501 0.40721914351115679 0 0.34397626350069022 0.3958564140324759 0 0.33794288826683461 0.40432223622852409 0 0.35122064859344548 0.40803076637824559 0 0.34397626350069022 0.3958564140324759 0 0.3488297344965115 0.3561007110934955 0 0.3666216198308912 0.34099855793073669 0 0.35398162498121022 0.3373592698937522 0 0.3488297344965115 0.3561007110934955 0 0.34137224116628151 0.33469849422183939 0 0.3488297344965115 0.3561007110934955 0 0.34296267094093452 0.33339562350324109 0 0.35703032632604348 0.37963554204000138 0 0.3488297344965115 0.3561007110934955 0 0.36430430050084472 0.3690097712964242 0 0.35703032632604348 0.37963554204000138 0 0.3488297344965115 0.3561007110934955 0 0.35703032632604348 0.37963554204000138 0 0.35492501924647529 0.37968899726503108 0 0.3488297344965115 0.3561007110934955 0 0.35492501924647529 0.37968899726503108 0 0.3488297344965115 0.3561007110934955 0 0.35492501924647529 0.37968899726503108 0 0.3488297344965115 0.3561007110934955 0 0.34042832465074091 0.36843078927944872 0 0.35703032632604348 0.37963554204000138 0 0.36430430050084472 0.3690097712964242 0 0.37602404691284808 0.37161696185854892 0 0.3488297344965115 0.3561007110934955 0 0.36430430050084472 0.3690097712964242 0 0.37114555196740912 0.3591701152497136 0 0.36430430050084472 0.3690097712964242 0 0.37114555196740912 0.3591701152497136 0 0.37602404691284808 0.37161696185854892 0 0.37114555196740912 0.3591701152497136 0 0.3666216198308912 0.34099855793073669 0 0.38347501300531472 0.35028012760193228 0 0.3488297344965115 0.3561007110934955 0 0.37114555196740912 0.3591701152497136 0 0.3666216198308912 0.34099855793073669 0 0.35957836187200709 0.32954819099880711 0 0.3666216198308912 0.34099855793073669 0 0.36846517255457428 0.32219135053615838 0 0.3666216198308912 0.34099855793073669 0 0.36846517255457428 0.32219135053615838 0 0.38114488027144011 0.33289733455110609 0 0.35957836187200709 0.32954819099880711 0 0.3666216198308912 0.34099855793073669 0 0.35398162498121022 0.3373592698937522 0 0.36846517255457428 0.32219135053615838 0 0.35895554937937052 0.30895777787443829 0 0.3744193971394143 0.30727342308688271 0 0.35957836187200709 0.32954819099880711 0 0.36846517255457428 0.32219135053615838 0 0.35777201501979478 0.3204223735450511 0 0.36846517255457428 0.32219135053615838 0 0.35777201501979478 0.3204223735450511 0 0.35895554937937052 0.30895777787443829 0 0.35105137697356531 0.32676940308833707 0 0.34296267094093452 0.33339562350324109 0 0.33783679417099699 0.31355887213077932 0 0.35777201501979478 0.3204223735450511 0 0.34994525352731459 0.31466128237336988 0 0.35895554937937052 0.30895777787443829 0 0.35777201501979478 0.3204223735450511 0 0.35105137697356531 0.32676940308833707 0 0.34994525352731459 0.31466128237336988 0 0.35957836187200709 0.32954819099880711 0 0.35777201501979478 0.3204223735450511 0 0.35105137697356531 0.32676940308833707 0 0.35105137697356531 0.32676940308833707 0 0.34994525352731459 0.31466128237336988 0 0.33783679417099699 0.31355887213077932 0 0.3488297344965115 0.3561007110934955 0 0.34296267094093452 0.33339562350324109 0 0.34137224116628151 0.33469849422183939 0 0.3488297344965115 0.3561007110934955 0 0.35398162498121022 0.3373592698937522 0 0.34296267094093452 0.33339562350324109 0 0.35957836187200709 0.32954819099880711 0 0.35105137697356531 0.32676940308833707 0 0.35398162498121022 0.3373592698937522 0 0.35105137697356531 0.32676940308833707 0 0.34296267094093452 0.33339562350324109 0 0.35105137697356531 0.32676940308833707 0 0.35398162498121022 0.3373592698937522 0 0.34296267094093452 0.33339562350324109 0 0.34137224116628151 0.33469849422183939 0 0.33262697036911187 0.32972862520479512 0 0.32542254479720062 0.33509866736675109 0 0.34137224116628151 0.33469849422183939 0 0.32410512396891938 0.34884361508766198 0 0.34137224116628151 0.33469849422183939 0 0.32542254479720062 0.33509866736675109 0 0.32410512396891938 0.34884361508766198 0 0.34296267094093452 0.33339562350324109 0 0.34137224116628151 0.33469849422183939 0 0.33747123888946767 0.32350303040469192 0 0.34137224116628151 0.33469849422183939 0 0.33262697036911187 0.32972862520479512 0 0.33747123888946767 0.32350303040469192 0 0.34137224116628151 0.33469849422183939 0 0.33747123888946767 0.32350303040469192 0 0.34296267094093452 0.33339562350324109 0 0.34137224116628151 0.33469849422183939 0 0.34296267094093452 0.33339562350324109 0 0.33783679417099699 0.31355887213077932 0 0.33747123888946767 0.32350303040469192 0 0.34296267094093452 0.33339562350324109 0 0.33783679417099699 0.31355887213077932 0 0.33262697036911187 0.32972862520479512 0 0.33747123888946767 0.32350303040469192 0 0.32624185662349819 0.32561430882589848 0 0.33747123888946767 0.32350303040469192 0 0.32964510137819442 0.3182365370848052 0 0.32624185662349819 0.32561430882589848 0 0.33783679417099699 0.31355887213077932 0 0.33747123888946767 0.32350303040469192 0 0.32964510137819442 0.3182365370848052 0 0.33783679417099699 0.31355887213077932 0 0.32964510137819442 0.3182365370848052 0 0.32761296242795113 0.31021943138509428 0 0.32964510137819442 0.3182365370848052 0 0.32021831545420681 0.3178900008282976 0 0.32761296242795113 0.31021943138509428 0 0.32964510137819442 0.3182365370848052 0 0.32624185662349819 0.32561430882589848 0 0.32021831545420681 0.3178900008282976 0 0.32624185662349819 0.32561430882589848 0 0.32021831545420681 0.3178900008282976 0 0.31446697430718862 0.32885344513016862 0 0.32021831545420681 0.3178900008282976 0 0.31446697430718862 0.32885344513016862 0 0.31075536942874171 0.31731806110666583 0 0.32021831545420681 0.3178900008282976 0 0.31075536942874171 0.31731806110666583 0 0.31862981278100838 0.30907066929014698 0 0.32542254479720062 0.33509866736675109 0 0.31391824178245992 0.34196229144474072 0 0.32410512396891938 0.34884361508766198 0 0.32624185662349819 0.32561430882589848 0 0.32542254479720062 0.33509866736675109 0 0.31446697430718862 0.32885344513016862 0 0.33262697036911187 0.32972862520479512 0 0.32624185662349819 0.32561430882589848 0 0.32542254479720062 0.33509866736675109 0 0.32542254479720062 0.33509866736675109 0 0.31446697430718862 0.32885344513016862 0 0.31391824178245992 0.34196229144474072 0 0.32410512396891938 0.34884361508766198 0 0.30683800677155748 0.36298873595348491 0 0.31391824178245992 0.34196229144474072 0 0.32410512396891938 0.34884361508766198 0 0.30683800677155748 0.36298873595348491 0 0.32410512396891938 0.34884361508766198 0 0.32581005148724912 0.36130530702791619 0 0.30683800677155748 0.36298873595348491 0 0.3488297344965115 0.3561007110934955 0 0.34137224116628151 0.33469849422183939 0 0.32410512396891938 0.34884361508766198 0 0.3488297344965115 0.3561007110934955 0 0.32410512396891938 0.34884361508766198 0 0.32581005148724912 0.36130530702791619 0 0.3488297344965115 0.3561007110934955 0 0.34042832465074091 0.36843078927944872 0 0.32581005148724912 0.36130530702791619 0 0.34042832465074091 0.36843078927944872 0 0.32598782531885367 0.37218398718444562 0 0.32581005148724912 0.36130530702791619 0 0.33137054806194938 0.38028706182759192 0 0.34042832465074091 0.36843078927944872 0 0.32598782531885367 0.37218398718444562 0 0.32598782531885367 0.37218398718444562 0 0.31641871326754678 0.36758589394838592 0 0.30777935744652501 0.37465892200187739 0 0.32581005148724912 0.36130530702791619 0 0.31641871326754678 0.36758589394838592 0 0.30683800677155748 0.36298873595348491 0 0.32598782531885367 0.37218398718444562 0 0.30777935744652501 0.37465892200187739 0 0.32598782531885367 0.37218398718444562 0 0.32581005148724912 0.36130530702791619 0 0.31641871326754678 0.36758589394838592 0 0.28957088957419608 0.37713385681930822 0 0.30683800677155748 0.36298873595348491 0 0.31641871326754678 0.36758589394838592 0 0.30777935744652501 0.37465892200187739 0 0.30683800677155748 0.36298873595348491 0 0.28957088957419608 0.37713385681930822 0 0.30777935744652501 0.37465892200187739 0 0.30683800677155748 0.36298873595348491 0 0.31391824178245992 0.34196229144474072 0 0.30683800677155748 0.36298873595348491 0 0.30125935452294722 0.34007268069315633 0 0.30683800677155748 0.36298873595348491 0 0.29083494465326898 0.35128009853730308 0 0.30125935452294722 0.34007268069315633 0 0.30683800677155748 0.36298873595348491 0 0.29083494465326898 0.35128009853730308 0 0.28702547569321368 0.36368492053285978 0 0.29083494465326898 0.35128009853730308 0 0.28702547569321368 0.36368492053285978 0 0.27874611927205822 0.35308672449515699 0 0.29083494465326898 0.35128009853730308 0 0.27874611927205822 0.35308672449515699 0 0.28638302153933698 0.33953927084266461 0 0.28957088957419608 0.37713385681930822 0 0.30683800677155748 0.36298873595348491 0 0.28702547569321368 0.36368492053285978 0 0.28957088957419608 0.37713385681930822 0 0.28702547569321368 0.36368492053285978 0 0.27870492714756728 0.37095785832593658 0 0.27870492714756728 0.37095785832593658 0 0.27018597329978561 0.37047063795750479 0 0.27724021512325142 0.36363822324454831 0 0.26950208204739012 0.3798616530754626 0 0.27018597329978561 0.37047063795750479 0 0.26135514817214323 0.36912416898010392 0 0.26950208204739012 0.3798616530754626 0 0.27870492714756728 0.37095785832593658 0 0.27018597329978561 0.37047063795750479 0 0.27018597329978561 0.37047063795750479 0 0.267671797170976 0.36045715488879632 0 0.26135514817214323 0.36912416898010392 0 0.27018597329978561 0.37047063795750479 0 0.267671797170976 0.36045715488879632 0 0.27724021512325142 0.36363822324454831 0 0.28702547569321368 0.36368492053285978 0 0.27870492714756728 0.37095785832593658 0 0.27724021512325142 0.36363822324454831 0 0.28702547569321368 0.36368492053285978 0 0.27724021512325142 0.36363822324454831 0 0.27874611927205822 0.35308672449515699 0 0.267671797170976 0.36045715488879632 0 0.27724021512325142 0.36363822324454831 0 0.27874611927205822 0.35308672449515699 0 0.27874611927205822 0.35308672449515699 0 0.27315073035003301 0.34482405155702878 0 0.28638302153933698 0.33953927084266461 0 0.27874611927205822 0.35308672449515699 0 0.27315073035003301 0.34482405155702878 0 0.26602511979042021 0.35014800660350143 0 0.27315073035003301 0.34482405155702878 0 0.26602511979042021 0.35014800660350143 0 0.26078808689550897 0.33667850197383842 0 0.267671797170976 0.36045715488879632 0 0.27874611927205822 0.35308672449515699 0 0.26602511979042021 0.35014800660350143 0 0.26602511979042021 0.35014800660350143 0 0.25518754947287081 0.35685673600123718 0 0.26078808689550897 0.33667850197383842 0 0.24291908941464491 0.34897757597918411 0 0.25518754947287081 0.35685673600123718 0 0.26078808689550897 0.33667850197383842 0 0.25518754947287081 0.35685673600123718 0 0.26078808689550897 0.33667850197383842 0 0.267671797170976 0.36045715488879632 0 0.26602511979042021 0.35014800660350143 0 0.25518754947287081 0.35685673600123718 0 0.24958701205023251 0.37703497002863601 0 0.25518754947287081 0.35685673600123718 0 0.24958701205023251 0.37703497002863601 0 0.25518754947287081 0.35685673600123718 0 0.26135514817214323 0.36912416898010392 0 0.267671797170976 0.36045715488879632 0 0.25518754947287081 0.35685673600123718 0 0.26135514817214323 0.36912416898010392 0 0.25397346269822241 0.32988902030519968 0 0.26502783598180057 0.31080046463121558 0 0.25397346269822241 0.32988902030519968 0 0.26078808689550897 0.33667850197383842 0 0.2663886243181468 0.3165002679464396 0 0.26078808689550897 0.33667850197383842 0 0.2663886243181468 0.3165002679464396 0 0.25075992824446391 0.31528290356284 0 0.25397346269822241 0.32988902030519968 0 0.26502783598180057 0.31080046463121558 0 0.25397346269822241 0.32988902030519968 0 0.2663886243181468 0.3165002679464396 0 0.26502783598180057 0.31080046463121558 0 0.24291908941464491 0.34897757597918411 0 0.25397346269822241 0.32988902030519968 0 0.26078808689550897 0.33667850197383842 0 0.27315073035003301 0.34482405155702878 0 0.26078808689550897 0.33667850197383842 0 0.2663886243181468 0.3165002679464396 0 0.27315073035003301 0.34482405155702878 0 0.27723988426301649 0.33169260221294861 0 0.2663886243181468 0.3165002679464396 0 0.27315073035003301 0.34482405155702878 0 0.2663886243181468 0.3165002679464396 0 0.27315073035003301 0.34482405155702878 0 0.27723988426301649 0.33169260221294861 0 0.28638302153933698 0.33953927084266461 0 0.27723988426301649 0.33169260221294861 0 0.2663886243181468 0.3165002679464396 0 0.28303716084454911 0.32590681850566161 0 0.2663886243181468 0.3165002679464396 0 0.28143954724387082 0.31543166300425018 0 0.28303716084454911 0.32590681850566161 0 0.2663886243181468 0.3165002679464396 0 0.26502783598180057 0.31080046463121558 0 0.2663886243181468 0.3165002679464396 0 0.28143954724387082 0.31543166300425018 0 0.27859005224868882 0.30724734078925547 0 0.28143954724387082 0.31543166300425018 0 0.29093170057707979 0.31853973900907939 0 0.28839961413634502 0.30897456662719291 0 0.28143954724387082 0.31543166300425018 0 0.28303716084454911 0.32590681850566161 0 0.29093170057707979 0.31853973900907939 0 0.28303716084454911 0.32590681850566161 0 0.29476258484496681 0.32809780219425427 0 0.29093170057707979 0.31853973900907939 0 0.29476258484496681 0.32809780219425427 0 0.29093170057707979 0.31853973900907939 0 0.30155345321960803 0.31884702909212909 0 0.29093170057707979 0.31853973900907939 0 0.2965070367697456 0.31353991964174882 0 0.28839961413634502 0.30897456662719291 0 0.29093170057707979 0.31853973900907939 0 0.2965070367697456 0.31353991964174882 0 0.30155345321960803 0.31884702909212909 0 0.27723988426301649 0.33169260221294861 0 0.28303716084454911 0.32590681850566161 0 0.28638302153933698 0.33953927084266461 0 0.28303716084454911 0.32590681850566161 0 0.29476258484496681 0.32809780219425427 0 0.28638302153933698 0.33953927084266461 0 0.29476258484496681 0.32809780219425427 0 0.28638302153933698 0.33953927084266461 0 0.30125935452294722 0.34007268069315633 0 0.29083494465326898 0.35128009853730308 0 0.28638302153933698 0.33953927084266461 0 0.30125935452294722 0.34007268069315633 0 0.29476258484496681 0.32809780219425427 0 0.30125935452294722 0.34007268069315633 0 0.30388818674775991 0.32656413090975173 0 0.31446697430718862 0.32885344513016862 0 0.30125935452294722 0.34007268069315633 0 0.30388818674775991 0.32656413090975173 0 0.31446697430718862 0.32885344513016862 0 0.31391824178245992 0.34196229144474072 0 0.30125935452294722 0.34007268069315633 0 0.2965070367697456 0.31353991964174882 0 0.30155345321960803 0.31884702909212909 0 0.30383563580537681 0.31117732521730368 0 0.29476258484496681 0.32809780219425427 0 0.30155345321960803 0.31884702909212909 0 0.30388818674775991 0.32656413090975173 0 0.30155345321960803 0.31884702909212909 0 0.30388818674775991 0.32656413090975173 0 0.31075536942874171 0.31731806110666583 0 0.31446697430718862 0.32885344513016862 0 0.30388818674775991 0.32656413090975173 0 0.31075536942874171 0.31731806110666583 0 0.30155345321960803 0.31884702909212909 0 0.31075536942874171 0.31731806110666583 0 0.30383563580537681 0.31117732521730368 0 0.31039629951728959 0.3077380187109765 0 0.30520433796499757 0.30317911305064582 0 0.30383563580537681 0.31117732521730368 0 0.31075536942874171 0.31731806110666583 0 0.31039629951728959 0.3077380187109765 0 0.30383563580537681 0.31117732521730368 0 0.31039629951728959 0.3077380187109765 0 0.3121637766981829 0.29866680774575449 0 0.30520433796499757 0.30317911305064582 0 0.3121637766981829 0.29866680774575449 0 0.30520433796499757 0.30317911305064582 0 0.30171771479357878 0.29650480734513002 0 0.29876694827272499 0.30631860115687148 0 0.30171771479357878 0.29650480734513002 0 0.29289142551941882 0.30054732331487011 0 0.30520433796499757 0.30317911305064582 0 0.29876694827272499 0.30631860115687148 0 0.30171771479357878 0.29650480734513002 0 0.30520433796499757 0.30317911305064582 0 0.29876694827272499 0.30631860115687148 0 0.30383563580537681 0.31117732521730368 0 0.2965070367697456 0.31353991964174882 0 0.29876694827272499 0.30631860115687148 0 0.30383563580537681 0.31117732521730368 0 0.31050932266208059 0.28860192183888939 0 0.29973378647096538 0.28449326136418063 0 0.31037350729825719 0.27561901891335899 0 0.3121637766981829 0.29866680774575449 0 0.31050932266208059 0.28860192183888939 0 0.30171771479357878 0.29650480734513002 0 0.30171771479357878 0.29650480734513002 0 0.29973378647096538 0.28449326136418063 0 0.28941922524918928 0.29146663396581229 0 0.31050932266208059 0.28860192183888939 0 0.30171771479357878 0.29650480734513002 0 0.29973378647096538 0.28449326136418063 0 0.28941922524918928 0.29146663396581229 0 0.28259789683866032 0.29846346579356409 0 0.28294637378701548 0.27985895417947509 0 0.29973378647096538 0.28449326136418063 0 0.29180834778767278 0.2837844118496578 0 0.29577969692065031 0.27972093026170491 0 0.29973378647096538 0.28449326136418063 0 0.29180834778767278 0.2837844118496578 0 0.28941922524918928 0.29146663396581229 0 0.30171771479357878 0.29650480734513002 0 0.28941922524918928 0.29146663396581229 0 0.29289142551941882 0.30054732331487011 0 0.28941922524918928 0.29146663396581229 0 0.29289142551941882 0.30054732331487011 0 0.28259789683866032 0.29846346579356409 0 0.29180834778767278 0.2837844118496578 0 0.28941922524918928 0.29146663396581229 0 0.28294637378701548 0.27985895417947509 0 0.29876694827272499 0.30631860115687148 0 0.29289142551941882 0.30054732331487011 0 0.28839961413634502 0.30897456662719291 0 0.2965070367697456 0.31353991964174882 0 0.29876694827272499 0.30631860115687148 0 0.28839961413634502 0.30897456662719291 0 0.29289142551941882 0.30054732331487011 0 0.28259789683866032 0.29846346579356409 0 0.28839961413634502 0.30897456662719291 0 0.28259789683866032 0.29846346579356409 0 0.28839961413634502 0.30897456662719291 0 0.27859005224868882 0.30724734078925547 0 0.28143954724387082 0.31543166300425018 0 0.28839961413634502 0.30897456662719291 0 0.27859005224868882 0.30724734078925547 0 0.2663886243181468 0.3165002679464396 0 0.27859005224868882 0.30724734078925547 0 0.27067917321729229 0.30104180507767841 0 0.27067917321729229 0.30104180507767841 0 0.26502783598180057 0.31080046463121558 0 0.2663886243181468 0.3165002679464396 0 0.27067917321729229 0.30104180507767841 0 0.2663886243181468 0.3165002679464396 0 0.27067917321729229 0.30104180507767841 0 0.26502783598180057 0.31080046463121558 0 0.28259789683866032 0.29846346579356409 0 0.27859005224868882 0.30724734078925547 0 0.27067917321729229 0.30104180507767841 0 0.28259789683866032 0.29846346579356409 0 0.27067917321729229 0.30104180507767841 0 0.28294637378701548 0.27985895417947509 0 0.27067917321729229 0.30104180507767841 0 0.28294637378701548 0.27985895417947509 0 0.27067917321729229 0.30104180507767841 0 0.27807090167461479 0.2744100704023722 0 0.28294637378701548 0.27985895417947509 0 0.27067917321729229 0.30104180507767841 0 0.27807090167461479 0.2744100704023722 0 0.27067917321729229 0.30104180507767841 0 0.25933372056426268 0.2869500706593392 0 0.27807090167461479 0.2744100704023722 0 0.27067917321729229 0.30104180507767841 0 0.25933372056426268 0.2869500706593392 0 0.26502783598180057 0.31080046463121558 0 0.25933372056426268 0.2869500706593392 0 0.26502783598180057 0.31080046463121558 0 0.25933372056426268 0.2869500706593392 0 0.25037333219039798 0.30288838984523148 0 0.26502783598180057 0.31080046463121558 0 0.25075992824446391 0.31528290356284 0 0.25037333219039798 0.30288838984523148 0 0.26502783598180057 0.31080046463121558 0 0.2479454897291847 0.23924928271558671 0 0.25363960514672368 0.26309967668746298 0 0.26671739523566501 0.25066453950405998 0 0.2479454897291847 0.23924928271558671 0 0.25363960514672368 0.26309967668746298 0 0.25933372056426268 0.2869500706593392 0 0.25363960514672368 0.26309967668746298 0 0.27807090167461479 0.2744100704023722 0 0.25933372056426268 0.2869500706593392 0 0.25363960514672368 0.26309967668746298 0 0.25363960514672368 0.26309967668746298 0 0.27807090167461479 0.2744100704023722 0 0.26671739523566501 0.25066453950405998 0 0.27807090167461479 0.2744100704023722 0 0.26671739523566501 0.25066453950405998 0 0.28546263013193918 0.24777833572706659 0 0.27807090167461479 0.2744100704023722 0 0.28546263013193918 0.24777833572706659 0 0.27807090167461479 0.2744100704023722 0 0.29521357435673939 0.25867610328127227 0 0.28546263013193918 0.24777833572706659 0 0.29521357435673939 0.25867610328127227 0 0.2984221088243294 0.26226199835064279 0 0.29521357435673939 0.25867610328127227 0 0.29598205449171527 0.24798136082291139 0 0.28546263013193918 0.24777833572706659 0 0.29521357435673939 0.25867610328127227 0 0.28546263013193918 0.24777833572706659 0 0.28965629795196618 0.27817829951009088 0 0.29936472189939689 0.27399039834542632 0 0.2984221088243294 0.26226199835064279 0 0.29521357435673939 0.25867610328127227 0 0.28294637378701548 0.27985895417947509 0 0.28965629795196618 0.27817829951009088 0 0.29521357435673939 0.25867610328127227 0 0.28965629795196618 0.27817829951009088 0 0.2984221088243294 0.26226199835064279 0 0.28965629795196618 0.27817829951009088 0 0.2984221088243294 0.26226199835064279 0 0.29521357435673939 0.25867610328127227 0 0.28294637378701548 0.27985895417947509 0 0.27807090167461479 0.2744100704023722 0 0.29521357435673939 0.25867610328127227 0 0.28294637378701548 0.27985895417947509 0 0.29180834778767278 0.2837844118496578 0 0.28294637378701548 0.27985895417947509 0 0.28965629795196618 0.27817829951009088 0 0.29577969692065031 0.27972093026170491 0 0.28965629795196618 0.27817829951009088 0 0.29936472189939689 0.27399039834542632 0 0.29180834778767278 0.2837844118496578 0 0.29577969692065031 0.27972093026170491 0 0.28965629795196618 0.27817829951009088 0 0.29973378647096538 0.28449326136418063 0 0.29577969692065031 0.27972093026170491 0 0.29936472189939689 0.27399039834542632 0 0.29973378647096538 0.28449326136418063 0 0.29936472189939689 0.27399039834542632 0 0.31037350729825719 0.27561901891335899 0 0.31037350729825719 0.27561901891335899 0 0.2984221088243294 0.26226199835064279 0 0.29936472189939689 0.27399039834542632 0 0.31037350729825719 0.27561901891335899 0 0.2984221088243294 0.26226199835064279 0 0.29521357435673939 0.25867610328127227 0 0.2984221088243294 0.26226199835064279 0 0.30820342185855842 0.24450182461949299 0 0.2984221088243294 0.26226199835064279 0 0.30820342185855842 0.24450182461949299 0 0.31037350729825719 0.27561901891335899 0 0.2984221088243294 0.26226199835064279 0 0.3102763018227056 0.25721703895507891 0 0.2984221088243294 0.26226199835064279 0 0.3102763018227056 0.25721703895507891 0 0.30820342185855842 0.24450182461949299 0 0.29521357435673939 0.25867610328127227 0 0.30480015016193601 0.24212212222001861 0 0.31994046772405821 0.26516303527352969 0 0.32293053069112893 0.25479960256683332 0 0.33765763952370031 0.2650973805141722 0 0.3102763018227056 0.25721703895507891 0 0.32293053069112893 0.25479960256683332 0 0.30820342185855842 0.24450182461949299 0 0.3102763018227056 0.25721703895507891 0 0.31994046772405821 0.26516303527352969 0 0.32293053069112893 0.25479960256683332 0 0.33765763952370031 0.2650973805141722 0 0.3371183169557076 0.25018898753464291 0 0.35490562155313088 0.25282924556785841 0 0.32293053069112893 0.25479960256683332 0 0.33765763952370031 0.2650973805141722 0 0.3371183169557076 0.25018898753464291 0 0.32293053069112893 0.25479960256683332 0 0.33765763952370031 0.2650973805141722 0 0.33540641262338861 0.27498287200662341 0 0.3517805158506635 0.2749726551553926 0 0.33540641262338861 0.27498287200662341 0 0.34390642542501271 0.28284241104195079 0 0.3517805158506635 0.2749726551553926 0 0.33765763952370031 0.2650973805141722 0 0.33540641262338861 0.27498287200662341 0 0.3517805158506635 0.2749726551553926 0 0.33765763952370031 0.2650973805141722 0 0.32612868119931299 0.27329769149969402 0 0.33765763952370031 0.2650973805141722 0 0.33540641262338861 0.27498287200662341 0 0.32612868119931299 0.27329769149969402 0 0.33540641262338861 0.27498287200662341 0 0.32958789832609497 0.2809920831680463 0 0.32612868119931299 0.27329769149969402 0 0.33540641262338861 0.27498287200662341 0 0.32958789832609497 0.2809920831680463 0 0.33449159370949311 0.28671172968979303 0 0.31037350729825719 0.27561901891335899 0 0.3102763018227056 0.25721703895507891 0 0.31994046772405821 0.26516303527352969 0 0.31037350729825719 0.27561901891335899 0 0.32612868119931299 0.27329769149969402 0 0.32232490577218542 0.28897603947607492 0 0.31994046772405821 0.26516303527352969 0 0.33765763952370031 0.2650973805141722 0 0.32612868119931299 0.27329769149969402 0 0.32958789832609497 0.2809920831680463 0 0.32612868119931299 0.27329769149969402 0 0.32232490577218542 0.28897603947607492 0 0.31037350729825719 0.27561901891335899 0 0.31994046772405821 0.26516303527352969 0 0.32612868119931299 0.27329769149969402 0 0.31037350729825719 0.27561901891335899 0 0.32232490577218542 0.28897603947607492 0 0.31050932266208059 0.28860192183888939 0 0.31037350729825719 0.27561901891335899 0 0.32232490577218542 0.28897603947607492 0 0.3121637766981829 0.29866680774575449 0 0.31050932266208059 0.28860192183888939 0 0.32232490577218542 0.28897603947607492 0 0.3121637766981829 0.29866680774575449 0 0.32232490577218542 0.28897603947607492 0 0.32375427300136411 0.30151276721587311 0 0.31075536942874171 0.31731806110666583 0 0.31039629951728959 0.3077380187109765 0 0.31862981278100838 0.30907066929014698 0 0.31039629951728959 0.3077380187109765 0 0.3121637766981829 0.29866680774575449 0 0.31862981278100838 0.30907066929014698 0 0.3121637766981829 0.29866680774575449 0 0.31862981278100838 0.30907066929014698 0 0.32375427300136411 0.30151276721587311 0 0.32232490577218542 0.28897603947607492 0 0.32375427300136411 0.30151276721587311 0 0.33559347778193599 0.3010477417606639 0 0.31862981278100838 0.30907066929014698 0 0.32375427300136411 0.30151276721587311 0 0.32761296242795113 0.31021943138509428 0 0.32021831545420681 0.3178900008282976 0 0.31862981278100838 0.30907066929014698 0 0.32761296242795113 0.31021943138509428 0 0.33783679417099699 0.31355887213077932 0 0.32761296242795113 0.31021943138509428 0 0.33559347778193599 0.3010477417606639 0 0.32375427300136411 0.30151276721587311 0 0.32761296242795113 0.31021943138509428 0 0.33559347778193599 0.3010477417606639 0 0.33559347778193599 0.3010477417606639 0 0.34243019088092058 0.29390491697245769 0 0.34473792683363402 0.3048080134920334 0 0.33783679417099699 0.31355887213077932 0 0.33559347778193599 0.3010477417606639 0 0.34473792683363402 0.3048080134920334 0 0.32958789832609497 0.2809920831680463 0 0.32232490577218542 0.28897603947607492 0 0.33449159370949311 0.28671172968979303 0 0.32232490577218542 0.28897603947607492 0 0.33559347778193599 0.3010477417606639 0 0.33449159370949311 0.28671172968979303 0 0.33559347778193599 0.3010477417606639 0 0.33449159370949311 0.28671172968979303 0 0.34243019088092058 0.29390491697245769 0 0.33540641262338861 0.27498287200662341 0 0.33449159370949311 0.28671172968979303 0 0.34390642542501271 0.28284241104195079 0 0.33449159370949311 0.28671172968979303 0 0.34243019088092058 0.29390491697245769 0 0.34390642542501271 0.28284241104195079 0 0.34243019088092058 0.29390491697245769 0 0.35811353516611549 0.28987554148985389 0 0.35401576237462251 0.29906334541961971 0 0.34243019088092058 0.29390491697245769 0 0.34390642542501271 0.28284241104195079 0 0.35811353516611549 0.28987554148985389 0 0.34390642542501271 0.28284241104195079 0 0.35811353516611549 0.28987554148985389 0 0.3517805158506635 0.2749726551553926 0 0.35811353516611549 0.28987554148985389 0 0.35401576237462251 0.29906334541961971 0 0.36535771458006228 0.29814080176519819 0 0.34994525352731459 0.31466128237336988 0 0.33783679417099699 0.31355887213077932 0 0.34473792683363402 0.3048080134920334 0 0.34994525352731459 0.31466128237336988 0 0.34473792683363402 0.3048080134920334 0 0.35895554937937052 0.30895777787443829 0 0.34243019088092058 0.29390491697245769 0 0.34473792683363402 0.3048080134920334 0 0.35401576237462251 0.29906334541961971 0 0.34473792683363402 0.3048080134920334 0 0.35401576237462251 0.29906334541961971 0 0.35895554937937052 0.30895777787443829 0 0.36535771458006228 0.29814080176519819 0 0.3744193971394143 0.30727342308688271 0 0.37440914821179272 0.29079549139270322 0 0.35895554937937052 0.30895777787443829 0 0.36535771458006228 0.29814080176519819 0 0.3744193971394143 0.30727342308688271 0 0.35401576237462251 0.29906334541961971 0 0.35895554937937052 0.30895777787443829 0 0.36535771458006228 0.29814080176519819 0 0.37440914821179272 0.29079549139270322 0 0.3517805158506635 0.2749726551553926 0 0.35811353516611549 0.28987554148985389 0 0.37440914821179272 0.29079549139270322 0 0.3517805158506635 0.2749726551553926 0 0.35811353516611549 0.28987554148985389 0 0.36535771458006228 0.29814080176519819 0 0.37440914821179272 0.29079549139270322 0 0.36740230166346061 0.26145229118159502 0 0.3517805158506635 0.2749726551553926 0 0.37631709845300509 0.27495734521074161 0 0.37440914821179272 0.29079549139270322 0 0.3517805158506635 0.2749726551553926 0 0.37631709845300509 0.27495734521074161 0 0.3517805158506635 0.2749726551553926 0 0.37631709845300509 0.27495734521074161 0 0.36740230166346061 0.26145229118159502 0 0.35490562155313088 0.25282924556785841 0 0.37215360358256122 0.24056111062154431 0 0.33765763952370031 0.2650973805141722 0 0.35490562155313088 0.25282924556785841 0 0.33765763952370031 0.2650973805141722 0 0.35490562155313088 0.25282924556785841 0 0.3517805158506635 0.2749726551553926 0 0.36740230166346061 0.26145229118159502 0 0.35490562155313088 0.25282924556785841 0 0.3517805158506635 0.2749726551553926 0 0.33765763952370031 0.2650973805141722 0 0.3517805158506635 0.2749726551553926 0 0.40085368105534658 0.27494203526608962 0 0.38857358058970232 0.25602365581102982 0 0.4137031435660159 0.25466982237650121 0 0.36740230166346061 0.26145229118159502 0 0.38857358058970232 0.25602365581102982 0 0.37631709845300509 0.27495734521074161 0 0.36740230166346061 0.26145229118159502 0 0.38857358058970232 0.25602365581102982 0 0.37215360358256122 0.24056111062154431 0 0.40085368105534658 0.27494203526608962 0 0.37631709845300509 0.27495734521074161 0 0.39075812241900892 0.28776870809436228 0 0.40085368105534658 0.27494203526608962 0 0.37631709845300509 0.27495734521074161 0 0.40085368105534658 0.27494203526608962 0 0.38857358058970232 0.25602365581102982 0 0.37631709845300509 0.27495734521074161 0 0.37440914821179272 0.29079549139270322 0 0.39703778057292122 0.30661832763001468 0 0.39075812241900892 0.28776870809436228 0 0.37440914821179272 0.29079549139270322 0 0.37631709845300509 0.27495734521074161 0 0.39075812241900892 0.28776870809436228 0 0.3744193971394143 0.30727342308688271 0 0.39703778057292122 0.30661832763001468 0 0.38434394682309031 0.3186706644110488 0 0.37440914821179272 0.29079549139270322 0 0.39703778057292122 0.30661832763001468 0 0.3744193971394143 0.30727342308688271 0 0.37440914821179272 0.29079549139270322 0 0.39703778057292122 0.30661832763001468 0 0.40085368105534658 0.27494203526608962 0 0.39075812241900892 0.28776870809436228 0 0.40517290380197918 0.29153034097226282 0 0.39703778057292122 0.30661832763001468 0 0.39075812241900892 0.28776870809436228 0 0.40517290380197918 0.29153034097226282 0 0.40517290380197918 0.29153034097226282 0 0.42075657977706432 0.29785779691587888 0 0.42539026365768817 0.27492672532143758 0 0.39703778057292122 0.30661832763001468 0 0.42075657977706432 0.29785779691587888 0 0.4202815388576352 0.31066116934025689 0 0.39703778057292122 0.30661832763001468 0 0.40517290380197918 0.29153034097226282 0 0.42075657977706432 0.29785779691587888 0 0.43279274401606971 0.30624814653922727 0 0.44753979502109492 0.30576671634046437 0 0.43115417698807113 0.32014041174883773 0 0.42075657977706432 0.29785779691587888 0 0.43279274401606971 0.30624814653922727 0 0.43761879215749638 0.29318847266035603 0 0.4202815388576352 0.31066116934025689 0 0.43279274401606971 0.30624814653922727 0 0.43115417698807113 0.32014041174883773 0 0.42075657977706432 0.29785779691587888 0 0.4202815388576352 0.31066116934025689 0 0.43279274401606971 0.30624814653922727 0 0.42075657977706432 0.29785779691587888 0 0.42539026365768817 0.27492672532143758 0 0.43761879215749638 0.29318847266035603 0 0.42539026365768817 0.27492672532143758 0 0.44278446727658238 0.27669997501395599 0 0.43761879215749638 0.29318847266035603 0 0.42539026365768817 0.27492672532143758 0 0.43177752221181931 0.25703933660667128 0 0.44278446727658238 0.27669997501395599 0 0.40085368105534658 0.27494203526608962 0 0.40517290380197918 0.29153034097226282 0 0.42539026365768817 0.27492672532143758 0 0.40085368105534658 0.27494203526608962 0 0.42539026365768817 0.27492672532143758 0 0.40085368105534658 0.27494203526608962 0 0.42539026365768817 0.27492672532143758 0 0.4137031435660159 0.25466982237650121 0 0.42539026365768817 0.27492672532143758 0 0.4137031435660159 0.25466982237650121 0 0.43177752221181931 0.25703933660667128 0 0.43177752221181931 0.25703933660667128 0 0.45075789442553249 0.2577473037665004 0 0.44278446727658238 0.27669997501395599 0 0.43177752221181931 0.25703933660667128 0 0.45075789442553249 0.2577473037665004 0 0.43129723206328929 0.23676202542138511 0 0.45075789442553249 0.2577473037665004 0 0.44278446727658238 0.27669997501395599 0 0.45593084542973411 0.27977221724677148 0 0.45075789442553249 0.2577473037665004 0 0.47021855678777502 0.27873258211161589 0 0.45075789442553249 0.2577473037665004 0 0.45593084542973411 0.27977221724677148 0 0.47021855678777502 0.27873258211161589 0 0.45075789442553249 0.2577473037665004 0 0.46789095993574747 0.25477856638752477 0 0.47021855678777502 0.27873258211161589 0 0.45075789442553249 0.2577473037665004 0 0.46789095993574747 0.25477856638752477 0 0.46158900142436121 0.2426634036409335 0 0.46789095993574747 0.25477856638752477 0 0.47755990593771919 0.26396338158064742 0 0.48619428192801711 0.25292111732716771 0 0.46789095993574747 0.25477856638752477 0 0.48619428192801711 0.25292111732716771 0 0.47593543116942499 0.24362359676754211 0 0.47755990593771919 0.26396338158064742 0 0.47021855678777502 0.27873258211161589 0 0.48093000024481719 0.27434526042120921 0 0.46789095993574747 0.25477856638752477 0 0.47755990593771919 0.26396338158064742 0 0.47021855678777502 0.27873258211161589 0 0.47755990593771919 0.26396338158064742 0 0.47021855678777502 0.27873258211161589 0 0.47021855678777502 0.27873258211161589 0 0.48093000024481719 0.27434526042120921 0 0.47382478515782039 0.28270915200105767 0 0.47021855678777502 0.27873258211161589 0 0.47382478515782039 0.28270915200105767 0 0.48093000024481719 0.27434526042120921 0 0.48834657077171068 0.28278133383210469 0 0.47382478515782039 0.28270915200105767 0 0.5 0.26980758531471433 0 0.5 0.29032739624688858 0 0.48834657077171068 0.28278133383210469 0 0.48093000024481719 0.27434526042120921 0 0.5 0.26980758531471433 0 0.48834657077171068 0.28278133383210469 0 0.47755990593771919 0.26396338158064742 0 0.48093000024481719 0.27434526042120921 0 0.5 0.26980758531471433 0 0.47755990593771919 0.26396338158064742 0 0.5 0.26980758531471433 0 0.48619428192801711 0.25292111732716771 0 0.5 0.26980758531471433 0 0.48619428192801711 0.25292111732716771 0 0.49999999999999911 0.24928777438253991 0 0.49999999999999628 0.31084720717906289 0 0.5 0.29032739624688858 0 0.48693428453791021 0.2967578781189254 0 0.49999999999999628 0.31084720717906289 0 0.48693428453791021 0.2967578781189254 0 0.4735332247154132 0.3059879609443486 0 0.49999999999999628 0.31084720717906289 0 0.48693428453791021 0.2967578781189254 0 0.5 0.29032739624688858 0 0.48834657077171068 0.28278133383210469 0 0.48693428453791021 0.2967578781189254 0 0.48693428453791021 0.2967578781189254 0 0.47382478515782039 0.28270915200105767 0 0.48693428453791021 0.2967578781189254 0 0.47382478515782039 0.28270915200105767 0 0.4753473493967128 0.29442927405613878 0 0.48834657077171068 0.28278133383210469 0 0.48693428453791021 0.2967578781189254 0 0.47382478515782039 0.28270915200105767 0 0.47382478515782039 0.28270915200105767 0 0.46392541305411772 0.29139302093209007 0 0.47021855678777502 0.27873258211161589 0 0.47382478515782039 0.28270915200105767 0 0.46392541305411772 0.29139302093209007 0 0.47382478515782039 0.28270915200105767 0 0.4753473493967128 0.29442927405613878 0 0.46392541305411772 0.29139302093209007 0 0.4753473493967128 0.29442927405613878 0 0.4735332247154132 0.3059879609443486 0 0.46392541305411772 0.29139302093209007 0 0.48693428453791021 0.2967578781189254 0 0.4753473493967128 0.29442927405613878 0 0.4735332247154132 0.3059879609443486 0 0.46392541305411772 0.29139302093209007 0 0.44753979502109492 0.30576671634046437 0 0.46392541305411772 0.29139302093209007 0 0.45082805232941392 0.31774206700232382 0 0.46392541305411772 0.29139302093209007 0 0.44753979502109492 0.30576671634046437 0 0.45082805232941392 0.31774206700232382 0 0.4735332247154132 0.3059879609443486 0 0.46392541305411772 0.29139302093209007 0 0.45082805232941392 0.31774206700232382 0 0.46392541305411772 0.29139302093209007 0 0.4500897887884725 0.29000003393045432 0 0.44753979502109492 0.30576671634046437 0 0.45593084542973411 0.27977221724677148 0 0.47021855678777502 0.27873258211161589 0 0.46392541305411772 0.29139302093209007 0 0.47021855678777502 0.27873258211161589 0 0.46392541305411772 0.29139302093209007 0 0.45593084542973411 0.27977221724677148 0 0.46392541305411772 0.29139302093209007 0 0.4500897887884725 0.29000003393045432 0 0.4500897887884725 0.29000003393045432 0 0.43761879215749638 0.29318847266035603 0 0.44753979502109492 0.30576671634046437 0 0.44278446727658238 0.27669997501395599 0 0.4500897887884725 0.29000003393045432 0 0.43761879215749638 0.29318847266035603 0 0.44278446727658238 0.27669997501395599 0 0.45593084542973411 0.27977221724677148 0 0.4500897887884725 0.29000003393045432 0 0.43279274401606971 0.30624814653922727 0 0.43761879215749638 0.29318847266035603 0 0.44753979502109492 0.30576671634046437 0 0.44753979502109492 0.30576671634046437 0 0.43115417698807113 0.32014041174883773 0 0.49999999999999628 0.31084720717906289 0 0.4719475279058013 0.34580922884461462 0 0.5 0.37898643047919178 0 0.44753979502109492 0.30576671634046437 0 0.45082805232941392 0.31774206700232382 0 0.43115417698807113 0.32014041174883773 0 0.45082805232941392 0.31774206700232382 0 0.45509667962077888 0.3376703202478073 0 0.43773069160471129 0.34409111307255819 0 0.45082805232941392 0.31774206700232382 0 0.43773069160471129 0.34409111307255819 0 0.42857516176121768 0.33372683020641042 0 0.45082805232941392 0.31774206700232382 0 0.43773069160471129 0.34409111307255819 0 0.45509667962077888 0.3376703202478073 0 0.4641642489743239 0.32475831837754982 0 0.4719475279058013 0.34580922884461462 0 0.45082805232941392 0.31774206700232382 0 0.45509667962077888 0.3376703202478073 0 0.4641642489743239 0.32475831837754982 0 0.4735332247154132 0.3059879609443486 0 0.45082805232941392 0.31774206700232382 0 0.4641642489743239 0.32475831837754982 0 0.49999999999999628 0.31084720717906289 0 0.4641642489743239 0.32475831837754982 0 0.4719475279058013 0.34580922884461462 0 0.49999999999999628 0.31084720717906289 0 0.4735332247154132 0.3059879609443486 0 0.4641642489743239 0.32475831837754982 0 0.4719475279058013 0.34580922884461462 0 0.46230713983560351 0.36929412865106198 0 0.5 0.37898643047919178 0 0.45509667962077888 0.3376703202478073 0 0.4719475279058013 0.34580922884461462 0 0.45225424174315992 0.35368674049150101 0 0.4719475279058013 0.34580922884461462 0 0.46230713983560351 0.36929412865106198 0 0.45225424174315992 0.35368674049150101 0 0.45509667962077888 0.3376703202478073 0 0.45225424174315992 0.35368674049150101 0 0.43773069160471129 0.34409111307255819 0 0.45225424174315992 0.35368674049150101 0 0.43773069160471129 0.34409111307255819 0 0.43707189865593588 0.36704064474048448 0 0.46230713983560351 0.36929412865106198 0 0.43707189865593588 0.36704064474048448 0 0.44381901595353013 0.38358402692759619 0 0.46230713983560351 0.36929412865106198 0 0.45225424174315992 0.35368674049150101 0 0.43707189865593588 0.36704064474048448 0 0.43707189865593588 0.36704064474048448 0 0.42209272273573029 0.37010590921231978 0 0.42057695883826851 0.35693956338296351 0 0.43707189865593588 0.36704064474048448 0 0.42603539407076912 0.38186650582224618 0 0.43707189865593588 0.36704064474048448 0 0.42209272273573029 0.37010590921231978 0 0.42603539407076912 0.38186650582224618 0 0.42209272273573029 0.37010590921231978 0 0.4103147453953917 0.36898948000295362 0 0.41533660003875561 0.38542299441041022 0 0.42209272273573029 0.37010590921231978 0 0.4103147453953917 0.36898948000295362 0 0.42057695883826851 0.35693956338296351 0 0.4103147453953917 0.36898948000295362 0 0.40915926218145321 0.35825407964654687 0 0.42057695883826851 0.35693956338296351 0 0.40956172640225519 0.34741295707036512 0 0.40915926218145321 0.35825407964654687 0 0.42057695883826851 0.35693956338296351 0 0.40956172640225519 0.34741295707036512 0 0.42057695883826851 0.35693956338296351 0 0.42224261951230002 0.34333691417790158 0 0.43773069160471129 0.34409111307255819 0 0.42057695883826851 0.35693956338296351 0 0.42224261951230002 0.34333691417790158 0 0.43773069160471129 0.34409111307255819 0 0.43707189865593588 0.36704064474048448 0 0.42057695883826851 0.35693956338296351 0 0.42857516176121768 0.33372683020641042 0 0.43115417698807113 0.32014041174883773 0 0.41476855895504727 0.33451410715721103 0 0.43773069160471129 0.34409111307255819 0 0.42857516176121768 0.33372683020641042 0 0.42224261951230002 0.34333691417790158 0 0.45082805232941392 0.31774206700232382 0 0.42857516176121768 0.33372683020641042 0 0.43115417698807113 0.32014041174883773 0 0.43115417698807113 0.32014041174883773 0 0.41476855895504727 0.33451410715721103 0 0.4202815388576352 0.31066116934025689 0 0.43115417698807113 0.32014041174883773 0 0.4196664129340496 0.32244116386732619 0 0.4196664129340496 0.32244116386732619 0 0.41476855895504727 0.33451410715721103 0 0.40065250357710158 0.32437288625108179 0 0.39703778057292122 0.30661832763001468 0 0.4196664129340496 0.32244116386732619 0 0.39703778057292122 0.30661832763001468 0 0.4202815388576352 0.31066116934025689 0 0.4196664129340496 0.32244116386732619 0 0.43115417698807113 0.32014041174883773 0 0.4196664129340496 0.32244116386732619 0 0.41476855895504727 0.33451410715721103 0 0.40956172640225519 0.34741295707036512 0 0.41476855895504727 0.33451410715721103 0 0.39759293784982358 0.34127121341508421 0 0.40956172640225519 0.34741295707036512 0 0.42224261951230002 0.34333691417790158 0 0.41476855895504727 0.33451410715721103 0 0.42857516176121768 0.33372683020641042 0 0.42224261951230002 0.34333691417790158 0 0.41476855895504727 0.33451410715721103 0 0.41476855895504727 0.33451410715721103 0 0.39759293784982358 0.34127121341508421 0 0.40065250357710158 0.32437288625108179 0 0.39759293784982358 0.34127121341508421 0 0.40065250357710158 0.32437288625108179 0 0.38114488027144011 0.33289733455110609 0 0.39703778057292122 0.30661832763001468 0 0.4196664129340496 0.32244116386732619 0 0.40065250357710158 0.32437288625108179 0 0.39703778057292122 0.30661832763001468 0 0.40065250357710158 0.32437288625108179 0 0.38434394682309031 0.3186706644110488 0 0.40065250357710158 0.32437288625108179 0 0.38434394682309031 0.3186706644110488 0 0.38114488027144011 0.33289733455110609 0 0.36846517255457428 0.32219135053615838 0 0.38434394682309031 0.3186706644110488 0 0.38114488027144011 0.33289733455110609 0 0.36846517255457428 0.32219135053615838 0 0.3744193971394143 0.30727342308688271 0 0.38434394682309031 0.3186706644110488 0 0.39759293784982358 0.34127121341508421 0 0.38114488027144011 0.33289733455110609 0 0.38347501300531472 0.35028012760193228 0 0.3666216198308912 0.34099855793073669 0 0.38114488027144011 0.33289733455110609 0 0.38347501300531472 0.35028012760193228 0 0.38347501300531472 0.35028012760193228 0 0.38514875749315469 0.36587404743824792 0 0.39618361808989738 0.35967431812990552 0 0.37114555196740912 0.3591701152497136 0 0.38347501300531472 0.35028012760193228 0 0.38514875749315469 0.36587404743824792 0 0.37114555196740912 0.3591701152497136 0 0.37602404691284808 0.37161696185854892 0 0.38514875749315469 0.36587404743824792 0 0.37602404691284808 0.37161696185854892 0 0.38514875749315469 0.36587404743824792 0 0.3865872293620829 0.37888507151801881 0 0.38514875749315469 0.36587404743824792 0 0.39643446434411928 0.37540427525398279 0 0.3865872293620829 0.37888507151801881 0 0.38514875749315469 0.36587404743824792 0 0.39618361808989738 0.35967431812990552 0 0.39643446434411928 0.37540427525398279 0 0.4103147453953917 0.36898948000295362 0 0.39618361808989738 0.35967431812990552 0 0.40412606717144239 0.38422434615172169 0 0.39618361808989738 0.35967431812990552 0 0.40412606717144239 0.38422434615172169 0 0.39643446434411928 0.37540427525398279 0 0.39618361808989738 0.35967431812990552 0 0.40412606717144239 0.38422434615172169 0 0.4103147453953917 0.36898948000295362 0 0.40915926218145321 0.35825407964654687 0 0.39618361808989738 0.35967431812990552 0 0.40956172640225519 0.34741295707036512 0 0.40915926218145321 0.35825407964654687 0 0.39618361808989738 0.35967431812990552 0 0.39759293784982358 0.34127121341508421 0 0.38347501300531472 0.35028012760193228 0 0.39618361808989738 0.35967431812990552 0 0.40956172640225519 0.34741295707036512 0 0.39759293784982358 0.34127121341508421 0 0.39618361808989738 0.35967431812990552 0 0.39952144459219341 0.39556337488845039 0 0.40412606717144239 0.38422434615172169 0 0.41023160189392238 0.40309649087511101 0 0.39254986855314938 0.39497781588869307 0 0.39952144459219341 0.39556337488845039 0 0.39435180253327751 0.38650914279400778 0 0.39254986855314938 0.39497781588869307 0 0.39387131492568928 0.40134429519348452 0 0.39952144459219341 0.39556337488845039 0 0.39387131492568928 0.40134429519348452 0 0.3879364232264132 0.40087753263576592 0 0.39101201718786099 0.40896489575842399 0 0.39254986855314938 0.39497781588869307 0 0.39387131492568928 0.40134429519348452 0 0.3879364232264132 0.40087753263576592 0 0.39387131492568928 0.40134429519348452 0 0.39952144459219341 0.39556337488845039 0 0.39833682106882939 0.40633785679608908 0 0.39387131492568928 0.40134429519348452 0 0.39833682106882939 0.40633785679608908 0 0.39101201718786099 0.40896489575842399 0 0.39952144459219341 0.39556337488845039 0 0.39833682106882939 0.40633785679608908 0 0.41023160189392238 0.40309649087511101 0 0.39952144459219341 0.39556337488845039 0 0.40412606717144239 0.38422434615172169 0 0.39435180253327751 0.38650914279400778 0 0.40412606717144239 0.38422434615172169 0 0.39643446434411928 0.37540427525398279 0 0.39643446434411928 0.37540427525398279 0 0.39435180253327751 0.38650914279400778 0 0.3865872293620829 0.37888507151801881 0 0.40412606717144239 0.38422434615172169 0 0.39643446434411928 0.37540427525398279 0 0.39435180253327751 0.38650914279400778 0 0.39254986855314938 0.39497781588869307 0 0.39435180253327751 0.38650914279400778 0 0.38716999576417033 0.38991070477629941 0 0.39435180253327751 0.38650914279400778 0 0.38716999576417033 0.38991070477629941 0 0.3865872293620829 0.37888507151801881 0 0.38716999576417033 0.38991070477629941 0 0.38086009512903318 0.38504302471825569 0 0.3809678903752422 0.39539687576254468 0 0.38716999576417033 0.38991070477629941 0 0.3865872293620829 0.37888507151801881 0 0.38086009512903318 0.38504302471825569 0 0.37416532358117821 0.38846364648540699 0 0.38086009512903318 0.38504302471825569 0 0.3809678903752422 0.39539687576254468 0 0.37308379948957049 0.39512160762198739 0 0.37416532358117821 0.38846364648540699 0 0.3809678903752422 0.39539687576254468 0 0.37308379948957049 0.39512160762198739 0 0.3809678903752422 0.39539687576254468 0 0.37697747880121629 0.4012168873649079 0 0.39254986855314938 0.39497781588869307 0 0.38716999576417033 0.38991070477629941 0 0.3879364232264132 0.40087753263576592 0 0.38716999576417033 0.38991070477629941 0 0.3809678903752422 0.39539687576254468 0 0.3879364232264132 0.40087753263576592 0 0.3879364232264132 0.40087753263576592 0 0.38112337584365441 0.40669983069221272 0 0.39101201718786099 0.40896489575842399 0 0.3809678903752422 0.39539687576254468 0 0.3879364232264132 0.40087753263576592 0 0.381962400875693 0.40099484917717942 0 0.3879364232264132 0.40087753263576592 0 0.381962400875693 0.40099484917717942 0 0.38112337584365441 0.40669983069221272 0 0.381962400875693 0.40099484917717942 0 0.37697747880121629 0.4012168873649079 0 0.38112337584365441 0.40669983069221272 0 0.3809678903752422 0.39539687576254468 0 0.381962400875693 0.40099484917717942 0 0.37697747880121629 0.4012168873649079 0 0.37352845926032791 0.40466723270294369 0 0.37697747880121629 0.4012168873649079 0 0.38112337584365441 0.40669983069221272 0 0.37343240748704548 0.41147117818633011 0 0.37352845926032791 0.40466723270294369 0 0.38112337584365441 0.40669983069221272 0 0.37343240748704548 0.41147117818633011 0 0.38112337584365441 0.40669983069221272 0 0.38322216326055258 0.41720811817600462 0 0.37188152038625572 0.42225689776970787 0 0.37343240748704548 0.41147117818633011 0 0.38322216326055258 0.41720811817600462 0 0.38322216326055258 0.41720811817600462 0 0.39581374300051247 0.42246468588654812 0 0.39101201718786099 0.40896489575842399 0 0.38112337584365441 0.40669983069221272 0 0.38322216326055258 0.41720811817600462 0 0.39101201718786099 0.40896489575842399 0 0.37188152038625572 0.42225689776970787 0 0.38220355409205459 0.42934024741815963 0 0.37851849014967381 0.44130429881417171 0 0.39581374300051247 0.42246468588654812 0 0.38139588410710301 0.44183288089798528 0 0.37188152038625572 0.42225689776970787 0 0.37851849014967381 0.44130429881417171 0 0.39581374300051247 0.42246468588654812 0 0.39325789524823163 0.43840285560137471 0 0.38139588410710301 0.44183288089798528 0 0.38220355409205459 0.42934024741815963 0 0.39581374300051247 0.42246468588654812 0 0.38139588410710301 0.44183288089798528 0 0.38220355409205459 0.42934024741815963 0 0.37851849014967381 0.44130429881417171 0 0.38139588410710301 0.44183288089798528 0 0.37188152038625572 0.42225689776970787 0 0.38322216326055258 0.41720811817600462 0 0.38220355409205459 0.42934024741815963 0 0.38322216326055258 0.41720811817600462 0 0.38220355409205459 0.42934024741815963 0 0.39581374300051247 0.42246468588654812 0 0.39581374300051247 0.42246468588654812 0 0.40313050156419222 0.43212337375468268 0 0.39325789524823163 0.43840285560137471 0 0.39581374300051247 0.42246468588654812 0 0.40313050156419222 0.43212337375468268 0 0.40631649680351289 0.4241657146597691 0 0.40313050156419222 0.43212337375468268 0 0.40197844980304109 0.44041237642064851 0 0.39325789524823163 0.43840285560137471 0 0.40313050156419222 0.43212337375468268 0 0.40804208844738021 0.43589761701700169 0 0.40197844980304109 0.44041237642064851 0 0.39581374300051247 0.42246468588654812 0 0.41023160189392238 0.40309649087511101 0 0.39581374300051247 0.42246468588654812 0 0.39833682106882939 0.40633785679608908 0 0.39101201718786099 0.40896489575842399 0 0.39581374300051247 0.42246468588654812 0 0.39833682106882939 0.40633785679608908 0 0.41023160189392238 0.40309649087511101 0 0.39581374300051247 0.42246468588654812 0 0.41269598114648021 0.41071386167415541 0 0.41023160189392238 0.40309649087511101 0 0.39581374300051247 0.42246468588654812 0 0.41269598114648021 0.41071386167415541 0 0.40631649680351289 0.4241657146597691 0 0.41269598114648021 0.41071386167415541 0 0.40631649680351289 0.4241657146597691 0 0.41009355107209478 0.42851373510752538 0 0.41876515818359339 0.40992198385735168 0 0.42947550163230702 0.4132929049660401 0 0.4149988894856016 0.3966923669040075 0 0.41269598114648021 0.41071386167415541 0 0.41165835541732082 0.40240127763117328 0 0.41269598114648021 0.41071386167415541 0 0.41023160189392238 0.40309649087511101 0 0.41269598114648021 0.41071386167415541 0 0.42054696113254741 0.42110362517931849 0 0.41876515818359339 0.40992198385735168 0 0.41269598114648021 0.41071386167415541 0 0.41876515818359339 0.40992198385735168 0 0.41165835541732082 0.40240127763117328 0 0.41269598114648021 0.41071386167415541 0 0.42088385343751061 0.4360224902999178 0 0.41269598114648021 0.41071386167415541 0 0.42088385343751061 0.4360224902999178 0 0.41575749099503689 0.43524010191605061 0 0.41269598114648021 0.41071386167415541 0 0.41575749099503689 0.43524010191605061 0 0.41269598114648021 0.41071386167415541 0 0.41009355107209478 0.42851373510752538 0 0.41575749099503689 0.43524010191605061 0 0.41269598114648021 0.41071386167415541 0 0.42054696113254741 0.42110362517931849 0 0.42088385343751061 0.4360224902999178 0 0.40313050156419222 0.43212337375468268 0 0.40804208844738021 0.43589761701700169 0 0.41009355107209478 0.42851373510752538 0 0.40804208844738021 0.43589761701700169 0 0.41009355107209478 0.42851373510752538 0 0.41575749099503689 0.43524010191605061 0 0.40313050156419222 0.43212337375468268 0 0.40631649680351289 0.4241657146597691 0 0.41009355107209478 0.42851373510752538 0 0.43077456432197619 0.4267725315931275 0 0.42947550163230702 0.4132929049660401 0 0.44395211377901239 0.42989344302807247 0 0.42088385343751061 0.4360224902999178 0 0.42575056629052471 0.42970322574088587 0 0.43079688627006429 0.43491425589117988 0 0.42575056629052471 0.42970322574088587 0 0.43077456432197619 0.4267725315931275 0 0.43079688627006429 0.43491425589117988 0 0.42054696113254741 0.42110362517931849 0 0.42575056629052471 0.42970322574088587 0 0.43077456432197619 0.4267725315931275 0 0.42054696113254741 0.42110362517931849 0 0.42088385343751061 0.4360224902999178 0 0.42575056629052471 0.42970322574088587 0 0.43079688627006429 0.43491425589117988 0 0.44395211377901239 0.42989344302807247 0 0.43567486282984003 0.44521607701163768 0 0.43077456432197619 0.4267725315931275 0 0.43079688627006429 0.43491425589117988 0 0.44395211377901239 0.42989344302807247 0 0.42947550163230702 0.4132929049660401 0 0.44395211377901239 0.42989344302807247 0 0.42054696113254741 0.42110362517931849 0 0.41876515818359339 0.40992198385735168 0 0.42947550163230702 0.4132929049660401 0 0.42054696113254741 0.42110362517931849 0 0.43077456432197619 0.4267725315931275 0 0.42947550163230702 0.4132929049660401 0 0.42947550163230702 0.4132929049660401 0 0.4149988894856016 0.3966923669040075 0 0.42947550163230702 0.4132929049660401 0 0.43686377151363448 0.39680431910528929 0 0.4149988894856016 0.3966923669040075 0 0.43686377151363448 0.39680431910528929 0 0.4149988894856016 0.3966923669040075 0 0.42603539407076912 0.38186650582224618 0 0.40412606717144239 0.38422434615172169 0 0.4149988894856016 0.3966923669040075 0 0.41023160189392238 0.40309649087511101 0 0.40412606717144239 0.38422434615172169 0 0.41023160189392238 0.40309649087511101 0 0.41876515818359339 0.40992198385735168 0 0.4149988894856016 0.3966923669040075 0 0.41165835541732082 0.40240127763117328 0 0.41269598114648021 0.41071386167415541 0 0.41165835541732082 0.40240127763117328 0 0.41023160189392238 0.40309649087511101 0 0.4149988894856016 0.3966923669040075 0 0.41023160189392238 0.40309649087511101 0 0.4149988894856016 0.3966923669040075 0 0.41165835541732082 0.40240127763117328 0 0.41023160189392238 0.40309649087511101 0 0.4103147453953917 0.36898948000295362 0 0.40412606717144239 0.38422434615172169 0 0.41533660003875561 0.38542299441041022 0 0.40412606717144239 0.38422434615172169 0 0.4149988894856016 0.3966923669040075 0 0.41533660003875561 0.38542299441041022 0 0.40412606717144239 0.38422434615172169 0 0.4149988894856016 0.3966923669040075 0 0.4149988894856016 0.3966923669040075 0 0.41533660003875561 0.38542299441041022 0 0.42603539407076912 0.38186650582224618 0 0.4149988894856016 0.3966923669040075 0 0.42603539407076912 0.38186650582224618 0 0.42209272273573029 0.37010590921231978 0 0.41533660003875561 0.38542299441041022 0 0.42603539407076912 0.38186650582224618 0 0.43707189865593588 0.36704064474048448 0 0.42603539407076912 0.38186650582224618 0 0.44381901595353013 0.38358402692759619 0 0.43686377151363448 0.39680431910528929 0 0.42603539407076912 0.38186650582224618 0 0.44381901595353013 0.38358402692759619 0 0.43686377151363448 0.39680431910528929 0 0.44381901595353013 0.38358402692759619 0 0.45815047890703159 0.39425249709106219 0 0.43686377151363448 0.39680431910528929 0 0.45815047890703159 0.39425249709106219 0 0.44870334903256792 0.41113761292078399 0 0.46230713983560351 0.36929412865106198 0 0.44381901595353013 0.38358402692759619 0 0.45815047890703159 0.39425249709106219 0 0.45815047890703159 0.39425249709106219 0 0.5 0.37898643047919178 0 0.47170736115028011 0.42030177382812639 0 0.46230713983560351 0.36929412865106198 0 0.45815047890703159 0.39425249709106219 0 0.5 0.37898643047919178 0 0.5 0.43086472508270152 0 0.47170736115028011 0.42030177382812639 0 0.45842872592571782 0.44649398109010491 0 0.5 0.37898643047919178 0 0.5 0.43086472508270152 0 0.47170736115028011 0.42030177382812639 0 0.47170736115028011 0.42030177382812639 0 0.44395211377901239 0.42989344302807247 0 0.45842872592571782 0.44649398109010491 0 0.47170736115028011 0.42030177382812639 0 0.44870334903256792 0.41113761292078399 0 0.44395211377901239 0.42989344302807247 0 0.45815047890703159 0.39425249709106219 0 0.47170736115028011 0.42030177382812639 0 0.44870334903256792 0.41113761292078399 0 0.42947550163230702 0.4132929049660401 0 0.44870334903256792 0.41113761292078399 0 0.44395211377901239 0.42989344302807247 0 0.42947550163230702 0.4132929049660401 0 0.43686377151363448 0.39680431910528929 0 0.44870334903256792 0.41113761292078399 0 0.44395211377901239 0.42989344302807247 0 0.45842872592571782 0.44649398109010491 0 0.44326144112707883 0.46132214719782999 0 0.45842872592571782 0.44649398109010491 0 0.43567486282984003 0.44521607701163768 0 0.44395211377901239 0.42989344302807247 0 0.45842872592571782 0.44649398109010491 0 0.43567486282984003 0.44521607701163768 0 0.5 0.5 0 0.45537381304254498 0.47691116712369869 0 0.43533775815800541 0.5 0 0.5 0.43086472508270152 0 0.5 0.5 0 0.45537381304254498 0.47691116712369869 0 0.44326144112707883 0.46132214719782999 0 0.45842872592571782 0.44649398109010491 0 0.45537381304254498 0.47691116712369869 0 0.5 0.43086472508270152 0 0.45842872592571782 0.44649398109010491 0 0.45537381304254498 0.47691116712369869 0 0.44326144112707883 0.46132214719782999 0 0.45537381304254498 0.47691116712369869 0 0.43645093456578532 0.47639999591642601 0 0.45537381304254498 0.47691116712369869 0 0.43533775815800541 0.5 0 0.43645093456578532 0.47639999591642601 0 0.43533775815800541 0.5 0 0.42188051069214971 0.48429258239984108 0 0.43645093456578532 0.47639999591642601 0 0.43533775815800541 0.5 0 0.41259973527457511 0.50000000000000033 0 0.42188051069214971 0.48429258239984108 0 0.41259973527457511 0.50000000000000033 0 0.40759307616376073 0.47907866430484602 0 0.41259973527457511 0.50000000000000033 0 0.40759307616376073 0.47907866430484602 0 0.42188051069214971 0.48429258239984108 0 0.40759307616376073 0.47907866430484602 0 0.42188051069214971 0.48429258239984108 0 0.4188190008435933 0.45976634215794582 0 0.42188051069214971 0.48429258239984108 0 0.4188190008435933 0.45976634215794582 0 0.42646859120934538 0.47119239256228762 0 0.42188051069214971 0.48429258239984108 0 0.4188190008435933 0.45976634215794582 0 0.42646859120934538 0.47119239256228762 0 0.42188051069214971 0.48429258239984108 0 0.43645093456578532 0.47639999591642601 0 0.42646859120934538 0.47119239256228762 0 0.43645093456578532 0.47639999591642601 0 0.42907172572854108 0.46133111892568018 0 0.44326144112707883 0.46132214719782999 0 0.42907172572854108 0.46133111892568018 0 0.43567486282984003 0.44521607701163768 0 0.44326144112707883 0.46132214719782999 0 0.43645093456578532 0.47639999591642601 0 0.42907172572854108 0.46133111892568018 0 0.42646859120934538 0.47119239256228762 0 0.42907172572854108 0.46133111892568018 0 0.4188190008435933 0.45976634215794582 0 0.42088385343751061 0.4360224902999178 0 0.42907172572854108 0.46133111892568018 0 0.42088385343751061 0.4360224902999178 0 0.42907172572854108 0.46133111892568018 0 0.4188190008435933 0.45976634215794582 0 0.42088385343751061 0.4360224902999178 0 0.42907172572854108 0.46133111892568018 0 0.43567486282984003 0.44521607701163768 0 0.42088385343751061 0.4360224902999178 0 0.43079688627006429 0.43491425589117988 0 0.43567486282984003 0.44521607701163768 0 0.41575749099503689 0.43524010191605061 0 0.4188190008435933 0.45976634215794582 0 0.41575749099503689 0.43524010191605061 0 0.40925044880253592 0.44319849788610122 0 0.4188190008435933 0.45976634215794582 0 0.42088385343751061 0.4360224902999178 0 0.41575749099503689 0.43524010191605061 0 0.4188190008435933 0.45976634215794582 0 0.40925044880253592 0.44319849788610122 0 0.4188190008435933 0.45976634215794582 0 0.41024442396213578 0.45343029527918849 0 0.40925044880253592 0.44319849788610122 0 0.41024442396213578 0.45343029527918849 0 0.40015148955605628 0.44798249257067202 0 0.40804208844738021 0.43589761701700169 0 0.41575749099503689 0.43524010191605061 0 0.40925044880253592 0.44319849788610122 0 0.40804208844738021 0.43589761701700169 0 0.40925044880253592 0.44319849788610122 0 0.40197844980304109 0.44041237642064851 0 0.40759307616376073 0.47907866430484602 0 0.4188190008435933 0.45976634215794582 0 0.41008959291118918 0.46241643883964811 0 0.40759307616376073 0.47907866430484602 0 0.41008959291118918 0.46241643883964811 0 0.40258641705294718 0.45815732860969138 0 0.41024442396213578 0.45343029527918849 0 0.41008959291118918 0.46241643883964811 0 0.40258641705294718 0.45815732860969138 0 0.4188190008435933 0.45976634215794582 0 0.41024442396213578 0.45343029527918849 0 0.41008959291118918 0.46241643883964811 0 0.41024442396213578 0.45343029527918849 0 0.40258641705294718 0.45815732860969138 0 0.40258641705294718 0.45815732860969138 0 0.38913595768232501 0.44990257151576751 0 0.38515545991309191 0.46035169985863561 0 0.40759307616376073 0.47907866430484602 0 0.40258641705294718 0.45815732860969138 0 0.41024442396213578 0.45343029527918849 0 0.40258641705294718 0.45815732860969138 0 0.40015148955605628 0.44798249257067202 0 0.40925044880253592 0.44319849788610122 0 0.40197844980304109 0.44041237642064851 0 0.40015148955605628 0.44798249257067202 0 0.40197844980304109 0.44041237642064851 0 0.40015148955605628 0.44798249257067202 0 0.39479750898440252 0.44412817221861228 0 0.40258641705294718 0.45815732860969138 0 0.40015148955605628 0.44798249257067202 0 0.40258641705294718 0.45815732860969138 0 0.40015148955605628 0.44798249257067202 0 0.38913595768232501 0.44990257151576751 0 0.40015148955605628 0.44798249257067202 0 0.39479750898440252 0.44412817221861228 0 0.38913595768232501 0.44990257151576751 0 0.39479750898440252 0.44412817221861228 0 0.38946375263235822 0.44394056498459872 0 0.38913595768232501 0.44990257151576751 0 0.40197844980304109 0.44041237642064851 0 0.39479750898440252 0.44412817221861228 0 0.39325789524823163 0.43840285560137471 0 0.39479750898440252 0.44412817221861228 0 0.39325789524823163 0.43840285560137471 0 0.38946375263235822 0.44394056498459872 0 0.37851849014967381 0.44130429881417171 0 0.38515545991309191 0.46035169985863561 0 0.37239059619635118 0.45314175251904038 0 0.37851849014967381 0.44130429881417171 0 0.38515545991309191 0.46035169985863561 0 0.38913595768232501 0.44990257151576751 0 0.38139588410710301 0.44183288089798528 0 0.38515545991309191 0.46035169985863561 0 0.37851849014967381 0.44130429881417171 0 0.38139588410710301 0.44183288089798528 0 0.38515545991309191 0.46035169985863561 0 0.38946375263235822 0.44394056498459872 0 0.38913595768232501 0.44990257151576751 0 0.38139588410710301 0.44183288089798528 0 0.39325789524823163 0.43840285560137471 0 0.38946375263235822 0.44394056498459872 0 0.38139588410710301 0.44183288089798528 0 0.37239059619635118 0.45314175251904038 0 0.38515545991309191 0.46035169985863561 0 0.37854029911636661 0.47300019860228032 0 0.40258641705294718 0.45815732860969138 0 0.38515545991309191 0.46035169985863561 0 0.37854029911636661 0.47300019860228032 0 0.40258641705294718 0.45815732860969138 0 0.37854029911636661 0.47300019860228032 0 0.40759307616376073 0.47907866430484602 0 0.37854029911636661 0.47300019860228032 0 0.38277485620541879 0.5 0 0.41259973527457511 0.50000000000000033 0 0.40759307616376073 0.47907866430484602 0 0.38277485620541879 0.5 0 0.40759307616376073 0.47907866430484602 0 0.40258641705294718 0.45815732860969138 0 0.37854029911636661 0.47300019860228032 0 0.32684342382916892 0.089537002995375647 0 0.35014540907401431 0.093164027429894145 0 0.3470640512937801 0.073039662163136787 0 0.32684342382916892 0.089537002995375647 0 0.3470640512937801 0.073039662163136787 0 0.3309968435809264 0.060984776372239459 0 0.3309968435809264 0.060984776372239459 0 0.31149180964273682 0.073761139847946591 0 0.32684342382916892 0.089537002995375647 0 0.3309968435809264 0.060984776372239459 0 0.31149180964273682 0.073761139847946591 0 0.3309968435809264 0.060984776372239459 0 0.31673109558532497 0.056153343224125123 0 0.31149180964273682 0.073761139847946591 0 0.32684342382916892 0.089537002995375647 0 0.30990744767557371 0.088762785789660098 0 0.31149180964273682 0.073761139847946591 0 0.32684342382916892 0.089537002995375647 0 0.30990744767557371 0.088762785789660098 0 0.30930778152584182 0.1052154969916644 0 0.32684342382916892 0.089537002995375647 0 0.33587826121516468 0.1083437312362403 0 0.30930778152584182 0.1052154969916644 0 0.32662878734713729 0.123893490659674 0 0.30930778152584182 0.1052154969916644 0 0.32662878734713729 0.123893490659674 0 0.33587826121516468 0.1083437312362403 0 0.30930778152584182 0.1052154969916644 0 0.32662878734713729 0.123893490659674 0 0.33587826121516468 0.1083437312362403 0 0.34565636032346381 0.12525404933068779 0 0.32684342382916892 0.089537002995375647 0 0.33587826121516468 0.1083437312362403 0 0.35014540907401431 0.093164027429894145 0 0.33587826121516468 0.1083437312362403 0 0.35856936083898688 0.1122445398057856 0 0.35014540907401431 0.093164027429894145 0 0.33587826121516468 0.1083437312362403 0 0.35856936083898688 0.1122445398057856 0 0.34565636032346381 0.12525404933068779 0 0.35856936083898688 0.1122445398057856 0 0.36701871034284589 0.13770944021533829 0 0.38064408324382859 0.1129695112276463 0 0.35856936083898688 0.1122445398057856 0 0.37287220506177482 0.091720814328167935 0 0.35014540907401431 0.093164027429894145 0 0.35856936083898688 0.1122445398057856 0 0.37287220506177482 0.091720814328167935 0 0.38064408324382859 0.1129695112276463 0 0.37287220506177482 0.091720814328167935 0 0.35014540907401431 0.093164027429894145 0 0.36705619603161738 0.071905623183345369 0 0.35014540907401431 0.093164027429894145 0 0.3470640512937801 0.073039662163136787 0 0.36705619603161738 0.071905623183345369 0 0.3470640512937801 0.073039662163136787 0 0.36705619603161738 0.071905623183345369 0 0.35050187751911588 0.04820841289653232 0 0.36705619603161738 0.071905623183345369 0 0.37365282245678938 0.05475601711651075 0 0.35050187751911588 0.04820841289653232 0 0.3700069114573058 0.035432049420825673 0 0.35050187751911588 0.04820841289653232 0 0.37365282245678938 0.05475601711651075 0 0.3700069114573058 0.035432049420825673 0 0.35050187751911588 0.04820841289653232 0 0.3700069114573058 0.035432049420825673 0 0.35050187751911588 0.04820841289653232 0 0.3422777179383133 0.033694857423088843 0 0.35573182971510159 0.0192866842783866 0 0.38013650234142998 0.01746283910031405 0 0.35811332451581612 -0.0003003940594539338 0 0.38013650234142998 0.01746283910031405 0 0.35811332451581612 -0.0003003940594539338 0 0.37430897038932398 0.0029070229972260808 0 0.38013650234142998 0.01746283910031405 0 0.35811332451581612 -0.0003003940594539338 0 0.35573182971510159 0.0192866842783866 0 0.38013650234142998 0.01746283910031405 0 0.3700069114573058 0.035432049420825673 0 0.36473258011126292 0.023285864060123639 0 0.38013650234142998 0.01746283910031405 0 0.3700069114573058 0.035432049420825673 0 0.35305507693121441 0.02096188344096828 0 0.36473258011126292 0.023285864060123639 0 0.35573182971510159 0.0192866842783866 0 0.38013650234142998 0.01746283910031405 0 0.3700069114573058 0.035432049420825673 0 0.36473258011126292 0.023285864060123639 0 0.35305507693121441 0.02096188344096828 0 0.3700069114573058 0.035432049420825673 0 0.35305507693121441 0.02096188344096828 0 0.3422777179383133 0.033694857423088843 0 0.35305507693121441 0.02096188344096828 0 0.35573182971510159 0.0192866842783866 0 0.33132715708877319 0.021110529456457441 0 0.36473258011126292 0.023285864060123639 0 0.35305507693121441 0.02096188344096828 0 0.35573182971510159 0.0192866842783866 0 0.35573182971510159 0.0192866842783866 0 0.342998853974813 0.010032387481154649 0 0.35811332451581612 -0.0003003940594539338 0 0.342998853974813 0.010032387481154649 0 0.35811332451581612 -0.0003003940594539338 0 0.34120962532654758 -0.0018768657245843219 0 0.33086727132326971 0.001175444359557418 0 0.342998853974813 0.010032387481154649 0 0.33132715708877319 0.021110529456457441 0 0.33086727132326971 0.001175444359557418 0 0.342998853974813 0.010032387481154649 0 0.34120962532654758 -0.0018768657245843219 0 0.33132715708877319 0.021110529456457441 0 0.3422777179383133 0.033694857423088843 0 0.32315505642352049 0.033994962063592593 0 0.35573182971510159 0.0192866842783866 0 0.33132715708877319 0.021110529456457441 0 0.35573182971510159 0.0192866842783866 0 0.342998853974813 0.010032387481154649 0 0.33132715708877319 0.021110529456457441 0 0.35305507693121441 0.02096188344096828 0 0.33132715708877319 0.021110529456457441 0 0.3422777179383133 0.033694857423088843 0 0.33132715708877319 0.021110529456457441 0 0.32315505642352049 0.033994962063592593 0 0.30692248446244469 0.02293437463452741 0 0.33132715708877319 0.021110529456457441 0 0.31739056135518179 0.0052853907154769546 0 0.30692248446244469 0.02293437463452741 0 0.33132715708877319 0.021110529456457441 0 0.30692248446244469 0.02293437463452741 0 0.33086727132326971 0.001175444359557418 0 0.33132715708877319 0.021110529456457441 0 0.31739056135518179 0.0052853907154769546 0 0.35050187751911588 0.04820841289653232 0 0.3309968435809264 0.060984776372239459 0 0.3470640512937801 0.073039662163136787 0 0.35050187751911588 0.04820841289653232 0 0.3309968435809264 0.060984776372239459 0 0.35050187751911588 0.04820841289653232 0 0.3309968435809264 0.060984776372239459 0 0.3330125314489743 0.045841448887608549 0 0.3330125314489743 0.045841448887608549 0 0.3422777179383133 0.033694857423088843 0 0.32315505642352049 0.033994962063592593 0 0.35050187751911588 0.04820841289653232 0 0.3330125314489743 0.045841448887608549 0 0.3422777179383133 0.033694857423088843 0 0.3330125314489743 0.045841448887608549 0 0.32315505642352049 0.033994962063592593 0 0.31646102417262639 0.043266482993260871 0 0.32315505642352049 0.033994962063592593 0 0.30892942342999119 0.037122078986612413 0 0.30692248446244469 0.02293437463452741 0 0.32315505642352049 0.033994962063592593 0 0.31646102417262639 0.043266482993260871 0 0.30892942342999119 0.037122078986612413 0 0.3330125314489743 0.045841448887608549 0 0.31646102417262639 0.043266482993260871 0 0.31673109558532497 0.056153343224125123 0 0.31646102417262639 0.043266482993260871 0 0.31673109558532497 0.056153343224125123 0 0.30760271606017447 0.047711059673673693 0 0.3309968435809264 0.060984776372239459 0 0.3330125314489743 0.045841448887608549 0 0.31673109558532497 0.056153343224125123 0 0.30161296832022172 0.058732447491698717 0 0.30760271606017447 0.047711059673673693 0 0.29557364409930631 0.042068309465270452 0 0.31673109558532497 0.056153343224125123 0 0.30161296832022172 0.058732447491698717 0 0.30760271606017447 0.047711059673673693 0 0.31646102417262639 0.043266482993260871 0 0.30760271606017447 0.047711059673673693 0 0.30892942342999119 0.037122078986612413 0 0.29557364409930631 0.042068309465270452 0 0.30692248446244469 0.02293437463452741 0 0.30892942342999119 0.037122078986612413 0 0.29557364409930631 0.042068309465270452 0 0.30692248446244469 0.02293437463452741 0 0.30760271606017447 0.047711059673673693 0 0.30892942342999119 0.037122078986612413 0 0.29557364409930631 0.042068309465270452 0 0.28856348341136873 0.027269873691731211 0 0.27406195141895889 0.05143350365698264 0 0.29557364409930631 0.042068309465270452 0 0.28856348341136873 0.027269873691731211 0 0.27406195141895889 0.05143350365698264 0 0.29557364409930631 0.042068309465270452 0 0.28422480373616921 0.061202244296014251 0 0.27406195141895889 0.05143350365698264 0 0.30161296832022172 0.058732447491698717 0 0.29557364409930631 0.042068309465270452 0 0.28422480373616921 0.061202244296014251 0 0.29557364409930631 0.042068309465270452 0 0.28422480373616921 0.061202244296014251 0 0.31739056135518179 0.0052853907154769546 0 0.3030650154037785 0.0031062437264797742 0 0.30692248446244469 0.02293437463452741 0 0.31739056135518179 0.0052853907154769546 0 0.30692248446244469 0.02293437463452741 0 0.29557364409930631 0.042068309465270452 0 0.30692248446244469 0.02293437463452741 0 0.29698204699676428 0.023677257737993361 0 0.3030650154037785 0.0031062437264797742 0 0.30692248446244469 0.02293437463452741 0 0.29698204699676428 0.023677257737993361 0 0.30692248446244469 0.02293437463452741 0 0.29698204699676428 0.023677257737993361 0 0.3030650154037785 0.0031062437264797742 0 0.29698204699676428 0.023677257737993361 0 0.28856348341136873 0.027269873691731211 0 0.28856348341136873 0.027269873691731211 0 0.28215347092430831 0.017293909740815929 0 0.28964002828642788 0.010738493418712129 0 0.29557364409930631 0.042068309465270452 0 0.29698204699676428 0.023677257737993361 0 0.28856348341136873 0.027269873691731211 0 0.28856348341136873 0.027269873691731211 0 0.28215347092430831 0.017293909740815929 0 0.27644624656781291 0.02616458880956404 0 0.3030650154037785 0.0031062437264797742 0 0.28856348341136873 0.027269873691731211 0 0.3030650154037785 0.0031062437264797742 0 0.28856348341136873 0.027269873691731211 0 0.28964002828642788 0.010738493418712129 0 0.28215347092430831 0.017293909740815929 0 0.28964002828642788 0.010738493418712129 0 0.28132672896125188 0.0065515307208661184 0 0.28964002828642788 0.010738493418712129 0 0.28132672896125188 0.0065515307208661184 0 0.29228138447650043 -0.0019799900661793429 0 0.3030650154037785 0.0031062437264797742 0 0.28964002828642788 0.010738493418712129 0 0.29228138447650043 -0.0019799900661793429 0 0.26823964835912389 0.0073694850807046221 0 0.25252718089966042 0.0040840364167999913 0 0.27969009017391061 -0.0083872745562978968 0 0.28132672896125188 0.0065515307208661184 0 0.26823964835912389 0.0073694850807046221 0 0.27969009017391061 -0.0083872745562978968 0 0.28132672896125188 0.0065515307208661184 0 0.26823964835912389 0.0073694850807046221 0 0.27395880728570787 0.01679542017446679 0 0.28215347092430831 0.017293909740815929 0 0.28132672896125188 0.0065515307208661184 0 0.27395880728570787 0.01679542017446679 0 0.26823964835912389 0.0073694850807046221 0 0.27395880728570787 0.01679542017446679 0 0.26398911907874262 0.017231189849243041 0 0.26871141515595809 0.023390983035485272 0 0.27395880728570787 0.01679542017446679 0 0.26398911907874262 0.017231189849243041 0 0.26871141515595809 0.023390983035485272 0 0.27395880728570787 0.01679542017446679 0 0.27644624656781291 0.02616458880956404 0 0.28215347092430831 0.017293909740815929 0 0.27395880728570787 0.01679542017446679 0 0.27644624656781291 0.02616458880956404 0 0.28856348341136873 0.027269873691731211 0 0.27644624656781291 0.02616458880956404 0 0.27382451782270267 0.036020306549822627 0 0.26871141515595809 0.023390983035485272 0 0.27644624656781291 0.02616458880956404 0 0.2669081183864333 0.031852740668031662 0 0.26041958422647399 0.024385100665604859 0 0.2669081183864333 0.031852740668031662 0 0.2558319181659906 0.03224134446296413 0 0.26871141515595809 0.023390983035485272 0 0.26041958422647399 0.024385100665604859 0 0.2669081183864333 0.031852740668031662 0 0.2490121542277674 0.022861414807485339 0 0.26041958422647399 0.024385100665604859 0 0.2558319181659906 0.03224134446296413 0 0.2490121542277674 0.022861414807485339 0 0.26041958422647399 0.024385100665604859 0 0.2564234879928306 0.0156174702327255 0 0.26041958422647399 0.024385100665604859 0 0.26398911907874262 0.017231189849243041 0 0.2564234879928306 0.0156174702327255 0 0.26871141515595809 0.023390983035485272 0 0.26041958422647399 0.024385100665604859 0 0.26398911907874262 0.017231189849243041 0 0.2490121542277674 0.022861414807485339 0 0.2564234879928306 0.0156174702327255 0 0.25252718089966042 0.0040840364167999913 0 0.26823964835912389 0.0073694850807046221 0 0.25711390364649811 0.008992365990409909 0 0.25252718089966042 0.0040840364167999913 0 0.26823964835912389 0.0073694850807046221 0 0.26398911907874262 0.017231189849243041 0 0.25711390364649811 0.008992365990409909 0 0.26398911907874262 0.017231189849243041 0 0.2564234879928306 0.0156174702327255 0 0.25711390364649811 0.008992365990409909 0 0.2564234879928306 0.0156174702327255 0 0.25711390364649811 0.008992365990409909 0 0.25252718089966042 0.0040840364167999913 0 0.25711390364649811 0.008992365990409909 0 0.25252718089966042 0.0040840364167999913 0 0.27406195141895889 0.05143350365698264 0 0.26107430425753519 0.044921821061125557 0 0.26520174347812953 0.060231204556375199 0 0.27516827924586129 0.060509614015037017 0 0.26520174347812953 0.060231204556375199 0 0.27053150789868058 0.065047103242679677 0 0.27516827924586129 0.060509614015037017 0 0.27406195141895889 0.05143350365698264 0 0.26520174347812953 0.060231204556375199 0 0.28422480373616921 0.061202244296014251 0 0.27516827924586129 0.060509614015037017 0 0.27406195141895889 0.05143350365698264 0 0.28422480373616921 0.061202244296014251 0 0.27516827924586129 0.060509614015037017 0 0.27852768552917528 0.065222978320768163 0 0.28856348341136873 0.027269873691731211 0 0.27406195141895889 0.05143350365698264 0 0.27382451782270267 0.036020306549822627 0 0.27644624656781291 0.02616458880956404 0 0.27382451782270267 0.036020306549822627 0 0.2669081183864333 0.031852740668031662 0 0.27382451782270267 0.036020306549822627 0 0.2669081183864333 0.031852740668031662 0 0.26107430425753519 0.044921821061125557 0 0.27406195141895889 0.05143350365698264 0 0.27382451782270267 0.036020306549822627 0 0.26107430425753519 0.044921821061125557 0 0.2417454297317429 0.037185645112573218 0 0.26107430425753519 0.044921821061125557 0 0.2558319181659906 0.03224134446296413 0 0.2669081183864333 0.031852740668031662 0 0.26107430425753519 0.044921821061125557 0 0.2558319181659906 0.03224134446296413 0 0.26107430425753519 0.044921821061125557 0 0.25020417237088122 0.061453362743104693 0 0.26520174347812953 0.060231204556375199 0 0.2417454297317429 0.037185645112573218 0 0.26107430425753519 0.044921821061125557 0 0.25020417237088122 0.061453362743104693 0 0.25020417237088122 0.061453362743104693 0 0.25866291501001981 0.08572108037363621 0 0.26599320957067552 0.070480749646628038 0 0.25020417237088122 0.061453362743104693 0 0.26520174347812953 0.060231204556375199 0 0.26599320957067552 0.070480749646628038 0 0.25020417237088122 0.061453362743104693 0 0.25866291501001981 0.08572108037363621 0 0.25866291501001981 0.08572108037363621 0 0.27026179726411093 0.088090230660771818 0 0.26508875151355638 0.1041564900391596 0 0.25866291501001981 0.08572108037363621 0 0.27026179726411093 0.088090230660771818 0 0.27613964033416338 0.071106822444808274 0 0.27026179726411093 0.088090230660771818 0 0.27912166613324219 0.08525049229424593 0 0.27613964033416338 0.071106822444808274 0 0.25866291501001981 0.08572108037363621 0 0.27613964033416338 0.071106822444808274 0 0.27026179726411093 0.088090230660771818 0 0.27912166613324219 0.08525049229424593 0 0.27853776360905191 0.095346996681406865 0 0.25866291501001981 0.08572108037363621 0 0.26599320957067552 0.070480749646628038 0 0.27613964033416338 0.071106822444808274 0 0.27053150789868058 0.065047103242679677 0 0.26599320957067552 0.070480749646628038 0 0.27588893207862708 0.069178498632145757 0 0.26599320957067552 0.070480749646628038 0 0.27613964033416338 0.071106822444808274 0 0.27588893207862708 0.069178498632145757 0 0.26520174347812953 0.060231204556375199 0 0.27053150789868058 0.065047103242679677 0 0.26599320957067552 0.070480749646628038 0 0.27588893207862708 0.069178498632145757 0 0.27852768552917528 0.065222978320768163 0 0.28500843989189251 0.07045625305509344 0 0.27588893207862708 0.069178498632145757 0 0.27487292934882712 0.064768471388456123 0 0.27852768552917528 0.065222978320768163 0 0.27053150789868058 0.065047103242679677 0 0.27588893207862708 0.069178498632145757 0 0.27487292934882712 0.064768471388456123 0 0.27516827924586129 0.060509614015037017 0 0.27053150789868058 0.065047103242679677 0 0.27487292934882712 0.064768471388456123 0 0.27516827924586129 0.060509614015037017 0 0.27487292934882712 0.064768471388456123 0 0.27852768552917528 0.065222978320768163 0 0.27613964033416338 0.071106822444808274 0 0.27588893207862708 0.069178498632145757 0 0.29198677570454729 0.086537503323653953 0 0.28422480373616921 0.061202244296014251 0 0.27852768552917528 0.065222978320768163 0 0.28500843989189251 0.07045625305509344 0 0.27588893207862708 0.069178498632145757 0 0.28500843989189251 0.07045625305509344 0 0.29198677570454729 0.086537503323653953 0 0.30161296832022172 0.058732447491698717 0 0.28422480373616921 0.061202244296014251 0 0.2944140024109434 0.070140040702885237 0 0.28422480373616921 0.061202244296014251 0 0.2944140024109434 0.070140040702885237 0 0.28500843989189251 0.07045625305509344 0 0.2944140024109434 0.070140040702885237 0 0.28500843989189251 0.07045625305509344 0 0.29198677570454729 0.086537503323653953 0 0.27588893207862708 0.069178498632145757 0 0.29198677570454729 0.086537503323653953 0 0.27912166613324219 0.08525049229424593 0 0.27613964033416338 0.071106822444808274 0 0.29198677570454729 0.086537503323653953 0 0.27912166613324219 0.08525049229424593 0 0.29198677570454729 0.086537503323653953 0 0.27853776360905191 0.095346996681406865 0 0.29198677570454729 0.086537503323653953 0 0.27853776360905191 0.095346996681406865 0 0.29198677570454729 0.086537503323653953 0 0.31149180964273682 0.073761139847946591 0 0.29198677570454729 0.086537503323653953 0 0.30990744767557371 0.088762785789660098 0 0.30930778152584182 0.1052154969916644 0 0.29198677570454729 0.086537503323653953 0 0.30990744767557371 0.088762785789660098 0 0.31149180964273682 0.073761139847946591 0 0.30161296832022172 0.058732447491698717 0 0.2944140024109434 0.070140040702885237 0 0.31149180964273682 0.073761139847946591 0 0.31673109558532497 0.056153343224125123 0 0.30161296832022172 0.058732447491698717 0 0.31149180964273682 0.073761139847946591 0 0.2944140024109434 0.070140040702885237 0 0.29198677570454729 0.086537503323653953 0 0.31149180964273682 0.073761139847946591 0 0.30930778152584182 0.1052154969916644 0 0.29035310789518493 0.1148925857257533 0 0.29964843214696518 0.13035011129240301 0 0.32662878734713729 0.123893490659674 0 0.30930778152584182 0.1052154969916644 0 0.29964843214696518 0.13035011129240301 0 0.29198677570454729 0.086537503323653953 0 0.30930778152584182 0.1052154969916644 0 0.28987412441663979 0.1021624624059264 0 0.29198677570454729 0.086537503323653953 0 0.30930778152584182 0.1052154969916644 0 0.30930778152584182 0.1052154969916644 0 0.28987412441663979 0.1021624624059264 0 0.29035310789518493 0.1148925857257533 0 0.29198677570454729 0.086537503323653953 0 0.28987412441663979 0.1021624624059264 0 0.27853776360905191 0.095346996681406865 0 0.28987412441663979 0.1021624624059264 0 0.29035310789518493 0.1148925857257533 0 0.27918519334857311 0.1088197293071537 0 0.28987412441663979 0.1021624624059264 0 0.27853776360905191 0.095346996681406865 0 0.27918519334857311 0.1088197293071537 0 0.29035310789518493 0.1148925857257533 0 0.27918519334857311 0.1088197293071537 0 0.27442278137253062 0.13093536376023729 0 0.26508875151355638 0.1041564900391596 0 0.27442278137253062 0.13093536376023729 0 0.27918519334857311 0.1088197293071537 0 0.26508875151355638 0.1041564900391596 0 0.27442278137253062 0.13093536376023729 0 0.27026179726411093 0.088090230660771818 0 0.27853776360905191 0.095346996681406865 0 0.26508875151355638 0.1041564900391596 0 0.27853776360905191 0.095346996681406865 0 0.27918519334857311 0.1088197293071537 0 0.26508875151355638 0.1041564900391596 0 0.27853776360905191 0.095346996681406865 0 0.26508875151355638 0.1041564900391596 0 0.25866291501001981 0.08572108037363621 0 0.26508875151355638 0.1041564900391596 0 0.25262747288809573 0.1018910486738928 0 0.24783924017293521 0.1154554207338977 0 0.26508875151355638 0.1041564900391596 0 0.25262747288809573 0.1018910486738928 0 0.25866291501001981 0.08572108037363621 0 0.26508875151355638 0.1041564900391596 0 0.23891898485587321 0.1022312035488771 0 0.25866291501001981 0.08572108037363621 0 0.25262747288809573 0.1018910486738928 0 0.24783924017293521 0.1154554207338977 0 0.26508875151355638 0.1041564900391596 0 0.27442278137253062 0.13093536376023729 0 0.24783924017293521 0.1154554207338977 0 0.26508875151355638 0.1041564900391596 0 0.2461331472257009 0.1406368281012936 0 0.24783924017293521 0.1154554207338977 0 0.27442278137253062 0.13093536376023729 0 0.27442278137253062 0.13093536376023729 0 0.26351046238600229 0.15677608333082049 0 0.28375681123150648 0.15771423748131441 0 0.27442278137253062 0.13093536376023729 0 0.28375681123150648 0.15771423748131441 0 0.2461331472257009 0.1406368281012936 0 0.27442278137253062 0.13093536376023729 0 0.26351046238600229 0.15677608333082049 0 0.26351046238600229 0.15677608333082049 0 0.25500299124216341 0.17666048562343309 0 0.27171545873550468 0.17787319400457749 0 0.25500299124216341 0.17666048562343309 0 0.27171545873550468 0.17787319400457749 0 0.25422330199456261 0.1928385510250292 0 0.27171545873550468 0.17787319400457749 0 0.29309084109048378 0.1844931112023912 0 0.27228245497513698 0.19714271972547581 0 0.26351046238600229 0.15677608333082049 0 0.27171545873550468 0.17787319400457749 0 0.28375681123150648 0.15771423748131441 0 0.28375681123150648 0.15771423748131441 0 0.29995064504367702 0.1629925598476335 0 0.28991286337521682 0.1539603993063817 0 0.28375681123150648 0.15771423748131441 0 0.29309084109048378 0.1844931112023912 0 0.29995064504367702 0.1629925598476335 0 0.28375681123150648 0.15771423748131441 0 0.29309084109048378 0.1844931112023912 0 0.27171545873550468 0.17787319400457749 0 0.28375681123150648 0.15771423748131441 0 0.29309084109048378 0.1844931112023912 0 0.29309084109048378 0.1844931112023912 0 0.31792484620709027 0.18809196419482771 0 0.31606138124935401 0.17052910943104849 0 0.29309084109048378 0.1844931112023912 0 0.29995064504367702 0.1629925598476335 0 0.31606138124935401 0.17052910943104849 0 0.29309084109048378 0.1844931112023912 0 0.31606138124935401 0.17052910943104849 0 0.29995064504367702 0.1629925598476335 0 0.31693132827182552 0.1482659418170312 0 0.31606138124935401 0.17052910943104849 0 0.28991286337521682 0.1539603993063817 0 0.31693132827182552 0.1482659418170312 0 0.29896759680825019 0.14400901331788429 0 0.28991286337521682 0.1539603993063817 0 0.31693132827182552 0.1482659418170312 0 0.29995064504367702 0.1629925598476335 0 0.28991286337521682 0.1539603993063817 0 0.31693132827182552 0.1482659418170312 0 0.29896759680825019 0.14400901331788429 0 0.29964843214696518 0.13035011129240301 0 0.31693132827182552 0.1482659418170312 0 0.27442278137253062 0.13093536376023729 0 0.29964843214696518 0.13035011129240301 0 0.28937776343899319 0.14345960085572129 0 0.29035310789518493 0.1148925857257533 0 0.27442278137253062 0.13093536376023729 0 0.29964843214696518 0.13035011129240301 0 0.29896759680825019 0.14400901331788429 0 0.29964843214696518 0.13035011129240301 0 0.28937776343899319 0.14345960085572129 0 0.27442278137253062 0.13093536376023729 0 0.28375681123150648 0.15771423748131441 0 0.28937776343899319 0.14345960085572129 0 0.28375681123150648 0.15771423748131441 0 0.28991286337521682 0.1539603993063817 0 0.28937776343899319 0.14345960085572129 0 0.29896759680825019 0.14400901331788429 0 0.28991286337521682 0.1539603993063817 0 0.28937776343899319 0.14345960085572129 0 0.26671739523566501 0.25066453950405998 0 0.26846834949586512 0.22878533198781259 0 0.28546263013193918 0.24777833572706659 0 0.26846834949586512 0.22878533198781259 0 0.28546263013193918 0.24777833572706659 0 0.2479454897291847 0.23924928271558671 0 0.26671739523566501 0.25066453950405998 0 0.26846834949586512 0.22878533198781259 0 0.25411629243233008 0.2245276064402377 0 0.26846834949586512 0.22878533198781259 0 0.25147406885978979 0.20979232824855959 0 0.26846834949586512 0.22878533198781259 0 0.25147406885978979 0.20979232824855959 0 0.2479454897291847 0.23924928271558671 0 0.25411629243233008 0.2245276064402377 0 0.26846834949586512 0.22878533198781259 0 0.26846834949586512 0.22878533198781259 0 0.27631667006834132 0.21297276494647929 0 0.2916070357142837 0.2256405934992049 0 0.27631667006834132 0.21297276494647929 0 0.25147406885978979 0.20979232824855959 0 0.27228245497513698 0.19714271972547581 0 0.25147406885978979 0.20979232824855959 0 0.27228245497513698 0.19714271972547581 0 0.26846834949586512 0.22878533198781259 0 0.27631667006834132 0.21297276494647929 0 0.25147406885978979 0.20979232824855959 0 0.25147406885978979 0.20979232824855959 0 0.25422330199456261 0.1928385510250292 0 0.27228245497513698 0.19714271972547581 0 0.27171545873550468 0.17787319400457749 0 0.25422330199456261 0.1928385510250292 0 0.27228245497513698 0.19714271972547581 0 0.29309084109048378 0.1844931112023912 0 0.27228245497513698 0.19714271972547581 0 0.29309084109048378 0.1844931112023912 0 0.27228245497513698 0.19714271972547581 0 0.29775144129663073 0.2035028512713439 0 0.29309084109048378 0.1844931112023912 0 0.30156048091273718 0.20879209231664869 0 0.29309084109048378 0.1844931112023912 0 0.31196026364661938 0.20077647344744559 0 0.30156048091273718 0.20879209231664869 0 0.29309084109048378 0.1844931112023912 0 0.29775144129663073 0.2035028512713439 0 0.30156048091273718 0.20879209231664869 0 0.29309084109048378 0.1844931112023912 0 0.31196026364661938 0.20077647344744559 0 0.31792484620709027 0.18809196419482771 0 0.30156048091273718 0.20879209231664869 0 0.31191763480465712 0.2128552614156996 0 0.31003012073499092 0.2330910734309061 0 0.29775144129663073 0.2035028512713439 0 0.30156048091273718 0.20879209231664869 0 0.2916070357142837 0.2256405934992049 0 0.31196026364661938 0.20077647344744559 0 0.30156048091273718 0.20879209231664869 0 0.31191763480465712 0.2128552614156996 0 0.29775144129663073 0.2035028512713439 0 0.2916070357142837 0.2256405934992049 0 0.27631667006834132 0.21297276494647929 0 0.29775144129663073 0.2035028512713439 0 0.2916070357142837 0.2256405934992049 0 0.27631667006834132 0.21297276494647929 0 0.27228245497513698 0.19714271972547581 0 0.29775144129663073 0.2035028512713439 0 0.26846834949586512 0.22878533198781259 0 0.2916070357142837 0.2256405934992049 0 0.28546263013193918 0.24777833572706659 0 0.30156048091273718 0.20879209231664869 0 0.31003012073499092 0.2330910734309061 0 0.30086208359805949 0.2292582560739658 0 0.30156048091273718 0.20879209231664869 0 0.31003012073499092 0.2330910734309061 0 0.30156048091273718 0.20879209231664869 0 0.2916070357142837 0.2256405934992049 0 0.30086208359805949 0.2292582560739658 0 0.31003012073499092 0.2330910734309061 0 0.30086208359805949 0.2292582560739658 0 0.30060974168606719 0.2391920226000756 0 0.2916070357142837 0.2256405934992049 0 0.30086208359805949 0.2292582560739658 0 0.30060974168606719 0.2391920226000756 0 0.29521357435673939 0.25867610328127227 0 0.30480015016193601 0.24212212222001861 0 0.29598205449171527 0.24798136082291139 0 0.29521357435673939 0.25867610328127227 0 0.30480015016193601 0.24212212222001861 0 0.30820342185855842 0.24450182461949299 0 0.30060974168606719 0.2391920226000756 0 0.30480015016193601 0.24212212222001861 0 0.31003012073499092 0.2330910734309061 0 0.30480015016193601 0.24212212222001861 0 0.31175787496964608 0.23804791556339619 0 0.31003012073499092 0.2330910734309061 0 0.30060974168606719 0.2391920226000756 0 0.30480015016193601 0.24212212222001861 0 0.31003012073499092 0.2330910734309061 0 0.30480015016193601 0.24212212222001861 0 0.30480015016193601 0.24212212222001861 0 0.31175787496964608 0.23804791556339619 0 0.30820342185855842 0.24450182461949299 0 0.31175787496964608 0.23804791556339619 0 0.30820342185855842 0.24450182461949299 0 0.31175787496964608 0.23804791556339619 0 0.30820342185855842 0.24450182461949299 0 0.31342659911174658 0.24283540325646519 0 0.31003012073499092 0.2330910734309061 0 0.31175787496964608 0.23804791556339619 0 0.30480015016193601 0.24212212222001861 0 0.30820342185855842 0.24450182461949299 0 0.30060974168606719 0.2391920226000756 0 0.30480015016193601 0.24212212222001861 0 0.29598205449171527 0.24798136082291139 0 0.2916070357142837 0.2256405934992049 0 0.30060974168606719 0.2391920226000756 0 0.28546263013193918 0.24777833572706659 0 0.30060974168606719 0.2391920226000756 0 0.29598205449171527 0.24798136082291139 0 0.28546263013193918 0.24777833572706659 0 0.2916070357142837 0.2256405934992049 0 0.28546263013193918 0.24777833572706659 0 0.3371183169557076 0.25018898753464291 0 0.33476427029815542 0.2346915702880514 0 0.35349611546186399 0.23368388869088361 0 0.33476427029815542 0.2346915702880514 0 0.32632754098372002 0.24383815526926481 0 0.32339798786186158 0.23667521270033129 0 0.3371183169557076 0.25018898753464291 0 0.33476427029815542 0.2346915702880514 0 0.32632754098372002 0.24383815526926481 0 0.32293053069112893 0.25479960256683332 0 0.3371183169557076 0.25018898753464291 0 0.32632754098372002 0.24383815526926481 0 0.32293053069112893 0.25479960256683332 0 0.32632754098372002 0.24383815526926481 0 0.31342659911174658 0.24283540325646519 0 0.32293053069112893 0.25479960256683332 0 0.30820342185855842 0.24450182461949299 0 0.31342659911174658 0.24283540325646519 0 0.32293053069112893 0.25479960256683332 0 0.30820342185855842 0.24450182461949299 0 0.31175787496964608 0.23804791556339619 0 0.31342659911174658 0.24283540325646519 0 0.32339798786186158 0.23667521270033129 0 0.31175787496964608 0.23804791556339619 0 0.31342659911174658 0.24283540325646519 0 0.32632754098372002 0.24383815526926481 0 0.31342659911174658 0.24283540325646519 0 0.32339798786186158 0.23667521270033129 0 0.31175787496964608 0.23804791556339619 0 0.32432848452225599 0.21522314666175871 0 0.33476427029815542 0.2346915702880514 0 0.32339798786186158 0.23667521270033129 0 0.32432848452225599 0.21522314666175871 0 0.31175787496964608 0.23804791556339619 0 0.32339798786186158 0.23667521270033129 0 0.32432848452225599 0.21522314666175871 0 0.31003012073499092 0.2330910734309061 0 0.32411967392427959 0.20876140646779839 0 0.31003012073499092 0.2330910734309061 0 0.31175787496964608 0.23804791556339619 0 0.32432848452225599 0.21522314666175871 0 0.31003012073499092 0.2330910734309061 0 0.32432848452225599 0.21522314666175871 0 0.32411967392427959 0.20876140646779839 0 0.33476427029815542 0.2346915702880514 0 0.32432848452225599 0.21522314666175871 0 0.3448739009779343 0.21729607614454871 0 0.32432848452225599 0.21522314666175871 0 0.33689909407486679 0.19239837776012139 0 0.3394210494615944 0.2082327289821124 0 0.32432848452225599 0.21522314666175871 0 0.33656372745575791 0.19819856971528091 0 0.32432848452225599 0.21522314666175871 0 0.32411967392427959 0.20876140646779839 0 0.33689909407486679 0.19239837776012139 0 0.3394210494615944 0.2082327289821124 0 0.32432848452225599 0.21522314666175871 0 0.3448739009779343 0.21729607614454871 0 0.31191763480465712 0.2128552614156996 0 0.31003012073499092 0.2330910734309061 0 0.32411967392427959 0.20876140646779839 0 0.31196026364661938 0.20077647344744559 0 0.31191763480465712 0.2128552614156996 0 0.32411967392427959 0.20876140646779839 0 0.32411967392427959 0.20876140646779839 0 0.32272596946321402 0.19750705546754829 0 0.33689909407486679 0.19239837776012139 0 0.32272596946321402 0.19750705546754829 0 0.31792484620709027 0.18809196419482771 0 0.33689909407486679 0.19239837776012139 0 0.31196026364661938 0.20077647344744559 0 0.32272596946321402 0.19750705546754829 0 0.31792484620709027 0.18809196419482771 0 0.31196026364661938 0.20077647344744559 0 0.32411967392427959 0.20876140646779839 0 0.32272596946321402 0.19750705546754829 0 0.32432848452225599 0.21522314666175871 0 0.33689909407486679 0.19239837776012139 0 0.33656372745575791 0.19819856971528091 0 0.33689909407486679 0.19239837776012139 0 0.33656372745575791 0.19819856971528091 0 0.35473948621615953 0.18600238005065969 0 0.3394210494615944 0.2082327289821124 0 0.33656372745575791 0.19819856971528091 0 0.35191808489042947 0.20221312340686129 0 0.35191808489042947 0.20221312340686129 0 0.36952139456686078 0.1974238114681339 0 0.35473948621615953 0.18600238005065969 0 0.33656372745575791 0.19819856971528091 0 0.35473948621615953 0.18600238005065969 0 0.33656372745575791 0.19819856971528091 0 0.35191808489042947 0.20221312340686129 0 0.35473948621615953 0.18600238005065969 0 0.35191808489042947 0.20221312340686129 0 0.36952139456686078 0.1974238114681339 0 0.36097974358463808 0.21431175549403669 0 0.36952139456686078 0.1974238114681339 0 0.36097974358463808 0.21431175549403669 0 0.38229875868071012 0.21275087227172149 0 0.36097974358463808 0.21431175549403669 0 0.37166596138435293 0.22592012055068331 0 0.38229875868071012 0.21275087227172149 0 0.35191808489042947 0.20221312340686129 0 0.36097974358463808 0.21431175549403669 0 0.3448739009779343 0.21729607614454871 0 0.3394210494615944 0.2082327289821124 0 0.35191808489042947 0.20221312340686129 0 0.3448739009779343 0.21729607614454871 0 0.33476427029815542 0.2346915702880514 0 0.3448739009779343 0.21729607614454871 0 0.35349611546186399 0.23368388869088361 0 0.36097974358463808 0.21431175549403669 0 0.3448739009779343 0.21729607614454871 0 0.35349611546186399 0.23368388869088361 0 0.36097974358463808 0.21431175549403669 0 0.35349611546186399 0.23368388869088361 0 0.37166596138435293 0.22592012055068331 0 0.35349611546186399 0.23368388869088361 0 0.37166596138435293 0.22592012055068331 0 0.37215360358256122 0.24056111062154431 0 0.35490562155313088 0.25282924556785841 0 0.35349611546186399 0.23368388869088361 0 0.37215360358256122 0.24056111062154431 0 0.35490562155313088 0.25282924556785841 0 0.37215360358256122 0.24056111062154431 0 0.3371183169557076 0.25018898753464291 0 0.35490562155313088 0.25282924556785841 0 0.35349611546186399 0.23368388869088361 0 0.31693132827182552 0.1482659418170312 0 0.34394979316843449 0.14257148432768191 0 0.31693132827182552 0.1482659418170312 0 0.3300872787748157 0.1562805505933399 0 0.34394979316843449 0.14257148432768191 0 0.3300872787748157 0.1562805505933399 0 0.34254846011432832 0.15715561605700001 0 0.34394979316843449 0.14257148432768191 0 0.32662878734713729 0.123893490659674 0 0.34394979316843449 0.14257148432768191 0 0.34565636032346381 0.12525404933068779 0 0.32662878734713729 0.123893490659674 0 0.34394979316843449 0.14257148432768191 0 0.32662878734713729 0.123893490659674 0 0.31693132827182552 0.1482659418170312 0 0.34394979316843449 0.14257148432768191 0 0.32662878734713729 0.123893490659674 0 0.29964843214696518 0.13035011129240301 0 0.31693132827182552 0.1482659418170312 0 0.31606138124935401 0.17052910943104849 0 0.3300872787748157 0.1562805505933399 0 0.33258524268204659 0.16729684159354621 0 0.31693132827182552 0.1482659418170312 0 0.31606138124935401 0.17052910943104849 0 0.3300872787748157 0.1562805505933399 0 0.31606138124935401 0.17052910943104849 0 0.32644994045647258 0.17978463475186279 0 0.33258524268204659 0.16729684159354621 0 0.31792484620709027 0.18809196419482771 0 0.33689909407486679 0.19239837776012139 0 0.32644994045647258 0.17978463475186279 0 0.31792484620709027 0.18809196419482771 0 0.31606138124935401 0.17052910943104849 0 0.32644994045647258 0.17978463475186279 0 0.33689909407486679 0.19239837776012139 0 0.32644994045647258 0.17978463475186279 0 0.3494697036274782 0.16957360885848449 0 0.32644994045647258 0.17978463475186279 0 0.33258524268204659 0.16729684159354621 0 0.3494697036274782 0.16957360885848449 0 0.33689909407486679 0.19239837776012139 0 0.3494697036274782 0.16957360885848449 0 0.33258524268204659 0.16729684159354621 0 0.3494697036274782 0.16957360885848449 0 0.33258524268204659 0.16729684159354621 0 0.34254846011432832 0.15715561605700001 0 0.3494697036274782 0.16957360885848449 0 0.3300872787748157 0.1562805505933399 0 0.33258524268204659 0.16729684159354621 0 0.34254846011432832 0.15715561605700001 0 0.3494697036274782 0.16957360885848449 0 0.35674312023628307 0.1563670851392864 0 0.37178001143567929 0.17258201870068479 0 0.34254846011432832 0.15715561605700001 0 0.3494697036274782 0.16957360885848449 0 0.35674312023628307 0.1563670851392864 0 0.3494697036274782 0.16957360885848449 0 0.35674312023628307 0.1563670851392864 0 0.33689909407486679 0.19239837776012139 0 0.3494697036274782 0.16957360885848449 0 0.35473948621615953 0.18600238005065969 0 0.3494697036274782 0.16957360885848449 0 0.35473948621615953 0.18600238005065969 0 0.37178001143567929 0.17258201870068479 0 0.35473948621615953 0.18600238005065969 0 0.37178001143567929 0.17258201870068479 0 0.37424437780036651 0.17291432357473821 0 0.36952139456686078 0.1974238114681339 0 0.35473948621615953 0.18600238005065969 0 0.37424437780036651 0.17291432357473821 0 0.35473948621615953 0.18600238005065969 0 0.37424437780036651 0.17291432357473821 0 0.37178001143567929 0.17258201870068479 0 0.37424437780036651 0.17291432357473821 0 0.3494697036274782 0.16957360885848449 0 0.37178001143567929 0.17258201870068479 0 0.35674312023628307 0.1563670851392864 0 0.37178001143567929 0.17258201870068479 0 0.37452404587369231 0.15821874442001219 0 0.35674312023628307 0.1563670851392864 0 0.37178001143567929 0.17258201870068479 0 0.37178001143567929 0.17258201870068479 0 0.37424437780036651 0.17291432357473821 0 0.37452404587369231 0.15821874442001219 0 0.35674312023628307 0.1563670851392864 0 0.36701871034284589 0.13770944021533829 0 0.35674312023628307 0.1563670851392864 0 0.37452404587369231 0.15821874442001219 0 0.36701871034284589 0.13770944021533829 0 0.35674312023628307 0.1563670851392864 0 0.34394979316843449 0.14257148432768191 0 0.36701871034284589 0.13770944021533829 0 0.34254846011432832 0.15715561605700001 0 0.35674312023628307 0.1563670851392864 0 0.34394979316843449 0.14257148432768191 0 0.35674312023628307 0.1563670851392864 0 0.34394979316843449 0.14257148432768191 0 0.34394979316843449 0.14257148432768191 0 0.36701871034284589 0.13770944021533829 0 0.35856936083898688 0.1122445398057856 0 0.34565636032346381 0.12525404933068779 0 0.36701871034284589 0.13770944021533829 0 0.34394979316843449 0.14257148432768191 0 0.34565636032346381 0.12525404933068779 0 0.36701871034284589 0.13770944021533829 0 0.36701871034284589 0.13770944021533829 0 0.38064408324382859 0.1129695112276463 0 0.36701871034284589 0.13770944021533829 0 0.38868576409146732 0.1331428552164092 0 0.36701871034284589 0.13770944021533829 0 0.38868576409146732 0.1331428552164092 0 0.38550686043341342 0.1484285552108387 0 0.36701871034284589 0.13770944021533829 0 0.38868576409146732 0.1331428552164092 0 0.38064408324382859 0.1129695112276463 0 0.38868576409146732 0.1331428552164092 0 0.4103528178400882 0.12857627021747839 0 0.38868576409146732 0.1331428552164092 0 0.4103528178400882 0.12857627021747839 0 0.39913986739024898 0.11384115769774331 0 0.38868576409146732 0.1331428552164092 0 0.4103528178400882 0.12857627021747839 0 0.40678906197258641 0.15107638294337691 0 0.38550686043341342 0.1484285552108387 0 0.39051671988647629 0.16199535325905751 0 0.40678906197258641 0.15107638294337691 0 0.38868576409146732 0.1331428552164092 0 0.38550686043341342 0.1484285552108387 0 0.40678906197258641 0.15107638294337691 0 0.37452404587369231 0.15821874442001219 0 0.38550686043341342 0.1484285552108387 0 0.39051671988647629 0.16199535325905751 0 0.37452404587369231 0.15821874442001219 0 0.36701871034284589 0.13770944021533829 0 0.38550686043341342 0.1484285552108387 0 0.37424437780036651 0.17291432357473821 0 0.39051671988647629 0.16199535325905751 0 0.39185213226622811 0.17528862258887551 0 0.37424437780036651 0.17291432357473821 0 0.37452404587369231 0.15821874442001219 0 0.39051671988647629 0.16199535325905751 0 0.37424437780036651 0.17291432357473821 0 0.39051671988647629 0.16199535325905751 0 0.37424437780036651 0.17291432357473821 0 0.39237590733880318 0.19479146873115469 0 0.37424437780036651 0.17291432357473821 0 0.39185213226622811 0.17528862258887551 0 0.39237590733880318 0.19479146873115469 0 0.37424437780036651 0.17291432357473821 0 0.39185213226622811 0.17528862258887551 0 0.39185213226622811 0.17528862258887551 0 0.3989539744878477 0.1861092795764793 0 0.39237590733880318 0.19479146873115469 0 0.39185213226622811 0.17528862258887551 0 0.40352349637281598 0.18259317727573221 0 0.40945988673208972 0.17766292160301261 0 0.39185213226622811 0.17528862258887551 0 0.40627942877077883 0.1709478121196297 0 0.40945988673208972 0.17766292160301261 0 0.39185213226622811 0.17528862258887551 0 0.40945988673208972 0.17766292160301261 0 0.39185213226622811 0.17528862258887551 0 0.40352349637281598 0.18259317727573221 0 0.3989539744878477 0.1861092795764793 0 0.40352349637281598 0.18259317727573221 0 0.3989539744878477 0.1861092795764793 0 0.40577501060569171 0.19023871683265289 0 0.39051671988647629 0.16199535325905751 0 0.4019540433166725 0.16479369020966961 0 0.40678906197258641 0.15107638294337691 0 0.39051671988647629 0.16199535325905751 0 0.40678906197258641 0.15107638294337691 0 0.39051671988647629 0.16199535325905751 0 0.39185213226622811 0.17528862258887551 0 0.4019540433166725 0.16479369020966961 0 0.39185213226622811 0.17528862258887551 0 0.4019540433166725 0.16479369020966961 0 0.40627942877077883 0.1709478121196297 0 0.4019540433166725 0.16479369020966961 0 0.41345025497991722 0.16411806143441621 0 0.40678906197258641 0.15107638294337691 0 0.40627942877077883 0.1709478121196297 0 0.41345025497991722 0.16411806143441621 0 0.41468082655898653 0.17287576476217489 0 0.4019540433166725 0.16479369020966961 0 0.40627942877077883 0.1709478121196297 0 0.41345025497991722 0.16411806143441621 0 0.41345025497991722 0.16411806143441621 0 0.42134297620337008 0.169449731112499 0 0.41468082655898653 0.17287576476217489 0 0.41345025497991722 0.16411806143441621 0 0.42134297620337008 0.169449731112499 0 0.42284550223670492 0.16292088840827429 0 0.41345025497991722 0.16411806143441621 0 0.42284550223670492 0.16292088840827429 0 0.42197245279178192 0.15429931655478071 0 0.41345025497991722 0.16411806143441621 0 0.42197245279178192 0.15429931655478071 0 0.40678906197258641 0.15107638294337691 0 0.40352349637281598 0.18259317727573221 0 0.41157647777222273 0.1836663457776411 0 0.40945988673208972 0.17766292160301261 0 0.40352349637281598 0.18259317727573221 0 0.41157647777222273 0.1836663457776411 0 0.40577501060569171 0.19023871683265289 0 0.40627942877077883 0.1709478121196297 0 0.40945988673208972 0.17766292160301261 0 0.41468082655898653 0.17287576476217489 0 0.40945988673208972 0.17766292160301261 0 0.41468082655898653 0.17287576476217489 0 0.41434314580390602 0.17765541946292621 0 0.41157647777222273 0.1836663457776411 0 0.40945988673208972 0.17766292160301261 0 0.41434314580390602 0.17765541946292621 0 0.41468082655898653 0.17287576476217489 0 0.41434314580390602 0.17765541946292621 0 0.42264786863423037 0.1769124244749507 0 0.42134297620337008 0.169449731112499 0 0.41468082655898653 0.17287576476217489 0 0.42264786863423037 0.1769124244749507 0 0.41157647777222273 0.1836663457776411 0 0.41434314580390602 0.17765541946292621 0 0.42264786863423037 0.1769124244749507 0 0.43229584579724317 0.17603130196866831 0 0.43872767890433523 0.1673833907384015 0 0.43770031381178859 0.1853322105646126 0 0.41157647777222273 0.1836663457776411 0 0.42264786863423037 0.1769124244749507 0 0.43770031381178859 0.1853322105646126 0 0.41157647777222273 0.1836663457776411 0 0.42058867050108439 0.19191412893519019 0 0.43770031381178859 0.1853322105646126 0 0.41157647777222273 0.1836663457776411 0 0.43770031381178859 0.1853322105646126 0 0.42264786863423037 0.1769124244749507 0 0.42661902169127691 0.17270017424237899 0 0.43229584579724317 0.17603130196866831 0 0.42661902169127691 0.17270017424237899 0 0.43229584579724317 0.17603130196866831 0 0.42893360820876753 0.1678969022917236 0 0.42134297620337008 0.169449731112499 0 0.42264786863423037 0.1769124244749507 0 0.42661902169127691 0.17270017424237899 0 0.42264786863423037 0.1769124244749507 0 0.43229584579724317 0.17603130196866831 0 0.43770031381178859 0.1853322105646126 0 0.42284550223670492 0.16292088840827429 0 0.43076666917901252 0.1602920885258009 0 0.42197245279178192 0.15429931655478071 0 0.42284550223670492 0.16292088840827429 0 0.42893360820876753 0.1678969022917236 0 0.43076666917901252 0.1602920885258009 0 0.42134297620337008 0.169449731112499 0 0.42284550223670492 0.16292088840827429 0 0.42893360820876753 0.1678969022917236 0 0.42134297620337008 0.169449731112499 0 0.42661902169127691 0.17270017424237899 0 0.42893360820876753 0.1678969022917236 0 0.42893360820876753 0.1678969022917236 0 0.43076666917901252 0.1602920885258009 0 0.43872767890433523 0.1673833907384015 0 0.43229584579724317 0.17603130196866831 0 0.42893360820876753 0.1678969022917236 0 0.43872767890433523 0.1673833907384015 0 0.43076666917901252 0.1602920885258009 0 0.43355182276481002 0.1527595166404162 0 0.43968817525733872 0.15721834546013391 0 0.43076666917901252 0.1602920885258009 0 0.43968817525733872 0.15721834546013391 0 0.43872767890433523 0.1673833907384015 0 0.43076666917901252 0.1602920885258009 0 0.43355182276481002 0.1527595166404162 0 0.42197245279178192 0.15429931655478071 0 0.43355182276481002 0.1527595166404162 0 0.42197245279178192 0.15429931655478071 0 0.42855424891404748 0.14490969788720509 0 0.42197245279178192 0.15429931655478071 0 0.42855424891404748 0.14490969788720509 0 0.41813644513471349 0.1418798746126636 0 0.43355182276481002 0.1527595166404162 0 0.42855424891404748 0.14490969788720509 0 0.44397836133740082 0.14371183643037791 0 0.42589905581736981 0.12842838209366711 0 0.44397836133740082 0.14371183643037791 0 0.43920525347626982 0.1182807706530072 0 0.42855424891404748 0.14490969788720509 0 0.42589905581736981 0.12842838209366711 0 0.44397836133740082 0.14371183643037791 0 0.42855424891404748 0.14490969788720509 0 0.42589905581736981 0.12842838209366711 0 0.41813644513471349 0.1418798746126636 0 0.42589905581736981 0.12842838209366711 0 0.4103528178400882 0.12857627021747839 0 0.41813644513471349 0.1418798746126636 0 0.4103528178400882 0.12857627021747839 0 0.40678906197258641 0.15107638294337691 0 0.41813644513471349 0.1418798746126636 0 0.42197245279178192 0.15429931655478071 0 0.40678906197258641 0.15107638294337691 0 0.41813644513471349 0.1418798746126636 0 0.38857358058970232 0.25602365581102982 0 0.4137031435660159 0.25466982237650121 0 0.40734866991599977 0.23659742287305119 0 0.38857358058970232 0.25602365581102982 0 0.38940158561199162 0.22829297567523019 0 0.40734866991599977 0.23659742287305119 0 0.38857358058970232 0.25602365581102982 0 0.37215360358256122 0.24056111062154431 0 0.38940158561199162 0.22829297567523019 0 0.37215360358256122 0.24056111062154431 0 0.38940158561199162 0.22829297567523019 0 0.37166596138435293 0.22592012055068331 0 0.37215360358256122 0.24056111062154431 0 0.38940158561199162 0.22829297567523019 0 0.37166596138435293 0.22592012055068331 0 0.38940158561199162 0.22829297567523019 0 0.38229875868071012 0.21275087227172149 0 0.38940158561199162 0.22829297567523019 0 0.41183656970104621 0.2157767470762699 0 0.40734866991599977 0.23659742287305119 0 0.38940158561199162 0.22829297567523019 0 0.38229875868071012 0.21275087227172149 0 0.41183656970104621 0.2157767470762699 0 0.39237590733880318 0.19479146873115469 0 0.41217879752050901 0.19971772104345309 0 0.41183656970104621 0.2157767470762699 0 0.39237590733880318 0.19479146873115469 0 0.41183656970104621 0.2157767470762699 0 0.38229875868071012 0.21275087227172149 0 0.39237590733880318 0.19479146873115469 0 0.41183656970104621 0.2157767470762699 0 0.36952139456686078 0.1974238114681339 0 0.37424437780036651 0.17291432357473821 0 0.39237590733880318 0.19479146873115469 0 0.36952139456686078 0.1974238114681339 0 0.38229875868071012 0.21275087227172149 0 0.39237590733880318 0.19479146873115469 0 0.39237590733880318 0.19479146873115469 0 0.40577501060569171 0.19023871683265289 0 0.41217879752050901 0.19971772104345309 0 0.3989539744878477 0.1861092795764793 0 0.39237590733880318 0.19479146873115469 0 0.40577501060569171 0.19023871683265289 0 0.41217879752050901 0.19971772104345309 0 0.42058867050108439 0.19191412893519019 0 0.42823533308034661 0.2001616836756466 0 0.41217879752050901 0.19971772104345309 0 0.42823533308034661 0.2001616836756466 0 0.41613347464106759 0.207729090186206 0 0.40577501060569171 0.19023871683265289 0 0.41273622230578499 0.19118664399505239 0 0.41217879752050901 0.19971772104345309 0 0.41157647777222273 0.1836663457776411 0 0.40577501060569171 0.19023871683265289 0 0.41273622230578499 0.19118664399505239 0 0.41273622230578499 0.19118664399505239 0 0.41217879752050901 0.19971772104345309 0 0.42058867050108439 0.19191412893519019 0 0.41157647777222273 0.1836663457776411 0 0.41273622230578499 0.19118664399505239 0 0.42058867050108439 0.19191412893519019 0 0.42058867050108439 0.19191412893519019 0 0.42823533308034661 0.2001616836756466 0 0.43770031381178859 0.1853322105646126 0 0.42823533308034661 0.2001616836756466 0 0.43770031381178859 0.1853322105646126 0 0.42823533308034661 0.2001616836756466 0 0.41877035234890458 0.2149911567866806 0 0.42823533308034661 0.2001616836756466 0 0.4356904261491652 0.21616904615146609 0 0.41877035234890458 0.2149911567866806 0 0.41217879752050901 0.19971772104345309 0 0.41613347464106759 0.207729090186206 0 0.41183656970104621 0.2157767470762699 0 0.41877035234890458 0.2149911567866806 0 0.41613347464106759 0.207729090186206 0 0.41183656970104621 0.2157767470762699 0 0.42823533308034661 0.2001616836756466 0 0.41877035234890458 0.2149911567866806 0 0.41613347464106759 0.207729090186206 0 0.41183656970104621 0.2157767470762699 0 0.43129723206328929 0.23676202542138511 0 0.41183656970104621 0.2157767470762699 0 0.43129723206328929 0.23676202542138511 0 0.40734866991599977 0.23659742287305119 0 0.41877035234890458 0.2149911567866806 0 0.41183656970104621 0.2157767470762699 0 0.43129723206328929 0.23676202542138511 0 0.4356904261491652 0.21616904615146609 0 0.41877035234890458 0.2149911567866806 0 0.43129723206328929 0.23676202542138511 0 0.4137031435660159 0.25466982237650121 0 0.43177752221181931 0.25703933660667128 0 0.43129723206328929 0.23676202542138511 0 0.4137031435660159 0.25466982237650121 0 0.43129723206328929 0.23676202542138511 0 0.40734866991599977 0.23659742287305119 0 0.45075789442553249 0.2577473037665004 0 0.46158900142436121 0.2426634036409335 0 0.44770550570708001 0.22924823605097761 0 0.46789095993574747 0.25477856638752477 0 0.46158900142436121 0.2426634036409335 0 0.47593543116942499 0.24362359676754211 0 0.45075789442553249 0.2577473037665004 0 0.43129723206328929 0.23676202542138511 0 0.44770550570708001 0.22924823605097761 0 0.45075789442553249 0.2577473037665004 0 0.43129723206328929 0.23676202542138511 0 0.4356904261491652 0.21616904615146609 0 0.43129723206328929 0.23676202542138511 0 0.44770550570708001 0.22924823605097761 0 0.44770550570708001 0.22924823605097761 0 0.46154667974857128 0.2299699850946916 0 0.46188877141092161 0.2170280496374403 0 0.46158900142436121 0.2426634036409335 0 0.44770550570708001 0.22924823605097761 0 0.46154667974857128 0.2299699850946916 0 0.46158900142436121 0.2426634036409335 0 0.46154667974857128 0.2299699850946916 0 0.47254919445946519 0.22901719667078341 0 0.46154667974857128 0.2299699850946916 0 0.46188877141092161 0.2170280496374403 0 0.47254919445946519 0.22901719667078341 0 0.46188877141092161 0.2170280496374403 0 0.4604236929266956 0.20276994461830861 0 0.4761482388685796 0.2077782369996983 0 0.46188877141092161 0.2170280496374403 0 0.44910386487670811 0.20872687294657921 0 0.4604236929266956 0.20276994461830861 0 0.44770550570708001 0.22924823605097761 0 0.46188877141092161 0.2170280496374403 0 0.44910386487670811 0.20872687294657921 0 0.42823533308034661 0.2001616836756466 0 0.4356904261491652 0.21616904615146609 0 0.44910386487670811 0.20872687294657921 0 0.4356904261491652 0.21616904615146609 0 0.44770550570708001 0.22924823605097761 0 0.44910386487670811 0.20872687294657921 0 0.44914879289171977 0.19551900126471311 0 0.43770031381178859 0.1853322105646126 0 0.46422235830286951 0.1870234683082776 0 0.42823533308034661 0.2001616836756466 0 0.44910386487670811 0.20872687294657921 0 0.44914879289171977 0.19551900126471311 0 0.42823533308034661 0.2001616836756466 0 0.44914879289171977 0.19551900126471311 0 0.43770031381178859 0.1853322105646126 0 0.44910386487670811 0.20872687294657921 0 0.44914879289171977 0.19551900126471311 0 0.4604236929266956 0.20276994461830861 0 0.4604236929266956 0.20276994461830861 0 0.4761482388685796 0.2077782369996983 0 0.46422235830286951 0.1870234683082776 0 0.44914879289171977 0.19551900126471311 0 0.4604236929266956 0.20276994461830861 0 0.46422235830286951 0.1870234683082776 0 0.47977980682551641 0.18801553569186491 0 0.4761482388685796 0.2077782369996983 0 0.46422235830286951 0.1870234683082776 0 0.47977980682551641 0.18801553569186491 0 0.48829877506494651 0.1964752544251597 0 0.4761482388685796 0.2077782369996983 0 0.4761482388685796 0.2077782369996983 0 0.46422235830286951 0.1870234683082776 0 0.47977980682551641 0.18801553569186491 0 0.46422235830286951 0.1870234683082776 0 0.47977980682551641 0.18801553569186491 0 0.49533725534816342 0.18900760307545081 0 0.47977980682551641 0.18801553569186491 0 0.49533725534816342 0.18900760307545081 0 0.48829877506494651 0.1964752544251597 0 0.49533725534816342 0.18900760307545081 0 0.5 0.19180338343666969 0 0.48829877506494651 0.1964752544251597 0 0.5 0.19180338343666969 0 0.48829877506494651 0.1964752544251597 0 0.49022857428247307 0.20577151292211479 0 0.48829877506494651 0.1964752544251597 0 0.49022857428247307 0.20577151292211479 0 0.4761482388685796 0.2077782369996983 0 0.5 0.19180338343666969 0 0.49022857428247307 0.20577151292211479 0 0.5 0.2205455789096048 0 0.49022857428247307 0.20577151292211479 0 0.4761482388685796 0.2077782369996983 0 0.48807411943428902 0.22853300569111931 0 0.49022857428247307 0.20577151292211479 0 0.5 0.2205455789096048 0 0.48807411943428902 0.22853300569111931 0 0.46188877141092161 0.2170280496374403 0 0.4761482388685796 0.2077782369996983 0 0.47254919445946519 0.22901719667078341 0 0.4761482388685796 0.2077782369996983 0 0.48807411943428902 0.22853300569111931 0 0.4761482388685796 0.2077782369996983 0 0.47254919445946519 0.22901719667078341 0 0.48807411943428902 0.22853300569111931 0 0.47254919445946519 0.22901719667078341 0 0.48807411943428902 0.22853300569111931 0 0.47593543116942499 0.24362359676754211 0 0.5 0.2205455789096048 0 0.48807411943428902 0.22853300569111931 0 0.49999999999999911 0.24928777438253991 0 0.48619428192801711 0.25292111732716771 0 0.48807411943428902 0.22853300569111931 0 0.49999999999999911 0.24928777438253991 0 0.48807411943428902 0.22853300569111931 0 0.49999999999999911 0.24928777438253991 0 0.48619428192801711 0.25292111732716771 0 0.48807411943428902 0.22853300569111931 0 0.47593543116942499 0.24362359676754211 0 0.46158900142436121 0.2426634036409335 0 0.47254919445946519 0.22901719667078341 0 0.47593543116942499 0.24362359676754211 0 0.46714723983506962 0.1391955717213631 0 0.45114580921220049 0.16426617586655581 0 0.46714723983506962 0.1391955717213631 0 0.45114580921220049 0.16426617586655581 0 0.47278974054412098 0.16121257503182551 0 0.46714723983506962 0.1391955717213631 0 0.45114580921220049 0.16426617586655581 0 0.44749993786024789 0.15792121742331991 0 0.46714723983506962 0.1391955717213631 0 0.45282837320450692 0.12864224845984151 0 0.44397836133740082 0.14371183643037791 0 0.46714723983506962 0.1391955717213631 0 0.45282837320450692 0.12864224845984151 0 0.46040528223385158 0.11289405360421791 0 0.45282837320450692 0.12864224845984151 0 0.44397836133740082 0.14371183643037791 0 0.43920525347626982 0.1182807706530072 0 0.46714723983506962 0.1391955717213631 0 0.44397836133740082 0.14371183643037791 0 0.44749993786024789 0.15792121742331991 0 0.43355182276481002 0.1527595166404162 0 0.44397836133740082 0.14371183643037791 0 0.43968817525733872 0.15721834546013391 0 0.44397836133740082 0.14371183643037791 0 0.43968817525733872 0.15721834546013391 0 0.44749993786024789 0.15792121742331991 0 0.43968817525733872 0.15721834546013391 0 0.43872767890433523 0.1673833907384015 0 0.44749993786024789 0.15792121742331991 0 0.45114580921220049 0.16426617586655581 0 0.44749993786024789 0.15792121742331991 0 0.43872767890433523 0.1673833907384015 0 0.45114580921220049 0.16426617586655581 0 0.44749993786024789 0.15792121742331991 0 0.45114580921220049 0.16426617586655581 0 0.43770031381178859 0.1853322105646126 0 0.45114580921220049 0.16426617586655581 0 0.43770031381178859 0.1853322105646126 0 0.46422235830286951 0.1870234683082776 0 0.43770031381178859 0.1853322105646126 0 0.46422235830286951 0.1870234683082776 0 0.43872767890433523 0.1673833907384015 0 0.45114580921220049 0.16426617586655581 0 0.43770031381178859 0.1853322105646126 0 0.45114580921220049 0.16426617586655581 0 0.46422235830286951 0.1870234683082776 0 0.45114580921220049 0.16426617586655581 0 0.46422235830286951 0.1870234683082776 0 0.47042430134002161 0.174420835607525 0 0.45114580921220049 0.16426617586655581 0 0.47278974054412098 0.16121257503182551 0 0.47042430134002161 0.174420835607525 0 0.47278974054412098 0.16121257503182551 0 0.48418379181539689 0.1715864231390998 0 0.48472515773655422 0.15182280723866939 0 0.47278974054412098 0.16121257503182551 0 0.48418379181539689 0.1715864231390998 0 0.47042430134002161 0.174420835607525 0 0.47977980682551641 0.18801553569186491 0 0.48418379181539689 0.1715864231390998 0 0.47042430134002161 0.174420835607525 0 0.47977980682551641 0.18801553569186491 0 0.46422235830286951 0.1870234683082776 0 0.47042430134002161 0.174420835607525 0 0.47977980682551641 0.18801553569186491 0 0.49533725534816342 0.18900760307545081 0 0.48418379181539689 0.1715864231390998 0 0.49533725534816342 0.18900760307545081 0 0.5 0.19180338343666969 0 0.5 0.16306118796373481 0 0.49533725534816342 0.18900760307545081 0 0.48418379181539689 0.1715864231390998 0 0.5 0.16306118796373481 0 0.48418379181539689 0.1715864231390998 0 0.5 0.16306118796373481 0 0.48472515773655422 0.15182280723866939 0 0.5 0.16306118796373481 0 0.48472515773655422 0.15182280723866939 0 0.5 0.13431899249079979 0 0.46714723983506962 0.1391955717213631 0 0.48472515773655422 0.15182280723866939 0 0.5 0.13431899249079979 0 0.46714723983506962 0.1391955717213631 0 0.5 0.13431899249079979 0 0.48314867045793602 0.1141249675761687 0 0.46714723983506962 0.1391955717213631 0 0.47278974054412098 0.16121257503182551 0 0.48472515773655422 0.15182280723866939 0 0.46714723983506962 0.1391955717213631 0 0.48314867045793602 0.1141249675761687 0 0.5 0.13431899249079979 0 0.5 0.1055767970178647 0 0.48314867045793602 0.1141249675761687 0 0.5 0.1055767970178647 0 0.48314867045793602 0.1141249675761687 0 0.48355196823006291 0.089155599098217325 0 0.48314867045793602 0.1141249675761687 0 0.46315170787193682 0.092674663867813881 0 0.46040528223385158 0.11289405360421791 0 0.48314867045793602 0.1141249675761687 0 0.48355196823006291 0.089155599098217325 0 0.46315170787193682 0.092674663867813881 0 0.46714723983506962 0.1391955717213631 0 0.48314867045793602 0.1141249675761687 0 0.46040528223385158 0.11289405360421791 0 0.49999999999999889 0.076834601544929743 0 0.48207179209596868 0.066927068171655377 0 0.49999999999999889 0.076834601544929743 0 0.48355196823006291 0.089155599098217325 0 0.48207179209596868 0.066927068171655377 0 0.49999999999999889 0.076834601544929743 0 0.48207179209596868 0.066927068171655377 0 0.5 0.054474010950140823 0 0.5 0.1055767970178647 0 0.49999999999999889 0.076834601544929743 0 0.48355196823006291 0.089155599098217325 0 0.48355196823006291 0.089155599098217325 0 0.46653039877344582 0.073875255971239798 0 0.46315170787193682 0.092674663867813881 0 0.48355196823006291 0.089155599098217325 0 0.48207179209596868 0.066927068171655377 0 0.46653039877344582 0.073875255971239798 0 0.48207179209596868 0.066927068171655377 0 0.46653039877344582 0.073875255971239798 0 0.46414358419193891 0.05701953479838047 0 0.46653039877344582 0.073875255971239798 0 0.44675814677050529 0.070880975756516931 0 0.46414358419193891 0.05701953479838047 0 0.46653039877344582 0.073875255971239798 0 0.46315170787193682 0.092674663867813881 0 0.44675814677050529 0.070880975756516931 0 0.46315170787193682 0.092674663867813881 0 0.43772701897090599 0.093238252896182483 0 0.44675814677050529 0.070880975756516931 0 0.46315170787193682 0.092674663867813881 0 0.43772701897090599 0.093238252896182483 0 0.46040528223385158 0.11289405360421791 0 0.43772701897090599 0.093238252896182483 0 0.46040528223385158 0.11289405360421791 0 0.43920525347626982 0.1182807706530072 0 0.45282837320450692 0.12864224845984151 0 0.46040528223385158 0.11289405360421791 0 0.43920525347626982 0.1182807706530072 0 0.42589905581736981 0.12842838209366711 0 0.43920525347626982 0.1182807706530072 0 0.41737395548708822 0.10625697228800531 0 0.42589905581736981 0.12842838209366711 0 0.4103528178400882 0.12857627021747839 0 0.41737395548708822 0.10625697228800531 0 0.4103528178400882 0.12857627021747839 0 0.41737395548708822 0.10625697228800531 0 0.39913986739024898 0.11384115769774331 0 0.43772701897090599 0.093238252896182483 0 0.43920525347626982 0.1182807706530072 0 0.41737395548708822 0.10625697228800531 0 0.43772701897090599 0.093238252896182483 0 0.41737395548708822 0.10625697228800531 0 0.41515364979970543 0.073969518404397305 0 0.44675814677050529 0.070880975756516931 0 0.41515364979970543 0.073969518404397305 0 0.43438529149769628 0.058277602932499097 0 0.43772701897090599 0.093238252896182483 0 0.44675814677050529 0.070880975756516931 0 0.41515364979970543 0.073969518404397305 0 0.41737395548708822 0.10625697228800531 0 0.41515364979970543 0.073969518404397305 0 0.39426945614481251 0.088229582239954918 0 0.43772701897090599 0.093238252896182483 0 0.41515364979970543 0.073969518404397305 0 0.41515364979970543 0.073969518404397305 0 0.39426945614481251 0.088229582239954918 0 0.38610732740630233 0.072336926688417097 0 0.41515364979970543 0.073969518404397305 0 0.38610732740630233 0.072336926688417097 0 0.39258028062850492 0.054700783912612322 0 0.41515364979970543 0.073969518404397305 0 0.39258028062850492 0.054700783912612322 0 0.36705619603161738 0.071905623183345369 0 0.37365282245678938 0.05475601711651075 0 0.38610732740630233 0.072336926688417097 0 0.37287220506177482 0.091720814328167935 0 0.36705619603161738 0.071905623183345369 0 0.38610732740630233 0.072336926688417097 0 0.37287220506177482 0.091720814328167935 0 0.39426945614481251 0.088229582239954918 0 0.38610732740630233 0.072336926688417097 0 0.39426945614481251 0.088229582239954918 0 0.38064408324382859 0.1129695112276463 0 0.37287220506177482 0.091720814328167935 0 0.39426945614481251 0.088229582239954918 0 0.38064408324382859 0.1129695112276463 0 0.38868576409146732 0.1331428552164092 0 0.38064408324382859 0.1129695112276463 0 0.39913986739024898 0.11384115769774331 0 0.41737395548708822 0.10625697228800531 0 0.39426945614481251 0.088229582239954918 0 0.39913986739024898 0.11384115769774331 0 0.39426945614481251 0.088229582239954918 0 0.38064408324382859 0.1129695112276463 0 0.39913986739024898 0.11384115769774331 0 0.40215693762076699 0.01437284894367875 0 0.3878910468290161 0.023717421562096969 0 0.40415171895266921 0.036832790858661008 0 0.3878910468290161 0.023717421562096969 0 0.40415171895266921 0.036832790858661008 0 0.40215693762076699 0.01437284894367875 0 0.38714010625159911 0.01693943567605103 0 0.3878910468290161 0.023717421562096969 0 0.40215693762076699 0.01437284894367875 0 0.3878910468290161 0.023717421562096969 0 0.40215693762076699 0.01437284894367875 0 0.40417077447736632 0.00150681650831607 0 0.39279082108165869 0.0072235829840354834 0 0.40417077447736632 0.00150681650831607 0 0.39279082108165869 0.0072235829840354834 0 0.39203108296315442 -0.0063811351910032163 0 0.40215693762076699 0.01437284894367875 0 0.39279082108165869 0.0072235829840354834 0 0.38714010625159911 0.01693943567605103 0 0.38268269972883989 0.008831437582305611 0 0.38013650234142998 0.01746283910031405 0 0.38714010625159911 0.01693943567605103 0 0.39279082108165869 0.0072235829840354834 0 0.38268269972883989 0.008831437582305611 0 0.38714010625159911 0.01693943567605103 0 0.39279082108165869 0.0072235829840354834 0 0.38287892740272172 0.00087610826252693141 0 0.38268269972883989 0.008831437582305611 0 0.39279082108165869 0.0072235829840354834 0 0.38287892740272172 0.00087610826252693141 0 0.39203108296315442 -0.0063811351910032163 0 0.37430897038932398 0.0029070229972260808 0 0.38287892740272172 0.00087610826252693141 0 0.38268269972883989 0.008831437582305611 0 0.37430897038932398 0.0029070229972260808 0 0.38268269972883989 0.008831437582305611 0 0.38013650234142998 0.01746283910031405 0 0.3700069114573058 0.035432049420825673 0 0.3878910468290161 0.023717421562096969 0 0.3700069114573058 0.035432049420825673 0 0.38013650234142998 0.01746283910031405 0 0.3878910468290161 0.023717421562096969 0 0.38013650234142998 0.01746283910031405 0 0.38714010625159911 0.01693943567605103 0 0.38013650234142998 0.01746283910031405 0 0.38714010625159911 0.01693943567605103 0 0.3878910468290161 0.023717421562096969 0 0.38013650234142998 0.01746283910031405 0 0.3878910468290161 0.023717421562096969 0 0.3700069114573058 0.035432049420825673 0 0.39258028062850492 0.054700783912612322 0 0.3700069114573058 0.035432049420825673 0 0.3878910468290161 0.023717421562096969 0 0.38865748946687401 0.037670761438548993 0 0.3700069114573058 0.035432049420825673 0 0.38865748946687401 0.037670761438548993 0 0.39258028062850492 0.054700783912612322 0 0.37365282245678938 0.05475601711651075 0 0.3700069114573058 0.035432049420825673 0 0.39258028062850492 0.054700783912612322 0 0.37365282245678938 0.05475601711651075 0 0.38610732740630233 0.072336926688417097 0 0.39258028062850492 0.054700783912612322 0 0.39258028062850492 0.054700783912612322 0 0.40415171895266921 0.036832790858661008 0 0.42041239107631978 0.049948160155228218 0 0.3878910468290161 0.023717421562096969 0 0.38865748946687401 0.037670761438548993 0 0.40415171895266921 0.036832790858661008 0 0.38865748946687401 0.037670761438548993 0 0.39258028062850492 0.054700783912612322 0 0.40415171895266921 0.036832790858661008 0 0.40415171895266921 0.036832790858661008 0 0.42083683665907279 0.035731353570867548 0 0.42041239107631978 0.049948160155228218 0 0.40415171895266921 0.036832790858661008 0 0.42041239107631978 0.049948160155228218 0 0.41515364979970543 0.073969518404397305 0 0.39258028062850492 0.054700783912612322 0 0.42041239107631978 0.049948160155228218 0 0.42041239107631978 0.049948160155228218 0 0.43438529149769628 0.058277602932499097 0 0.44621537628790892 0.047112001425105562 0 0.41515364979970543 0.073969518404397305 0 0.42041239107631978 0.049948160155228218 0 0.43438529149769628 0.058277602932499097 0 0.42083683665907279 0.035731353570867548 0 0.42041239107631978 0.049948160155228218 0 0.44621537628790892 0.047112001425105562 0 0.42083683665907279 0.035731353570867548 0 0.4327216260451332 0.028232244217962318 0 0.44621537628790892 0.047112001425105562 0 0.4327216260451332 0.028232244217962318 0 0.41699843720075969 0.021183469435966641 0 0.43510181590092278 0.01402833673124004 0 0.42083683665907279 0.035731353570867548 0 0.4327216260451332 0.028232244217962318 0 0.41699843720075969 0.021183469435966641 0 0.40215693762076699 0.01437284894367875 0 0.40415171895266921 0.036832790858661008 0 0.41699843720075969 0.021183469435966641 0 0.40415171895266921 0.036832790858661008 0 0.42083683665907279 0.035731353570867548 0 0.41699843720075969 0.021183469435966641 0 0.40215693762076699 0.01437284894367875 0 0.41699843720075969 0.021183469435966641 0 0.41642282841251732 0.0050282763252594773 0 0.40215693762076699 0.01437284894367875 0 0.40417077447736632 0.00150681650831607 0 0.41642282841251732 0.0050282763252594773 0 0.40417077447736632 0.00150681650831607 0 0.41642282841251732 0.0050282763252594773 0 0.41327230354314293 -0.0035178546482568982 0 0.40215693762076699 0.01437284894367875 0 0.41642282841251732 0.0050282763252594773 0 0.41642282841251732 0.0050282763252594773 0 0.43510181590092278 0.01402833673124004 0 0.43572596172723599 -0.0039609574805528208 0 0.41699843720075969 0.021183469435966641 0 0.41642282841251732 0.0050282763252594773 0 0.43510181590092278 0.01402833673124004 0 0.45715064115149551 0.0080638351314136908 0 0.43572596172723599 -0.0039609574805528208 0 0.43510181590092278 0.01402833673124004 0 0.45715064115149551 0.0080638351314136908 0 0.43572596172723599 -0.0039609574805528208 0 0.43510181590092278 0.01402833673124004 0 0.45159140086839561 0.025623152757390941 0 0.45715064115149551 0.0080638351314136908 0 0.4327216260451332 0.028232244217962318 0 0.43510181590092278 0.01402833673124004 0 0.45159140086839561 0.025623152757390941 0 0.45159140086839561 0.025623152757390941 0 0.46439884022518663 0.038970130069821703 0 0.47857532057575503 0.02008862774338022 0 0.45159140086839561 0.025623152757390941 0 0.45715064115149551 0.0080638351314136908 0 0.47857532057575503 0.02008862774338022 0 0.45715064115149551 0.0080638351314136908 0 0.47857532057575503 0.02008862774338022 0 0.45715064115149551 0.0080638351314136908 0 0.47816257102430482 0.0042457864751442509 0 0.46670138573519182 -0.0057482948919680924 0 0.44675814677050529 0.070880975756516931 0 0.44621537628790892 0.047112001425105562 0 0.46414358419193891 0.05701953479838047 0 0.44675814677050529 0.070880975756516931 0 0.43438529149769628 0.058277602932499097 0 0.44621537628790892 0.047112001425105562 0 0.4327216260451332 0.028232244217962318 0 0.45159140086839561 0.025623152757390941 0 0.44621537628790892 0.047112001425105562 0 0.45159140086839561 0.025623152757390941 0 0.44621537628790892 0.047112001425105562 0 0.46439884022518663 0.038970130069821703 0 0.44621537628790892 0.047112001425105562 0 0.46414358419193891 0.05701953479838047 0 0.44621537628790892 0.047112001425105562 0 0.46439884022518663 0.038970130069821703 0 0.46414358419193891 0.05701953479838047 0 0.48207179209596868 0.066927068171655377 0 0.46414358419193891 0.05701953479838047 0 0.48146851920193462 0.045007333624851327 0 0.48207179209596868 0.066927068171655377 0 0.46414358419193891 0.05701953479838047 0 0.46439884022518663 0.038970130069821703 0 0.46414358419193891 0.05701953479838047 0 0.48146851920193462 0.045007333624851327 0 0.46439884022518663 0.038970130069821703 0 0.48146851920193462 0.045007333624851327 0 0.47857532057575503 0.02008862774338022 0 0.48146851920193462 0.045007333624851327 0 0.50000000000001177 0.032113420355351807 0 0.47857532057575503 0.02008862774338022 0 0.48146851920193462 0.045007333624851327 0 0.50000000000001177 0.032113420355351807 0 0.5 0.054474010950140823 0 0.48207179209596868 0.066927068171655377 0 0.48146851920193462 0.045007333624851327 0 0.5 0.054474010950140823 0 0.45715064115149551 0.0080638351314136908 0 0.47816257102430482 0.0042457864751442509 0 0.47857532057575503 0.02008862774338022 0 0.50000000000001177 0.032113420355351807 0 0.47857532057575503 0.02008862774338022 0 0.50000000000001177 0.032113420355351807 0 0.47857532057575503 0.02008862774338022 0 0.5 0.0095845348750354109 0 0.47816257102430482 0.0042457864751442509 0 0.5 0.0095845348750354109 0 0.48619195767855639 -0.009417848897598384 0 0.47816257102430482 0.0042457864751442509 0 0.47857532057575503 0.02008862774338022 0 0.5 0.0095845348750354109 0 0.5 0.0095845348750354109 0 0.5 -0.01294435060528093 0 0.48619195767855639 -0.009417848897598384 0 0.5 -0.01294435060528093 0 0.48619195767855639 -0.009417848897598384 0 0.49037859628373442 -0.02182103032307544 0 0.47816257102430482 0.0042457864751442509 0 0.48619195767855639 -0.009417848897598384 0 0.46670138573519182 -0.0057482948919680924 0 0.48619195767855639 -0.009417848897598384 0 0.46670138573519182 -0.0057482948919680924 0 0.46066124531356523 -0.02495037136359456 0 0.48033062265678012 -0.0302118037245977 0 0.46066124531356523 -0.02495037136359456 0 0.48619195767855639 -0.009417848897598384 0 0.48033062265678012 -0.0302118037245977 0 0.46066124531356523 -0.02495037136359456 0 0.48619195767855639 -0.009417848897598384 0 0.46066124531356523 -0.02495037136359456 0 0.5 -0.01294435060528093 0 0.49037859628373442 -0.02182103032307544 0 0.49999999999999589 -0.035473236085597312 0 0.48033062265678012 -0.0302118037245977 0 0.49037859628373442 -0.02182103032307544 0 0.49999999999999589 -0.035473236085597312 0 0.48619195767855639 -0.009417848897598384 0 0.48033062265678012 -0.0302118037245977 0 0.49037859628373442 -0.02182103032307544 0 0.48033062265678012 -0.0302118037245977 0 0.49999999999999589 -0.035473236085597312 0 0.48209322986608483 -0.048689202676640897 0 0.48033062265678012 -0.0302118037245977 0 0.49999999999999589 -0.035473236085597312 0 0.5 -0.059831001238239027 0 0.48209322986608483 -0.048689202676640897 0 0.48024424242127262 -0.066936486146663088 0 0.49999999999999589 -0.035473236085597312 0 0.5 -0.059831001238239027 0 0.48209322986608483 -0.048689202676640897 0 0.48209322986608483 -0.048689202676640897 0 0.46512959423473299 -0.058490007488494131 0 0.48024424242127262 -0.066936486146663088 0 0.48209322986608483 -0.048689202676640897 0 0.46830977428355602 -0.042184029380502697 0 0.46512959423473299 -0.058490007488494131 0 0.48033062265678012 -0.0302118037245977 0 0.48209322986608483 -0.048689202676640897 0 0.46830977428355602 -0.042184029380502697 0 0.48033062265678012 -0.0302118037245977 0 0.46830977428355602 -0.042184029380502697 0 0.46066124531356523 -0.02495037136359456 0 0.46830977428355602 -0.042184029380502697 0 0.45336242386638548 -0.048081860180443331 0 0.46066124531356523 -0.02495037136359456 0 0.45336242386638548 -0.048081860180443331 0 0.46512959423473299 -0.058490007488494131 0 0.44641297272047198 -0.065689529540069291 0 0.46830977428355602 -0.042184029380502697 0 0.45336242386638548 -0.048081860180443331 0 0.46512959423473299 -0.058490007488494131 0 0.45336242386638548 -0.048081860180443331 0 0.4383226057064083 -0.052292079314331212 0 0.44641297272047198 -0.065689529540069291 0 0.45336242386638548 -0.048081860180443331 0 0.4383226057064083 -0.052292079314331212 0 0.4418199087038166 -0.036413172714230509 0 0.45336242386638548 -0.048081860180443331 0 0.4418199087038166 -0.036413172714230509 0 0.46066124531356523 -0.02495037136359456 0 0.44319066280059011 -0.020277102525679332 0 0.46066124531356523 -0.02495037136359456 0 0.4418199087038166 -0.036413172714230509 0 0.44319066280059011 -0.020277102525679332 0 0.43146341556488688 -0.027793063727763911 0 0.4418199087038166 -0.036413172714230509 0 0.44319066280059011 -0.020277102525679332 0 0.46066124531356523 -0.02495037136359456 0 0.4418199087038166 -0.036413172714230509 0 0.46066124531356523 -0.02495037136359456 0 0.44319066280059011 -0.020277102525679332 0 0.45268597934561561 -0.0093745782260767282 0 0.46066124531356523 -0.02495037136359456 0 0.44319066280059011 -0.020277102525679332 0 0.45268597934561561 -0.0093745782260767282 0 0.43572596172723599 -0.0039609574805528208 0 0.45715064115149551 0.0080638351314136908 0 0.45268597934561561 -0.0093745782260767282 0 0.43572596172723599 -0.0039609574805528208 0 0.45715064115149551 0.0080638351314136908 0 0.45268597934561561 -0.0093745782260767282 0 0.46670138573519182 -0.0057482948919680924 0 0.45268597934561561 -0.0093745782260767282 0 0.46670138573519182 -0.0057482948919680924 0 0.46066124531356523 -0.02495037136359456 0 0.48423454284368772 -0.12473755848412491 0 0.46639957155615402 -0.1084741933780792 0 0.46719856684859901 -0.1239204112243712 0 0.48423454284368772 -0.12473755848412491 0 0.48125943494944151 -0.099580511300215072 0 0.46639957155615402 -0.1084741933780792 0 0.48423454284368772 -0.12473755848412491 0 0.49999999999999978 -0.10854653154352251 0 0.48423454284368772 -0.12473755848412491 0 0.49999999999999978 -0.10854653154352251 0 0.5 -0.13270020948490449 0 0.48423454284368772 -0.12473755848412491 0 0.49999999999999978 -0.10854653154352251 0 0.48125943494944151 -0.099580511300215072 0 0.49999999999999978 -0.10854653154352251 0 0.48125943494944151 -0.099580511300215072 0 0.5 -0.084188766390880743 0 0.48125943494944151 -0.099580511300215072 0 0.46416978009539239 -0.091753994812644402 0 0.46639957155615402 -0.1084741933780792 0 0.48125943494944151 -0.099580511300215072 0 0.47544483662575221 -0.08303979412588855 0 0.46416978009539239 -0.091753994812644402 0 0.48125943494944151 -0.099580511300215072 0 0.47544483662575221 -0.08303979412588855 0 0.5 -0.084188766390880743 0 0.47544483662575221 -0.08303979412588855 0 0.5 -0.084188766390880743 0 0.48024424242127262 -0.066936486146663088 0 0.5 -0.059831001238239027 0 0.5 -0.084188766390880743 0 0.48024424242127262 -0.066936486146663088 0 0.47544483662575221 -0.08303979412588855 0 0.48024424242127262 -0.066936486146663088 0 0.46107438291882707 -0.074750815528603048 0 0.46512959423473299 -0.058490007488494131 0 0.48024424242127262 -0.066936486146663088 0 0.46107438291882707 -0.074750815528603048 0 0.46512959423473299 -0.058490007488494131 0 0.46107438291882707 -0.074750815528603048 0 0.44641297272047198 -0.065689529540069291 0 0.44641297272047198 -0.065689529540069291 0 0.44811894366575689 -0.085718041578757315 0 0.43115621924006309 -0.077929943141736541 0 0.46107438291882707 -0.074750815528603048 0 0.44641297272047198 -0.065689529540069291 0 0.44811894366575689 -0.085718041578757315 0 0.44811894366575689 -0.085718041578757315 0 0.43115621924006309 -0.077929943141736541 0 0.44418916272512188 -0.092118398494941953 0 0.43870276145802151 -0.098805735751013049 0 0.43115621924006309 -0.077929943141736541 0 0.44811894366575689 -0.085718041578757315 0 0.44418916272512188 -0.092118398494941953 0 0.43115621924006309 -0.077929943141736541 0 0.44811894366575689 -0.085718041578757315 0 0.44418916272512188 -0.092118398494941953 0 0.45272151085642331 -0.098960612964323139 0 0.44811894366575689 -0.085718041578757315 0 0.46416978009539239 -0.091753994812644402 0 0.45272151085642331 -0.098960612964323139 0 0.46107438291882707 -0.074750815528603048 0 0.44811894366575689 -0.085718041578757315 0 0.46416978009539239 -0.091753994812644402 0 0.47544483662575221 -0.08303979412588855 0 0.46107438291882707 -0.074750815528603048 0 0.46416978009539239 -0.091753994812644402 0 0.46416978009539239 -0.091753994812644402 0 0.46639957155615402 -0.1084741933780792 0 0.45272151085642331 -0.098960612964323139 0 0.46639957155615402 -0.1084741933780792 0 0.45272151085642331 -0.098960612964323139 0 0.45117480596824189 -0.1097454050512735 0 0.44418916272512188 -0.092118398494941953 0 0.45272151085642331 -0.098960612964323139 0 0.43870276145802151 -0.098805735751013049 0 0.43870276145802151 -0.098805735751013049 0 0.43711640721648148 -0.09983444720479287 0 0.43870276145802151 -0.098805735751013049 0 0.45117480596824189 -0.1097454050512735 0 0.43711640721648148 -0.09983444720479287 0 0.45272151085642331 -0.098960612964323139 0 0.43870276145802151 -0.098805735751013049 0 0.45117480596824189 -0.1097454050512735 0 0.43711640721648148 -0.09983444720479287 0 0.44491001787377271 -0.12847702978506159 0 0.45117480596824189 -0.1097454050512735 0 0.43711640721648148 -0.09983444720479287 0 0.44491001787377271 -0.12847702978506159 0 0.46639957155615402 -0.1084741933780792 0 0.45117480596824189 -0.1097454050512735 0 0.46719856684859901 -0.1239204112243712 0 0.45117480596824189 -0.1097454050512735 0 0.46719856684859901 -0.1239204112243712 0 0.44491001787377271 -0.12847702978506159 0 0.41498149892818409 -0.1141883872569651 0 0.43711640721648148 -0.09983444720479287 0 0.44491001787377271 -0.12847702978506159 0 0.41498149892818409 -0.1141883872569651 0 0.43711640721648148 -0.09983444720479287 0 0.4166598403024141 -0.09327111489773332 0 0.41498149892818409 -0.1141883872569651 0 0.43711640721648148 -0.09983444720479287 0 0.41498149892818409 -0.1141883872569651 0 0.4166598403024141 -0.09327111489773332 0 0.40447240349136337 -0.1001995335656552 0 0.4166598403024141 -0.09327111489773332 0 0.40270454777309928 -0.088018927076362025 0 0.40447240349136337 -0.1001995335656552 0 0.41011361086365289 -0.079982785688542113 0 0.4166598403024141 -0.09327111489773332 0 0.43115621924006309 -0.077929943141736541 0 0.41011361086365289 -0.079982785688542113 0 0.4166598403024141 -0.09327111489773332 0 0.40270454777309928 -0.088018927076362025 0 0.43711640721648148 -0.09983444720479287 0 0.4166598403024141 -0.09327111489773332 0 0.43115621924006309 -0.077929943141736541 0 0.43870276145802151 -0.098805735751013049 0 0.43711640721648148 -0.09983444720479287 0 0.43115621924006309 -0.077929943141736541 0 0.43711640721648148 -0.09983444720479287 0 0.43115621924006309 -0.077929943141736541 0 0.43115621924006309 -0.077929943141736541 0 0.42706739566706531 -0.062902958603302847 0 0.43115621924006309 -0.077929943141736541 0 0.42706739566706531 -0.062902958603302847 0 0.41059530513088849 -0.068489807287443555 0 0.44641297272047198 -0.065689529540069291 0 0.43115621924006309 -0.077929943141736541 0 0.42706739566706531 -0.062902958603302847 0 0.41011361086365289 -0.079982785688542113 0 0.43115621924006309 -0.077929943141736541 0 0.41059530513088849 -0.068489807287443555 0 0.42706739566706531 -0.062902958603302847 0 0.41059530513088849 -0.068489807287443555 0 0.41257442721715171 -0.058602210531555628 0 0.43115621924006309 -0.077929943141736541 0 0.41059530513088849 -0.068489807287443555 0 0.41059530513088849 -0.068489807287443555 0 0.38979354388809517 -0.064796160633701791 0 0.39003439102171278 -0.059049671433152789 0 0.41011361086365289 -0.079982785688542113 0 0.38979354388809517 -0.064796160633701791 0 0.41011361086365289 -0.079982785688542113 0 0.41059530513088849 -0.068489807287443555 0 0.38979354388809517 -0.064796160633701791 0 0.41011361086365289 -0.079982785688542113 0 0.39672664884189118 -0.077800649130157343 0 0.38979354388809517 -0.064796160633701791 0 0.41059530513088849 -0.068489807287443555 0 0.39003439102171278 -0.059049671433152789 0 0.39672664884189118 -0.077800649130157343 0 0.38979354388809517 -0.064796160633701791 0 0.38941958533491461 -0.073769711990272713 0 0.39672664884189118 -0.077800649130157343 0 0.38941958533491461 -0.073769711990272713 0 0.3916019563496943 -0.082435660261908017 0 0.38979354388809517 -0.064796160633701791 0 0.38436593275976311 -0.069707964857162907 0 0.37707387816099791 -0.065000656527515008 0 0.38979354388809517 -0.064796160633701791 0 0.38436593275976311 -0.069707964857162907 0 0.38941958533491461 -0.073769711990272713 0 0.38436593275976311 -0.069707964857162907 0 0.37707387816099791 -0.065000656527515008 0 0.3811767236550449 -0.07526533027716216 0 0.37707387816099791 -0.065000656527515008 0 0.3811767236550449 -0.07526533027716216 0 0.36863644056582029 -0.072353306041570489 0 0.38436593275976311 -0.069707964857162907 0 0.3811767236550449 -0.07526533027716216 0 0.38941958533491461 -0.073769711990272713 0 0.3811767236550449 -0.07526533027716216 0 0.38941958533491461 -0.073769711990272713 0 0.3916019563496943 -0.082435660261908017 0 0.3811767236550449 -0.07526533027716216 0 0.38145498658086952 -0.085967182641898912 0 0.3916019563496943 -0.082435660261908017 0 0.3811767236550449 -0.07526533027716216 0 0.38145498658086952 -0.085967182641898912 0 0.37447771055886248 -0.080014830512193921 0 0.38145498658086952 -0.085967182641898912 0 0.38145445106989578 -0.09714174591226768 0 0.36843782956380727 -0.0869874484511277 0 0.38145498658086952 -0.085967182641898912 0 0.39270320961921962 -0.094279296288598657 0 0.38145445106989578 -0.09714174591226768 0 0.38145498658086952 -0.085967182641898912 0 0.3916019563496943 -0.082435660261908017 0 0.39270320961921962 -0.094279296288598657 0 0.3916019563496943 -0.082435660261908017 0 0.40270454777309928 -0.088018927076362025 0 0.39270320961921962 -0.094279296288598657 0 0.39672664884189118 -0.077800649130157343 0 0.3916019563496943 -0.082435660261908017 0 0.40270454777309928 -0.088018927076362025 0 0.41011361086365289 -0.079982785688542113 0 0.39672664884189118 -0.077800649130157343 0 0.40270454777309928 -0.088018927076362025 0 0.41498149892818409 -0.1141883872569651 0 0.40447240349136337 -0.1001995335656552 0 0.3930009599088658 -0.1096921096835109 0 0.40270454777309928 -0.088018927076362025 0 0.40447240349136337 -0.1001995335656552 0 0.39270320961921962 -0.094279296288598657 0 0.40447240349136337 -0.1001995335656552 0 0.39270320961921962 -0.094279296288598657 0 0.3930009599088658 -0.1096921096835109 0 0.38145445106989578 -0.09714174591226768 0 0.37795152415556321 -0.1155602808667491 0 0.3930009599088658 -0.1096921096835109 0 0.38145445106989578 -0.09714174591226768 0 0.37795152415556321 -0.1155602808667491 0 0.36838533770042559 -0.1008610306779959 0 0.39270320961921962 -0.094279296288598657 0 0.38145445106989578 -0.09714174591226768 0 0.3930009599088658 -0.1096921096835109 0 0.37795152415556321 -0.1155602808667491 0 0.3930009599088658 -0.1096921096835109 0 0.39284659063988592 -0.1285423273091362 0 0.41498149892818409 -0.1141883872569651 0 0.39284659063988592 -0.1285423273091362 0 0.41498149892818409 -0.1141883872569651 0 0.3930009599088658 -0.1096921096835109 0 0.39284659063988592 -0.1285423273091362 0 0.41430128230297553 -0.015985750092517691 0 0.41863992719852211 -0.031930862078693348 0 0.41430128230297553 -0.015985750092517691 0 0.4257200802876156 -0.01560383368776154 0 0.41863992719852211 -0.031930862078693348 0 0.41430128230297553 -0.015985750092517691 0 0.41863992719852211 -0.031930862078693348 0 0.40359068305537038 -0.040036841994684047 0 0.41338695967057781 -0.01262548966188594 0 0.41327230354314293 -0.0035178546482568982 0 0.43572596172723599 -0.0039609574805528208 0 0.41430128230297553 -0.015985750092517691 0 0.41338695967057781 -0.01262548966188594 0 0.43572596172723599 -0.0039609574805528208 0 0.41430128230297553 -0.015985750092517691 0 0.41338695967057781 -0.01262548966188594 0 0.40430265830111539 -0.011230697281797991 0 0.41642282841251732 0.0050282763252594773 0 0.41327230354314293 -0.0035178546482568982 0 0.43572596172723599 -0.0039609574805528208 0 0.41338695967057781 -0.01262548966188594 0 0.41327230354314293 -0.0035178546482568982 0 0.40430265830111539 -0.011230697281797991 0 0.41430128230297553 -0.015985750092517691 0 0.41338695967057781 -0.01262548966188594 0 0.40417077447736632 0.00150681650831607 0 0.41327230354314293 -0.0035178546482568982 0 0.40430265830111539 -0.011230697281797991 0 0.41430128230297553 -0.015985750092517691 0 0.43572596172723599 -0.0039609574805528208 0 0.44319066280059011 -0.020277102525679332 0 0.43572596172723599 -0.0039609574805528208 0 0.4257200802876156 -0.01560383368776154 0 0.41430128230297553 -0.015985750092517691 0 0.43572596172723599 -0.0039609574805528208 0 0.4257200802876156 -0.01560383368776154 0 0.44319066280059011 -0.020277102525679332 0 0.4257200802876156 -0.01560383368776154 0 0.43146341556488688 -0.027793063727763911 0 0.4257200802876156 -0.01560383368776154 0 0.43146341556488688 -0.027793063727763911 0 0.41863992719852211 -0.031930862078693348 0 0.44319066280059011 -0.020277102525679332 0 0.4257200802876156 -0.01560383368776154 0 0.4418199087038166 -0.036413172714230509 0 0.42297857209406931 -0.047875974064868751 0 0.43146341556488688 -0.027793063727763911 0 0.42297857209406931 -0.047875974064868751 0 0.41863992719852211 -0.031930862078693348 0 0.4383226057064083 -0.052292079314331212 0 0.4418199087038166 -0.036413172714230509 0 0.42297857209406931 -0.047875974064868751 0 0.4418199087038166 -0.036413172714230509 0 0.43146341556488688 -0.027793063727763911 0 0.42297857209406931 -0.047875974064868751 0 0.4383226057064083 -0.052292079314331212 0 0.44641297272047198 -0.065689529540069291 0 0.42706739566706531 -0.062902958603302847 0 0.42706739566706531 -0.062902958603302847 0 0.42297857209406931 -0.047875974064868751 0 0.41747168951037228 -0.051226283144617593 0 0.4383226057064083 -0.052292079314331212 0 0.42706739566706531 -0.062902958603302847 0 0.42297857209406931 -0.047875974064868751 0 0.42706739566706531 -0.062902958603302847 0 0.42297857209406931 -0.047875974064868751 0 0.42706739566706531 -0.062902958603302847 0 0.41747168951037228 -0.051226283144617593 0 0.41257442721715171 -0.058602210531555628 0 0.42297857209406931 -0.047875974064868751 0 0.41747168951037228 -0.051226283144617593 0 0.4143754683672522 -0.043799180006487547 0 0.42297857209406931 -0.047875974064868751 0 0.41747168951037228 -0.051226283144617593 0 0.40919646997792702 -0.047925938749573897 0 0.41257442721715171 -0.058602210531555628 0 0.40369464559638241 -0.054933182138431853 0 0.41747168951037228 -0.051226283144617593 0 0.40919646997792702 -0.047925938749573897 0 0.4143754683672522 -0.043799180006487547 0 0.41747168951037228 -0.051226283144617593 0 0.40919646997792702 -0.047925938749573897 0 0.41257442721715171 -0.058602210531555628 0 0.41059530513088849 -0.068489807287443555 0 0.41257442721715171 -0.058602210531555628 0 0.40369464559638241 -0.054933182138431853 0 0.42297857209406931 -0.047875974064868751 0 0.41863992719852211 -0.031930862078693348 0 0.4143754683672522 -0.043799180006487547 0 0.42297857209406931 -0.047875974064868751 0 0.41863992719852211 -0.031930862078693348 0 0.40919646997792702 -0.047925938749573897 0 0.4143754683672522 -0.043799180006487547 0 0.40359068305537038 -0.040036841994684047 0 0.41863992719852211 -0.031930862078693348 0 0.4143754683672522 -0.043799180006487547 0 0.40359068305537038 -0.040036841994684047 0 0.40359068305537038 -0.040036841994684047 0 0.38405114078820018 -0.044970151298831161 0 0.38865354684947512 -0.030380770605438649 0 0.40359068305537038 -0.040036841994684047 0 0.40369464559638241 -0.054933182138431853 0 0.38405114078820018 -0.044970151298831161 0 0.41059530513088849 -0.068489807287443555 0 0.40369464559638241 -0.054933182138431853 0 0.39003439102171278 -0.059049671433152789 0 0.40369464559638241 -0.054933182138431853 0 0.39003439102171278 -0.059049671433152789 0 0.38405114078820018 -0.044970151298831161 0 0.40919646997792702 -0.047925938749573897 0 0.40359068305537038 -0.040036841994684047 0 0.40369464559638241 -0.054933182138431853 0 0.38979354388809517 -0.064796160633701791 0 0.39003439102171278 -0.059049671433152789 0 0.36947347691253718 -0.049609535578861753 0 0.39003439102171278 -0.059049671433152789 0 0.38405114078820018 -0.044970151298831161 0 0.36947347691253718 -0.049609535578861753 0 0.39003439102171278 -0.059049671433152789 0 0.36947347691253718 -0.049609535578861753 0 0.38979354388809517 -0.064796160633701791 0 0.36947347691253718 -0.049609535578861753 0 0.38979354388809517 -0.064796160633701791 0 0.37707387816099791 -0.065000656527515008 0 0.36947347691253718 -0.049609535578861753 0 0.38865354684947512 -0.030380770605438649 0 0.36300581139597332 -0.04477579111835743 0 0.38405114078820018 -0.044970151298831161 0 0.38865354684947512 -0.030380770605438649 0 0.36300581139597332 -0.04477579111835743 0 0.38865354684947512 -0.030380770605438649 0 0.37541705560287952 -0.0098312736823111847 0 0.3655540496476864 -0.022570711168958989 0 0.41430128230297553 -0.015985750092517691 0 0.38865354684947512 -0.030380770605438649 0 0.41430128230297553 -0.015985750092517691 0 0.40359068305537038 -0.040036841994684047 0 0.38865354684947512 -0.030380770605438649 0 0.41430128230297553 -0.015985750092517691 0 0.38865354684947512 -0.030380770605438649 0 0.40430265830111539 -0.011230697281797991 0 0.38865354684947512 -0.030380770605438649 0 0.40430265830111539 -0.011230697281797991 0 0.39203108296315442 -0.0063811351910032163 0 0.40417077447736632 0.00150681650831607 0 0.40430265830111539 -0.011230697281797991 0 0.39203108296315442 -0.0063811351910032163 0 0.38865354684947512 -0.030380770605438649 0 0.39203108296315442 -0.0063811351910032163 0 0.37541705560287952 -0.0098312736823111847 0 0.38287892740272172 0.00087610826252693141 0 0.39203108296315442 -0.0063811351910032163 0 0.37541705560287952 -0.0098312736823111847 0 0.37430897038932398 0.0029070229972260808 0 0.38287892740272172 0.00087610826252693141 0 0.37541705560287952 -0.0098312736823111847 0 0.37541705560287952 -0.0098312736823111847 0 0.3655540496476864 -0.022570711168958989 0 0.35811332451581612 -0.0003003940594539338 0 0.37430897038932398 0.0029070229972260808 0 0.37541705560287952 -0.0098312736823111847 0 0.35811332451581612 -0.0003003940594539338 0 0.3655540496476864 -0.022570711168958989 0 0.35587509085229901 -0.028817762928268039 0 0.35098667350348289 -0.017387654057202381 0 0.35098667350348289 -0.017387654057202381 0 0.34395382886205339 -0.03053689536855286 0 0.34373065442379419 -0.021962159086072689 0 0.35587509085229901 -0.028817762928268039 0 0.35098667350348289 -0.017387654057202381 0 0.34395382886205339 -0.03053689536855286 0 0.35811332451581612 -0.0003003940594539338 0 0.33609014669020071 -0.0180636272192202 0 0.35811332451581612 -0.0003003940594539338 0 0.34120962532654758 -0.0018768657245843219 0 0.33609014669020071 -0.0180636272192202 0 0.35098667350348289 -0.017387654057202381 0 0.35811332451581612 -0.0003003940594539338 0 0.33609014669020071 -0.0180636272192202 0 0.3655540496476864 -0.022570711168958989 0 0.35098667350348289 -0.017387654057202381 0 0.35811332451581612 -0.0003003940594539338 0 0.34120962532654758 -0.0018768657245843219 0 0.33400642039698453 -0.0077821604469549737 0 0.33609014669020071 -0.0180636272192202 0 0.33086727132326971 0.001175444359557418 0 0.33400642039698453 -0.0077821604469549737 0 0.32785863824792011 -0.0123635932035728 0 0.33086727132326971 0.001175444359557418 0 0.34120962532654758 -0.0018768657245843219 0 0.33400642039698453 -0.0077821604469549737 0 0.33400642039698453 -0.0077821604469549737 0 0.33609014669020071 -0.0180636272192202 0 0.32785863824792011 -0.0123635932035728 0 0.35098667350348289 -0.017387654057202381 0 0.33609014669020071 -0.0180636272192202 0 0.34373065442379419 -0.021962159086072689 0 0.34395382886205339 -0.03053689536855286 0 0.34373065442379419 -0.021962159086072689 0 0.3340159087224106 -0.033329896502494523 0 0.33609014669020071 -0.0180636272192202 0 0.34373065442379419 -0.021962159086072689 0 0.3340159087224106 -0.033329896502494523 0 0.33609014669020071 -0.0180636272192202 0 0.32888281026417993 -0.021203625791014809 0 0.3340159087224106 -0.033329896502494523 0 0.33609014669020071 -0.0180636272192202 0 0.32888281026417993 -0.021203625791014809 0 0.32785863824792011 -0.0123635932035728 0 0.3340159087224106 -0.033329896502494523 0 0.30685299944816058 -0.02085858552939621 0 0.32888281026417993 -0.021203625791014809 0 0.31756654739618828 -0.02105738623877175 0 0.3340159087224106 -0.033329896502494523 0 0.31756654739618828 -0.02105738623877175 0 0.3340159087224106 -0.033329896502494523 0 0.30685299944816058 -0.02085858552939621 0 0.32888281026417993 -0.021203625791014809 0 0.31756654739618828 -0.02105738623877175 0 0.32785863824792011 -0.0123635932035728 0 0.31739056135518179 0.0052853907154769546 0 0.31756654739618828 -0.02105738623877175 0 0.32785863824792011 -0.0123635932035728 0 0.31739056135518179 0.0052853907154769546 0 0.32785863824792011 -0.0123635932035728 0 0.31739056135518179 0.0052853907154769546 0 0.3030650154037785 0.0031062437264797742 0 0.31756654739618828 -0.02105738623877175 0 0.33086727132326971 0.001175444359557418 0 0.31739056135518179 0.0052853907154769546 0 0.32785863824792011 -0.0123635932035728 0 0.33793255267935929 -0.058848381433621887 0 0.31468628736205789 -0.071895555391649976 0 0.30801452485040409 -0.047140166658595932 0 0.3340159087224106 -0.033329896502494523 0 0.33793255267935929 -0.058848381433621887 0 0.30801452485040409 -0.047140166658595932 0 0.3340159087224106 -0.033329896502494523 0 0.30685299944816058 -0.02085858552939621 0 0.30801452485040409 -0.047140166658595932 0 0.33793255267935929 -0.058848381433621887 0 0.36117881799666041 -0.045801207475593159 0 0.35945736441614062 -0.06107924578255193 0 0.33793255267935929 -0.058848381433621887 0 0.36117881799666041 -0.045801207475593159 0 0.3340159087224106 -0.033329896502494523 0 0.33793255267935929 -0.058848381433621887 0 0.36117881799666041 -0.045801207475593159 0 0.34395382886205339 -0.03053689536855286 0 0.3340159087224106 -0.033329896502494523 0 0.36117881799666041 -0.045801207475593159 0 0.35587509085229901 -0.028817762928268039 0 0.34395382886205339 -0.03053689536855286 0 0.36300581139597332 -0.04477579111835743 0 0.34395382886205339 -0.03053689536855286 0 0.36300581139597332 -0.04477579111835743 0 0.36117881799666041 -0.045801207475593159 0 0.34395382886205339 -0.03053689536855286 0 0.36300581139597332 -0.04477579111835743 0 0.3340159087224106 -0.033329896502494523 0 0.36117881799666041 -0.045801207475593159 0 0.3655540496476864 -0.022570711168958989 0 0.35587509085229901 -0.028817762928268039 0 0.36300581139597332 -0.04477579111835743 0 0.38865354684947512 -0.030380770605438649 0 0.3655540496476864 -0.022570711168958989 0 0.36300581139597332 -0.04477579111835743 0 0.38405114078820018 -0.044970151298831161 0 0.36300581139597332 -0.04477579111835743 0 0.36947347691253718 -0.049609535578861753 0 0.36300581139597332 -0.04477579111835743 0 0.36117881799666041 -0.045801207475593159 0 0.36947347691253718 -0.049609535578861753 0 0.36300581139597332 -0.04477579111835743 0 0.36117881799666041 -0.045801207475593159 0 0.35945736441614062 -0.06107924578255193 0 0.36947347691253718 -0.049609535578861753 0 0.36866029001387401 -0.062010685982624852 0 0.36117881799666041 -0.045801207475593159 0 0.36947347691253718 -0.049609535578861753 0 0.36117881799666041 -0.045801207475593159 0 0.35945736441614062 -0.06107924578255193 0 0.36947347691253718 -0.049609535578861753 0 0.36300581139597332 -0.04477579111835743 0 0.36947347691253718 -0.049609535578861753 0 0.37707387816099791 -0.065000656527515008 0 0.36947347691253718 -0.049609535578861753 0 0.36866029001387401 -0.062010685982624852 0 0.37707387816099791 -0.065000656527515008 0 0.36866029001387401 -0.062010685982624852 0 0.36863644056582029 -0.072353306041570489 0 0.35945736441614062 -0.06107924578255193 0 0.36866029001387401 -0.062010685982624852 0 0.36863644056582029 -0.072353306041570489 0 0.3811767236550449 -0.07526533027716216 0 0.36863644056582029 -0.072353306041570489 0 0.37447771055886248 -0.080014830512193921 0 0.36863644056582029 -0.072353306041570489 0 0.36843782956380727 -0.0869874484511277 0 0.35000925116746362 -0.080289674554727547 0 0.38145498658086952 -0.085967182641898912 0 0.37447771055886248 -0.080014830512193921 0 0.36843782956380727 -0.0869874484511277 0 0.36863644056582029 -0.072353306041570489 0 0.37447771055886248 -0.080014830512193921 0 0.36843782956380727 -0.0869874484511277 0 0.36843782956380727 -0.0869874484511277 0 0.35879976170881189 -0.092943775175391805 0 0.36838533770042559 -0.1008610306779959 0 0.35000925116746362 -0.080289674554727547 0 0.34829575358060999 -0.096841399181346904 0 0.33664669018703042 -0.096330982517997488 0 0.36843782956380727 -0.0869874484511277 0 0.35000925116746362 -0.080289674554727547 0 0.35879976170881189 -0.092943775175391805 0 0.35000925116746362 -0.080289674554727547 0 0.35879976170881189 -0.092943775175391805 0 0.34829575358060999 -0.096841399181346904 0 0.35945736441614062 -0.06107924578255193 0 0.36863644056582029 -0.072353306041570489 0 0.35000925116746362 -0.080289674554727547 0 0.33793255267935929 -0.058848381433621887 0 0.35945736441614062 -0.06107924578255193 0 0.35000925116746362 -0.080289674554727547 0 0.37795152415556321 -0.1155602808667491 0 0.36238967226335322 -0.1156552499940975 0 0.3707116823515878 -0.14289626736130731 0 0.37795152415556321 -0.1155602808667491 0 0.36238967226335322 -0.1156552499940975 0 0.36838533770042559 -0.1008610306779959 0 0.36238967226335322 -0.1156552499940975 0 0.36838533770042559 -0.1008610306779959 0 0.35715052873934727 -0.10178335111420329 0 0.38145445106989578 -0.09714174591226768 0 0.36843782956380727 -0.0869874484511277 0 0.36838533770042559 -0.1008610306779959 0 0.35879976170881189 -0.092943775175391805 0 0.36838533770042559 -0.1008610306779959 0 0.35715052873934727 -0.10178335111420329 0 0.35879976170881189 -0.092943775175391805 0 0.34829575358060999 -0.096841399181346904 0 0.35715052873934727 -0.10178335111420329 0 0.34829575358060999 -0.096841399181346904 0 0.34763874172329429 -0.110146346902546 0 0.33883622459174179 -0.1043285039808403 0 0.34829575358060999 -0.096841399181346904 0 0.35715052873934727 -0.10178335111420329 0 0.34763874172329429 -0.110146346902546 0 0.36238967226335322 -0.1156552499940975 0 0.35715052873934727 -0.10178335111420329 0 0.34763874172329429 -0.110146346902546 0 0.36238967226335322 -0.1156552499940975 0 0.34763874172329429 -0.110146346902546 0 0.35078011111749519 -0.12472825114422589 0 0.34763874172329429 -0.110146346902546 0 0.33104072904134718 -0.1179335734306808 0 0.33883622459174179 -0.1043285039808403 0 0.34763874172329429 -0.110146346902546 0 0.35078011111749519 -0.12472825114422589 0 0.33104072904134718 -0.1179335734306808 0 0.33104072904134718 -0.1179335734306808 0 0.33883622459174179 -0.1043285039808403 0 0.33055920842642689 -0.10039021787163011 0 0.34829575358060999 -0.096841399181346904 0 0.33883622459174179 -0.1043285039808403 0 0.33664669018703042 -0.096330982517997488 0 0.33883622459174179 -0.1043285039808403 0 0.33664669018703042 -0.096330982517997488 0 0.33055920842642689 -0.10039021787163011 0 0.33664669018703042 -0.096330982517997488 0 0.33055920842642689 -0.10039021787163011 0 0.33055920842642689 -0.10039021787163011 0 0.30627146855377751 -0.11658569183410571 0 0.33055920842642689 -0.10039021787163011 0 0.313491027207353 -0.11802923905541771 0 0.33055920842642689 -0.10039021787163011 0 0.30627146855377751 -0.11658569183410571 0 0.31011017818921988 -0.093963011689749937 0 0.33104072904134718 -0.1179335734306808 0 0.33055920842642689 -0.10039021787163011 0 0.313491027207353 -0.11802923905541771 0 0.33055920842642689 -0.10039021787163011 0 0.313491027207353 -0.11802923905541771 0 0.30627146855377751 -0.11658569183410571 0 0.33793255267935929 -0.058848381433621887 0 0.35000925116746362 -0.080289674554727547 0 0.33107881722415278 -0.081432442313066358 0 0.35000925116746362 -0.080289674554727547 0 0.33664669018703042 -0.096330982517997488 0 0.33055920842642689 -0.10039021787163011 0 0.35000925116746362 -0.080289674554727547 0 0.33055920842642689 -0.10039021787163011 0 0.33107881722415278 -0.081432442313066358 0 0.35000925116746362 -0.080289674554727547 0 0.33055920842642689 -0.10039021787163011 0 0.33055920842642689 -0.10039021787163011 0 0.33107881722415278 -0.081432442313066358 0 0.31011017818921988 -0.093963011689749937 0 0.33107881722415278 -0.081432442313066358 0 0.31468628736205789 -0.071895555391649976 0 0.31011017818921988 -0.093963011689749937 0 0.33793255267935929 -0.058848381433621887 0 0.33107881722415278 -0.081432442313066358 0 0.31468628736205789 -0.071895555391649976 0 0.33793255267935929 -0.058848381433621887 0 0.31468628736205789 -0.071895555391649976 0 0.31468628736205789 -0.071895555391649976 0 0.29144002204475672 -0.084942729349678003 0 0.29613475169975911 -0.066074745418027853 0 0.31468628736205789 -0.071895555391649976 0 0.29144002204475672 -0.084942729349678003 0 0.31468628736205789 -0.071895555391649976 0 0.29144002204475672 -0.084942729349678003 0 0.31011017818921988 -0.093963011689749937 0 0.29144002204475672 -0.084942729349678003 0 0.29613475169975911 -0.066074745418027853 0 0.27335278921419021 -0.073370364624837231 0 0.29613475169975911 -0.066074745418027853 0 0.27335278921419021 -0.073370364624837231 0 0.28570241465164048 -0.049667196914579007 0 0.313491027207353 -0.11802923905541771 0 0.30627146855377751 -0.11658569183410571 0 0.29642284598827923 -0.1356682602392057 0 0.30627146855377751 -0.11658569183410571 0 0.31011017818921988 -0.093963011689749937 0 0.28662526552414769 -0.1085314333783693 0 0.29144002204475672 -0.084942729349678003 0 0.31011017818921988 -0.093963011689749937 0 0.28662526552414769 -0.1085314333783693 0 0.29144002204475672 -0.084942729349678003 0 0.28662526552414769 -0.1085314333783693 0 0.26819375672745549 -0.097989903307705989 0 0.30627146855377751 -0.11658569183410571 0 0.28662526552414769 -0.1085314333783693 0 0.28198372868112809 -0.13278116579658111 0 0.30627146855377751 -0.11658569183410571 0 0.28198372868112809 -0.13278116579658111 0 0.28662526552414769 -0.1085314333783693 0 0.26659274191836152 -0.11607656404749921 0 0.28198372868112809 -0.13278116579658111 0 0.28662526552414769 -0.1085314333783693 0 0.26659274191836152 -0.11607656404749921 0 0.26819375672745549 -0.097989903307705989 0 0.26819375672745549 -0.097989903307705989 0 0.24494749141015429 -0.111037077265734 0 0.26819375672745549 -0.097989903307705989 0 0.24719719431449419 -0.084876050210440576 0 0.24494749141015429 -0.111037077265734 0 0.26659274191836152 -0.11607656404749921 0 0.26819375672745549 -0.097989903307705989 0 0.24494749141015429 -0.111037077265734 0 0.26659274191836152 -0.11607656404749921 0 0.25121346724892157 -0.13004324048910579 0 0.24494749141015429 -0.111037077265734 0 0.29144002204475672 -0.084942729349678003 0 0.26819375672745549 -0.097989903307705989 0 0.27335278921419021 -0.073370364624837231 0 0.29144002204475672 -0.084942729349678003 0 0.26819375672745549 -0.097989903307705989 0 0.26819375672745549 -0.097989903307705989 0 0.27335278921419021 -0.073370364624837231 0 0.24719719431449419 -0.084876050210440576 0 0.27335278921419021 -0.073370364624837231 0 0.25144859584703533 -0.056671562548592028 0 0.24719719431449419 -0.084876050210440576 0 0.25144859584703533 -0.056671562548592028 0 0.25983111442221102 -0.029602742009838649 0 0.28570241465164048 -0.049667196914579007 0 0.27335278921419021 -0.073370364624837231 0 0.25144859584703533 -0.056671562548592028 0 0.28570241465164048 -0.049667196914579007 0 0.25983111442221102 -0.029602742009838649 0 0.28077675938944052 -0.029306805420402069 0 0.28570241465164048 -0.049667196914579007 0 0.25144859584703533 -0.056671562548592028 0 0.25983111442221102 -0.029602742009838649 0 0.23918609440637159 -0.036330695478617073 0 0.25252718089966042 0.0040840364167999913 0 0.25983111442221102 -0.029602742009838649 0 0.27969009017391061 -0.0083872745562978968 0 0.25252718089966042 0.0040840364167999913 0 0.27969009017391061 -0.0083872745562978968 0 0.25983111442221102 -0.029602742009838649 0 0.27969009017391061 -0.0083872745562978968 0 0.28077675938944052 -0.029306805420402069 0 0.27969009017391061 -0.0083872745562978968 0 0.28077675938944052 -0.029306805420402069 0 0.30685299944816058 -0.02085858552939621 0 0.27969009017391061 -0.0083872745562978968 0 0.30685299944816058 -0.02085858552939621 0 0.27969009017391061 -0.0083872745562978968 0 0.29228138447650043 -0.0019799900661793429 0 0.30685299944816058 -0.02085858552939621 0 0.28132672896125188 0.0065515307208661184 0 0.27969009017391061 -0.0083872745562978968 0 0.29228138447650043 -0.0019799900661793429 0 0.3030650154037785 0.0031062437264797742 0 0.29228138447650043 -0.0019799900661793429 0 0.30685299944816058 -0.02085858552939621 0 0.3030650154037785 0.0031062437264797742 0 0.31756654739618828 -0.02105738623877175 0 0.3030650154037785 0.0031062437264797742 0 0.31756654739618828 -0.02105738623877175 0 0.30685299944816058 -0.02085858552939621 0 0.28077675938944052 -0.029306805420402069 0 0.30685299944816058 -0.02085858552939621 0 0.30801452485040409 -0.047140166658595932 0 0.31468628736205789 -0.071895555391649976 0 0.29613475169975911 -0.066074745418027853 0 0.30801452485040409 -0.047140166658595932 0 0.29613475169975911 -0.066074745418027853 0 0.30801452485040409 -0.047140166658595932 0 0.28570241465164048 -0.049667196914579007 0 0.28077675938944052 -0.029306805420402069 0 0.30801452485040409 -0.047140166658595932 0 0.28570241465164048 -0.049667196914579007 0 0.28689857753160808 -0.210138142350453 0 0.29684252909605102 -0.1978908338894276 0 0.30434160721018549 -0.20980183530015009 0 0.28689857753160808 -0.210138142350453 0 0.30434160721018549 -0.20980183530015009 0 0.29111072679868322 -0.2256368399706902 0 0.28689857753160808 -0.210138142350453 0 0.29111072679868322 -0.2256368399706902 0 0.27784519666370178 -0.21762809685890311 0 0.28689857753160808 -0.210138142350453 0 0.28290279917130512 -0.19983815430303919 0 0.27498357097802772 -0.20932800402101301 0 0.28290279917130512 -0.19983815430303919 0 0.30430695748669562 -0.18595808751782389 0 0.28290279917130512 -0.19983815430303919 0 0.2864054670359103 -0.1895973017885027 0 0.30430695748669562 -0.18595808751782389 0 0.28290279917130512 -0.19983815430303919 0 0.29684252909605102 -0.1978908338894276 0 0.30430695748669562 -0.18595808751782389 0 0.28689857753160808 -0.210138142350453 0 0.28290279917130512 -0.19983815430303919 0 0.29684252909605102 -0.1978908338894276 0 0.29684252909605102 -0.1978908338894276 0 0.30434160721018549 -0.20980183530015009 0 0.30430695748669562 -0.18595808751782389 0 0.30434160721018549 -0.20980183530015009 0 0.30430695748669562 -0.18595808751782389 0 0.32239680542583188 -0.19105327512525591 0 0.30434160721018549 -0.20980183530015009 0 0.30430695748669562 -0.18595808751782389 0 0.30434160721018549 -0.20980183530015009 0 0.30437625693366521 -0.23364558308247629 0 0.29111072679868322 -0.2256368399706902 0 0.30434160721018549 -0.20980183530015009 0 0.30437625693366521 -0.23364558308247629 0 0.30434160721018549 -0.20980183530015009 0 0.30437625693366521 -0.23364558308247629 0 0.32338677968541613 -0.22653923905061671 0 0.30437625693366521 -0.23364558308247629 0 0.29111072679868322 -0.2256368399706902 0 0.30437625693366521 -0.23364558308247629 0 0.28693374679138972 -0.24398926987998781 0 0.30440479278902077 -0.25328215357689932 0 0.30437625693366521 -0.23364558308247629 0 0.32333319116345138 -0.2450903738212255 0 0.30440479278902077 -0.25328215357689932 0 0.30437625693366521 -0.23364558308247629 0 0.30440479278902077 -0.25328215357689932 0 0.30437625693366521 -0.23364558308247629 0 0.28693374679138972 -0.24398926987998781 0 0.29111072679868322 -0.2256368399706902 0 0.28693374679138972 -0.24398926987998781 0 0.29111072679868322 -0.2256368399706902 0 0.27784519666370178 -0.21762809685890311 0 0.28693374679138972 -0.24398926987998781 0 0.27784519666370178 -0.21762809685890311 0 0.29111072679868322 -0.2256368399706902 0 0.27784519666370178 -0.21762809685890311 0 0.28693374679138972 -0.24398926987998781 0 0.26654350250266262 -0.22568312304831059 0 0.27784519666370178 -0.21762809685890311 0 0.28693374679138972 -0.24398926987998781 0 0.26654350250266262 -0.22568312304831059 0 0.26346358465381908 -0.23862003643878141 0 0.28693374679138972 -0.24398926987998781 0 0.27144181060576689 -0.2494565698602908 0 0.26346358465381908 -0.23862003643878141 0 0.26346358465381908 -0.23862003643878141 0 0.25967455556378882 -0.25384352193259169 0 0.24143216616638091 -0.2469397021466557 0 0.27144181060576689 -0.2494565698602908 0 0.26346358465381908 -0.23862003643878141 0 0.25967455556378882 -0.25384352193259169 0 0.26654350250266262 -0.22568312304831059 0 0.26149864085591668 -0.21371822108825769 0 0.24009448254052829 -0.22759828787347619 0 0.26654350250266262 -0.22568312304831059 0 0.26346358465381908 -0.23862003643878141 0 0.24009448254052829 -0.22759828787347619 0 0.26149864085591668 -0.21371822108825769 0 0.24009448254052829 -0.22759828787347619 0 0.25117213108672271 -0.21129904678697509 0 0.26149864085591668 -0.21371822108825769 0 0.24009448254052829 -0.22759828787347619 0 0.25117213108672271 -0.21129904678697509 0 0.2591406219455063 -0.20486073420923451 0 0.26149864085591668 -0.21371822108825769 0 0.25117213108672271 -0.21129904678697509 0 0.2591406219455063 -0.20486073420923451 0 0.25155481569820459 -0.20174152318158639 0 0.2591406219455063 -0.20486073420923451 0 0.26149864085591668 -0.21371822108825769 0 0.26733818464096409 -0.2013659625008021 0 0.26654350250266262 -0.22568312304831059 0 0.26942536351061958 -0.2125448261504575 0 0.27784519666370178 -0.21762809685890311 0 0.28290279917130512 -0.19983815430303919 0 0.26149864085591668 -0.21371822108825769 0 0.26149864085591668 -0.21371822108825769 0 0.26942536351061958 -0.2125448261504575 0 0.27498357097802772 -0.20932800402101301 0 0.28290279917130512 -0.19983815430303919 0 0.26149864085591668 -0.21371822108825769 0 0.27498357097802772 -0.20932800402101301 0 0.26654350250266262 -0.22568312304831059 0 0.26149864085591668 -0.21371822108825769 0 0.26942536351061958 -0.2125448261504575 0 0.28290279917130512 -0.19983815430303919 0 0.26149864085591668 -0.21371822108825769 0 0.26733818464096409 -0.2013659625008021 0 0.28689857753160808 -0.210138142350453 0 0.27498357097802772 -0.20932800402101301 0 0.27784519666370178 -0.21762809685890311 0 0.27498357097802772 -0.20932800402101301 0 0.27784519666370178 -0.21762809685890311 0 0.26942536351061958 -0.2125448261504575 0 0.27498357097802772 -0.20932800402101301 0 0.27784519666370178 -0.21762809685890311 0 0.26942536351061958 -0.2125448261504575 0 0.27784519666370178 -0.21762809685890311 0 0.2864054670359103 -0.1895973017885027 0 0.27267831656919261 -0.1916839470526184 0 0.2802085300055096 -0.1838589528340942 0 0.28290279917130512 -0.19983815430303919 0 0.2864054670359103 -0.1895973017885027 0 0.27267831656919261 -0.1916839470526184 0 0.28290279917130512 -0.19983815430303919 0 0.26733818464096409 -0.2013659625008021 0 0.27267831656919261 -0.1916839470526184 0 0.26733818464096409 -0.2013659625008021 0 0.27267831656919261 -0.1916839470526184 0 0.25988372537558008 -0.19653212070708101 0 0.27267831656919261 -0.1916839470526184 0 0.25988372537558008 -0.19653212070708101 0 0.26142989723591897 -0.1854956956983923 0 0.2591406219455063 -0.20486073420923451 0 0.26733818464096409 -0.2013659625008021 0 0.25988372537558008 -0.19653212070708101 0 0.25988372537558008 -0.19653212070708101 0 0.25155481569820459 -0.20174152318158639 0 0.25071422220048228 -0.18889674024332551 0 0.2591406219455063 -0.20486073420923451 0 0.25988372537558008 -0.19653212070708101 0 0.25155481569820459 -0.20174152318158639 0 0.25988372537558008 -0.19653212070708101 0 0.25071422220048228 -0.18889674024332551 0 0.26142989723591897 -0.1854956956983923 0 0.25071422220048228 -0.18889674024332551 0 0.26142989723591897 -0.1854956956983923 0 0.25274198522871588 -0.17719594766978569 0 0.26142989723591897 -0.1854956956983923 0 0.26305679649796021 -0.17571260252470361 0 0.27045607046242393 -0.18138538894855119 0 0.26142989723591897 -0.1854956956983923 0 0.26305679649796021 -0.17571260252470361 0 0.25274198522871588 -0.17719594766978569 0 0.26305679649796021 -0.17571260252470361 0 0.25274198522871588 -0.17719594766978569 0 0.25625382477403552 -0.16600008824845111 0 0.25274198522871588 -0.17719594766978569 0 0.25625382477403552 -0.16600008824845111 0 0.24736775893403121 -0.16987052873896019 0 0.25625382477403552 -0.16600008824845111 0 0.2637050028108886 -0.1603731713944683 0 0.25769598880847849 -0.1489766397590562 0 0.25625382477403552 -0.16600008824845111 0 0.25769598880847849 -0.1489766397590562 0 0.24115368353005379 -0.16000732749784211 0 0.26305679649796021 -0.17571260252470361 0 0.25625382477403552 -0.16600008824845111 0 0.26728273661947283 -0.1672485901008674 0 0.25625382477403552 -0.16600008824845111 0 0.2637050028108886 -0.1603731713944683 0 0.26728273661947283 -0.1672485901008674 0 0.26728273661947283 -0.1672485901008674 0 0.2735874610415675 -0.15926736746949899 0 0.2758860166166423 -0.16629772174043139 0 0.26728273661947283 -0.1672485901008674 0 0.2758860166166423 -0.16629772174043139 0 0.27064978203297319 -0.17360471560782831 0 0.2637050028108886 -0.1603731713944683 0 0.26728273661947283 -0.1672485901008674 0 0.2735874610415675 -0.15926736746949899 0 0.2735874610415675 -0.15926736746949899 0 0.27935466476920628 -0.15330728142299449 0 0.2735874610415675 -0.15926736746949899 0 0.27911674913824169 -0.15864749690354379 0 0.2758860166166423 -0.16629772174043139 0 0.27911674913824169 -0.15864749690354379 0 0.2758860166166423 -0.16629772174043139 0 0.28258963958638222 -0.16246670590606169 0 0.27911674913824169 -0.15864749690354379 0 0.27935466476920628 -0.15330728142299449 0 0.28219830904282389 -0.1580466525932693 0 0.2735874610415675 -0.15926736746949899 0 0.27911674913824169 -0.15864749690354379 0 0.27935466476920628 -0.15330728142299449 0 0.2758860166166423 -0.16629772174043139 0 0.27721896820340891 -0.1747112613935744 0 0.28220481367529332 -0.16942255831973871 0 0.2758860166166423 -0.16629772174043139 0 0.27721896820340891 -0.1747112613935744 0 0.27064978203297319 -0.17360471560782831 0 0.2758860166166423 -0.16629772174043139 0 0.28220481367529332 -0.16942255831973871 0 0.28258963958638222 -0.16246670590606169 0 0.27721896820340891 -0.1747112613935744 0 0.2802085300055096 -0.1838589528340942 0 0.2845975235836728 -0.17784610590087521 0 0.27721896820340891 -0.1747112613935744 0 0.2802085300055096 -0.1838589528340942 0 0.27045607046242393 -0.18138538894855119 0 0.27267831656919261 -0.1916839470526184 0 0.2802085300055096 -0.1838589528340942 0 0.27045607046242393 -0.18138538894855119 0 0.27267831656919261 -0.1916839470526184 0 0.26142989723591897 -0.1854956956983923 0 0.27045607046242393 -0.18138538894855119 0 0.26305679649796021 -0.17571260252470361 0 0.26728273661947283 -0.1672485901008674 0 0.27064978203297319 -0.17360471560782831 0 0.26305679649796021 -0.17571260252470361 0 0.27045607046242393 -0.18138538894855119 0 0.27064978203297319 -0.17360471560782831 0 0.27721896820340891 -0.1747112613935744 0 0.27045607046242393 -0.18138538894855119 0 0.27064978203297319 -0.17360471560782831 0 0.25121346724892157 -0.13004324048910579 0 0.25769598880847849 -0.1489766397590562 0 0.28198372868112809 -0.13278116579658111 0 0.2637050028108886 -0.1603731713944683 0 0.2735874610415675 -0.15926736746949899 0 0.25769598880847849 -0.1489766397590562 0 0.25769598880847849 -0.1489766397590562 0 0.27935466476920628 -0.15330728142299449 0 0.25769598880847849 -0.1489766397590562 0 0.28198372868112809 -0.13278116579658111 0 0.2735874610415675 -0.15926736746949899 0 0.25769598880847849 -0.1489766397590562 0 0.27935466476920628 -0.15330728142299449 0 0.25769598880847849 -0.1489766397590562 0 0.27935466476920628 -0.15330728142299449 0 0.28198372868112809 -0.13278116579658111 0 0.26659274191836152 -0.11607656404749921 0 0.25121346724892157 -0.13004324048910579 0 0.28198372868112809 -0.13278116579658111 0 0.27935466476920628 -0.15330728142299449 0 0.28198372868112809 -0.13278116579658111 0 0.29642284598827923 -0.1356682602392057 0 0.30627146855377751 -0.11658569183410571 0 0.28198372868112809 -0.13278116579658111 0 0.29642284598827923 -0.1356682602392057 0 0.27935466476920628 -0.15330728142299449 0 0.29642284598827923 -0.1356682602392057 0 0.27935466476920628 -0.15330728142299449 0 0.29642284598827923 -0.1356682602392057 0 0.29602805884628458 -0.15345961174186501 0 0.27935466476920628 -0.15330728142299449 0 0.29602805884628458 -0.15345961174186501 0 0.28660859827833868 -0.1575404659894741 0 0.29602805884628458 -0.15345961174186501 0 0.31096488990962312 -0.14146730449268921 0 0.30976370422412047 -0.15757975897307411 0 0.29642284598827923 -0.1356682602392057 0 0.29602805884628458 -0.15345961174186501 0 0.31096488990962312 -0.14146730449268921 0 0.313491027207353 -0.11802923905541771 0 0.29642284598827923 -0.1356682602392057 0 0.31096488990962312 -0.14146730449268921 0 0.313491027207353 -0.11802923905541771 0 0.29642284598827923 -0.1356682602392057 0 0.2864054670359103 -0.1895973017885027 0 0.29138829133686339 -0.1832416264768871 0 0.30430695748669562 -0.18595808751782389 0 0.29043134439233093 -0.1761375808782501 0 0.29646610745773772 -0.17540671993054729 0 0.29138829133686339 -0.1832416264768871 0 0.29043134439233093 -0.1761375808782501 0 0.28851274772682928 -0.17060856594612411 0 0.29475301191884862 -0.16999960407246989 0 0.29043134439233093 -0.1761375808782501 0 0.29646610745773772 -0.17540671993054729 0 0.29475301191884862 -0.16999960407246989 0 0.29646610745773772 -0.17540671993054729 0 0.29138829133686339 -0.1832416264768871 0 0.29893287665095358 -0.18096626423642531 0 0.2802085300055096 -0.1838589528340942 0 0.29138829133686339 -0.1832416264768871 0 0.2845975235836728 -0.17784610590087521 0 0.2864054670359103 -0.1895973017885027 0 0.2802085300055096 -0.1838589528340942 0 0.29138829133686339 -0.1832416264768871 0 0.27721896820340891 -0.1747112613935744 0 0.2845975235836728 -0.17784610590087521 0 0.28220481367529332 -0.16942255831973871 0 0.2845975235836728 -0.17784610590087521 0 0.28220481367529332 -0.16942255831973871 0 0.28851274772682928 -0.17060856594612411 0 0.29043134439233093 -0.1761375808782501 0 0.29138829133686339 -0.1832416264768871 0 0.2845975235836728 -0.17784610590087521 0 0.29043134439233093 -0.1761375808782501 0 0.2845975235836728 -0.17784610590087521 0 0.28851274772682928 -0.17060856594612411 0 0.28220481367529332 -0.16942255831973871 0 0.28258963958638222 -0.16246670590606169 0 0.2898818370599931 -0.16381328160797939 0 0.28220481367529332 -0.16942255831973871 0 0.28851274772682928 -0.17060856594612411 0 0.2898818370599931 -0.16381328160797939 0 0.27935466476920628 -0.15330728142299449 0 0.28219830904282389 -0.1580466525932693 0 0.28660859827833868 -0.1575404659894741 0 0.28219830904282389 -0.1580466525932693 0 0.28258963958638222 -0.16246670590606169 0 0.28660859827833868 -0.1575404659894741 0 0.27911674913824169 -0.15864749690354379 0 0.28219830904282389 -0.1580466525932693 0 0.28258963958638222 -0.16246670590606169 0 0.28258963958638222 -0.16246670590606169 0 0.28660859827833868 -0.1575404659894741 0 0.2898818370599931 -0.16381328160797939 0 0.29602805884628458 -0.15345961174186501 0 0.28660859827833868 -0.1575404659894741 0 0.2898818370599931 -0.16381328160797939 0 0.29602805884628458 -0.15345961174186501 0 0.2898818370599931 -0.16381328160797939 0 0.29885699950181083 -0.16314305491481401 0 0.2898818370599931 -0.16381328160797939 0 0.29475301191884862 -0.16999960407246989 0 0.29885699950181083 -0.16314305491481401 0 0.28851274772682928 -0.17060856594612411 0 0.2898818370599931 -0.16381328160797939 0 0.29475301191884862 -0.16999960407246989 0 0.29475301191884862 -0.16999960407246989 0 0.30436903537439008 -0.17088842115710459 0 0.29885699950181083 -0.16314305491481401 0 0.29602805884628458 -0.15345961174186501 0 0.29885699950181083 -0.16314305491481401 0 0.30976370422412047 -0.15757975897307411 0 0.30436903537439008 -0.17088842115710459 0 0.29885699950181083 -0.16314305491481401 0 0.30976370422412047 -0.15757975897307411 0 0.304299007820589 -0.18048763018885039 0 0.30430695748669562 -0.18595808751782389 0 0.32644186577499162 -0.1716041474656495 0 0.30436903537439008 -0.17088842115710459 0 0.304299007820589 -0.18048763018885039 0 0.32644186577499162 -0.1716041474656495 0 0.29646610745773772 -0.17540671993054729 0 0.29475301191884862 -0.16999960407246989 0 0.30436903537439008 -0.17088842115710459 0 0.30436903537439008 -0.17088842115710459 0 0.30038356103646852 -0.1779456281890183 0 0.304299007820589 -0.18048763018885039 0 0.29646610745773772 -0.17540671993054729 0 0.30436903537439008 -0.17088842115710459 0 0.30038356103646852 -0.1779456281890183 0 0.29646610745773772 -0.17540671993054729 0 0.30038356103646852 -0.1779456281890183 0 0.29893287665095358 -0.18096626423642531 0 0.29138829133686339 -0.1832416264768871 0 0.29893287665095358 -0.18096626423642531 0 0.30430695748669562 -0.18595808751782389 0 0.304299007820589 -0.18048763018885039 0 0.30430695748669562 -0.18595808751782389 0 0.30038356103646852 -0.1779456281890183 0 0.29893287665095358 -0.18096626423642531 0 0.304299007820589 -0.18048763018885039 0 0.29893287665095358 -0.18096626423642531 0 0.304299007820589 -0.18048763018885039 0 0.30430695748669562 -0.18595808751782389 0 0.30430695748669562 -0.18595808751782389 0 0.32644186577499162 -0.1716041474656495 0 0.30976370422412047 -0.15757975897307411 0 0.32644186577499162 -0.1716041474656495 0 0.32811753108247438 -0.14024860843420681 0 0.32644186577499162 -0.1716041474656495 0 0.32811753108247438 -0.14024860843420681 0 0.34857677406328968 -0.15725020741347839 0 0.30430695748669562 -0.18595808751782389 0 0.32644186577499162 -0.1716041474656495 0 0.32239680542583188 -0.19105327512525591 0 0.30436903537439008 -0.17088842115710459 0 0.30976370422412047 -0.15757975897307411 0 0.32644186577499162 -0.1716041474656495 0 0.32644186577499162 -0.1716041474656495 0 0.34857677406328968 -0.15725020741347839 0 0.32644186577499162 -0.1716041474656495 0 0.35220744312963292 -0.17660873535489291 0 0.34857677406328968 -0.15725020741347839 0 0.32644186577499162 -0.1716041474656495 0 0.34284323657040072 -0.19471092763644099 0 0.32239680542583188 -0.19105327512525591 0 0.32644186577499162 -0.1716041474656495 0 0.35220744312963292 -0.17660873535489291 0 0.34284323657040072 -0.19471092763644099 0 0.33104072904134718 -0.1179335734306808 0 0.313491027207353 -0.11802923905541771 0 0.32811753108247438 -0.14024860843420681 0 0.313491027207353 -0.11802923905541771 0 0.31096488990962312 -0.14146730449268921 0 0.32811753108247438 -0.14024860843420681 0 0.31096488990962312 -0.14146730449268921 0 0.30976370422412047 -0.15757975897307411 0 0.32811753108247438 -0.14024860843420681 0 0.32811753108247438 -0.14024860843420681 0 0.34580528121890602 -0.13977450701380359 0 0.34857677406328968 -0.15725020741347839 0 0.35078011111749519 -0.12472825114422589 0 0.33104072904134718 -0.1179335734306808 0 0.34580528121890602 -0.13977450701380359 0 0.33104072904134718 -0.1179335734306808 0 0.32811753108247438 -0.14024860843420681 0 0.34580528121890602 -0.13977450701380359 0 0.35078011111749519 -0.12472825114422589 0 0.34580528121890602 -0.13977450701380359 0 0.3707116823515878 -0.14289626736130731 0 0.34580528121890602 -0.13977450701380359 0 0.3707116823515878 -0.14289626736130731 0 0.34857677406328968 -0.15725020741347839 0 0.3732792361129606 -0.14371499679011771 0 0.37215152511748101 -0.1677311303496711 0 0.3707116823515878 -0.14289626736130731 0 0.34857677406328968 -0.15725020741347839 0 0.37215152511748101 -0.1677311303496711 0 0.3732792361129606 -0.14371499679011771 0 0.3707116823515878 -0.14289626736130731 0 0.37215152511748101 -0.1677311303496711 0 0.3707116823515878 -0.14289626736130731 0 0.34857677406328968 -0.15725020741347839 0 0.36238967226335322 -0.1156552499940975 0 0.35078011111749519 -0.12472825114422589 0 0.3707116823515878 -0.14289626736130731 0 0.35220744312963292 -0.17660873535489291 0 0.34857677406328968 -0.15725020741347839 0 0.37215152511748101 -0.1677311303496711 0 0.37215152511748101 -0.1677311303496711 0 0.37102381412200119 -0.19174726390922461 0 0.35220744312963292 -0.17660873535489291 0 0.37215152511748101 -0.1677311303496711 0 0.37102381412200119 -0.19174726390922461 0 0.37102381412200119 -0.19174726390922461 0 0.36989610312652149 -0.21576339746877821 0 0.35320890063612798 -0.21060614535279201 0 0.37102381412200119 -0.19174726390922461 0 0.36989610312652149 -0.21576339746877821 0 0.36989610312652149 -0.21576339746877821 0 0.35320890063612798 -0.21060614535279201 0 0.35461779880444699 -0.22463241591911781 0 0.35220744312963292 -0.17660873535489291 0 0.37102381412200119 -0.19174726390922461 0 0.34284323657040072 -0.19471092763644099 0 0.37102381412200119 -0.19174726390922461 0 0.35320890063612798 -0.21060614535279201 0 0.34284323657040072 -0.19471092763644099 0 0.34284323657040072 -0.19471092763644099 0 0.33104329432490331 -0.20905741532997851 0 0.32239680542583188 -0.19105327512525591 0 0.35320890063612798 -0.21060614535279201 0 0.34284323657040072 -0.19471092763644099 0 0.33104329432490331 -0.20905741532997851 0 0.35320890063612798 -0.21060614535279201 0 0.33104329432490331 -0.20905741532997851 0 0.3411268864181336 -0.22247583567772899 0 0.30434160721018549 -0.20980183530015009 0 0.33104329432490331 -0.20905741532997851 0 0.32338677968541613 -0.22653923905061671 0 0.30434160721018549 -0.20980183530015009 0 0.33104329432490331 -0.20905741532997851 0 0.32239680542583188 -0.19105327512525591 0 0.30437625693366521 -0.23364558308247629 0 0.32333319116345138 -0.2450903738212255 0 0.32338677968541613 -0.22653923905061671 0 0.30437625693366521 -0.23364558308247629 0 0.32333319116345138 -0.2450903738212255 0 0.33104329432490331 -0.20905741532997851 0 0.32338677968541613 -0.22653923905061671 0 0.3411268864181336 -0.22247583567772899 0 0.32338677968541613 -0.22653923905061671 0 0.3411268864181336 -0.22247583567772899 0 0.34627451099055939 -0.23936006575483881 0 0.32333319116345138 -0.2450903738212255 0 0.34627451099055939 -0.23936006575483881 0 0.34229012539323828 -0.25653516455997338 0 0.32333319116345138 -0.2450903738212255 0 0.32338677968541613 -0.22653923905061671 0 0.34627451099055939 -0.23936006575483881 0 0.34627451099055939 -0.23936006575483881 0 0.36275287976571657 -0.24305711845347569 0 0.35314114394313489 -0.25173307601675232 0 0.34627451099055939 -0.23936006575483881 0 0.3604619369636573 -0.2325185057249084 0 0.36275287976571657 -0.24305711845347569 0 0.34627451099055939 -0.23936006575483881 0 0.34229012539323828 -0.25653516455997338 0 0.35314114394313489 -0.25173307601675232 0 0.3411268864181336 -0.22247583567772899 0 0.34627451099055939 -0.23936006575483881 0 0.35461779880444699 -0.22463241591911781 0 0.35320890063612798 -0.21060614535279201 0 0.3411268864181336 -0.22247583567772899 0 0.35461779880444699 -0.22463241591911781 0 0.34627451099055939 -0.23936006575483881 0 0.35461779880444699 -0.22463241591911781 0 0.3604619369636573 -0.2325185057249084 0 0.36989610312652149 -0.21576339746877821 0 0.3687683921310419 -0.23977953102833169 0 0.36989610312652149 -0.21576339746877821 0 0.35461779880444699 -0.22463241591911781 0 0.3604619369636573 -0.2325185057249084 0 0.36989610312652149 -0.21576339746877821 0 0.3604619369636573 -0.2325185057249084 0 0.3687683921310419 -0.23977953102833169 0 0.36989610312652149 -0.21576339746877821 0 0.3687683921310419 -0.23977953102833169 0 0.37768995904509312 -0.2281639122268215 0 0.36275287976571657 -0.24305711845347569 0 0.3687683921310419 -0.23977953102833169 0 0.36978294454555682 -0.25047377383907848 0 0.3604619369636573 -0.2325185057249084 0 0.36275287976571657 -0.24305711845347569 0 0.3687683921310419 -0.23977953102833169 0 0.3687683921310419 -0.23977953102833169 0 0.37954468013622522 -0.24444106434687859 0 0.36978294454555682 -0.25047377383907848 0 0.3687683921310419 -0.23977953102833169 0 0.37954468013622522 -0.24444106434687859 0 0.37768995904509312 -0.2281639122268215 0 0.37954468013622522 -0.24444106434687859 0 0.39117963333525518 -0.2338687911816483 0 0.39339804409914891 -0.25920237253050271 0 0.37954468013622522 -0.24444106434687859 0 0.39117963333525518 -0.2338687911816483 0 0.37768995904509312 -0.2281639122268215 0 0.39117963333525518 -0.2338687911816483 0 0.41592825071196099 -0.2444655260949439 0 0.39339804409914891 -0.25920237253050271 0 0.39117963333525518 -0.2338687911816483 0 0.39339804409914891 -0.25920237253050271 0 0.39117963333525518 -0.2338687911816483 0 0.41592825071196099 -0.2444655260949439 0 0.40747810420697628 -0.23000229897209101 0 0.39117963333525518 -0.2338687911816483 0 0.40782844706167409 -0.2132551447467578 0 0.40747810420697628 -0.23000229897209101 0 0.39117963333525518 -0.2338687911816483 0 0.37768995904509312 -0.2281639122268215 0 0.3889612225713614 -0.20853520983279369 0 0.39117963333525518 -0.2338687911816483 0 0.3889612225713614 -0.20853520983279369 0 0.36989610312652149 -0.21576339746877821 0 0.37768995904509312 -0.2281639122268215 0 0.3889612225713614 -0.20853520983279369 0 0.37102381412200119 -0.19174726390922461 0 0.36989610312652149 -0.21576339746877821 0 0.3889612225713614 -0.20853520983279369 0 0.37102381412200119 -0.19174726390922461 0 0.3889612225713614 -0.20853520983279369 0 0.38674281180746772 -0.1832016284839392 0 0.3889612225713614 -0.20853520983279369 0 0.38674281180746772 -0.1832016284839392 0 0.3889612225713614 -0.20853520983279369 0 0.39791502524097822 -0.19639130495126231 0 0.38674281180746772 -0.1832016284839392 0 0.39791502524097822 -0.19639130495126231 0 0.40782844706167409 -0.2132551447467578 0 0.40969855181012571 -0.19360761896434339 0 0.39791502524097822 -0.19639130495126231 0 0.38674281180746772 -0.1832016284839392 0 0.39995226445355569 -0.1833909433514285 0 0.39791502524097822 -0.19639130495126231 0 0.40969855181012571 -0.19360761896434339 0 0.39995226445355569 -0.1833909433514285 0 0.3889612225713614 -0.20853520983279369 0 0.39791502524097822 -0.19639130495126231 0 0.40782844706167409 -0.2132551447467578 0 0.39117963333525518 -0.2338687911816483 0 0.3889612225713614 -0.20853520983279369 0 0.40782844706167409 -0.2132551447467578 0 0.40782844706167409 -0.2132551447467578 0 0.42642808452947423 -0.19514783139063471 0 0.42713287490980911 -0.21646681357280589 0 0.40969855181012571 -0.19360761896434339 0 0.42642808452947423 -0.19514783139063471 0 0.41378151006909791 -0.1748979324055267 0 0.40782844706167409 -0.2132551447467578 0 0.40969855181012571 -0.19360761896434339 0 0.42642808452947423 -0.19514783139063471 0 0.42642808452947423 -0.19514783139063471 0 0.42713287490980911 -0.21646681357280589 0 0.44482520264816172 -0.20250936327320371 0 0.42713287490980911 -0.21646681357280589 0 0.42846872121551888 -0.2325768463871199 0 0.4484245898915491 -0.22525128795081251 0 0.42846872121551888 -0.2325768463871199 0 0.41592825071196099 -0.2444655260949439 0 0.44337978635729908 -0.24669830534494619 0 0.42846872121551888 -0.2325768463871199 0 0.41592825071196099 -0.2444655260949439 0 0.40747810420697628 -0.23000229897209101 0 0.40782844706167409 -0.2132551447467578 0 0.42713287490980911 -0.21646681357280589 0 0.40747810420697628 -0.23000229897209101 0 0.42713287490980911 -0.21646681357280589 0 0.42846872121551888 -0.2325768463871199 0 0.40747810420697628 -0.23000229897209101 0 0.39284659063988592 -0.1285423273091362 0 0.39290152949657398 -0.1448653215519991 0 0.40959864174007099 -0.1392593202041085 0 0.41498149892818409 -0.1141883872569651 0 0.39284659063988592 -0.1285423273091362 0 0.40959864174007099 -0.1392593202041085 0 0.37795152415556321 -0.1155602808667491 0 0.3707116823515878 -0.14289626736130731 0 0.39284659063988592 -0.1285423273091362 0 0.3732792361129606 -0.14371499679011771 0 0.3707116823515878 -0.14289626736130731 0 0.39284659063988592 -0.1285423273091362 0 0.3707116823515878 -0.14289626736130731 0 0.39284659063988592 -0.1285423273091362 0 0.3732792361129606 -0.14371499679011771 0 0.39284659063988592 -0.1285423273091362 0 0.39290152949657398 -0.1448653215519991 0 0.3732792361129606 -0.14371499679011771 0 0.37215152511748101 -0.1677311303496711 0 0.38502985268948392 -0.15593058178053601 0 0.3732792361129606 -0.14371499679011771 0 0.38502985268948392 -0.15593058178053601 0 0.39290152949657398 -0.1448653215519991 0 0.39290152949657398 -0.1448653215519991 0 0.40131373186927471 -0.15690785488245071 0 0.40959864174007099 -0.1392593202041085 0 0.38502985268948392 -0.15593058178053601 0 0.39290152949657398 -0.1448653215519991 0 0.40131373186927471 -0.15690785488245071 0 0.40131373186927471 -0.15690785488245071 0 0.39154677247011938 -0.1694502183933943 0 0.41378151006909791 -0.1748979324055267 0 0.38502985268948392 -0.15593058178053601 0 0.40131373186927471 -0.15690785488245071 0 0.39154677247011938 -0.1694502183933943 0 0.37215152511748101 -0.1677311303496711 0 0.38502985268948392 -0.15593058178053601 0 0.39154677247011938 -0.1694502183933943 0 0.37215152511748101 -0.1677311303496711 0 0.39154677247011938 -0.1694502183933943 0 0.38674281180746772 -0.1832016284839392 0 0.37215152511748101 -0.1677311303496711 0 0.37102381412200119 -0.19174726390922461 0 0.38674281180746772 -0.1832016284839392 0 0.39154677247011938 -0.1694502183933943 0 0.39995226445355569 -0.1833909433514285 0 0.41378151006909791 -0.1748979324055267 0 0.39154677247011938 -0.1694502183933943 0 0.38674281180746772 -0.1832016284839392 0 0.39995226445355569 -0.1833909433514285 0 0.40969855181012571 -0.19360761896434339 0 0.39995226445355569 -0.1833909433514285 0 0.41378151006909791 -0.1748979324055267 0 0.42642808452947423 -0.19514783139063471 0 0.43106293353742359 -0.17934447220804661 0 0.44297084566535638 -0.18567040622516429 0 0.41378151006909791 -0.1748979324055267 0 0.43106293353742359 -0.17934447220804661 0 0.42907646753804868 -0.16629877485642069 0 0.42642808452947423 -0.19514783139063471 0 0.41378151006909791 -0.1748979324055267 0 0.43106293353742359 -0.17934447220804661 0 0.43106293353742359 -0.17934447220804661 0 0.44188328103424368 -0.16823204228668831 0 0.42907646753804868 -0.16629877485642069 0 0.4365246534768753 -0.15206549641580169 0 0.44188328103424368 -0.16823204228668831 0 0.42907646753804868 -0.16629877485642069 0 0.42036785354763978 -0.15466362440211959 0 0.4365246534768753 -0.15206549641580169 0 0.43106293353742359 -0.17934447220804661 0 0.42907646753804868 -0.16629877485642069 0 0.44188328103424368 -0.16823204228668831 0 0.41378151006909791 -0.1748979324055267 0 0.42907646753804868 -0.16629877485642069 0 0.42036785354763978 -0.15466362440211959 0 0.40131373186927471 -0.15690785488245071 0 0.41378151006909791 -0.1748979324055267 0 0.42036785354763978 -0.15466362440211959 0 0.40131373186927471 -0.15690785488245071 0 0.42036785354763978 -0.15466362440211959 0 0.40959864174007099 -0.1392593202041085 0 0.42036785354763978 -0.15466362440211959 0 0.42643341488779229 -0.13736676301407361 0 0.40959864174007099 -0.1392593202041085 0 0.42036785354763978 -0.15466362440211959 0 0.4365246534768753 -0.15206549641580169 0 0.42643341488779229 -0.13736676301407361 0 0.41498149892818409 -0.1141883872569651 0 0.42643341488779229 -0.13736676301407361 0 0.44491001787377271 -0.12847702978506159 0 0.4365246534768753 -0.15206549641580169 0 0.42643341488779229 -0.13736676301407361 0 0.44491001787377271 -0.12847702978506159 0 0.41498149892818409 -0.1141883872569651 0 0.42643341488779229 -0.13736676301407361 0 0.40959864174007099 -0.1392593202041085 0 0.46719856684859901 -0.1239204112243712 0 0.44491001787377271 -0.12847702978506159 0 0.46846908568737577 -0.14092858542472739 0 0.44491001787377271 -0.12847702978506159 0 0.45270362853106411 -0.1571196123653302 0 0.4365246534768753 -0.15206549641580169 0 0.44491001787377271 -0.12847702978506159 0 0.45270362853106411 -0.1571196123653302 0 0.44491001787377271 -0.12847702978506159 0 0.46846908568737577 -0.14092858542472739 0 0.45270362853106411 -0.1571196123653302 0 0.46846908568737577 -0.14092858542472739 0 0.45270362853106411 -0.1571196123653302 0 0.47639355293292229 -0.16441581366607 0 0.46846908568737577 -0.14092858542472739 0 0.45270362853106411 -0.1571196123653302 0 0.45270362853106411 -0.1571196123653302 0 0.46035344897108532 -0.1852337462773869 0 0.45270362853106411 -0.1571196123653302 0 0.46035344897108532 -0.1852337462773869 0 0.47639355293292229 -0.16441581366607 0 0.4365246534768753 -0.15206549641580169 0 0.45270362853106411 -0.1571196123653302 0 0.44188328103424368 -0.16823204228668831 0 0.45270362853106411 -0.1571196123653302 0 0.44188328103424368 -0.16823204228668831 0 0.45270362853106411 -0.1571196123653302 0 0.44188328103424368 -0.16823204228668831 0 0.46035344897108532 -0.1852337462773869 0 0.43106293353742359 -0.17934447220804661 0 0.44188328103424368 -0.16823204228668831 0 0.44297084566535638 -0.18567040622516429 0 0.44188328103424368 -0.16823204228668831 0 0.44297084566535638 -0.18567040622516429 0 0.46035344897108532 -0.1852337462773869 0 0.46035344897108532 -0.1852337462773869 0 0.47639355293292229 -0.16441581366607 0 0.48144300400131229 -0.19356411188568709 0 0.5 -0.18100756536766829 0 0.47639355293292229 -0.16441581366607 0 0.48144300400131229 -0.19356411188568709 0 0.5 -0.18100756536766829 0 0.5 -0.15685388742628639 0 0.47639355293292229 -0.16441581366607 0 0.46846908568737577 -0.14092858542472739 0 0.47639355293292229 -0.16441581366607 0 0.48581943629279722 -0.1439272108972226 0 0.5 -0.15685388742628639 0 0.48581943629279722 -0.1439272108972226 0 0.5 -0.13270020948490449 0 0.5 -0.15685388742628639 0 0.47639355293292229 -0.16441581366607 0 0.48581943629279722 -0.1439272108972226 0 0.48423454284368772 -0.12473755848412491 0 0.48581943629279722 -0.1439272108972226 0 0.5 -0.13270020948490449 0 0.48423454284368772 -0.12473755848412491 0 0.46719856684859901 -0.1239204112243712 0 0.46846908568737577 -0.14092858542472739 0 0.48423454284368772 -0.12473755848412491 0 0.46846908568737577 -0.14092858542472739 0 0.48423454284368772 -0.12473755848412491 0 0.46846908568737577 -0.14092858542472739 0 0.48581943629279722 -0.1439272108972226 0 0.44337978635729908 -0.24669830534494619 0 0.4484245898915491 -0.22525128795081251 0 0.4756530898511272 -0.24146201410150039 0 0.4484245898915491 -0.22525128795081251 0 0.4680032694111062 -0.21334788018944359 0 0.4756530898511272 -0.24146201410150039 0 0.42846872121551888 -0.2325768463871199 0 0.44337978635729908 -0.24669830534494619 0 0.4484245898915491 -0.22525128795081251 0 0.42713287490980911 -0.21646681357280589 0 0.4484245898915491 -0.22525128795081251 0 0.44482520264816172 -0.20250936327320371 0 0.44297084566535638 -0.18567040622516429 0 0.46035344897108532 -0.1852337462773869 0 0.44482520264816172 -0.20250936327320371 0 0.42642808452947423 -0.19514783139063471 0 0.44297084566535638 -0.18567040622516429 0 0.44482520264816172 -0.20250936327320371 0 0.46035344897108532 -0.1852337462773869 0 0.4680032694111062 -0.21334788018944359 0 0.46035344897108532 -0.1852337462773869 0 0.44482520264816172 -0.20250936327320371 0 0.4680032694111062 -0.21334788018944359 0 0.4484245898915491 -0.22525128795081251 0 0.44482520264816172 -0.20250936327320371 0 0.4680032694111062 -0.21334788018944359 0 0.4680032694111062 -0.21334788018944359 0 0.48144300400131229 -0.19356411188568709 0 0.4860442866392794 -0.21723808227974131 0 0.46035344897108532 -0.1852337462773869 0 0.4680032694111062 -0.21334788018944359 0 0.48144300400131229 -0.19356411188568709 0 0.5 -0.18100756536766829 0 0.48144300400131229 -0.19356411188568709 0 0.5 -0.20516124330905031 0 0.4860442866392794 -0.21723808227974131 0 0.5 -0.20516124330905031 0 0.50000000000000011 -0.22931492125043221 0 0.48144300400131229 -0.19356411188568709 0 0.4860442866392794 -0.21723808227974131 0 0.5 -0.20516124330905031 0 0.4860442866392794 -0.21723808227974131 0 0.50000000000000011 -0.22931492125043221 0 0.4756530898511272 -0.24146201410150039 0 0.4680032694111062 -0.21334788018944359 0 0.4756530898511272 -0.24146201410150039 0 0.4680032694111062 -0.21334788018944359 0 0.4860442866392794 -0.21723808227974131 0 0.4756530898511272 -0.24146201410150039 0 0.50000000000000011 -0.22931492125043221 0 0.49873206382834928 -0.25260762823528438 0 0.4865027226765582 -0.253278571836561 0 0.50000000000000011 -0.22931492125043221 0 0.4756530898511272 -0.24146201410150039 0 0.4865027226765582 -0.253278571836561 0 0.49873206382834928 -0.25260762823528438 0 0.49208129619971652 -0.26376493466125978 0 0.49746412765669851 -0.27590033522013663 0 0.49873206382834928 -0.25260762823528438 0 0.49208129619971652 -0.26376493466125978 0 0.4865027226765582 -0.253278571836561 0 0.49873206382834928 -0.25260762823528438 0 0.49746412765669851 -0.27590033522013663 0 0.49208129619971652 -0.26376493466125978 0 0.4865027226765582 -0.253278571836561 0 0.47989806293286302 -0.26310917367167019 0 0.49873206382834928 -0.25260762823528438 0 0.5 -0.27814166428364262 0 0.49746412765669851 -0.27590033522013663 0 0.49746412765669851 -0.27590033522013663 0 0.49051084591383809 -0.27633341969949898 0 0.48987676080408121 -0.28183061829206518 0 0.49746412765669851 -0.27590033522013663 0 0.49038954326570489 -0.27124032685263411 0 0.49051084591383809 -0.27633341969949898 0 0.49208129619971652 -0.26376493466125978 0 0.49746412765669851 -0.27590033522013663 0 0.49038954326570489 -0.27124032685263411 0 0.49038954326570489 -0.27124032685263411 0 0.48431295192886809 -0.27636239843316018 0 0.47989806293286302 -0.26310917367167019 0 0.49208129619971652 -0.26376493466125978 0 0.49038954326570489 -0.27124032685263411 0 0.47989806293286302 -0.26310917367167019 0 0.49038954326570489 -0.27124032685263411 0 0.49051084591383809 -0.27633341969949898 0 0.48431295192886809 -0.27636239843316018 0 0.49051084591383809 -0.27633341969949898 0 0.48431295192886809 -0.27636239843316018 0 0.48987676080408121 -0.28183061829206518 0 0.47095408934656408 -0.27710459569993129 0 0.47989806293286302 -0.26310917367167019 0 0.46038372042838432 -0.26319282868067623 0 0.48431295192886809 -0.27636239843316018 0 0.47095408934656408 -0.27710459569993129 0 0.48004098846200732 -0.28684026864598872 0 0.48431295192886809 -0.27636239843316018 0 0.47095408934656408 -0.27710459569993129 0 0.47989806293286302 -0.26310917367167019 0 0.4756530898511272 -0.24146201410150039 0 0.4865027226765582 -0.253278571836561 0 0.47989806293286302 -0.26310917367167019 0 0.4756530898511272 -0.24146201410150039 0 0.47989806293286302 -0.26310917367167019 0 0.46038372042838432 -0.26319282868067623 0 0.44337978635729908 -0.24669830534494619 0 0.4756530898511272 -0.24146201410150039 0 0.46038372042838432 -0.26319282868067623 0 0.47095408934656408 -0.27710459569993129 0 0.46038372042838432 -0.26319282868067623 0 0.45430614050181478 -0.28178785800765832 0 0.43808409445867641 -0.26731154885069619 0 0.43869476580391142 -0.28976462708003548 0 0.45430614050181478 -0.28178785800765832 0 0.46038372042838432 -0.26319282868067623 0 0.43808409445867641 -0.26731154885069619 0 0.45430614050181478 -0.28178785800765832 0 0.44337978635729908 -0.24669830534494619 0 0.46038372042838432 -0.26319282868067623 0 0.43808409445867641 -0.26731154885069619 0 0.45185377006230398 -0.30577004229090288 0 0.42778065509345459 -0.30737754553623031 0 0.45185377006230398 -0.30577004229090288 0 0.43869476580391142 -0.28976462708003548 0 0.42778065509345459 -0.30737754553623031 0 0.45185377006230398 -0.30577004229090288 0 0.43869476580391142 -0.28976462708003548 0 0.45430614050181478 -0.28178785800765832 0 0.45185377006230398 -0.30577004229090288 0 0.45430614050181478 -0.28178785800765832 0 0.46678267182544703 -0.29133504676043431 0 0.47095408934656408 -0.27710459569993129 0 0.45430614050181478 -0.28178785800765832 0 0.46678267182544703 -0.29133504676043431 0 0.45185377006230398 -0.30577004229090288 0 0.47592688503115338 -0.30416253904557539 0 0.45185377006230398 -0.30577004229090288 0 0.46678267182544703 -0.29133504676043431 0 0.47592688503115338 -0.30416253904557539 0 0.45185377006230398 -0.30577004229090288 0 0.47592688503115338 -0.30416253904557539 0 0.46328408336179228 -0.3201341312816427 0 0.46678267182544703 -0.29133504676043431 0 0.47592688503115338 -0.30416253904557539 0 0.48004098846200732 -0.28684026864598872 0 0.47592688503115338 -0.30416253904557539 0 0.48004098846200732 -0.28684026864598872 0 0.48962574207244391 -0.29081434574296261 0 0.47095408934656408 -0.27710459569993129 0 0.46678267182544703 -0.29133504676043431 0 0.48004098846200732 -0.28684026864598872 0 0.5 -0.27814166428364262 0 0.49746412765669851 -0.27590033522013663 0 0.49619619148504768 -0.29919304220498882 0 0.49746412765669851 -0.27590033522013663 0 0.48962574207244391 -0.29081434574296261 0 0.49619619148504768 -0.29919304220498882 0 0.49746412765669851 -0.27590033522013663 0 0.49619619148504768 -0.29919304220498882 0 0.5 -0.27814166428364262 0 0.49619619148504768 -0.29919304220498882 0 0.50000000000000266 -0.30255503580024778 0 0.48004098846200732 -0.28684026864598872 0 0.48987676080408121 -0.28183061829206518 0 0.48962574207244391 -0.29081434574296261 0 0.48431295192886809 -0.27636239843316018 0 0.48004098846200732 -0.28684026864598872 0 0.48987676080408121 -0.28183061829206518 0 0.49746412765669851 -0.27590033522013663 0 0.48987676080408121 -0.28183061829206518 0 0.48962574207244391 -0.29081434574296261 0 0.47592688503115338 -0.30416253904557539 0 0.50000000000000266 -0.30255503580024778 0 0.48902018387753637 -0.31303866188320462 0 0.47592688503115338 -0.30416253904557539 0 0.50000000000000266 -0.30255503580024778 0 0.47592688503115338 -0.30416253904557539 0 0.48962574207244391 -0.29081434574296261 0 0.49619619148504768 -0.29919304220498882 0 0.47592688503115338 -0.30416253904557539 0 0.49619619148504768 -0.29919304220498882 0 0.50000000000000266 -0.30255503580024778 0 0.5 -0.32247462518587278 0 0.48455436108434319 -0.33830496053639247 0 0.48015385047899217 -0.32296244750112252 0 0.5 -0.32247462518587278 0 0.48902018387753637 -0.31303866188320462 0 0.48015385047899217 -0.32296244750112252 0 0.50000000000000266 -0.30255503580024778 0 0.5 -0.32247462518587278 0 0.48902018387753637 -0.31303866188320462 0 0.5 -0.32247462518587278 0 0.48455436108434319 -0.33830496053639247 0 0.49999999999999978 -0.34239421457149771 0 0.48455436108434319 -0.33830496053639247 0 0.48064814925276039 -0.35490042764135871 0 0.46750852173946289 -0.33726739679679452 0 0.48455436108434319 -0.33830496053639247 0 0.48015385047899217 -0.32296244750112252 0 0.46750852173946289 -0.33726739679679452 0 0.47592688503115338 -0.30416253904557539 0 0.48902018387753637 -0.31303866188320462 0 0.48015385047899217 -0.32296244750112252 0 0.48015385047899217 -0.32296244750112252 0 0.46328408336179228 -0.3201341312816427 0 0.46750852173946289 -0.33726739679679452 0 0.47592688503115338 -0.30416253904557539 0 0.48015385047899217 -0.32296244750112252 0 0.46328408336179228 -0.3201341312816427 0 0.49964655217775322 -0.36793730529637292 0 0.48064814925276039 -0.35490042764135871 0 0.47880612964637442 -0.37514045163246518 0 0.49999999999999978 -0.34239421457149771 0 0.49964655217775322 -0.36793730529637292 0 0.48064814925276039 -0.35490042764135871 0 0.48455436108434319 -0.33830496053639247 0 0.49999999999999978 -0.34239421457149771 0 0.48064814925276039 -0.35490042764135871 0 0.48064814925276039 -0.35490042764135871 0 0.45920131732405511 -0.35759221288824239 0 0.46750852173946289 -0.33726739679679452 0 0.48064814925276039 -0.35490042764135871 0 0.45920131732405511 -0.35759221288824239 0 0.47880612964637442 -0.37514045163246518 0 0.45920131732405511 -0.35759221288824239 0 0.47880612964637442 -0.37514045163246518 0 0.45584469538840489 -0.37894509083887501 0 0.45920131732405511 -0.35759221288824239 0 0.44164337218056843 -0.33154942153114741 0 0.43348643139704363 -0.3599029045690556 0 0.43348643139704363 -0.3599029045690556 0 0.45584469538840489 -0.37894509083887501 0 0.4314177071172231 -0.38170991364730728 0 0.45920131732405511 -0.35759221288824239 0 0.43348643139704363 -0.3599029045690556 0 0.45584469538840489 -0.37894509083887501 0 0.43348643139704363 -0.3599029045690556 0 0.45584469538840489 -0.37894509083887501 0 0.46328408336179228 -0.3201341312816427 0 0.46750852173946289 -0.33726739679679452 0 0.44164337218056843 -0.33154942153114741 0 0.45920131732405511 -0.35759221288824239 0 0.46750852173946289 -0.33726739679679452 0 0.44164337218056843 -0.33154942153114741 0 0.45185377006230398 -0.30577004229090288 0 0.44164337218056843 -0.33154942153114741 0 0.42778065509345459 -0.30737754553623031 0 0.45185377006230398 -0.30577004229090288 0 0.46328408336179228 -0.3201341312816427 0 0.44164337218056843 -0.33154942153114741 0 0.44164337218056843 -0.33154942153114741 0 0.4178866049019026 -0.323309081082298 0 0.42778065509345459 -0.30737754553623031 0 0.44164337218056843 -0.33154942153114741 0 0.41112816740568209 -0.34086071829923609 0 0.4178866049019026 -0.323309081082298 0 0.4178866049019026 -0.323309081082298 0 0.42778065509345459 -0.30737754553623031 0 0.40833528581016892 -0.30881831583185171 0 0.43348643139704363 -0.3599029045690556 0 0.40894332303514352 -0.36761979740890183 0 0.4314177071172231 -0.38170991364730728 0 0.41112816740568209 -0.34086071829923609 0 0.43348643139704363 -0.3599029045690556 0 0.44164337218056843 -0.33154942153114741 0 0.41112816740568209 -0.34086071829923609 0 0.43348643139704363 -0.3599029045690556 0 0.41112816740568209 -0.34086071829923609 0 0.43348643139704363 -0.3599029045690556 0 0.40894332303514352 -0.36761979740890183 0 0.40894332303514352 -0.36761979740890183 0 0.3857641824416318 -0.36248530209617369 0 0.38977236058376519 -0.38341880218548768 0 0.40894332303514352 -0.36761979740890183 0 0.39425910862727931 -0.34772352511327392 0 0.3857641824416318 -0.36248530209617369 0 0.41112816740568209 -0.34086071829923609 0 0.40894332303514352 -0.36761979740890183 0 0.39425910862727931 -0.34772352511327392 0 0.37668996683961797 -0.34583327573264139 0 0.3857641824416318 -0.36248530209617369 0 0.37051370375167852 -0.36064475857200029 0 0.39425910862727931 -0.34772352511327392 0 0.37668996683961797 -0.34583327573264139 0 0.3857641824416318 -0.36248530209617369 0 0.3857641824416318 -0.36248530209617369 0 0.38977236058376519 -0.38341880218548768 0 0.36743921370958299 -0.37632943925564599 0 0.4178866049019026 -0.323309081082298 0 0.38876990341432061 -0.32181853202941663 0 0.40833528581016892 -0.30881831583185171 0 0.41112816740568209 -0.34086071829923609 0 0.38876990341432061 -0.32181853202941663 0 0.41112816740568209 -0.34086071829923609 0 0.4178866049019026 -0.323309081082298 0 0.38876990341432061 -0.32181853202941663 0 0.41112816740568209 -0.34086071829923609 0 0.39425910862727931 -0.34772352511327392 0 0.38876990341432061 -0.32181853202941663 0 0.39425910862727931 -0.34772352511327392 0 0.37668996683961797 -0.34583327573264139 0 0.38876990341432061 -0.32181853202941663 0 0.38876990341432061 -0.32181853202941663 0 0.38737346261656441 -0.30579733079572358 0 0.36641163942295968 -0.30277634575959628 0 0.38737346261656441 -0.30579733079572358 0 0.36641163942295968 -0.30277634575959628 0 0.38876990341432061 -0.32181853202941663 0 0.36641163942295968 -0.30277634575959628 0 0.38737346261656441 -0.30579733079572358 0 0.39037431828910829 -0.28810977291721201 0 0.36641163942295968 -0.30277634575959628 0 0.38737346261656441 -0.30579733079572358 0 0.40833528581016892 -0.30881831583185171 0 0.38737346261656441 -0.30579733079572358 0 0.39839259934760463 -0.29888951882807951 0 0.39037431828910829 -0.28810977291721201 0 0.39839259934760463 -0.29888951882807951 0 0.40833528581016892 -0.30881831583185171 0 0.40748733067457721 -0.29283265576753059 0 0.38876990341432061 -0.32181853202941663 0 0.38737346261656441 -0.30579733079572358 0 0.40833528581016892 -0.30881831583185171 0 0.38737346261656441 -0.30579733079572358 0 0.39839259934760463 -0.29888951882807951 0 0.40833528581016892 -0.30881831583185171 0 0.39037431828910829 -0.28810977291721201 0 0.4177425267921191 -0.27634363678662238 0 0.39037431828910829 -0.28810977291721201 0 0.4177425267921191 -0.27634363678662238 0 0.40748733067457721 -0.29283265576753059 0 0.39839259934760463 -0.29888951882807951 0 0.39037431828910829 -0.28810977291721201 0 0.40748733067457721 -0.29283265576753059 0 0.39037431828910829 -0.28810977291721201 0 0.3630061097860976 -0.29987590904780231 0 0.39037431828910829 -0.28810977291721201 0 0.38196224761379061 -0.2804862492381498 0 0.37016757236030218 -0.28791626843985751 0 0.38196224761379061 -0.2804862492381498 0 0.38204401774026092 -0.26722108709306119 0 0.36124705962302472 -0.26797995529872221 0 0.38204401774026092 -0.26722108709306119 0 0.39339804409914891 -0.25920237253050271 0 0.39547266527899477 -0.27403122041440142 0 0.38196224761379061 -0.2804862492381498 0 0.38204401774026092 -0.26722108709306119 0 0.39547266527899477 -0.27403122041440142 0 0.39037431828910829 -0.28810977291721201 0 0.38196224761379061 -0.2804862492381498 0 0.39547266527899477 -0.27403122041440142 0 0.37954468013622522 -0.24444106434687859 0 0.37660171107177498 -0.25711120006798488 0 0.39339804409914891 -0.25920237253050271 0 0.38204401774026092 -0.26722108709306119 0 0.37660171107177498 -0.25711120006798488 0 0.39339804409914891 -0.25920237253050271 0 0.37954468013622522 -0.24444106434687859 0 0.37660171107177498 -0.25711120006798488 0 0.36978294454555682 -0.25047377383907848 0 0.39339804409914891 -0.25920237253050271 0 0.39547266527899477 -0.27403122041440142 0 0.4177425267921191 -0.27634363678662238 0 0.39037431828910829 -0.28810977291721201 0 0.39547266527899477 -0.27403122041440142 0 0.4177425267921191 -0.27634363678662238 0 0.41592825071196099 -0.2444655260949439 0 0.43808409445867641 -0.26731154885069619 0 0.4177425267921191 -0.27634363678662238 0 0.41592825071196099 -0.2444655260949439 0 0.39339804409914891 -0.25920237253050271 0 0.4177425267921191 -0.27634363678662238 0 0.41592825071196099 -0.2444655260949439 0 0.44337978635729908 -0.24669830534494619 0 0.43808409445867641 -0.26731154885069619 0 0.43808409445867641 -0.26731154885069619 0 0.43869476580391142 -0.28976462708003548 0 0.4177425267921191 -0.27634363678662238 0 0.43869476580391142 -0.28976462708003548 0 0.4177425267921191 -0.27634363678662238 0 0.42165329601541301 -0.29376721566865638 0 0.43869476580391142 -0.28976462708003548 0 0.42778065509345459 -0.30737754553623031 0 0.42165329601541301 -0.29376721566865638 0 0.42778065509345459 -0.30737754553623031 0 0.40833528581016892 -0.30881831583185171 0 0.42165329601541301 -0.29376721566865638 0 0.40833528581016892 -0.30881831583185171 0 0.42165329601541301 -0.29376721566865638 0 0.40748733067457721 -0.29283265576753059 0 0.4177425267921191 -0.27634363678662238 0 0.42165329601541301 -0.29376721566865638 0 0.40748733067457721 -0.29283265576753059 0 0.44100736008613922 -0.5 0 0.43841491043126862 -0.47704143077814221 0 0.46106144171684388 -0.47887045115275878 0 0.43841491043126862 -0.47704143077814221 0 0.46106144171684388 -0.47887045115275878 0 0.45828806641813219 -0.456320083433987 0 0.44100736008613922 -0.5 0 0.46106144171684388 -0.47887045115275878 0 0.46941325950169599 -0.5 0 0.5 -0.5 0 0.49820804417792791 -0.47189590409170201 0 0.5 -0.45137230651895849 0 0.46106144171684388 -0.47887045115275878 0 0.46941325950169599 -0.5 0 0.48109616679622169 -0.48316675557569683 0 0.46941325950169599 -0.5 0 0.49781915891725281 -0.49999999999999678 0 0.48109616679622169 -0.48316675557569683 0 0.49781915891725281 -0.49999999999999678 0 0.49820804417792791 -0.47189590409170201 0 0.48109616679622169 -0.48316675557569683 0 0.49781915891725281 -0.49999999999999678 0 0.49820804417792791 -0.47189590409170201 0 0.5 -0.5 0 0.49781915891725281 -0.49999999999999678 0 0.49820804417792791 -0.47189590409170201 0 0.49820804417792791 -0.47189590409170201 0 0.48109616679622169 -0.48316675557569683 0 0.47979619363080878 -0.46046400631707213 0 0.46106144171684388 -0.47887045115275878 0 0.48109616679622169 -0.48316675557569683 0 0.47979619363080878 -0.46046400631707213 0 0.49820804417792791 -0.47189590409170201 0 0.49859692943860301 -0.44379180818340708 0 0.49820804417792791 -0.47189590409170201 0 0.47979619363080878 -0.46046400631707213 0 0.49859692943860301 -0.44379180818340708 0 0.49820804417792791 -0.47189590409170201 0 0.49859692943860301 -0.44379180818340708 0 0.5 -0.45137230651895849 0 0.47979619363080878 -0.46046400631707213 0 0.49859692943860301 -0.44379180818340708 0 0.47816122240499581 -0.43559873608983191 0 0.47979619363080878 -0.46046400631707213 0 0.45828806641813219 -0.456320083433987 0 0.47816122240499581 -0.43559873608983191 0 0.45674551117291629 -0.43859393072320818 0 0.45828806641813219 -0.456320083433987 0 0.47816122240499581 -0.43559873608983191 0 0.45828806641813219 -0.456320083433987 0 0.47816122240499581 -0.43559873608983191 0 0.46106144171684388 -0.47887045115275878 0 0.47979619363080878 -0.46046400631707213 0 0.45828806641813219 -0.456320083433987 0 0.43841491043126862 -0.47704143077814221 0 0.45828806641813219 -0.456320083433987 0 0.44299586171578531 -0.44993991306588421 0 0.43841491043126862 -0.47704143077814221 0 0.45828806641813219 -0.456320083433987 0 0.45674551117291629 -0.43859393072320818 0 0.45828806641813219 -0.456320083433987 0 0.44299586171578531 -0.44993991306588421 0 0.45674551117291629 -0.43859393072320818 0 0.44299586171578531 -0.44993991306588421 0 0.43795070069201908 -0.43434155046051171 0 0.45674551117291629 -0.43859393072320818 0 0.44994782942842287 -0.42703304153195493 0 0.43795070069201908 -0.43434155046051171 0 0.44994782942842287 -0.42703304153195493 0 0.43795070069201908 -0.43434155046051171 0 0.43792737634946471 -0.4208309407526416 0 0.43792737634946471 -0.4208309407526416 0 0.44149909349566208 -0.41253200091218961 0 0.45063601176181561 -0.41699186690006512 0 0.44149909349566208 -0.41253200091218961 0 0.44892617490404702 -0.41073625630756933 0 0.44544300526885178 -0.40498795054067521 0 0.44149909349566208 -0.41253200091218961 0 0.44892617490404702 -0.41073625630756933 0 0.45063601176181561 -0.41699186690006512 0 0.44892617490404702 -0.41073625630756933 0 0.45063601176181561 -0.41699186690006512 0 0.45812658908985848 -0.40843320687734719 0 0.44892617490404702 -0.41073625630756933 0 0.45812658908985848 -0.40843320687734719 0 0.44544300526885178 -0.40498795054067521 0 0.44994782942842287 -0.42703304153195493 0 0.43792737634946471 -0.4208309407526416 0 0.45063601176181561 -0.41699186690006512 0 0.45063601176181561 -0.41699186690006512 0 0.45812658908985848 -0.40843320687734719 0 0.46288799681289028 -0.42196309888505318 0 0.45812658908985848 -0.40843320687734719 0 0.46836978723288852 -0.40890066808789521 0 0.46288799681289028 -0.42196309888505318 0 0.45674551117291629 -0.43859393072320818 0 0.44994782942842287 -0.42703304153195493 0 0.46288799681289028 -0.42196309888505318 0 0.45674551117291629 -0.43859393072320818 0 0.46288799681289028 -0.42196309888505318 0 0.47816122240499581 -0.43559873608983191 0 0.44994782942842287 -0.42703304153195493 0 0.45063601176181561 -0.41699186690006512 0 0.46288799681289028 -0.42196309888505318 0 0.49859692943860301 -0.44379180818340708 0 0.5 -0.45137230651895849 0 0.50000000000000377 -0.41655147814781912 0 0.46288799681289028 -0.42196309888505318 0 0.47816122240499581 -0.43559873608983191 0 0.47663419307701149 -0.41757326860516208 0 0.47816122240499581 -0.43559873608983191 0 0.49803437839185938 -0.41487738874567648 0 0.47663419307701149 -0.41757326860516208 0 0.47816122240499581 -0.43559873608983191 0 0.49803437839185938 -0.41487738874567648 0 0.49859692943860301 -0.44379180818340708 0 0.50000000000000377 -0.41655147814781912 0 0.49803437839185938 -0.41487738874567648 0 0.49859692943860301 -0.44379180818340708 0 0.49803437839185938 -0.41487738874567648 0 0.49859692943860301 -0.44379180818340708 0 0.47816122240499581 -0.43559873608983191 0 0.49803437839185938 -0.41487738874567648 0 0.49999999999999778 -0.41282787390685138 0 0.49803437839185938 -0.41487738874567648 0 0.49929310435550672 -0.39348039602124818 0 0.49803437839185938 -0.41487738874567648 0 0.47820295937976459 -0.39798727710869641 0 0.49803437839185938 -0.41487738874567648 0 0.47807959065541938 -0.40788451710511592 0 0.47820295937976459 -0.39798727710869641 0 0.49999999999999778 -0.41282787390685138 0 0.49803437839185938 -0.41487738874567648 0 0.49999999999999778 -0.41282787390685138 0 0.50000000000000377 -0.41655147814781912 0 0.49803437839185938 -0.41487738874567648 0 0.50000000000000377 -0.41655147814781912 0 0.49803437839185938 -0.41487738874567648 0 0.49803437839185938 -0.41487738874567648 0 0.47807959065541938 -0.40788451710511592 0 0.47663419307701149 -0.41757326860516208 0 0.46836978723288852 -0.40890066808789521 0 0.46288799681289028 -0.42196309888505318 0 0.47663419307701149 -0.41757326860516208 0 0.46836978723288852 -0.40890066808789521 0 0.47807959065541938 -0.40788451710511592 0 0.47663419307701149 -0.41757326860516208 0 0.47820295937976459 -0.39798727710869641 0 0.46829417565679832 -0.40010474524426781 0 0.46836978723288852 -0.40890066808789521 0 0.47807959065541938 -0.40788451710511592 0 0.46829417565679832 -0.40010474524426781 0 0.47807959065541938 -0.40788451710511592 0 0.47820295937976459 -0.39798727710869641 0 0.46829417565679832 -0.40010474524426781 0 0.49803437839185938 -0.41487738874567648 0 0.49929310435550672 -0.39348039602124818 0 0.49803437839185938 -0.41487738874567648 0 0.47820295937976459 -0.39798727710869641 0 0.49929310435550672 -0.39348039602124818 0 0.47820295937976459 -0.39798727710869641 0 0.49929310435550672 -0.39348039602124818 0 0.49964655217775322 -0.36793730529637292 0 0.49929310435550672 -0.39348039602124818 0 0.47880612964637442 -0.37514045163246518 0 0.47820295937976459 -0.39798727710869641 0 0.49929310435550672 -0.39348039602124818 0 0.47880612964637442 -0.37514045163246518 0 0.47820295937976459 -0.39798727710869641 0 0.47880612964637442 -0.37514045163246518 0 0.45584469538840489 -0.37894509083887501 0 0.47820295937976459 -0.39798727710869641 0 0.45584469538840489 -0.37894509083887501 0 0.46829417565679832 -0.40010474524426781 0 0.44544300526885178 -0.40498795054067521 0 0.45812658908985848 -0.40843320687734719 0 0.46829417565679832 -0.40010474524426781 0 0.44544300526885178 -0.40498795054067521 0 0.47820295937976459 -0.39798727710869641 0 0.45584469538840489 -0.37894509083887501 0 0.46829417565679832 -0.40010474524426781 0 0.46829417565679832 -0.40010474524426781 0 0.44236942047410732 -0.4007288402213241 0 0.45584469538840489 -0.37894509083887501 0 0.46829417565679832 -0.40010474524426781 0 0.44236942047410732 -0.4007288402213241 0 0.45812658908985848 -0.40843320687734719 0 0.46836978723288852 -0.40890066808789521 0 0.46829417565679832 -0.40010474524426781 0 0.46829417565679832 -0.40010474524426781 0 0.44236942047410732 -0.4007288402213241 0 0.44544300526885178 -0.40498795054067521 0 0.45584469538840489 -0.37894509083887501 0 0.44236942047410732 -0.4007288402213241 0 0.4314177071172231 -0.38170991364730728 0 0.40894332303514352 -0.36761979740890183 0 0.4314177071172231 -0.38170991364730728 0 0.41644466529141633 -0.40135293519838028 0 0.44236942047410732 -0.4007288402213241 0 0.44544300526885178 -0.40498795054067521 0 0.42259183488090518 -0.40987115583708272 0 0.44236942047410732 -0.4007288402213241 0 0.4314177071172231 -0.38170991364730728 0 0.41644466529141633 -0.40135293519838028 0 0.44236942047410732 -0.4007288402213241 0 0.41644466529141633 -0.40135293519838028 0 0.42259183488090518 -0.40987115583708272 0 0.44236942047410732 -0.4007288402213241 0 0.41644466529141633 -0.40135293519838028 0 0.40894332303514352 -0.36761979740890183 0 0.41644466529141633 -0.40135293519838028 0 0.38977236058376519 -0.38341880218548768 0 0.39051991010872511 -0.4019770301754364 0 0.36459515492603378 -0.40260112515249258 0 0.38977236058376519 -0.38341880218548768 0 0.39051991010872511 -0.4019770301754364 0 0.36459515492603378 -0.40260112515249258 0 0.41644466529141633 -0.40135293519838028 0 0.39051991010872511 -0.4019770301754364 0 0.39974066449295859 -0.4147543611334904 0 0.41644466529141633 -0.40135293519838028 0 0.39051991010872511 -0.4019770301754364 0 0.41644466529141633 -0.40135293519838028 0 0.38977236058376519 -0.38341880218548768 0 0.39051991010872511 -0.4019770301754364 0 0.39974066449295859 -0.4147543611334904 0 0.37688949410501188 -0.41963756642989802 0 0.39051991010872511 -0.4019770301754364 0 0.39974066449295859 -0.4147543611334904 0 0.37688949410501188 -0.41963756642989802 0 0.39051991010872511 -0.4019770301754364 0 0.37688949410501188 -0.41963756642989802 0 0.36459515492603378 -0.40260112515249258 0 0.37688949410501188 -0.41963756642989802 0 0.39624111379360638 -0.43515133842574177 0 0.36740143416442789 -0.44025638426288871 0 0.39974066449295859 -0.4147543611334904 0 0.39624111379360638 -0.43515133842574177 0 0.41166662769568763 -0.42256963621710292 0 0.39974066449295859 -0.4147543611334904 0 0.37688949410501188 -0.41963756642989802 0 0.39624111379360638 -0.43515133842574177 0 0.39624111379360638 -0.43515133842574177 0 0.41639486592363562 -0.43400581821253759 0 0.41166662769568763 -0.42256963621710292 0 0.41639486592363562 -0.43400581821253759 0 0.41166662769568763 -0.42256963621710292 0 0.42408544983866808 -0.42291491309638701 0 0.41644466529141633 -0.40135293519838028 0 0.39974066449295859 -0.4147543611334904 0 0.42259183488090518 -0.40987115583708272 0 0.39974066449295859 -0.4147543611334904 0 0.42259183488090518 -0.40987115583708272 0 0.39974066449295859 -0.4147543611334904 0 0.41166662769568763 -0.42256963621710292 0 0.42259183488090518 -0.40987115583708272 0 0.41166662769568763 -0.42256963621710292 0 0.42259183488090518 -0.40987115583708272 0 0.42408544983866808 -0.42291491309638701 0 0.44544300526885178 -0.40498795054067521 0 0.42259183488090518 -0.40987115583708272 0 0.43792737634946471 -0.4208309407526416 0 0.44149909349566208 -0.41253200091218961 0 0.42259183488090518 -0.40987115583708272 0 0.44149909349566208 -0.41253200091218961 0 0.44544300526885178 -0.40498795054067521 0 0.42259183488090518 -0.40987115583708272 0 0.43792737634946471 -0.4208309407526416 0 0.42259183488090518 -0.40987115583708272 0 0.42408544983866808 -0.42291491309638701 0 0.43795070069201908 -0.43434155046051171 0 0.43792737634946471 -0.4208309407526416 0 0.42408544983866808 -0.42291491309638701 0 0.43795070069201908 -0.43434155046051171 0 0.41639486592363562 -0.43400581821253759 0 0.42408544983866808 -0.42291491309638701 0 0.43795070069201908 -0.43434155046051171 0 0.41639486592363562 -0.43400581821253759 0 0.4269077209217822 -0.45390599732833092 0 0.44299586171578531 -0.44993991306588421 0 0.43795070069201908 -0.43434155046051171 0 0.4269077209217822 -0.45390599732833092 0 0.43841491043126862 -0.47704143077814221 0 0.4269077209217822 -0.45390599732833092 0 0.41529389070680373 -0.47475734430172278 0 0.43841491043126862 -0.47704143077814221 0 0.44299586171578531 -0.44993991306588421 0 0.4269077209217822 -0.45390599732833092 0 0.4269077209217822 -0.45390599732833092 0 0.41291013770309432 -0.44790230860487812 0 0.41529389070680373 -0.47475734430172278 0 0.41291013770309432 -0.44790230860487812 0 0.40048590829545422 -0.45671225400076709 0 0.41529389070680373 -0.47475734430172278 0 0.41639486592363562 -0.43400581821253759 0 0.4269077209217822 -0.45390599732833092 0 0.41291013770309432 -0.44790230860487812 0 0.39624111379360638 -0.43515133842574177 0 0.41639486592363562 -0.43400581821253759 0 0.41291013770309432 -0.44790230860487812 0 0.39624111379360638 -0.43515133842574177 0 0.41291013770309432 -0.44790230860487812 0 0.40048590829545422 -0.45671225400076709 0 0.39624111379360638 -0.43515133842574177 0 0.3839769036338252 -0.4505854034580794 0 0.40048590829545422 -0.45671225400076709 0 0.39624111379360638 -0.43515133842574177 0 0.3839769036338252 -0.4505854034580794 0 0.36740143416442789 -0.44025638426288871 0 0.3839769036338252 -0.4505854034580794 0 0.38225168507661073 -0.46521627827829581 0 0.40048590829545422 -0.45671225400076709 0 0.3839769036338252 -0.4505854034580794 0 0.38225168507661073 -0.46521627827829581 0 0.36995226593306918 -0.45761865334849172 0 0.40048590829545422 -0.45671225400076709 0 0.39234073477523979 -0.47835612700038282 0 0.38225168507661073 -0.46521627827829581 0 0.40048590829545422 -0.45671225400076709 0 0.39234073477523979 -0.47835612700038282 0 0.39234073477523979 -0.47835612700038282 0 0.40779375924478561 -0.48865809288381001 0 0.41529389070680373 -0.47475734430172278 0 0.40048590829545422 -0.45671225400076709 0 0.39234073477523979 -0.47835612700038282 0 0.41529389070680373 -0.47475734430172278 0 0.38225168507661073 -0.46521627827829581 0 0.39234073477523979 -0.47835612700038282 0 0.3686510977850514 -0.47735700377096868 0 0.39234073477523979 -0.47835612700038282 0 0.38419556125502591 -0.49999999999999872 0 0.39234073477523979 -0.47835612700038282 0 0.38419556125502591 -0.49999999999999872 0 0.3686510977850514 -0.47735700377096868 0 0.39234073477523979 -0.47835612700038282 0 0.38419556125502591 -0.49999999999999872 0 0.40779375924478561 -0.48865809288381001 0 0.38419556125502591 -0.49999999999999872 0 0.41260146067058262 -0.5 0 0.40779375924478561 -0.48865809288381001 0 0.41854175444440489 -0.49776277812229741 0 0.40779375924478561 -0.48865809288381001 0 0.41529389070680373 -0.47475734430172278 0 0.41260146067058262 -0.5 0 0.41854175444440489 -0.49776277812229741 0 0.40779375924478561 -0.48865809288381001 0 0.43841491043126862 -0.47704143077814221 0 0.41854175444440489 -0.49776277812229741 0 0.41529389070680373 -0.47475734430172278 0 0.44100736008613922 -0.5 0 0.43841491043126862 -0.47704143077814221 0 0.41854175444440489 -0.49776277812229741 0 0.43841491043126862 -0.47704143077814221 0 0.41854175444440489 -0.49776277812229741 0 0.44100736008613922 -0.5 0 0.41260146067058262 -0.5 0 0.41854175444440489 -0.49776277812229741 0 0.32057897469799829 -0.47982030795325331 0 0.33232666973875491 -0.5 0 0.30639222398061949 -0.5 0 0.32057897469799829 -0.47982030795325331 0 0.34199611685658848 -0.47638574922671911 0 0.320740824599833 -0.45412839310591829 0 0.32057897469799829 -0.47982030795325331 0 0.34199611685658848 -0.47638574922671911 0 0.33232666973875491 -0.5 0 0.34199611685658848 -0.47638574922671911 0 0.35826111549689038 -0.5 0 0.3686510977850514 -0.47735700377096868 0 0.34199611685658848 -0.47638574922671911 0 0.33232666973875491 -0.5 0 0.35826111549689038 -0.5 0 0.38419556125502591 -0.49999999999999872 0 0.35826111549689038 -0.5 0 0.3686510977850514 -0.47735700377096868 0 0.34199611685658848 -0.47638574922671911 0 0.3686510977850514 -0.47735700377096868 0 0.35112485948685951 -0.45724339055438068 0 0.38225168507661073 -0.46521627827829581 0 0.3686510977850514 -0.47735700377096868 0 0.36995226593306918 -0.45761865334849172 0 0.3686510977850514 -0.47735700377096868 0 0.35112485948685951 -0.45724339055438068 0 0.36995226593306918 -0.45761865334849172 0 0.35112485948685951 -0.45724339055438068 0 0.36995226593306918 -0.45761865334849172 0 0.36740143416442789 -0.44025638426288871 0 0.3839769036338252 -0.4505854034580794 0 0.36995226593306918 -0.45761865334849172 0 0.36740143416442789 -0.44025638426288871 0 0.35112485948685951 -0.45724339055438068 0 0.36740143416442789 -0.44025638426288871 0 0.33985673637436531 -0.44130930946178992 0 0.35112485948685951 -0.45724339055438068 0 0.33985673637436531 -0.44130930946178992 0 0.320740824599833 -0.45412839310591829 0 0.34199611685658848 -0.47638574922671911 0 0.35112485948685951 -0.45724339055438068 0 0.320740824599833 -0.45412839310591829 0 0.32057897469799829 -0.47982030795325331 0 0.320740824599833 -0.45412839310591829 0 0.30143903831419577 -0.46858739743362871 0 0.320740824599833 -0.45412839310591829 0 0.32203006420720309 -0.42969772227020059 0 0.30827685939645738 -0.43354841601716482 0 0.33985673637436531 -0.44130930946178992 0 0.320740824599833 -0.45412839310591829 0 0.32203006420720309 -0.42969772227020059 0 0.32203006420720309 -0.42969772227020059 0 0.30420339204004099 -0.41808613507861142 0 0.32595260473130799 -0.41369716911336851 0 0.31274564456065129 -0.40384931510660499 0 0.30420339204004099 -0.41808613507861142 0 0.32203006420720309 -0.42969772227020059 0 0.32595260473130799 -0.41369716911336851 0 0.30420339204004099 -0.41808613507861142 0 0.32595260473130799 -0.41369716911336851 0 0.33867039974334262 -0.40322522012954881 0 0.31274564456065129 -0.40384931510660499 0 0.32595260473130799 -0.41369716911336851 0 0.33661815316546267 -0.42285443900975039 0 0.33867039974334262 -0.40322522012954881 0 0.33661815316546267 -0.42285443900975039 0 0.35422837786164252 -0.4219696785713532 0 0.33867039974334262 -0.40322522012954881 0 0.33985673637436531 -0.44130930946178992 0 0.33661815316546267 -0.42285443900975039 0 0.35422837786164252 -0.4219696785713532 0 0.32203006420720309 -0.42969772227020059 0 0.32595260473130799 -0.41369716911336851 0 0.33661815316546267 -0.42285443900975039 0 0.33985673637436531 -0.44130930946178992 0 0.32203006420720309 -0.42969772227020059 0 0.33661815316546267 -0.42285443900975039 0 0.33985673637436531 -0.44130930946178992 0 0.32203006420720309 -0.42969772227020059 0 0.36740143416442789 -0.44025638426288871 0 0.33985673637436531 -0.44130930946178992 0 0.35422837786164252 -0.4219696785713532 0 0.37688949410501188 -0.41963756642989802 0 0.36740143416442789 -0.44025638426288871 0 0.35422837786164252 -0.4219696785713532 0 0.37688949410501188 -0.41963756642989802 0 0.35422837786164252 -0.4219696785713532 0 0.36459515492603378 -0.40260112515249258 0 0.35422837786164252 -0.4219696785713532 0 0.36459515492603378 -0.40260112515249258 0 0.33867039974334262 -0.40322522012954881 0 0.36459515492603378 -0.40260112515249258 0 0.3507806503694505 -0.38962291768490859 0 0.33867039974334262 -0.40322522012954881 0 0.36459515492603378 -0.40260112515249258 0 0.33867039974334262 -0.40322522012954881 0 0.36459515492603378 -0.40260112515249258 0 0.36743921370958299 -0.37632943925564599 0 0.3507806503694505 -0.38962291768490859 0 0.38977236058376519 -0.38341880218548768 0 0.36459515492603378 -0.40260112515249258 0 0.36743921370958299 -0.37632943925564599 0 0.36743921370958299 -0.37632943925564599 0 0.3507806503694505 -0.38962291768490859 0 0.34805801606313702 -0.37358611235737699 0 0.3507806503694505 -0.38962291768490859 0 0.33022531788217352 -0.38097067996026113 0 0.34805801606313702 -0.37358611235737699 0 0.3507806503694505 -0.38962291768490859 0 0.33022531788217352 -0.38097067996026113 0 0.33867039974334262 -0.40322522012954881 0 0.33867039974334262 -0.40322522012954881 0 0.31274564456065129 -0.40384931510660499 0 0.33022531788217352 -0.38097067996026113 0 0.33867039974334262 -0.40322522012954881 0 0.31274564456065129 -0.40384931510660499 0 0.33022531788217352 -0.38097067996026113 0 0.31274564456065129 -0.40384931510660499 0 0.30906427221225341 -0.37880987927372289 0 0.31274564456065129 -0.40384931510660499 0 0.30906427221225341 -0.37880987927372289 0 0.29113633398868732 -0.38503083410750338 0 0.30906427221225341 -0.37880987927372289 0 0.29113633398868732 -0.38503083410750338 0 0.29545177859941729 -0.36558825813134971 0 0.31274564456065129 -0.40384931510660499 0 0.28682088937796008 -0.40447341008365789 0 0.29113633398868732 -0.38503083410750338 0 0.31274564456065129 -0.40384931510660499 0 0.28682088937796008 -0.40447341008365789 0 0.28682088937796008 -0.40447341008365789 0 0.28269129268052501 -0.39298048915581701 0 0.29113633398868732 -0.38503083410750338 0 0.28682088937796008 -0.40447341008365789 0 0.29113633398868732 -0.38503083410750338 0 0.28682088937796008 -0.40447341008365789 0 0.28342980548474211 -0.40455504473785858 0 0.28269129268052501 -0.39298048915581701 0 0.28682088937796008 -0.40447341008365789 0 0.28637671987287749 -0.40647454788702408 0 0.28682088937796008 -0.40447341008365789 0 0.28342980548474211 -0.40455504473785858 0 0.28637671987287749 -0.40647454788702408 0 0.28682088937796008 -0.40447341008365789 0 0.28342980548474211 -0.40455504473785858 0 0.28342980548474211 -0.40455504473785858 0 0.28637671987287749 -0.40647454788702408 0 0.28269129268052501 -0.39298048915581701 0 0.29113633398868732 -0.38503083410750338 0 0.27629144137363137 -0.37024754624262313 0 0.29113633398868732 -0.38503083410750338 0 0.29545177859941729 -0.36558825813134971 0 0.26168805040302812 -0.38202254724944479 0 0.27180600163909752 -0.39698375994695773 0 0.27629144137363137 -0.37024754624262313 0 0.28269129268052501 -0.39298048915581701 0 0.27180600163909752 -0.39698375994695773 0 0.27629144137363137 -0.37024754624262313 0 0.27180600163909752 -0.39698375994695773 0 0.27629144137363137 -0.37024754624262313 0 0.26168805040302812 -0.38202254724944479 0 0.25611366877167308 -0.37515424777341272 0 0.27629144137363137 -0.37024754624262313 0 0.26168805040302812 -0.38202254724944479 0 0.25372010355658309 -0.38520332327576551 0 0.27180600163909752 -0.39698375994695773 0 0.26168805040302812 -0.38202254724944479 0 0.25611366877167308 -0.37515424777341272 0 0.26168805040302812 -0.38202254724944479 0 0.25611366877167308 -0.37515424777341272 0 0.25648199265316912 -0.38055157448902671 0 0.26168805040302812 -0.38202254724944479 0 0.25372010355658309 -0.38520332327576551 0 0.25648199265316912 -0.38055157448902671 0 0.25372010355658309 -0.38520332327576551 0 0.25101908222093772 -0.37639311670708242 0 0.25648199265316912 -0.38055157448902671 0 0.25101908222093772 -0.37639311670708242 0 0.25611366877167308 -0.37515424777341272 0 0.25101908222093772 -0.37639311670708242 0 0.25611366877167308 -0.37515424777341272 0 0.25648199265316912 -0.38055157448902671 0 0.25372010355658309 -0.38520332327576551 0 0.27180600163909752 -0.39698375994695773 0 0.25059459995114802 -0.39663921775013289 0 0.25885114957497601 -0.40514673463379097 0 0.27180600163909752 -0.39698375994695773 0 0.25372010355658309 -0.38520332327576551 0 0.25059459995114802 -0.39663921775013289 0 0.27180600163909752 -0.39698375994695773 0 0.25059459995114802 -0.39663921775013289 0 0.25885114957497601 -0.40514673463379097 0 0.25002471251888231 -0.40643688974507908 0 0.25885114957497601 -0.40514673463379097 0 0.27048350788851289 -0.40486670512749029 0 0.25885114957497601 -0.40514673463379097 0 0.27048350788851289 -0.40486670512749029 0 0.27180600163909752 -0.39698375994695773 0 0.27048350788851289 -0.40486670512749029 0 0.27180600163909752 -0.39698375994695773 0 0.28342980548474211 -0.40455504473785858 0 0.28269129268052501 -0.39298048915581701 0 0.27180600163909752 -0.39698375994695773 0 0.28342980548474211 -0.40455504473785858 0 0.27048350788851289 -0.40486670512749029 0 0.27180600163909752 -0.39698375994695773 0 0.28342980548474211 -0.40455504473785858 0 0.27180600163909752 -0.39698375994695773 0 0.28342980548474211 -0.40455504473785858 0 0.27048350788851289 -0.40486670512749029 0 0.27933787027038498 -0.41258357491373499 0 0.2749678458709614 -0.4182669716937919 0 0.28143147223483178 -0.4287546051225094 0 0.27048350788851289 -0.40486670512749029 0 0.26649346403247542 -0.42865002884561798 0 0.27048350788851289 -0.40486670512749029 0 0.27933787027038498 -0.41258357491373499 0 0.2749678458709614 -0.4182669716937919 0 0.28342980548474211 -0.40455504473785858 0 0.27048350788851289 -0.40486670512749029 0 0.27933787027038498 -0.41258357491373499 0 0.27048350788851289 -0.40486670512749029 0 0.2749678458709614 -0.4182669716937919 0 0.26649346403247542 -0.42865002884561798 0 0.25885114957497601 -0.40514673463379097 0 0.27048350788851289 -0.40486670512749029 0 0.25681640229947189 -0.41787208616338822 0 0.27048350788851289 -0.40486670512749029 0 0.25681640229947189 -0.41787208616338822 0 0.26649346403247542 -0.42865002884561798 0 0.25885114957497601 -0.40514673463379097 0 0.25681640229947189 -0.41787208616338822 0 0.25002471251888231 -0.40643688974507908 0 0.25681640229947189 -0.41787208616338822 0 0.25002471251888231 -0.40643688974507908 0 0.2448698459283406 -0.41345449198668272 0 0.25681640229947189 -0.41787208616338822 0 0.25247351197126178 -0.43591931463226691 0 0.24342968634701581 -0.42447285769975962 0 0.25681640229947189 -0.41787208616338822 0 0.25247351197126178 -0.43591931463226691 0 0.26649346403247542 -0.42865002884561798 0 0.26649346403247542 -0.42865002884561798 0 0.28143147223483178 -0.4287546051225094 0 0.27648622459678679 -0.45103466235799478 0 0.2749678458709614 -0.4182669716937919 0 0.26649346403247542 -0.42865002884561798 0 0.28143147223483178 -0.4287546051225094 0 0.29449487154283432 -0.43213006493645417 0 0.28143147223483178 -0.4287546051225094 0 0.28814240066611368 -0.44187988820427782 0 0.29449487154283432 -0.43213006493645417 0 0.29162661392264588 -0.42136133825614969 0 0.30420339204004099 -0.41808613507861142 0 0.29449487154283432 -0.43213006493645417 0 0.28143147223483178 -0.4287546051225094 0 0.29162661392264588 -0.42136133825614969 0 0.28143147223483178 -0.4287546051225094 0 0.28637671987287749 -0.40647454788702408 0 0.28143147223483178 -0.4287546051225094 0 0.28637671987287749 -0.40647454788702408 0 0.29162661392264588 -0.42136133825614969 0 0.28637671987287749 -0.40647454788702408 0 0.30420339204004099 -0.41808613507861142 0 0.28682088937796008 -0.40447341008365789 0 0.28637671987287749 -0.40647454788702408 0 0.30420339204004099 -0.41808613507861142 0 0.27933787027038498 -0.41258357491373499 0 0.28143147223483178 -0.4287546051225094 0 0.28637671987287749 -0.40647454788702408 0 0.28637671987287749 -0.40647454788702408 0 0.29162661392264588 -0.42136133825614969 0 0.30420339204004099 -0.41808613507861142 0 0.28342980548474211 -0.40455504473785858 0 0.27933787027038498 -0.41258357491373499 0 0.28637671987287749 -0.40647454788702408 0 0.31274564456065129 -0.40384931510660499 0 0.28682088937796008 -0.40447341008365789 0 0.30420339204004099 -0.41808613507861142 0 0.32203006420720309 -0.42969772227020059 0 0.30420339204004099 -0.41808613507861142 0 0.30827685939645738 -0.43354841601716482 0 0.29449487154283432 -0.43213006493645417 0 0.30827685939645738 -0.43354841601716482 0 0.29982347416327182 -0.44452571435668742 0 0.29449487154283432 -0.43213006493645417 0 0.30420339204004099 -0.41808613507861142 0 0.30827685939645738 -0.43354841601716482 0 0.320740824599833 -0.45412839310591829 0 0.30827685939645738 -0.43354841601716482 0 0.29982347416327182 -0.44452571435668742 0 0.320740824599833 -0.45412839310591829 0 0.29982347416327182 -0.44452571435668742 0 0.30143903831419577 -0.46858739743362871 0 0.30143903831419577 -0.46858739743362871 0 0.28496166822530727 -0.46578348786081358 0 0.28847596079284349 -0.45295439424774309 0 0.29982347416327182 -0.44452571435668742 0 0.30143903831419577 -0.46858739743362871 0 0.28847596079284349 -0.45295439424774309 0 0.28496166822530727 -0.46578348786081358 0 0.28847596079284349 -0.45295439424774309 0 0.27648622459678679 -0.45103466235799478 0 0.28847596079284349 -0.45295439424774309 0 0.28814240066611368 -0.44187988820427782 0 0.27648622459678679 -0.45103466235799478 0 0.28143147223483178 -0.4287546051225094 0 0.28814240066611368 -0.44187988820427782 0 0.27648622459678679 -0.45103466235799478 0 0.29982347416327182 -0.44452571435668742 0 0.28847596079284349 -0.45295439424774309 0 0.28814240066611368 -0.44187988820427782 0 0.29449487154283432 -0.43213006493645417 0 0.29982347416327182 -0.44452571435668742 0 0.28814240066611368 -0.44187988820427782 0 0.26649346403247542 -0.42865002884561798 0 0.27648622459678679 -0.45103466235799478 0 0.26250342017643308 -0.45243335256374467 0 0.28143147223483178 -0.4287546051225094 0 0.27648622459678679 -0.45103466235799478 0 0.25247351197126178 -0.43591931463226691 0 0.26649346403247542 -0.42865002884561798 0 0.26250342017643308 -0.45243335256374467 0 0.25247351197126178 -0.43591931463226691 0 0.26250342017643308 -0.45243335256374467 0 0.24663550644168941 -0.45307559494085597 0 0.26649346403247542 -0.42865002884561798 0 0.26250342017643308 -0.45243335256374467 0 0.26250342017643308 -0.45243335256374467 0 0.25851337632039079 -0.47621667628187142 0 0.26250342017643308 -0.45243335256374467 0 0.27154097695874191 -0.47331471959348032 0 0.25851337632039079 -0.47621667628187142 0 0.26250342017643308 -0.45243335256374467 0 0.25851337632039079 -0.47621667628187142 0 0.24663550644168941 -0.45307559494085597 0 0.27648622459678679 -0.45103466235799478 0 0.26250342017643308 -0.45243335256374467 0 0.27154097695874191 -0.47331471959348032 0 0.27648622459678679 -0.45103466235799478 0 0.27154097695874191 -0.47331471959348032 0 0.28496166822530727 -0.46578348786081358 0 0.27648622459678679 -0.45103466235799478 0 0.27154097695874191 -0.47331471959348032 0 0.28496166822530727 -0.46578348786081358 0 0.27154097695874191 -0.47331471959348032 0 0.2865124487150007 -0.48297307155913061 0 0.27154097695874191 -0.47331471959348032 0 0.27030958253619319 -0.48650089348689618 0 0.2865124487150007 -0.48297307155913061 0 0.27154097695874191 -0.47331471959348032 0 0.25851337632039079 -0.47621667628187142 0 0.27030958253619319 -0.48650089348689618 0 0.25851337632039079 -0.47621667628187142 0 0.25452333246434877 -0.49999999999999822 0 0.25851337632039079 -0.47621667628187142 0 0.25452333246434877 -0.49999999999999822 0 0.27030958253619319 -0.48650089348689618 0 0.25851337632039079 -0.47621667628187142 0 0.25452333246434877 -0.49999999999999822 0 0.24109196919339401 -0.48554362312745242 0 0.25452333246434877 -0.49999999999999822 0 0.28045777822248419 -0.5 0 0.27030958253619319 -0.48650089348689618 0 0.28045777822248419 -0.5 0 0.27030958253619319 -0.48650089348689618 0 0.2865124487150007 -0.48297307155913061 0 0.28045777822248419 -0.5 0 0.2865124487150007 -0.48297307155913061 0 0.30639222398061949 -0.5 0 0.32057897469799829 -0.47982030795325331 0 0.30143903831419577 -0.46858739743362871 0 0.30639222398061949 -0.5 0 0.30143903831419577 -0.46858739743362871 0 0.2865124487150007 -0.48297307155913061 0 0.30639222398061949 -0.5 0 0.30143903831419577 -0.46858739743362871 0 0.28496166822530727 -0.46578348786081358 0 0.2865124487150007 -0.48297307155913061 0 0.33388213465590177 -0.28540988422648772 0 0.34576753420861872 -0.29341713998379959 0 0.34612875491147499 -0.28550172796699269 0 0.33388213465590177 -0.28540988422648772 0 0.33051803610112529 -0.29760341602316592 0 0.34576753420861872 -0.29341713998379959 0 0.33051803610112529 -0.29760341602316592 0 0.34455789059950809 -0.30780716469767311 0 0.32846594160443732 -0.31518794446934728 0 0.33051803610112529 -0.29760341602316592 0 0.31924026711673559 -0.30356520297212158 0 0.32846594160443732 -0.31518794446934728 0 0.33051803610112529 -0.29760341602316592 0 0.31924026711673559 -0.30356520297212158 0 0.31949649085133391 -0.29106075007432253 0 0.31924026711673559 -0.30356520297212158 0 0.32846594160443732 -0.31518794446934728 0 0.31085531995389137 -0.31337335427339719 0 0.31924026711673559 -0.30356520297212158 0 0.31949649085133391 -0.29106075007432253 0 0.30511084704676611 -0.29671161592215761 0 0.31949649085133391 -0.29106075007432253 0 0.31454003311966039 -0.28178169701742678 0 0.30511084704676611 -0.29671161592215761 0 0.33388213465590177 -0.28540988422648772 0 0.33051803610112529 -0.29760341602316592 0 0.31949649085133391 -0.29106075007432253 0 0.33388213465590177 -0.28540988422648772 0 0.31949649085133391 -0.29106075007432253 0 0.33388213465590177 -0.28540988422648772 0 0.31949649085133391 -0.29106075007432253 0 0.32392756398864248 -0.28144324141297777 0 0.31949649085133391 -0.29106075007432253 0 0.32392756398864248 -0.28144324141297777 0 0.31454003311966039 -0.28178169701742678 0 0.32392756398864248 -0.28144324141297777 0 0.31454003311966039 -0.28178169701742678 0 0.32067680225567552 -0.27342475969211788 0 0.31454003311966039 -0.28178169701742678 0 0.31296889669187378 -0.273278609741264 0 0.32067680225567552 -0.27342475969211788 0 0.31296889669187378 -0.273278609741264 0 0.32067680225567552 -0.27342475969211788 0 0.31369625101757792 -0.26308695721536529 0 0.32067680225567552 -0.27342475969211788 0 0.31369625101757792 -0.26308695721536529 0 0.32852472873319571 -0.26420635331716991 0 0.32067680225567552 -0.27342475969211788 0 0.32852472873319571 -0.26420635331716991 0 0.32988651303761263 -0.27530345990251781 0 0.32392756398864248 -0.28144324141297777 0 0.32067680225567552 -0.27342475969211788 0 0.32988651303761263 -0.27530345990251781 0 0.32333319116345138 -0.2450903738212255 0 0.31369625101757792 -0.26308695721536529 0 0.32852472873319571 -0.26420635331716991 0 0.32333319116345138 -0.2450903738212255 0 0.31369625101757792 -0.26308695721536529 0 0.30440479278902077 -0.25328215357689932 0 0.32333319116345138 -0.2450903738212255 0 0.34229012539323828 -0.25653516455997338 0 0.32333319116345138 -0.2450903738212255 0 0.32852472873319571 -0.26420635331716991 0 0.34229012539323828 -0.25653516455997338 0 0.32852472873319571 -0.26420635331716991 0 0.34229012539323828 -0.25653516455997338 0 0.34010964350859052 -0.27156174855980308 0 0.33388213465590177 -0.28540988422648772 0 0.32392756398864248 -0.28144324141297777 0 0.32988651303761263 -0.27530345990251781 0 0.33388213465590177 -0.28540988422648772 0 0.32988651303761263 -0.27530345990251781 0 0.34010964350859052 -0.27156174855980308 0 0.32852472873319571 -0.26420635331716991 0 0.32988651303761263 -0.27530345990251781 0 0.34010964350859052 -0.27156174855980308 0 0.33388213465590177 -0.28540988422648772 0 0.34010964350859052 -0.27156174855980308 0 0.34612875491147499 -0.28550172796699269 0 0.34010964350859052 -0.27156174855980308 0 0.36124705962302472 -0.26797995529872221 0 0.34612875491147499 -0.28550172796699269 0 0.36275287976571657 -0.24305711845347569 0 0.35314114394313489 -0.25173307601675232 0 0.36124705962302472 -0.26797995529872221 0 0.34229012539323828 -0.25653516455997338 0 0.34010964350859052 -0.27156174855980308 0 0.36124705962302472 -0.26797995529872221 0 0.34229012539323828 -0.25653516455997338 0 0.36124705962302472 -0.26797995529872221 0 0.34229012539323828 -0.25653516455997338 0 0.35314114394313489 -0.25173307601675232 0 0.36124705962302472 -0.26797995529872221 0 0.38204401774026092 -0.26722108709306119 0 0.37660171107177498 -0.25711120006798488 0 0.36124705962302472 -0.26797995529872221 0 0.36275287976571657 -0.24305711845347569 0 0.36124705962302472 -0.26797995529872221 0 0.37660171107177498 -0.25711120006798488 0 0.36978294454555682 -0.25047377383907848 0 0.36124705962302472 -0.26797995529872221 0 0.36275287976571657 -0.24305711845347569 0 0.36978294454555682 -0.25047377383907848 0 0.36124705962302472 -0.26797995529872221 0 0.38196224761379061 -0.2804862492381498 0 0.36124705962302472 -0.26797995529872221 0 0.38196224761379061 -0.2804862492381498 0 0.36124705962302472 -0.26797995529872221 0 0.37016757236030218 -0.28791626843985751 0 0.39037431828910829 -0.28810977291721201 0 0.37016757236030218 -0.28791626843985751 0 0.3630061097860976 -0.29987590904780231 0 0.36124705962302472 -0.26797995529872221 0 0.35950032973213131 -0.29689009061241672 0 0.36124705962302472 -0.26797995529872221 0 0.37016757236030218 -0.28791626843985751 0 0.35950032973213131 -0.29689009061241672 0 0.37016757236030218 -0.28791626843985751 0 0.35950032973213131 -0.29689009061241672 0 0.3630061097860976 -0.29987590904780231 0 0.36124705962302472 -0.26797995529872221 0 0.34612875491147499 -0.28550172796699269 0 0.35950032973213131 -0.29689009061241672 0 0.34612875491147499 -0.28550172796699269 0 0.35950032973213131 -0.29689009061241672 0 0.34576753420861872 -0.29341713998379959 0 0.34612875491147499 -0.28550172796699269 0 0.35950032973213131 -0.29689009061241672 0 0.33051803610112529 -0.29760341602316592 0 0.35920741737098982 -0.30173808459237761 0 0.34455789059950809 -0.30780716469767311 0 0.35920741737098982 -0.30173808459237761 0 0.35772510853091583 -0.32627178574830418 0 0.33051803610112529 -0.29760341602316592 0 0.34576753420861872 -0.29341713998379959 0 0.35920741737098982 -0.30173808459237761 0 0.33051803610112529 -0.29760341602316592 0 0.34455789059950809 -0.30780716469767311 0 0.35920741737098982 -0.30173808459237761 0 0.34576753420861872 -0.29341713998379959 0 0.35920741737098982 -0.30173808459237761 0 0.35950032973213131 -0.29689009061241672 0 0.35920741737098982 -0.30173808459237761 0 0.35950032973213131 -0.29689009061241672 0 0.34455789059950809 -0.30780716469767311 0 0.35920741737098982 -0.30173808459237761 0 0.39037431828910829 -0.28810977291721201 0 0.3630061097860976 -0.29987590904780231 0 0.36641163942295968 -0.30277634575959628 0 0.35920741737098982 -0.30173808459237761 0 0.36641163942295968 -0.30277634575959628 0 0.35772510853091583 -0.32627178574830418 0 0.35920741737098982 -0.30173808459237761 0 0.35950032973213131 -0.29689009061241672 0 0.3630061097860976 -0.29987590904780231 0 0.35950032973213131 -0.29689009061241672 0 0.3630061097860976 -0.29987590904780231 0 0.35920741737098982 -0.30173808459237761 0 0.3630061097860976 -0.29987590904780231 0 0.36641163942295968 -0.30277634575959628 0 0.35920741737098982 -0.30173808459237761 0 0.36641163942295968 -0.30277634575959628 0 0.35920741737098982 -0.30173808459237761 0 0.3630061097860976 -0.29987590904780231 0 0.3630061097860976 -0.29987590904780231 0 0.36641163942295968 -0.30277634575959628 0 0.38876990341432061 -0.32181853202941663 0 0.36641163942295968 -0.30277634575959628 0 0.35772510853091583 -0.32627178574830418 0 0.37668996683961797 -0.34583327573264139 0 0.35772510853091583 -0.32627178574830418 0 0.35624279969084049 -0.35080548690423058 0 0.37668996683961797 -0.34583327573264139 0 0.38876990341432061 -0.32181853202941663 0 0.35772510853091583 -0.32627178574830418 0 0.35772510853091583 -0.32627178574830418 0 0.35624279969084049 -0.35080548690423058 0 0.35772510853091583 -0.32627178574830418 0 0.35624279969084049 -0.35080548690423058 0 0.33740758246541791 -0.33449969947042768 0 0.35772510853091583 -0.32627178574830418 0 0.34093482168297512 -0.32114059681228058 0 0.33740758246541791 -0.33449969947042768 0 0.34455789059950809 -0.30780716469767311 0 0.35772510853091583 -0.32627178574830418 0 0.34093482168297512 -0.32114059681228058 0 0.35920741737098982 -0.30173808459237761 0 0.35772510853091583 -0.32627178574830418 0 0.36743921370958299 -0.37632943925564599 0 0.37051370375167852 -0.36064475857200029 0 0.35769228746763232 -0.36334095710129388 0 0.3857641824416318 -0.36248530209617369 0 0.36743921370958299 -0.37632943925564599 0 0.37051370375167852 -0.36064475857200029 0 0.37051370375167852 -0.36064475857200029 0 0.36347172299215369 -0.3543619372630053 0 0.35769228746763232 -0.36334095710129388 0 0.37668996683961797 -0.34583327573264139 0 0.35624279969084049 -0.35080548690423058 0 0.37668996683961797 -0.34583327573264139 0 0.36347172299215369 -0.3543619372630053 0 0.35624279969084049 -0.35080548690423058 0 0.37668996683961797 -0.34583327573264139 0 0.37051370375167852 -0.36064475857200029 0 0.36347172299215369 -0.3543619372630053 0 0.35624279969084049 -0.35080548690423058 0 0.3359791259936995 -0.35573307731327042 0 0.35624279969084049 -0.35080548690423058 0 0.35769228746763232 -0.36334095710129388 0 0.3359791259936995 -0.35573307731327042 0 0.36347172299215369 -0.3543619372630053 0 0.35624279969084049 -0.35080548690423058 0 0.35769228746763232 -0.36334095710129388 0 0.34805801606313702 -0.37358611235737699 0 0.35769228746763232 -0.36334095710129388 0 0.3359791259936995 -0.35573307731327042 0 0.36743921370958299 -0.37632943925564599 0 0.34805801606313702 -0.37358611235737699 0 0.35769228746763232 -0.36334095710129388 0 0.33022531788217352 -0.38097067996026113 0 0.34805801606313702 -0.37358611235737699 0 0.3359791259936995 -0.35573307731327042 0 0.35624279969084049 -0.35080548690423058 0 0.3359791259936995 -0.35573307731327042 0 0.33740758246541791 -0.33449969947042768 0 0.3359791259936995 -0.35573307731327042 0 0.31954511124373292 -0.34605121274038969 0 0.33740758246541791 -0.33449969947042768 0 0.3359791259936995 -0.35573307731327042 0 0.31571545229655851 -0.36066066772231042 0 0.3359791259936995 -0.35573307731327042 0 0.31954511124373292 -0.34605121274038969 0 0.31571545229655851 -0.36066066772231042 0 0.31954511124373292 -0.34605121274038969 0 0.31571545229655851 -0.36066066772231042 0 0.30642280396994648 -0.35444007580367393 0 0.33022531788217352 -0.38097067996026113 0 0.30906427221225341 -0.37880987927372289 0 0.31571545229655851 -0.36066066772231042 0 0.33022531788217352 -0.38097067996026113 0 0.3359791259936995 -0.35573307731327042 0 0.31571545229655851 -0.36066066772231042 0 0.32846594160443732 -0.31518794446934728 0 0.34093482168297512 -0.32114059681228058 0 0.33740758246541791 -0.33449969947042768 0 0.34455789059950809 -0.30780716469767311 0 0.32846594160443732 -0.31518794446934728 0 0.34093482168297512 -0.32114059681228058 0 0.31954511124373292 -0.34605121274038969 0 0.31659979286101669 -0.33003509262463671 0 0.30514590987575813 -0.34093866350801949 0 0.31954511124373292 -0.34605121274038969 0 0.33740758246541791 -0.33449969947042768 0 0.31659979286101669 -0.33003509262463671 0 0.31659979286101669 -0.33003509262463671 0 0.31085531995389137 -0.31337335427339719 0 0.32846594160443732 -0.31518794446934728 0 0.33740758246541791 -0.33449969947042768 0 0.31659979286101669 -0.33003509262463671 0 0.32846594160443732 -0.31518794446934728 0 0.31659979286101669 -0.33003509262463671 0 0.31085531995389137 -0.31337335427339719 0 0.31085531995389137 -0.31337335427339719 0 0.29771572166943577 -0.32715930691764777 0 0.29567589107855352 -0.31151300955771311 0 0.31659979286101669 -0.33003509262463671 0 0.31085531995389137 -0.31337335427339719 0 0.29771572166943577 -0.32715930691764777 0 0.31659979286101669 -0.33003509262463671 0 0.29771572166943577 -0.32715930691764777 0 0.30514590987575813 -0.34093866350801949 0 0.30514590987575813 -0.34093866350801949 0 0.29345129408985271 -0.3398951673043924 0 0.29620458637782171 -0.34989726764348539 0 0.29771572166943577 -0.32715930691764777 0 0.30514590987575813 -0.34093866350801949 0 0.29345129408985271 -0.3398951673043924 0 0.29771572166943577 -0.32715930691764777 0 0.29345129408985271 -0.3398951673043924 0 0.28449620920382029 -0.3336089357575498 0 0.29345129408985271 -0.3398951673043924 0 0.28845572392068269 -0.34853868085056838 0 0.27982402328234718 -0.34250897191585039 0 0.29345129408985271 -0.3398951673043924 0 0.28449620920382029 -0.3336089357575498 0 0.27982402328234718 -0.34250897191585039 0 0.27778563462315797 -0.32075092539782618 0 0.29567589107855352 -0.31151300955771311 0 0.28140154414233071 -0.30602493494206129 0 0.29771572166943577 -0.32715930691764777 0 0.27778563462315797 -0.32075092539782618 0 0.29567589107855352 -0.31151300955771311 0 0.29771572166943577 -0.32715930691764777 0 0.28449620920382029 -0.3336089357575498 0 0.27778563462315797 -0.32075092539782618 0 0.30906427221225341 -0.37880987927372289 0 0.31571545229655851 -0.36066066772231042 0 0.29545177859941729 -0.36558825813134971 0 0.31571545229655851 -0.36066066772231042 0 0.30642280396994648 -0.35444007580367393 0 0.29545177859941729 -0.36558825813134971 0 0.31571545229655851 -0.36066066772231042 0 0.29545177859941729 -0.36558825813134971 0 0.30642280396994648 -0.35444007580367393 0 0.29670005878043437 -0.35996432260483152 0 0.29545177859941729 -0.36558825813134971 0 0.30642280396994648 -0.35444007580367393 0 0.29620458637782171 -0.34989726764348539 0 0.29670005878043437 -0.35996432260483152 0 0.31954511124373292 -0.34605121274038969 0 0.30514590987575813 -0.34093866350801949 0 0.30642280396994648 -0.35444007580367393 0 0.30514590987575813 -0.34093866350801949 0 0.30642280396994648 -0.35444007580367393 0 0.29620458637782171 -0.34989726764348539 0 0.29345129408985271 -0.3398951673043924 0 0.29620458637782171 -0.34989726764348539 0 0.28845572392068269 -0.34853868085056838 0 0.29620458637782171 -0.34989726764348539 0 0.28845572392068269 -0.34853868085056838 0 0.29149163102866499 -0.35517494654387027 0 0.28845572392068269 -0.34853868085056838 0 0.28155207570584961 -0.35473419296559422 0 0.27982402328234718 -0.34250897191585039 0 0.28845572392068269 -0.34853868085056838 0 0.28155207570584961 -0.35473419296559422 0 0.29149163102866499 -0.35517494654387027 0 0.28155207570584961 -0.35473419296559422 0 0.29149163102866499 -0.35517494654387027 0 0.28721042820891279 -0.36080851957657778 0 0.28155207570584961 -0.35473419296559422 0 0.28721042820891279 -0.36080851957657778 0 0.27772523415933981 -0.3617011845490139 0 0.29620458637782171 -0.34989726764348539 0 0.29149163102866499 -0.35517494654387027 0 0.29670005878043437 -0.35996432260483152 0 0.29149163102866499 -0.35517494654387027 0 0.29670005878043437 -0.35996432260483152 0 0.28721042820891279 -0.36080851957657778 0 0.29113633398868732 -0.38503083410750338 0 0.29545177859941729 -0.36558825813134971 0 0.27629144137363137 -0.37024754624262313 0 0.29545177859941729 -0.36558825813134971 0 0.28721042820891279 -0.36080851957657778 0 0.27629144137363137 -0.37024754624262313 0 0.29545177859941729 -0.36558825813134971 0 0.27629144137363137 -0.37024754624262313 0 0.29670005878043437 -0.35996432260483152 0 0.29545177859941729 -0.36558825813134971 0 0.28721042820891279 -0.36080851957657778 0 0.29670005878043437 -0.35996432260483152 0 0.29545177859941729 -0.36558825813134971 0 0.25611366877167308 -0.37515424777341272 0 0.27629144137363137 -0.37024754624262313 0 0.25611366877167308 -0.37515424777341272 0 0.27629144137363137 -0.37024754624262313 0 0.26542711091730198 -0.36503432563316851 0 0.27629144137363137 -0.37024754624262313 0 0.27772523415933981 -0.3617011845490139 0 0.28721042820891279 -0.36080851957657778 0 0.27629144137363137 -0.37024754624262313 0 0.27772523415933981 -0.3617011845490139 0 0.27772523415933981 -0.3617011845490139 0 0.27063197902839392 -0.35744936426946511 0 0.26542711091730198 -0.36503432563316851 0 0.27629144137363137 -0.37024754624262313 0 0.27772523415933981 -0.3617011845490139 0 0.26542711091730198 -0.36503432563316851 0 0.27063197902839392 -0.35744936426946511 0 0.27163496803219428 -0.34850829552424212 0 0.26015194262182728 -0.35501076197014497 0 0.28155207570584961 -0.35473419296559422 0 0.27063197902839392 -0.35744936426946511 0 0.27163496803219428 -0.34850829552424212 0 0.28155207570584961 -0.35473419296559422 0 0.27772523415933981 -0.3617011845490139 0 0.27063197902839392 -0.35744936426946511 0 0.28155207570584961 -0.35473419296559422 0 0.27163496803219428 -0.34850829552424212 0 0.27982402328234718 -0.34250897191585039 0 0.26015194262182728 -0.35501076197014497 0 0.25503808019652369 -0.33596927683345901 0 0.24998006502078859 -0.34878186785508192 0 0.27163496803219428 -0.34850829552424212 0 0.26015194262182728 -0.35501076197014497 0 0.25503808019652369 -0.33596927683345901 0 0.26015194262182728 -0.35501076197014497 0 0.25441605400313411 -0.35969650062785669 0 0.24998006502078859 -0.34878186785508192 0 0.27063197902839392 -0.35744936426946511 0 0.26015194262182728 -0.35501076197014497 0 0.26542711091730198 -0.36503432563316851 0 0.25611366877167308 -0.37515424777341272 0 0.25441605400313411 -0.35969650062785669 0 0.24026771180458259 -0.35563014893489081 0 0.26015194262182728 -0.35501076197014497 0 0.26542711091730198 -0.36503432563316851 0 0.25441605400313411 -0.35969650062785669 0 0.25611366877167308 -0.37515424777341272 0 0.26542711091730198 -0.36503432563316851 0 0.25441605400313411 -0.35969650062785669 0 0.27778563462315797 -0.32075092539782618 0 0.25769224123789553 -0.3153382539619653 0 0.28140154414233071 -0.30602493494206129 0 0.27778563462315797 -0.32075092539782618 0 0.26982183477158822 -0.33365470346776588 0 0.25769224123789553 -0.3153382539619653 0 0.28449620920382029 -0.3336089357575498 0 0.27778563462315797 -0.32075092539782618 0 0.26982183477158822 -0.33365470346776588 0 0.28449620920382029 -0.3336089357575498 0 0.27982402328234718 -0.34250897191585039 0 0.26982183477158822 -0.33365470346776588 0 0.27163496803219428 -0.34850829552424212 0 0.27982402328234718 -0.34250897191585039 0 0.26982183477158822 -0.33365470346776588 0 0.27163496803219428 -0.34850829552424212 0 0.26982183477158822 -0.33365470346776588 0 0.25503808019652369 -0.33596927683345901 0 0.26982183477158822 -0.33365470346776588 0 0.25503808019652369 -0.33596927683345901 0 0.25769224123789553 -0.3153382539619653 0 0.25769224123789553 -0.3153382539619653 0 0.26084897457873968 -0.2903430741180727 0 0.24502534956208469 -0.29902290019192701 0 0.26084897457873968 -0.2903430741180727 0 0.27923417071030271 -0.28430334946566838 0 0.28140154414233071 -0.30602493494206129 0 0.26084897457873968 -0.2903430741180727 0 0.27923417071030271 -0.28430334946566838 0 0.26829971691420013 -0.27477930229763808 0 0.25769224123789553 -0.3153382539619653 0 0.28140154414233071 -0.30602493494206129 0 0.25769224123789553 -0.3153382539619653 0 0.26084897457873968 -0.2903430741180727 0 0.28140154414233071 -0.30602493494206129 0 0.29567589107855352 -0.31151300955771311 0 0.28140154414233071 -0.30602493494206129 0 0.30511084704676611 -0.29671161592215761 0 0.28140154414233071 -0.30602493494206129 0 0.30511084704676611 -0.29671161592215761 0 0.28140154414233071 -0.30602493494206129 0 0.29346869208779058 -0.28597245413972472 0 0.30511084704676611 -0.29671161592215761 0 0.27923417071030271 -0.28430334946566838 0 0.28140154414233071 -0.30602493494206129 0 0.29346869208779058 -0.28597245413972472 0 0.27923417071030271 -0.28430334946566838 0 0.29346869208779058 -0.28597245413972472 0 0.2885318972285259 -0.27827526408973929 0 0.29346869208779058 -0.28597245413972472 0 0.30511084704676611 -0.29671161592215761 0 0.29602229691907789 -0.2703504429010728 0 0.31454003311966039 -0.28178169701742678 0 0.30511084704676611 -0.29671161592215761 0 0.30443332864437339 -0.27291872407132228 0 0.30511084704676611 -0.29671161592215761 0 0.29602229691907789 -0.2703504429010728 0 0.31949649085133391 -0.29106075007432253 0 0.30511084704676611 -0.29671161592215761 0 0.31085531995389137 -0.31337335427339719 0 0.29567589107855352 -0.31151300955771311 0 0.30511084704676611 -0.29671161592215761 0 0.31085531995389137 -0.31337335427339719 0 0.30511084704676611 -0.29671161592215761 0 0.31924026711673559 -0.30356520297212158 0 0.31085531995389137 -0.31337335427339719 0 0.30511084704676611 -0.29671161592215761 0 0.31369625101757792 -0.26308695721536529 0 0.30440479278902077 -0.25328215357689932 0 0.30443332864437339 -0.27291872407132228 0 0.30440479278902077 -0.25328215357689932 0 0.30443332864437339 -0.27291872407132228 0 0.30440479278902077 -0.25328215357689932 0 0.30443332864437339 -0.27291872407132228 0 0.29602229691907789 -0.2703504429010728 0 0.31296889669187378 -0.273278609741264 0 0.31369625101757792 -0.26308695721536529 0 0.30443332864437339 -0.27291872407132228 0 0.30511084704676611 -0.29671161592215761 0 0.30443332864437339 -0.27291872407132228 0 0.29602229691907789 -0.2703504429010728 0 0.31454003311966039 -0.28178169701742678 0 0.31296889669187378 -0.273278609741264 0 0.30443332864437339 -0.27291872407132228 0 0.29602229691907789 -0.2703504429010728 0 0.28198399207720171 -0.27366730064030731 0 0.2756953554140702 -0.26137345118980237 0 0.29346869208779058 -0.28597245413972472 0 0.29602229691907789 -0.2703504429010728 0 0.2885318972285259 -0.27827526408973929 0 0.27923417071030271 -0.28430334946566838 0 0.28198399207720171 -0.27366730064030731 0 0.2885318972285259 -0.27827526408973929 0 0.29602229691907789 -0.2703504429010728 0 0.28198399207720171 -0.27366730064030731 0 0.2885318972285259 -0.27827526408973929 0 0.28693374679138972 -0.24398926987998781 0 0.30440479278902077 -0.25328215357689932 0 0.29602229691907789 -0.2703504429010728 0 0.28693374679138972 -0.24398926987998781 0 0.29602229691907789 -0.2703504429010728 0 0.28693374679138972 -0.24398926987998781 0 0.29602229691907789 -0.2703504429010728 0 0.2756953554140702 -0.26137345118980237 0 0.27144181060576689 -0.2494565698602908 0 0.2756953554140702 -0.26137345118980237 0 0.25967455556378882 -0.25384352193259169 0 0.2756953554140702 -0.26137345118980237 0 0.25967455556378882 -0.25384352193259169 0 0.26427323388144652 -0.26507156697768552 0 0.28693374679138972 -0.24398926987998781 0 0.27144181060576689 -0.2494565698602908 0 0.2756953554140702 -0.26137345118980237 0 0.27923417071030271 -0.28430334946566838 0 0.28198399207720171 -0.27366730064030731 0 0.26829971691420013 -0.27477930229763808 0 0.28198399207720171 -0.27366730064030731 0 0.2756953554140702 -0.26137345118980237 0 0.26829971691420013 -0.27477930229763808 0 0.2756953554140702 -0.26137345118980237 0 0.26829971691420013 -0.27477930229763808 0 0.26427323388144652 -0.26507156697768552 0 0.26084897457873968 -0.2903430741180727 0 0.25342330763372722 -0.27028999249070967 0 0.2433366816315346 -0.28171444485928071 0 0.26084897457873968 -0.2903430741180727 0 0.26829971691420013 -0.27477930229763808 0 0.25342330763372722 -0.27028999249070967 0 0.26829971691420013 -0.27477930229763808 0 0.25342330763372722 -0.27028999249070967 0 0.26427323388144652 -0.26507156697768552 0 0.25342330763372722 -0.27028999249070967 0 0.25967455556378882 -0.25384352193259169 0 0.24245949675731721 -0.26337224103479911 0 0.25342330763372722 -0.27028999249070967 0 0.25967455556378882 -0.25384352193259169 0 0.26427323388144652 -0.26507156697768552 0 0.24245949675731721 -0.26337224103479911 0 0.22658224093852991 -0.25973476809078111 0 0.24143216616638091 -0.2469397021466557 0 0.25967455556378882 -0.25384352193259169 0 0.24245949675731721 -0.26337224103479911 0 0.24143216616638091 -0.2469397021466557 0 0.24245949675731721 -0.26337224103479911 0 0.23195683672170811 -0.270971883547171 0 0.2433366816315346 -0.28171444485928071 0 0.25342330763372722 -0.27028999249070967 0 0.24245949675731721 -0.26337224103479911 0 0.2433366816315346 -0.28171444485928071 0 0.23195683672170811 -0.270971883547171 0 0.22891231426875841 -0.29088876025404142 0 0.2433366816315346 -0.28171444485928071 0 0.2196221388784412 -0.27670373731003439 0 0.22658224093852991 -0.25973476809078111 0 0.21102453331620399 -0.26616428300538791 0 0.23195683672170811 -0.270971883547171 0 0.2196221388784412 -0.27670373731003439 0 0.22658224093852991 -0.25973476809078111 0 0.23195683672170811 -0.270971883547171 0 0.2196221388784412 -0.27670373731003439 0 0.22891231426875841 -0.29088876025404142 0 0.22658224093852991 -0.25973476809078111 0 0.21102453331620399 -0.26616428300538791 0 0.21869032422513979 -0.2414783546586948 0 0.24245949675731721 -0.26337224103479911 0 0.23195683672170811 -0.270971883547171 0 0.22658224093852991 -0.25973476809078111 0 0.21102453331620399 -0.26616428300538791 0 0.19728616590975029 -0.25535842144391158 0 0.21869032422513979 -0.2414783546586948 0 0.21102453331620399 -0.26616428300538791 0 0.19728616590975029 -0.25535842144391158 0 0.2196221388784412 -0.27670373731003439 0 0.21102453331620399 -0.26616428300538791 0 0.2102476930782102 -0.28590537147748413 0 0.21102453331620399 -0.26616428300538791 0 0.19279564441905031 -0.27797963115766572 0 0.2102476930782102 -0.28590537147748413 0 0.21102453331620399 -0.26616428300538791 0 0.19279564441905031 -0.27797963115766572 0 0.19728616590975029 -0.25535842144391158 0 0.19272984090331649 -0.29705785241932048 0 0.2085757978704052 -0.31658195125784389 0 0.18399395926193601 -0.31403339357311572 0 0.19272984090331649 -0.29705785241932048 0 0.2085757978704052 -0.31658195125784389 0 0.19279564441905031 -0.27797963115766572 0 0.19272984090331649 -0.29705785241932048 0 0.2102476930782102 -0.28590537147748413 0 0.19272984090331649 -0.29705785241932048 0 0.2102476930782102 -0.28590537147748413 0 0.21602229490687541 -0.30184076705538598 0 0.2102476930782102 -0.28590537147748413 0 0.21602229490687541 -0.30184076705538598 0 0.22891231426875841 -0.29088876025404142 0 0.19272984090331649 -0.29705785241932048 0 0.21602229490687541 -0.30184076705538598 0 0.2085757978704052 -0.31658195125784389 0 0.21602229490687541 -0.30184076705538598 0 0.22891231426875841 -0.29088876025404142 0 0.23433653609349511 -0.31682996776627459 0 0.21602229490687541 -0.30184076705538598 0 0.23433653609349511 -0.31682996776627459 0 0.2085757978704052 -0.31658195125784389 0 0.2196221388784412 -0.27670373731003439 0 0.2102476930782102 -0.28590537147748413 0 0.22891231426875841 -0.29088876025404142 0 0.26084897457873968 -0.2903430741180727 0 0.2433366816315346 -0.28171444485928071 0 0.24502534956208469 -0.29902290019192701 0 0.22891231426875841 -0.29088876025404142 0 0.2433366816315346 -0.28171444485928071 0 0.24502534956208469 -0.29902290019192701 0 0.22891231426875841 -0.29088876025404142 0 0.24502534956208469 -0.29902290019192701 0 0.23433653609349511 -0.31682996776627459 0 0.25769224123789553 -0.3153382539619653 0 0.24502534956208469 -0.29902290019192701 0 0.23433653609349511 -0.31682996776627459 0 0.25503808019652369 -0.33596927683345901 0 0.25769224123789553 -0.3153382539619653 0 0.23433653609349511 -0.31682996776627459 0 0.25503808019652369 -0.33596927683345901 0 0.23974699471888211 -0.33986034896388839 0 0.23433653609349511 -0.31682996776627459 0 0.25503808019652369 -0.33596927683345901 0 0.23974699471888211 -0.33986034896388839 0 0.24998006502078859 -0.34878186785508192 0 0.23974699471888211 -0.33986034896388839 0 0.22442175483749391 -0.3361060500963674 0 0.23433653609349511 -0.31682996776627459 0 0.22442175483749391 -0.3361060500963674 0 0.23433653609349511 -0.31682996776627459 0 0.2085757978704052 -0.31658195125784389 0 0.25611366877167308 -0.37515424777341272 0 0.24026771180458259 -0.35563014893489081 0 0.25101908222093772 -0.37639311670708242 0 0.25611366877167308 -0.37515424777341272 0 0.24026771180458259 -0.35563014893489081 0 0.25101908222093772 -0.37639311670708242 0 0.2356342054740676 -0.37342288660457512 0 0.24026771180458259 -0.35563014893489081 0 0.23974699471888211 -0.33986034896388839 0 0.22442175483749391 -0.3361060500963674 0 0.24026771180458259 -0.35563014893489081 0 0.23974699471888211 -0.33986034896388839 0 0.24026771180458259 -0.35563014893489081 0 0.24998006502078859 -0.34878186785508192 0 0.25441605400313411 -0.35969650062785669 0 0.24026771180458259 -0.35563014893489081 0 0.24998006502078859 -0.34878186785508192 0 0.22442175483749391 -0.3361060500963674 0 0.24026771180458259 -0.35563014893489081 0 0.22580381001767261 -0.35871266145833341 0 0.22442175483749391 -0.3361060500963674 0 0.22580381001767261 -0.35871266145833341 0 0.21309583608455229 -0.35002727639875258 0 0.22442175483749391 -0.3361060500963674 0 0.24026771180458259 -0.35563014893489081 0 0.2356342054740676 -0.37342288660457512 0 0.22580381001767261 -0.35871266145833341 0 0.2238378741328147 -0.37500025903684558 0 0.22580381001767261 -0.35871266145833341 0 0.21645025907364851 -0.3646840618251696 0 0.2238378741328147 -0.37500025903684558 0 0.2356342054740676 -0.37342288660457512 0 0.24026771180458259 -0.35563014893489081 0 0.22580381001767261 -0.35871266145833341 0 0.21194310115600551 -0.37460540117269048 0 0.20307800895227079 -0.36413933611776039 0 0.19933091594555971 -0.37689464227926911 0 0.21194310115600551 -0.37460540117269048 0 0.21645025907364851 -0.3646840618251696 0 0.20307800895227079 -0.36413933611776039 0 0.21194310115600551 -0.37460540117269048 0 0.21645025907364851 -0.3646840618251696 0 0.2238378741328147 -0.37500025903684558 0 0.21645025907364851 -0.3646840618251696 0 0.21309583608455229 -0.35002727639875258 0 0.20307800895227079 -0.36413933611776039 0 0.21309583608455229 -0.35002727639875258 0 0.19900494753689049 -0.3485825951282055 0 0.20713971121203401 -0.33416626771852198 0 0.21309583608455229 -0.35002727639875258 0 0.19900494753689049 -0.3485825951282055 0 0.20307800895227079 -0.36413933611776039 0 0.22580381001767261 -0.35871266145833341 0 0.21645025907364851 -0.3646840618251696 0 0.21309583608455229 -0.35002727639875258 0 0.19900494753689049 -0.3485825951282055 0 0.1900408081942718 -0.36326983585536959 0 0.18495183032506071 -0.34979455218951649 0 0.19900494753689049 -0.3485825951282055 0 0.20307800895227079 -0.36413933611776039 0 0.1900408081942718 -0.36326983585536959 0 0.1900408081942718 -0.36326983585536959 0 0.19933091594555971 -0.37689464227926911 0 0.18487264785785351 -0.37905004844206602 0 0.20307800895227079 -0.36413933611776039 0 0.1900408081942718 -0.36326983585536959 0 0.19933091594555971 -0.37689464227926911 0 0.22442175483749391 -0.3361060500963674 0 0.2085757978704052 -0.31658195125784389 0 0.22442175483749391 -0.3361060500963674 0 0.2085757978704052 -0.31658195125784389 0 0.20713971121203401 -0.33416626771852198 0 0.22442175483749391 -0.3361060500963674 0 0.21309583608455229 -0.35002727639875258 0 0.20713971121203401 -0.33416626771852198 0 0.19900494753689049 -0.3485825951282055 0 0.19156530468968269 -0.33102317221735622 0 0.18495183032506071 -0.34979455218951649 0 0.19900494753689049 -0.3485825951282055 0 0.20713971121203401 -0.33416626771852198 0 0.19156530468968269 -0.33102317221735622 0 0.2085757978704052 -0.31658195125784389 0 0.20713971121203401 -0.33416626771852198 0 0.19156530468968269 -0.33102317221735622 0 0.2085757978704052 -0.31658195125784389 0 0.19156530468968269 -0.33102317221735622 0 0.18399395926193601 -0.31403339357311572 0 0.18399395926193601 -0.31403339357311572 0 0.17211929233682741 -0.33970341646400359 0 0.16387831369831099 -0.31089461498217991 0 0.19156530468968269 -0.33102317221735622 0 0.17211929233682741 -0.33970341646400359 0 0.18495183032506071 -0.34979455218951649 0 0.19156530468968269 -0.33102317221735622 0 0.18399395926193601 -0.31403339357311572 0 0.17211929233682741 -0.33970341646400359 0 0.17211929233682741 -0.33970341646400359 0 0.15323788825773549 -0.34787720962106178 0 0.15220562615422131 -0.32709240390026623 0 0.17211929233682741 -0.33970341646400359 0 0.15220562615422131 -0.32709240390026623 0 0.16387831369831099 -0.31089461498217991 0 0.1900408081942718 -0.36326983585536959 0 0.17202879886763089 -0.36639374128264718 0 0.18487264785785351 -0.37905004844206602 0 0.1900408081942718 -0.36326983585536959 0 0.17202879886763089 -0.36639374128264718 0 0.18495183032506071 -0.34979455218951649 0 0.17202879886763089 -0.36639374128264718 0 0.18487264785785351 -0.37905004844206602 0 0.17211929233682741 -0.33970341646400359 0 0.17202879886763089 -0.36639374128264718 0 0.17211929233682741 -0.33970341646400359 0 0.17202879886763089 -0.36639374128264718 0 0.18495183032506071 -0.34979455218951649 0 0.17211929233682741 -0.33970341646400359 0 0.17202879886763089 -0.36639374128264718 0 0.15323788825773549 -0.34787720962106178 0 0.17202879886763089 -0.36639374128264718 0 0.15323788825773549 -0.34787720962106178 0 0.17202879886763089 -0.36639374128264718 0 0.15480785317882201 -0.36469741543509437 0 0.1542601677024007 -0.37992438444355342 0 0.17202879886763089 -0.36639374128264718 0 0.15480785317882201 -0.36469741543509437 0 0.15323788825773549 -0.34787720962106178 0 0.15480785317882201 -0.36469741543509437 0 0.13970455788752081 -0.36459432639311518 0 0.1542601677024007 -0.37992438444355342 0 0.15480785317882201 -0.36469741543509437 0 0.15323788825773549 -0.34787720962106178 0 0.13970455788752081 -0.36459432639311518 0 0.15323788825773549 -0.34787720962106178 0 0.12689179055556221 -0.34873609799844713 0 0.13970455788752081 -0.36459432639311518 0 0.13970455788752081 -0.36459432639311518 0 0.13205551513214411 -0.38117826395379772 0 0.1171915604135486 -0.3657043925962345 0 0.12689179055556221 -0.34873609799844713 0 0.13970455788752081 -0.36459432639311518 0 0.1171915604135486 -0.3657043925962345 0 0.15220562615422131 -0.32709240390026623 0 0.13444697764783919 -0.32936067795947749 0 0.13849369214148541 -0.30891937972445183 0 0.15220562615422131 -0.32709240390026623 0 0.13849369214148541 -0.30891937972445183 0 0.16387831369831099 -0.31089461498217991 0 0.15323788825773549 -0.34787720962106178 0 0.15220562615422131 -0.32709240390026623 0 0.13444697764783919 -0.32936067795947749 0 0.15323788825773549 -0.34787720962106178 0 0.13444697764783919 -0.32936067795947749 0 0.15323788825773549 -0.34787720962106178 0 0.12689179055556221 -0.34873609799844713 0 0.13444697764783919 -0.32936067795947749 0 0.13444697764783919 -0.32936067795947749 0 0.1156560670379428 -0.31084414629789309 0 0.13444697764783919 -0.32936067795947749 0 0.13849369214148541 -0.30891937972445183 0 0.1156560670379428 -0.31084414629789309 0 0.13849369214148541 -0.30891937972445183 0 0.14702536465529659 -0.28795130679875941 0 0.12561376856076639 -0.29398059933629872 0 0.13849369214148541 -0.30891937972445183 0 0.12561376856076639 -0.29398059933629872 0 0.1156560670379428 -0.31084414629789309 0 0.13849369214148541 -0.30891937972445183 0 0.14702536465529659 -0.28795130679875941 0 0.16387831369831099 -0.31089461498217991 0 0.14702536465529659 -0.28795130679875941 0 0.12561376856076639 -0.29398059933629872 0 0.13951787070281699 -0.26971485499680631 0 0.12561376856076639 -0.29398059933629872 0 0.13951787070281699 -0.26971485499680631 0 0.111042624863462 -0.28236934737060809 0 0.14702536465529659 -0.28795130679875941 0 0.13951787070281699 -0.26971485499680631 0 0.17215576528252399 -0.27165486412133633 0 0.13951787070281699 -0.26971485499680631 0 0.123142866472638 -0.2579767125970166 0 0.13933960457653141 -0.24367352749783699 0 0.13951787070281699 -0.26971485499680631 0 0.15830510050850111 -0.25039762725578801 0 0.13933960457653141 -0.24367352749783699 0 0.14702536465529659 -0.28795130679875941 0 0.17215576528252399 -0.27165486412133633 0 0.13951787070281699 -0.26971485499680631 0 0.15830510050850111 -0.25039762725578801 0 0.17215576528252399 -0.27165486412133633 0 0.15830510050850111 -0.25039762725578801 0 0.17215576528252399 -0.27165486412133633 0 0.17925130101915759 -0.24117316583660039 0 0.19728616590975029 -0.25535842144391158 0 0.17215576528252399 -0.27165486412133633 0 0.17925130101915759 -0.24117316583660039 0 0.19728616590975029 -0.25535842144391158 0 0.17215576528252399 -0.27165486412133633 0 0.19279564441905031 -0.27797963115766572 0 0.17215576528252399 -0.27165486412133633 0 0.17540808687026721 -0.29298125619634391 0 0.19279564441905031 -0.27797963115766572 0 0.19728616590975029 -0.25535842144391158 0 0.17215576528252399 -0.27165486412133633 0 0.19279564441905031 -0.27797963115766572 0 0.19272984090331649 -0.29705785241932048 0 0.17540808687026721 -0.29298125619634391 0 0.18399395926193601 -0.31403339357311572 0 0.17540808687026721 -0.29298125619634391 0 0.16387831369831099 -0.31089461498217991 0 0.19272984090331649 -0.29705785241932048 0 0.18399395926193601 -0.31403339357311572 0 0.17540808687026721 -0.29298125619634391 0 0.14702536465529659 -0.28795130679875941 0 0.17540808687026721 -0.29298125619634391 0 0.16387831369831099 -0.31089461498217991 0 0.14702536465529659 -0.28795130679875941 0 0.17215576528252399 -0.27165486412133633 0 0.17540808687026721 -0.29298125619634391 0 0.1897850594276019 -0.5 0 0.20181577005708509 -0.48311304243776321 0 0.2053018192555606 -0.50000000000000044 0 0.1897850594276019 -0.5 0 0.20181577005708509 -0.48311304243776321 0 0.18717703946090791 -0.4798703858973159 0 0.20181577005708509 -0.48311304243776321 0 0.20008577932217239 -0.45974077179463119 0 0.18717703946090791 -0.4798703858973159 0 0.20008577932217239 -0.45974077179463119 0 0.18717703946090791 -0.4798703858973159 0 0.20181577005708509 -0.48311304243776321 0 0.21817678915111269 -0.47500891072737828 0 0.20008577932217239 -0.45974077179463119 0 0.21817678915111269 -0.47500891072737828 0 0.2053018192555606 -0.50000000000000044 0 0.22991257585995459 -0.5 0 0.20181577005708509 -0.48311304243776321 0 0.21817678915111269 -0.47500891072737828 0 0.2053018192555606 -0.50000000000000044 0 0.21817678915111269 -0.47500891072737828 0 0.2053018192555606 -0.50000000000000044 0 0.21817678915111269 -0.47500891072737828 0 0.22991257585995459 -0.5 0 0.24109196919339401 -0.48554362312745242 0 0.25452333246434877 -0.49999999999999822 0 0.22991257585995459 -0.5 0 0.24109196919339401 -0.48554362312745242 0 0.25851337632039079 -0.47621667628187142 0 0.24109196919339401 -0.48554362312745242 0 0.23892904432113179 -0.46896819486697988 0 0.21817678915111269 -0.47500891072737828 0 0.24109196919339401 -0.48554362312745242 0 0.23892904432113179 -0.46896819486697988 0 0.21817678915111269 -0.47500891072737828 0 0.2310517590466647 -0.45001782145475611 0 0.21817678915111269 -0.47500891072737828 0 0.2310517590466647 -0.45001782145475611 0 0.21579937219460649 -0.45561372885855989 0 0.21817678915111269 -0.47500891072737828 0 0.23892904432113179 -0.46896819486697988 0 0.2310517590466647 -0.45001782145475611 0 0.25851337632039079 -0.47621667628187142 0 0.23892904432113179 -0.46896819486697988 0 0.24663550644168941 -0.45307559494085597 0 0.23892904432113179 -0.46896819486697988 0 0.24663550644168941 -0.45307559494085597 0 0.2310517590466647 -0.45001782145475611 0 0.25247351197126178 -0.43591931463226691 0 0.24663550644168941 -0.45307559494085597 0 0.23864027152556599 -0.43789119594682058 0 0.24663550644168941 -0.45307559494085597 0 0.23864027152556599 -0.43789119594682058 0 0.2310517590466647 -0.45001782145475611 0 0.23864027152556599 -0.43789119594682058 0 0.2310517590466647 -0.45001782145475611 0 0.22620798037144599 -0.43809102846806047 0 0.2310517590466647 -0.45001782145475611 0 0.22620798037144599 -0.43809102846806047 0 0.21579937219460649 -0.45561372885855989 0 0.21299451918343701 -0.43961115769194647 0 0.20008577932217239 -0.45974077179463119 0 0.20215712531417049 -0.44356975636477952 0 0.21299451918343701 -0.43961115769194647 0 0.20008577932217239 -0.45974077179463119 0 0.22620798037144599 -0.43809102846806047 0 0.21299451918343701 -0.43961115769194647 0 0.21579937219460649 -0.45561372885855989 0 0.21299451918343701 -0.43961115769194647 0 0.21579937219460649 -0.45561372885855989 0 0.20008577932217239 -0.45974077179463119 0 0.21299451918343701 -0.43961115769194647 0 0.20215712531417049 -0.44356975636477952 0 0.203393554122313 -0.43219278765769198 0 0.21817678915111269 -0.47500891072737828 0 0.21579937219460649 -0.45561372885855989 0 0.20008577932217239 -0.45974077179463119 0 0.20008577932217239 -0.45974077179463119 0 0.18971947047195509 -0.46507619017392848 0 0.18717703946090791 -0.4798703858973159 0 0.20008577932217239 -0.45974077179463119 0 0.18971947047195509 -0.46507619017392848 0 0.19215464862876039 -0.44273430831484778 0 0.18971947047195509 -0.46507619017392848 0 0.19215464862876039 -0.44273430831484778 0 0.20008577932217239 -0.45974077179463119 0 0.19215464862876039 -0.44273430831484778 0 0.20215712531417049 -0.44356975636477952 0 0.19215464862876039 -0.44273430831484778 0 0.20215712531417049 -0.44356975636477952 0 0.203393554122313 -0.43219278765769198 0 0.19215464862876039 -0.44273430831484778 0 0.19493557273841569 -0.41722033195816749 0 0.1826862878472725 -0.4278764359164931 0 0.19215464862876039 -0.44273430831484778 0 0.19493557273841569 -0.41722033195816749 0 0.203393554122313 -0.43219278765769198 0 0.19215464862876039 -0.44273430831484778 0 0.19493557273841569 -0.41722033195816749 0 0.19493557273841569 -0.41722033195816749 0 0.20619286610574539 -0.41916458405294232 0 0.203393554122313 -0.43219278765769198 0 0.19215464862876039 -0.44273430831484778 0 0.203393554122313 -0.43219278765769198 0 0.21463245961586491 -0.4216512670005354 0 0.2259032590447014 -0.41948154358926171 0 0.21180987794638809 -0.40559394959537398 0 0.19493557273841569 -0.41722033195816749 0 0.20619286610574539 -0.41916458405294232 0 0.21180987794638809 -0.40559394959537398 0 0.20619286610574539 -0.41916458405294232 0 0.21463245961586491 -0.4216512670005354 0 0.21180987794638809 -0.40559394959537398 0 0.21463245961586491 -0.4216512670005354 0 0.21423094799157899 -0.42823418898485899 0 0.2259032590447014 -0.41948154358926171 0 0.21299451918343701 -0.43961115769194647 0 0.21423094799157899 -0.42823418898485899 0 0.2259032590447014 -0.41948154358926171 0 0.21463245961586491 -0.4216512670005354 0 0.21423094799157899 -0.42823418898485899 0 0.203393554122313 -0.43219278765769198 0 0.20619286610574539 -0.41916458405294232 0 0.21463245961586491 -0.4216512670005354 0 0.203393554122313 -0.43219278765769198 0 0.21463245961586491 -0.4216512670005354 0 0.203393554122313 -0.43219278765769198 0 0.21299451918343701 -0.43961115769194647 0 0.21423094799157899 -0.42823418898485899 0 0.203393554122313 -0.43219278765769198 0 0.21299451918343701 -0.43961115769194647 0 0.2259032590447014 -0.41948154358926171 0 0.22620798037144599 -0.43809102846806047 0 0.23339833518096259 -0.42686717898843118 0 0.2259032590447014 -0.41948154358926171 0 0.22620798037144599 -0.43809102846806047 0 0.21299451918343701 -0.43961115769194647 0 0.2259032590447014 -0.41948154358926171 0 0.23339833518096259 -0.42686717898843118 0 0.2259032590447014 -0.41948154358926171 0 0.23864027152556599 -0.43789119594682058 0 0.22620798037144599 -0.43809102846806047 0 0.23339833518096259 -0.42686717898843118 0 0.23864027152556599 -0.43789119594682058 0 0.23339833518096259 -0.42686717898843118 0 0.24342968634701581 -0.42447285769975962 0 0.23339833518096259 -0.42686717898843118 0 0.24342968634701581 -0.42447285769975962 0 0.23709247772277531 -0.41652831196725038 0 0.25247351197126178 -0.43591931463226691 0 0.23864027152556599 -0.43789119594682058 0 0.24342968634701581 -0.42447285769975962 0 0.2448698459283406 -0.41345449198668272 0 0.23709247772277531 -0.41652831196725038 0 0.23899156484047479 -0.39907191819140059 0 0.25002471251888231 -0.40643688974507908 0 0.2448698459283406 -0.41345449198668272 0 0.23899156484047479 -0.39907191819140059 0 0.25681640229947189 -0.41787208616338822 0 0.24342968634701581 -0.42447285769975962 0 0.2448698459283406 -0.41345449198668272 0 0.24342968634701581 -0.42447285769975962 0 0.2448698459283406 -0.41345449198668272 0 0.23709247772277531 -0.41652831196725038 0 0.23709247772277531 -0.41652831196725038 0 0.2259032590447014 -0.41948154358926171 0 0.23899156484047479 -0.39907191819140059 0 0.2259032590447014 -0.41948154358926171 0 0.22458298860281359 -0.40323856349185011 0 0.21180987794638809 -0.40559394959537398 0 0.2259032590447014 -0.41948154358926171 0 0.23899156484047479 -0.39907191819140059 0 0.2259032590447014 -0.41948154358926171 0 0.22458298860281359 -0.40323856349185011 0 0.23899156484047479 -0.39907191819140059 0 0.23339833518096259 -0.42686717898843118 0 0.23709247772277531 -0.41652831196725038 0 0.2259032590447014 -0.41948154358926171 0 0.2259032590447014 -0.41948154358926171 0 0.21180987794638809 -0.40559394959537398 0 0.22458298860281359 -0.40323856349185011 0 0.23899156484047479 -0.39907191819140059 0 0.2216272525796904 -0.38880684259136378 0 0.22458298860281359 -0.40323856349185011 0 0.2216272525796904 -0.38880684259136378 0 0.21180987794638809 -0.40559394959537398 0 0.23899156484047479 -0.39907191819140059 0 0.2374009334224631 -0.38635740790834727 0 0.2216272525796904 -0.38880684259136378 0 0.25059459995114802 -0.39663921775013289 0 0.23899156484047479 -0.39907191819140059 0 0.2374009334224631 -0.38635740790834727 0 0.25059459995114802 -0.39663921775013289 0 0.25002471251888231 -0.40643688974507908 0 0.23899156484047479 -0.39907191819140059 0 0.25372010355658309 -0.38520332327576551 0 0.2356342054740676 -0.37342288660457512 0 0.25372010355658309 -0.38520332327576551 0 0.25101908222093772 -0.37639311670708242 0 0.2356342054740676 -0.37342288660457512 0 0.25372010355658309 -0.38520332327576551 0 0.25059459995114802 -0.39663921775013289 0 0.2374009334224631 -0.38635740790834727 0 0.25372010355658309 -0.38520332327576551 0 0.2356342054740676 -0.37342288660457512 0 0.2374009334224631 -0.38635740790834727 0 0.2356342054740676 -0.37342288660457512 0 0.2374009334224631 -0.38635740790834727 0 0.2238378741328147 -0.37500025903684558 0 0.2374009334224631 -0.38635740790834727 0 0.2216272525796904 -0.38880684259136378 0 0.2238378741328147 -0.37500025903684558 0 0.21194310115600551 -0.37460540117269048 0 0.2216272525796904 -0.38880684259136378 0 0.2238378741328147 -0.37500025903684558 0 0.21194310115600551 -0.37460540117269048 0 0.2084855288951438 -0.38752143824803659 0 0.19933091594555971 -0.37689464227926911 0 0.21194310115600551 -0.37460540117269048 0 0.2216272525796904 -0.38880684259136378 0 0.2084855288951438 -0.38752143824803659 0 0.2084855288951438 -0.38752143824803659 0 0.21180987794638809 -0.40559394959537398 0 0.19771649684807349 -0.39170635560148748 0 0.2216272525796904 -0.38880684259136378 0 0.2084855288951438 -0.38752143824803659 0 0.21180987794638809 -0.40559394959537398 0 0.21180987794638809 -0.40559394959537398 0 0.19771649684807349 -0.39170635560148748 0 0.19493557273841569 -0.41722033195816749 0 0.21180987794638809 -0.40559394959537398 0 0.19771649684807349 -0.39170635560148748 0 0.19493557273841569 -0.41722033195816749 0 0.19771649684807349 -0.39170635560148748 0 0.19493557273841569 -0.41722033195816749 0 0.19771649684807349 -0.39170635560148748 0 0.18415814078411619 -0.40206436160279202 0 0.19771649684807349 -0.39170635560148748 0 0.18467388770375151 -0.39074180777363088 0 0.18415814078411619 -0.40206436160279202 0 0.19771649684807349 -0.39170635560148748 0 0.18487264785785351 -0.37905004844206602 0 0.19771649684807349 -0.39170635560148748 0 0.18487264785785351 -0.37905004844206602 0 0.18467388770375151 -0.39074180777363088 0 0.19771649684807349 -0.39170635560148748 0 0.19933091594555971 -0.37689464227926911 0 0.18487264785785351 -0.37905004844206602 0 0.2084855288951438 -0.38752143824803659 0 0.19771649684807349 -0.39170635560148748 0 0.19933091594555971 -0.37689464227926911 0 0.19771649684807349 -0.39170635560148748 0 0.19933091594555971 -0.37689464227926911 0 0.17202879886763089 -0.36639374128264718 0 0.17194826532496091 -0.39014646544817982 0 0.18487264785785351 -0.37905004844206602 0 0.17202879886763089 -0.36639374128264718 0 0.17194826532496091 -0.39014646544817982 0 0.17194826532496091 -0.39014646544817982 0 0.18487264785785351 -0.37905004844206602 0 0.18467388770375151 -0.39074180777363088 0 0.17194826532496091 -0.39014646544817982 0 0.17186773178229189 -0.41389918961371241 0 0.17194826532496091 -0.39014646544817982 0 0.18467388770375151 -0.39074180777363088 0 0.18415814078411619 -0.40206436160279202 0 0.17194826532496091 -0.39014646544817982 0 0.18415814078411619 -0.40206436160279202 0 0.17186773178229189 -0.41389918961371241 0 0.17194826532496091 -0.39014646544817982 0 0.15939264084281379 -0.40198039424678078 0 0.1542601677024007 -0.37992438444355342 0 0.17194826532496091 -0.39014646544817982 0 0.15939264084281379 -0.40198039424678078 0 0.17186773178229189 -0.41389918961371241 0 0.17202879886763089 -0.36639374128264718 0 0.17194826532496091 -0.39014646544817982 0 0.1542601677024007 -0.37992438444355342 0 0.1542601677024007 -0.37992438444355342 0 0.13205551513214411 -0.38117826395379772 0 0.14412697253947751 -0.39394018602811121 0 0.13970455788752081 -0.36459432639311518 0 0.1542601677024007 -0.37992438444355342 0 0.13205551513214411 -0.38117826395379772 0 0.13205551513214411 -0.38117826395379772 0 0.12591770586201409 -0.40061479569785208 0 0.14412697253947751 -0.39394018602811121 0 0.12591770586201409 -0.40061479569785208 0 0.14412697253947751 -0.39394018602811121 0 0.1407032853361245 -0.41893809283178418 0 0.15939264084281379 -0.40198039424678078 0 0.1542601677024007 -0.37992438444355342 0 0.14412697253947751 -0.39394018602811121 0 0.15939264084281379 -0.40198039424678078 0 0.14412697253947751 -0.39394018602811121 0 0.1407032853361245 -0.41893809283178418 0 0.14412697253947751 -0.39394018602811121 0 0.1407032853361245 -0.41893809283178418 0 0.15939264084281379 -0.40198039424678078 0 0.1407032853361245 -0.41893809283178418 0 0.15876451582260151 -0.42244052592037512 0 0.12591770586201409 -0.40061479569785208 0 0.1407032853361245 -0.41893809283178418 0 0.12591770586201409 -0.40061479569785208 0 0.1407032853361245 -0.41893809283178418 0 0.1235603530839392 -0.42530558377261729 0 0.1407032853361245 -0.41893809283178418 0 0.13783858992991421 -0.43985454475391278 0 0.1407032853361245 -0.41893809283178418 0 0.13783858992991421 -0.43985454475391278 0 0.1235603530839392 -0.42530558377261729 0 0.1407032853361245 -0.41893809283178418 0 0.15725077862245329 -0.43944487356621742 0 0.1407032853361245 -0.41893809283178418 0 0.15725077862245329 -0.43944487356621742 0 0.13783858992991421 -0.43985454475391278 0 0.1407032853361245 -0.41893809283178418 0 0.15876451582260151 -0.42244052592037512 0 0.15725077862245329 -0.43944487356621742 0 0.15876451582260151 -0.42244052592037512 0 0.17186773178229189 -0.41389918961371241 0 0.17178719823962299 -0.43765191377924489 0 0.17186773178229189 -0.41389918961371241 0 0.17178719823962299 -0.43765191377924489 0 0.15876451582260151 -0.42244052592037512 0 0.17178719823962299 -0.43765191377924489 0 0.15725077862245329 -0.43944487356621742 0 0.15939264084281379 -0.40198039424678078 0 0.15876451582260151 -0.42244052592037512 0 0.17186773178229189 -0.41389918961371241 0 0.19493557273841569 -0.41722033195816749 0 0.18415814078411619 -0.40206436160279202 0 0.17186773178229189 -0.41389918961371241 0 0.19493557273841569 -0.41722033195816749 0 0.17186773178229189 -0.41389918961371241 0 0.1826862878472725 -0.4278764359164931 0 0.19215464862876039 -0.44273430831484778 0 0.1826862878472725 -0.4278764359164931 0 0.17178719823962299 -0.43765191377924489 0 0.17186773178229189 -0.41389918961371241 0 0.1826862878472725 -0.4278764359164931 0 0.17178719823962299 -0.43765191377924489 0 0.19215464862876039 -0.44273430831484778 0 0.17379827190878011 -0.45995165430065249 0 0.17178719823962299 -0.43765191377924489 0 0.19215464862876039 -0.44273430831484778 0 0.17379827190878011 -0.45995165430065249 0 0.18971947047195509 -0.46507619017392848 0 0.17953764232719591 -0.46706427303314257 0 0.17379827190878011 -0.45995165430065249 0 0.18971947047195509 -0.46507619017392848 0 0.19215464862876039 -0.44273430831484778 0 0.17379827190878011 -0.45995165430065249 0 0.17953764232719591 -0.46706427303314257 0 0.17379827190878011 -0.45995165430065249 0 0.17379827190878011 -0.45995165430065249 0 0.15322554327846979 -0.45772492722422842 0 0.15244937988804139 -0.4799758271503255 0 0.17379827190878011 -0.45995165430065249 0 0.17178719823962299 -0.43765191377924489 0 0.15725077862245329 -0.43944487356621742 0 0.17379827190878011 -0.45995165430065249 0 0.15725077862245329 -0.43944487356621742 0 0.17379827190878011 -0.45995165430065249 0 0.15725077862245329 -0.43944487356621742 0 0.15322554327846979 -0.45772492722422842 0 0.15725077862245329 -0.43944487356621742 0 0.13783858992991421 -0.43985454475391278 0 0.15322554327846979 -0.45772492722422842 0 0.13783858992991421 -0.43985454475391278 0 0.1349738945237042 -0.46077099667604149 0 0.15322554327846979 -0.45772492722422842 0 0.13783858992991421 -0.43985454475391278 0 0.1349738945237042 -0.46077099667604149 0 0.11775123125656151 -0.44889091606784848 0 0.13783858992991421 -0.43985454475391278 0 0.1349738945237042 -0.46077099667604149 0 0.13783858992991421 -0.43985454475391278 0 0.11775123125656151 -0.44889091606784848 0 0.1235603530839392 -0.42530558377261729 0 0.1349738945237042 -0.46077099667604149 0 0.15322554327846979 -0.45772492722422842 0 0.15244937988804139 -0.4799758271503255 0 0.1349738945237042 -0.46077099667604149 0 0.13210919911749419 -0.48168744859817031 0 0.1203134826225932 -0.46829886954478639 0 0.1349738945237042 -0.46077099667604149 0 0.15244937988804139 -0.4799758271503255 0 0.13210919911749419 -0.48168744859817031 0 0.1349738945237042 -0.46077099667604149 0 0.13210919911749419 -0.48168744859817031 0 0.13210919911749419 -0.48168744859817031 0 0.13110048786730319 -0.49999999999999911 0 0.1136496423106847 -0.48353993069401641 0 0.15244937988804139 -0.4799758271503255 0 0.13210919911749419 -0.48168744859817031 0 0.13110048786730319 -0.49999999999999911 0 0.15244937988804139 -0.4799758271503255 0 0.13110048786730319 -0.49999999999999911 0 0.1526843937334732 -0.5 0 0.15244937988804139 -0.4799758271503255 0 0.13110048786730319 -0.49999999999999911 0 0.15244937988804139 -0.4799758271503255 0 0.1526843937334732 -0.5 0 0.1699858378196735 -0.48114369006357272 0 0.1526843937334732 -0.5 0 0.1699858378196735 -0.48114369006357272 0 0.17426829959964321 -0.50000000000000044 0 0.17379827190878011 -0.45995165430065249 0 0.15244937988804139 -0.4799758271503255 0 0.17379827190878011 -0.45995165430065249 0 0.15244937988804139 -0.4799758271503255 0 0.1699858378196735 -0.48114369006357272 0 0.17953764232719591 -0.46706427303314257 0 0.1699858378196735 -0.48114369006357272 0 0.18717703946090791 -0.4798703858973159 0 0.17953764232719591 -0.46706427303314257 0 0.17379827190878011 -0.45995165430065249 0 0.1699858378196735 -0.48114369006357272 0 0.18971947047195509 -0.46507619017392848 0 0.17953764232719591 -0.46706427303314257 0 0.18717703946090791 -0.4798703858973159 0 0.1699858378196735 -0.48114369006357272 0 0.18717703946090791 -0.4798703858973159 0 0.17426829959964321 -0.50000000000000044 0 0.18717703946090791 -0.4798703858973159 0 0.17426829959964321 -0.50000000000000044 0 0.1897850594276019 -0.5 0 0.18717703946090791 -0.4798703858973159 0 0.17426829959964321 -0.50000000000000044 0 0.07648954968221866 -0.5 0 0.068214255748772601 -0.48318190960432938 0 0.049184080589676493 -0.5 0 0.068214255748772601 -0.48318190960432938 0 0.090185947424553173 -0.48335010559030261 0 0.075844478351411393 -0.46606150197845642 0 0.075844478351411393 -0.46606150197845642 0 0.051510648824828531 -0.47467790055140402 0 0.068214255748772601 -0.48318190960432938 0 0.075844478351411393 -0.46606150197845642 0 0.051510648824828531 -0.47467790055140402 0 0.090185947424553173 -0.48335010559030261 0 0.1030834459045212 -0.46660505568785521 0 0.075844478351411393 -0.46606150197845642 0 0.07648954968221866 -0.5 0 0.068214255748772601 -0.48318190960432938 0 0.090185947424553173 -0.48335010559030261 0 0.07648954968221866 -0.5 0 0.090185947424553173 -0.48335010559030261 0 0.1037950187747609 -0.5 0 0.090185947424553173 -0.48335010559030261 0 0.1037950187747609 -0.5 0 0.1136496423106847 -0.48353993069401641 0 0.13110048786730319 -0.49999999999999911 0 0.1037950187747609 -0.5 0 0.1136496423106847 -0.48353993069401641 0 0.1136496423106847 -0.48353993069401641 0 0.1030834459045212 -0.46660505568785521 0 0.1203134826225932 -0.46829886954478639 0 0.13210919911749419 -0.48168744859817031 0 0.1136496423106847 -0.48353993069401641 0 0.1203134826225932 -0.46829886954478639 0 0.090185947424553173 -0.48335010559030261 0 0.1136496423106847 -0.48353993069401641 0 0.1030834459045212 -0.46660505568785521 0 0.1030834459045212 -0.46660505568785521 0 0.11775123125656151 -0.44889091606784848 0 0.093679730731616756 -0.44730974691677938 0 0.1349738945237042 -0.46077099667604149 0 0.1203134826225932 -0.46829886954478639 0 0.11775123125656151 -0.44889091606784848 0 0.1030834459045212 -0.46660505568785521 0 0.1203134826225932 -0.46829886954478639 0 0.11775123125656151 -0.44889091606784848 0 0.11775123125656151 -0.44889091606784848 0 0.093679730731616756 -0.44730974691677938 0 0.1074158161380498 -0.43056919048767228 0 0.075844478351411393 -0.46606150197845642 0 0.076494209757923134 -0.43132788224653551 0 0.057245137377401951 -0.45094631997547091 0 0.093679730731616756 -0.44730974691677938 0 0.075844478351411393 -0.46606150197845642 0 0.076494209757923134 -0.43132788224653551 0 0.1030834459045212 -0.46660505568785521 0 0.093679730731616756 -0.44730974691677938 0 0.075844478351411393 -0.46606150197845642 0 0.076494209757923134 -0.43132788224653551 0 0.057184695671408138 -0.43090380000441908 0 0.057245137377401951 -0.45094631997547091 0 0.076494209757923134 -0.43132788224653551 0 0.062076299281705931 -0.4103299851561073 0 0.057184695671408138 -0.43090380000441908 0 0.076494209757923134 -0.43132788224653551 0 0.091433562793654596 -0.42154407658076332 0 0.062076299281705931 -0.4103299851561073 0 0.076494209757923134 -0.43132788224653551 0 0.062076299281705931 -0.4103299851561073 0 0.091433562793654596 -0.42154407658076332 0 0.08476559820148942 -0.40128090173951853 0 0.062076299281705931 -0.4103299851561073 0 0.093679730731616756 -0.44730974691677938 0 0.076494209757923134 -0.43132788224653551 0 0.091433562793654596 -0.42154407658076332 0 0.093679730731616756 -0.44730974691677938 0 0.091433562793654596 -0.42154407658076332 0 0.1074158161380498 -0.43056919048767228 0 0.11775123125656151 -0.44889091606784848 0 0.1074158161380498 -0.43056919048767228 0 0.1235603530839392 -0.42530558377261729 0 0.1074158161380498 -0.43056919048767228 0 0.1235603530839392 -0.42530558377261729 0 0.1067362090800664 -0.40762759505513591 0 0.12591770586201409 -0.40061479569785208 0 0.1235603530839392 -0.42530558377261729 0 0.1067362090800664 -0.40762759505513591 0 0.091433562793654596 -0.42154407658076332 0 0.1067362090800664 -0.40762759505513591 0 0.08476559820148942 -0.40128090173951853 0 0.091433562793654596 -0.42154407658076332 0 0.1074158161380498 -0.43056919048767228 0 0.1067362090800664 -0.40762759505513591 0 0.1067362090800664 -0.40762759505513591 0 0.1111321263879033 -0.38229149856392042 0 0.09375857641064908 -0.38682626759664013 0 0.1067362090800664 -0.40762759505513591 0 0.09375857641064908 -0.38682626759664013 0 0.08476559820148942 -0.40128090173951853 0 0.12591770586201409 -0.40061479569785208 0 0.1067362090800664 -0.40762759505513591 0 0.1111321263879033 -0.38229149856392042 0 0.12591770586201409 -0.40061479569785208 0 0.1111321263879033 -0.38229149856392042 0 0.13205551513214411 -0.38117826395379772 0 0.12591770586201409 -0.40061479569785208 0 0.1111321263879033 -0.38229149856392042 0 0.13205551513214411 -0.38117826395379772 0 0.1111321263879033 -0.38229149856392042 0 0.1171915604135486 -0.3657043925962345 0 0.1111321263879033 -0.38229149856392042 0 0.09375857641064908 -0.38682626759664013 0 0.089572970469506713 -0.36929622776361709 0 0.09375857641064908 -0.38682626759664013 0 0.073006241079564396 -0.38089529973342928 0 0.089572970469506713 -0.36929622776361709 0 0.09375857641064908 -0.38682626759664013 0 0.08476559820148942 -0.40128090173951853 0 0.073006241079564396 -0.38089529973342928 0 0.08476559820148942 -0.40128090173951853 0 0.066876631842062245 -0.39545956867368331 0 0.073006241079564396 -0.38089529973342928 0 0.08476559820148942 -0.40128090173951853 0 0.066876631842062245 -0.39545956867368331 0 0.062076299281705931 -0.4103299851561073 0 0.066876631842062245 -0.39545956867368331 0 0.073006241079564396 -0.38089529973342928 0 0.047658388805489317 -0.38933208806567848 0 0.073006241079564396 -0.38089529973342928 0 0.058248064949980041 -0.37885168295027227 0 0.071459373172279239 -0.36805593394182651 0 0.073006241079564396 -0.38089529973342928 0 0.047658388805489317 -0.38933208806567848 0 0.058248064949980041 -0.37885168295027227 0 0.073006241079564396 -0.38089529973342928 0 0.047658388805489317 -0.38933208806567848 0 0.058248064949980041 -0.37885168295027227 0 0.044663395461527478 -0.38497025199194612 0 0.059779895887490372 -0.36250328370907509 0 0.047658388805489317 -0.38933208806567848 0 0.058248064949980041 -0.37885168295027227 0 0.044663395461527478 -0.38497025199194612 0 0.047658388805489317 -0.38933208806567848 0 0.062076299281705931 -0.4103299851561073 0 0.066876631842062245 -0.39545956867368331 0 0.047658388805489317 -0.38933208806567848 0 0.062076299281705931 -0.4103299851561073 0 0.047658388805489317 -0.38933208806567848 0 0.04838958386350882 -0.40427889945928652 0 0.062076299281705931 -0.4103299851561073 0 0.040017457713376968 -0.39187529833802981 0 0.02546750083311259 -0.41350023867042501 0 0.038826020390848891 -0.40821778760407568 0 0.04838958386350882 -0.40427889945928652 0 0.040017457713376968 -0.39187529833802981 0 0.038826020390848891 -0.40821778760407568 0 0.040017457713376968 -0.39187529833802981 0 0.02546750083311259 -0.41350023867042501 0 0.047658388805489317 -0.38933208806567848 0 0.04838958386350882 -0.40427889945928652 0 0.040017457713376968 -0.39187529833802981 0 0.036317734821862027 -0.38422626460787701 0 0.030195221145294271 -0.38041581901587562 0 0.02825510458030403 -0.3888067404973008 0 0.044663395461527478 -0.38497025199194612 0 0.031816819103512251 -0.36626080801427041 0 0.040017457713376968 -0.39187529833802981 0 0.036317734821862027 -0.38422626460787701 0 0.02825510458030403 -0.3888067404973008 0 0.036317734821862027 -0.38422626460787701 0 0.044663395461527478 -0.38497025199194612 0 0.031816819103512251 -0.36626080801427041 0 0.036317734821862027 -0.38422626460787701 0 0.030195221145294271 -0.38041581901587562 0 0.031816819103512251 -0.36626080801427041 0 0.040017457713376968 -0.39187529833802981 0 0.036317734821862027 -0.38422626460787701 0 0.044663395461527478 -0.38497025199194612 0 0.040017457713376968 -0.39187529833802981 0 0.044663395461527478 -0.38497025199194612 0 0.047658388805489317 -0.38933208806567848 0 0.040017457713376968 -0.39187529833802981 0 0.044663395461527478 -0.38497025199194612 0 0.047658388805489317 -0.38933208806567848 0 0.044663395461527478 -0.38497025199194612 0 0.047658388805489317 -0.38933208806567848 0 0.040017457713376968 -0.39187529833802981 0 0.030195221145294271 -0.38041581901587562 0 0.02825510458030403 -0.3888067404973008 0 0.017715577419214042 -0.38798971259972809 0 0.030195221145294271 -0.38041581901587562 0 0.017715577419214042 -0.38798971259972809 0 0.01514550079691261 -0.37629574200501392 0 0.017715577419214042 -0.38798971259972809 0 0.008225014522842149 -0.38148645183208318 0 0.01514550079691261 -0.37629574200501392 0 0.008225014522842149 -0.38148645183208318 0 0.01514550079691261 -0.37629574200501392 0 0.0059199053988846966 -0.36942765770902131 0 0.017715577419214042 -0.38798971259972809 0 0.008225014522842149 -0.38148645183208318 0 0.0076319772600810026 -0.39363697920987739 0 -0.0052878882608816107 -0.38008216763677521 0 0.008225014522842149 -0.38148645183208318 0 0.0076319772600810026 -0.39363697920987739 0 -0.0052878882608816107 -0.38008216763677521 0 0.008225014522842149 -0.38148645183208318 0 0.0059199053988846966 -0.36942765770902131 0 -0.0059583941098304014 -0.40717791751196042 0 0.017029531801773089 -0.39952660792499473 0 0.014792682421820171 -0.41041177494841052 0 -0.0059583941098304014 -0.40717791751196042 0 0.017029531801773089 -0.39952660792499473 0 -0.0059583941098304014 -0.40717791751196042 0 0.0076319772600810026 -0.39363697920987739 0 0.017029531801773089 -0.39952660792499473 0 0.017715577419214042 -0.38798971259972809 0 0.0076319772600810026 -0.39363697920987739 0 0.017029531801773089 -0.39952660792499473 0 0.040017457713376968 -0.39187529833802981 0 0.017029531801773089 -0.39952660792499473 0 0.040017457713376968 -0.39187529833802981 0 0.02825510458030403 -0.3888067404973008 0 0.017029531801773089 -0.39952660792499473 0 0.040017457713376968 -0.39187529833802981 0 0.017029531801773089 -0.39952660792499473 0 0.02546750083311259 -0.41350023867042501 0 0.02825510458030403 -0.3888067404973008 0 0.017715577419214042 -0.38798971259972809 0 0.017029531801773089 -0.39952660792499473 0 0.017029531801773089 -0.39952660792499473 0 0.02546750083311259 -0.41350023867042501 0 0.014792682421820171 -0.41041177494841052 0 0.02546750083311259 -0.41350023867042501 0 0.014792682421820171 -0.41041177494841052 0 0.0065146466026747233 -0.41727532115683019 0 -0.0059583941098304014 -0.40717791751196042 0 0.014792682421820171 -0.41041177494841052 0 0.0065146466026747233 -0.41727532115683019 0 0.02546750083311259 -0.41350023867042501 0 0.0065146466026747233 -0.41727532115683019 0 0.0074133218818099181 -0.42711979910192599 0 -0.0043685205914738819 -0.41814740519699373 0 -0.001388634309445712 -0.42673228260245971 0 0.0065146466026747233 -0.41727532115683019 0 0.02546750083311259 -0.41350023867042501 0 0.0074133218818099181 -0.42711979910192599 0 0.010917543952847299 -0.43512517900281961 0 -0.001388634309445712 -0.42673228260245971 0 0.0045758987033663054 -0.43538507038526753 0 0.0074133218818099181 -0.42711979910192599 0 0.0045758987033663054 -0.43538507038526753 0 0.0074133218818099181 -0.42711979910192599 0 0.010917543952847299 -0.43512517900281961 0 -0.001388634309445712 -0.42673228260245971 0 0.0065146466026747233 -0.41727532115683019 0 0.0074133218818099181 -0.42711979910192599 0 0.02546750083311259 -0.41350023867042501 0 0.010917543952847299 -0.43512517900281961 0 0.02546750083311259 -0.41350023867042501 0 0.024814984510083592 -0.42929650741230418 0 0.041429539153397428 -0.42321671394856242 0 0.02546750083311259 -0.41350023867042501 0 0.010917543952847299 -0.43512517900281961 0 0.024814984510083592 -0.42929650741230418 0 0.010917543952847299 -0.43512517900281961 0 0.024814984510083592 -0.42929650741230418 0 0.019094032610348428 -0.43908720311804789 0 0.024814984510083592 -0.42929650741230418 0 0.02715899946412114 -0.44113709585219057 0 0.019094032610348428 -0.43908720311804789 0 0.024814984510083592 -0.42929650741230418 0 0.0342169756061321 -0.43386054140286118 0 0.02715899946412114 -0.44113709585219057 0 0.041429539153397428 -0.42321671394856242 0 0.0342169756061321 -0.43386054140286118 0 0.043464379296926238 -0.44179184839838759 0 0.024814984510083592 -0.42929650741230418 0 0.041429539153397428 -0.42321671394856242 0 0.0342169756061321 -0.43386054140286118 0 0.02546750083311259 -0.41350023867042501 0 0.041429539153397428 -0.42321671394856242 0 0.038826020390848891 -0.40821778760407568 0 0.04838958386350882 -0.40427889945928652 0 0.041429539153397428 -0.42321671394856242 0 0.038826020390848891 -0.40821778760407568 0 0.04838958386350882 -0.40427889945928652 0 0.041429539153397428 -0.42321671394856242 0 0.062076299281705931 -0.4103299851561073 0 0.041429539153397428 -0.42321671394856242 0 0.062076299281705931 -0.4103299851561073 0 0.057184695671408138 -0.43090380000441908 0 0.041429539153397428 -0.42321671394856242 0 0.057184695671408138 -0.43090380000441908 0 0.043464379296926238 -0.44179184839838759 0 0.057184695671408138 -0.43090380000441908 0 0.057245137377401951 -0.45094631997547091 0 0.043464379296926238 -0.44179184839838759 0 0.057245137377401951 -0.45094631997547091 0 0.03788618038489637 -0.46155951786174171 0 0.051510648824828531 -0.47467790055140402 0 0.075844478351411393 -0.46606150197845642 0 0.057245137377401951 -0.45094631997547091 0 0.051510648824828531 -0.47467790055140402 0 0.03788618038489637 -0.46155951786174171 0 0.043464379296926238 -0.44179184839838759 0 0.030921533975742991 -0.45118639007996297 0 0.057245137377401951 -0.45094631997547091 0 0.03788618038489637 -0.46155951786174171 0 0.043464379296926238 -0.44179184839838759 0 0.0342169756061321 -0.43386054140286118 0 0.043464379296926238 -0.44179184839838759 0 0.02715899946412114 -0.44113709585219057 0 0.043464379296926238 -0.44179184839838759 0 0.02715899946412114 -0.44113709585219057 0 0.030921533975742991 -0.45118639007996297 0 0.02715899946412114 -0.44113709585219057 0 0.030921533975742991 -0.45118639007996297 0 0.020148158284243909 -0.44846131249111693 0 0.030921533975742991 -0.45118639007996297 0 0.020148158284243909 -0.44846131249111693 0 0.02192468695550304 -0.45823844975313982 0 0.02715899946412114 -0.44113709585219057 0 0.020148158284243909 -0.44846131249111693 0 0.019094032610348428 -0.43908720311804789 0 0.020148158284243909 -0.44846131249111693 0 0.019094032610348428 -0.43908720311804789 0 0.011773818615910699 -0.44749936052320782 0 -0.003015963495611233 -0.4447276409504603 0 -0.0036324129274180258 -0.45675011933521431 0 0.010917543952847299 -0.43512517900281961 0 0.010917543952847299 -0.43512517900281961 0 0.019094032610348428 -0.43908720311804789 0 0.011773818615910699 -0.44749936052320782 0 -0.0036324129274180258 -0.45675011933521431 0 0.010917543952847299 -0.43512517900281961 0 0.011773818615910699 -0.44749936052320782 0 -0.0036324129274180258 -0.45675011933521431 0 0.010917543952847299 -0.43512517900281961 0 0.020148158284243909 -0.44846131249111693 0 0.011773818615910699 -0.44749936052320782 0 0.01234177115953186 -0.45807298866884061 0 -0.003015963495611233 -0.4447276409504603 0 0.0045758987033663054 -0.43538507038526753 0 0.010917543952847299 -0.43512517900281961 0 -0.0036324129274180258 -0.45675011933521431 0 0.01234177115953186 -0.45807298866884061 0 0.0091091505119995746 -0.47340757867418731 0 -0.0036324129274180258 -0.45675011933521431 0 0.011773818615910699 -0.44749936052320782 0 0.01234177115953186 -0.45807298866884061 0 0.01234177115953186 -0.45807298866884061 0 0.021886935258020379 -0.4690318513570727 0 0.0091091505119995746 -0.47340757867418731 0 0.03788618038489637 -0.46155951786174171 0 0.02192468695550304 -0.45823844975313982 0 0.021886935258020379 -0.4690318513570727 0 0.03788618038489637 -0.46155951786174171 0 0.030921533975742991 -0.45118639007996297 0 0.02192468695550304 -0.45823844975313982 0 0.01234177115953186 -0.45807298866884061 0 0.02192468695550304 -0.45823844975313982 0 0.021886935258020379 -0.4690318513570727 0 0.020148158284243909 -0.44846131249111693 0 0.01234177115953186 -0.45807298866884061 0 0.02192468695550304 -0.45823844975313982 0 0.027176819298245818 -0.4832942991243514 0 0.021886935258020379 -0.4690318513570727 0 0.0091091505119995746 -0.47340757867418731 0 0.03788618038489637 -0.46155951786174171 0 0.027176819298245818 -0.4832942991243514 0 0.021886935258020379 -0.4690318513570727 0 -0.0035718678798701189 -0.47790887952836492 0 0.0091091505119995746 -0.47340757867418731 0 0.0028429897716630921 -0.49191069769729889 0 -0.0036324129274180258 -0.45675011933521431 0 -0.0035718678798701189 -0.47790887952836492 0 0.0091091505119995746 -0.47340757867418731 0 0.027176819298245818 -0.4832942991243514 0 0.0091091505119995746 -0.47340757867418731 0 0.0028429897716630921 -0.49191069769729889 0 -0.0054268575954078968 -0.5 0 0.0028429897716630921 -0.49191069769729889 0 0.021878611497134211 -0.5 0 0.027176819298245818 -0.4832942991243514 0 0.0028429897716630921 -0.49191069769729889 0 0.027176819298245818 -0.4832942991243514 0 0.0028429897716630921 -0.49191069769729889 0 0.021878611497134211 -0.5 0 0.027176819298245818 -0.4832942991243514 0 0.021878611497134211 -0.5 0 0.049184080589676493 -0.5 0 0.027176819298245818 -0.4832942991243514 0 0.051510648824828531 -0.47467790055140402 0 0.049184080589676493 -0.5 0 0.027176819298245818 -0.4832942991243514 0 0.051510648824828531 -0.47467790055140402 0 0.03788618038489637 -0.46155951786174171 0 0.027176819298245818 -0.4832942991243514 0 0.051510648824828531 -0.47467790055140402 0 0.068214255748772601 -0.48318190960432938 0 0.051510648824828531 -0.47467790055140402 0 0.049184080589676493 -0.5 0 0.088730533390566454 -0.28905939182439522 0 0.08611548473214084 -0.30085677086708229 0 0.069478057447505043 -0.29540437873979231 0 0.088730533390566454 -0.28905939182439522 0 0.08611548473214084 -0.30085677086708229 0 0.098942383254285948 -0.3067619821441997 0 0.08611548473214084 -0.30085677086708229 0 0.069478057447505043 -0.29540437873979231 0 0.084730646288901715 -0.31490963777782122 0 0.08611548473214084 -0.30085677086708229 0 0.098942383254285948 -0.3067619821441997 0 0.084730646288901715 -0.31490963777782122 0 0.069478057447505043 -0.29540437873979231 0 0.084730646288901715 -0.31490963777782122 0 0.06907500777980452 -0.31973236965610702 0 0.069478057447505043 -0.29540437873979231 0 0.071700783260091841 -0.27823217668192463 0 0.046749123225239067 -0.27562324144303002 0 0.088730533390566454 -0.28905939182439522 0 0.069478057447505043 -0.29540437873979231 0 0.071700783260091841 -0.27823217668192463 0 0.071700783260091841 -0.27823217668192463 0 0.063547261990930443 -0.26010883665100271 0 0.089998940246218267 -0.27096503475140288 0 0.063547261990930443 -0.26010883665100271 0 0.080345400756623095 -0.2445944318589767 0 0.063547261990930443 -0.26010883665100271 0 0.089998940246218267 -0.27096503475140288 0 0.080345400756623095 -0.2445944318589767 0 0.089998940246218267 -0.27096503475140288 0 0.080345400756623095 -0.2445944318589767 0 0.089998940246218267 -0.27096503475140288 0 0.10132833503864321 -0.25115805244980249 0 0.080345400756623095 -0.2445944318589767 0 0.088730533390566454 -0.28905939182439522 0 0.071700783260091841 -0.27823217668192463 0 0.089998940246218267 -0.27096503475140288 0 0.088730533390566454 -0.28905939182439522 0 0.089998940246218267 -0.27096503475140288 0 0.111042624863462 -0.28236934737060809 0 0.089998940246218267 -0.27096503475140288 0 0.10132833503864321 -0.25115805244980249 0 0.111042624863462 -0.28236934737060809 0 0.10132833503864321 -0.25115805244980249 0 0.123142866472638 -0.2579767125970166 0 0.111042624863462 -0.28236934737060809 0 0.13951787070281699 -0.26971485499680631 0 0.123142866472638 -0.2579767125970166 0 0.111042624863462 -0.28236934737060809 0 0.123142866472638 -0.2579767125970166 0 0.111042624863462 -0.28236934737060809 0 0.12561376856076639 -0.29398059933629872 0 0.111042624863462 -0.28236934737060809 0 0.098942383254285948 -0.3067619821441997 0 0.111042624863462 -0.28236934737060809 0 0.098942383254285948 -0.3067619821441997 0 0.088730533390566454 -0.28905939182439522 0 0.111042624863462 -0.28236934737060809 0 0.098942383254285948 -0.3067619821441997 0 0.12561376856076639 -0.29398059933629872 0 0.098942383254285948 -0.3067619821441997 0 0.1156560670379428 -0.31084414629789309 0 0.13444697764783919 -0.32936067795947749 0 0.1156560670379428 -0.31084414629789309 0 0.1125436700973729 -0.33337071233861992 0 0.1156560670379428 -0.31084414629789309 0 0.1125436700973729 -0.33337071233861992 0 0.10234766185825681 -0.32403104020205231 0 0.12689179055556221 -0.34873609799844713 0 0.13444697764783919 -0.32936067795947749 0 0.1125436700973729 -0.33337071233861992 0 0.1125436700973729 -0.33337071233861992 0 0.0982867008993068 -0.33791808703058451 0 0.10234766185825681 -0.32403104020205231 0 0.1125436700973729 -0.33337071233861992 0 0.0982867008993068 -0.33791808703058451 0 0.1042260890293563 -0.35150926908217422 0 0.0982867008993068 -0.33791808703058451 0 0.10234766185825681 -0.32403104020205231 0 0.086842141645109922 -0.33115461691779119 0 0.098942383254285948 -0.3067619821441997 0 0.1156560670379428 -0.31084414629789309 0 0.10234766185825681 -0.32403104020205231 0 0.098942383254285948 -0.3067619821441997 0 0.10234766185825681 -0.32403104020205231 0 0.086842141645109922 -0.33115461691779119 0 0.12689179055556221 -0.34873609799844713 0 0.1171915604135486 -0.3657043925962345 0 0.1042260890293563 -0.35150926908217422 0 0.12689179055556221 -0.34873609799844713 0 0.1125436700973729 -0.33337071233861992 0 0.1042260890293563 -0.35150926908217422 0 0.1042260890293563 -0.35150926908217422 0 0.089572970469506713 -0.36929622776361709 0 0.090118681631082567 -0.34860347384045648 0 0.0982867008993068 -0.33791808703058451 0 0.1042260890293563 -0.35150926908217422 0 0.090118681631082567 -0.34860347384045648 0 0.1171915604135486 -0.3657043925962345 0 0.1042260890293563 -0.35150926908217422 0 0.089572970469506713 -0.36929622776361709 0 0.1111321263879033 -0.38229149856392042 0 0.1171915604135486 -0.3657043925962345 0 0.089572970469506713 -0.36929622776361709 0 0.089572970469506713 -0.36929622776361709 0 0.074741900035933923 -0.35554725169138279 0 0.071459373172279239 -0.36805593394182651 0 0.090118681631082567 -0.34860347384045648 0 0.074741900035933923 -0.35554725169138279 0 0.086842141645109922 -0.33115461691779119 0 0.089572970469506713 -0.36929622776361709 0 0.090118681631082567 -0.34860347384045648 0 0.074741900035933923 -0.35554725169138279 0 0.074741900035933923 -0.35554725169138279 0 0.074896396313453184 -0.34003631542620399 0 0.059779895887490372 -0.36250328370907509 0 0.074896396313453184 -0.34003631542620399 0 0.059779895887490372 -0.36250328370907509 0 0.056126767410254491 -0.34760760837326332 0 0.074896396313453184 -0.34003631542620399 0 0.059779895887490372 -0.36250328370907509 0 0.058248064949980041 -0.37885168295027227 0 0.071459373172279239 -0.36805593394182651 0 0.059779895887490372 -0.36250328370907509 0 0.073006241079564396 -0.38089529973342928 0 0.089572970469506713 -0.36929622776361709 0 0.071459373172279239 -0.36805593394182651 0 0.074741900035933923 -0.35554725169138279 0 0.071459373172279239 -0.36805593394182651 0 0.059779895887490372 -0.36250328370907509 0 0.098942383254285948 -0.3067619821441997 0 0.084730646288901715 -0.31490963777782122 0 0.086842141645109922 -0.33115461691779119 0 0.098942383254285948 -0.3067619821441997 0 0.086842141645109922 -0.33115461691779119 0 0.084730646288901715 -0.31490963777782122 0 0.086842141645109922 -0.33115461691779119 0 0.06907500777980452 -0.31973236965610702 0 0.074741900035933923 -0.35554725169138279 0 0.086842141645109922 -0.33115461691779119 0 0.074896396313453184 -0.34003631542620399 0 0.074741900035933923 -0.35554725169138279 0 0.086842141645109922 -0.33115461691779119 0 0.0982867008993068 -0.33791808703058451 0 0.090118681631082567 -0.34860347384045648 0 0.086842141645109922 -0.33115461691779119 0 0.074896396313453184 -0.34003631542620399 0 0.06907500777980452 -0.31973236965610702 0 0.057786118213311928 -0.33395553616262391 0 0.074896396313453184 -0.34003631542620399 0 0.057786118213311928 -0.33395553616262391 0 0.056126767410254491 -0.34760760837326332 0 0.086842141645109922 -0.33115461691779119 0 0.074896396313453184 -0.34003631542620399 0 0.06907500777980452 -0.31973236965610702 0 0.048066496492204167 -0.31754576686330038 0 0.057786118213311928 -0.33395553616262391 0 0.040254529449953953 -0.33015966738912222 0 0.06907500777980452 -0.31973236965610702 0 0.048066496492204167 -0.31754576686330038 0 0.057786118213311928 -0.33395553616262391 0 0.057786118213311928 -0.33395553616262391 0 0.040254529449953953 -0.33015966738912222 0 0.043154993736089831 -0.34471042759157788 0 0.057786118213311928 -0.33395553616262391 0 0.056126767410254491 -0.34760760837326332 0 0.043154993736089831 -0.34471042759157788 0 0.040254529449953953 -0.33015966738912222 0 0.043154993736089831 -0.34471042759157788 0 0.02975146203174011 -0.34021482606945008 0 0.040254529449953953 -0.33015966738912222 0 0.02539955229970451 -0.32855053335754908 0 0.02975146203174011 -0.34021482606945008 0 0.048066496492204167 -0.31754576686330038 0 0.031722670058716373 -0.31107096669946249 0 0.048066496492204167 -0.31754576686330038 0 0.040254529449953953 -0.33015966738912222 0 0.031722670058716373 -0.31107096669946249 0 0.040254529449953953 -0.33015966738912222 0 0.02539955229970451 -0.32855053335754908 0 0.031722670058716373 -0.31107096669946249 0 0.044663395461527478 -0.38497025199194612 0 0.059779895887490372 -0.36250328370907509 0 0.044663395461527478 -0.38497025199194612 0 0.059779895887490372 -0.36250328370907509 0 0.044959786713806571 -0.36780443766029319 0 0.059779895887490372 -0.36250328370907509 0 0.04501643290092712 -0.35683247897683518 0 0.044959786713806571 -0.36780443766029319 0 0.059779895887490372 -0.36250328370907509 0 0.056126767410254491 -0.34760760837326332 0 0.04501643290092712 -0.35683247897683518 0 0.056126767410254491 -0.34760760837326332 0 0.043154993736089831 -0.34471042759157788 0 0.04501643290092712 -0.35683247897683518 0 0.043154993736089831 -0.34471042759157788 0 0.033290479754663947 -0.35136872965632859 0 0.04501643290092712 -0.35683247897683518 0 0.043154993736089831 -0.34471042759157788 0 0.033290479754663947 -0.35136872965632859 0 0.02975146203174011 -0.34021482606945008 0 0.033290479754663947 -0.35136872965632859 0 0.04501643290092712 -0.35683247897683518 0 0.031816819103512251 -0.36626080801427041 0 0.044663395461527478 -0.38497025199194612 0 0.031816819103512251 -0.36626080801427041 0 0.044959786713806571 -0.36780443766029319 0 0.04501643290092712 -0.35683247897683518 0 0.031816819103512251 -0.36626080801427041 0 0.044959786713806571 -0.36780443766029319 0 0.030195221145294271 -0.38041581901587562 0 0.01514550079691261 -0.37629574200501392 0 0.018866089888316721 -0.36104458289748498 0 0.030195221145294271 -0.38041581901587562 0 0.031816819103512251 -0.36626080801427041 0 0.018866089888316721 -0.36104458289748498 0 0.030195221145294271 -0.38041581901587562 0 0.018866089888316721 -0.36104458289748498 0 0.031816819103512251 -0.36626080801427041 0 0.018970242745497062 -0.34755136403659459 0 0.031816819103512251 -0.36626080801427041 0 0.018866089888316721 -0.36104458289748498 0 0.018970242745497062 -0.34755136403659459 0 0.033290479754663947 -0.35136872965632859 0 0.031816819103512251 -0.36626080801427041 0 0.018970242745497062 -0.34755136403659459 0 0.033290479754663947 -0.35136872965632859 0 0.018970242745497062 -0.34755136403659459 0 0.02975146203174011 -0.34021482606945008 0 0.018866089888316721 -0.36104458289748498 0 0.018970242745497062 -0.34755136403659459 0 0.0075369586313391926 -0.34167334677909461 0 0.018866089888316721 -0.36104458289748498 0 0.0053729765802733934 -0.35539994747471337 0 0.0075369586313391926 -0.34167334677909461 0 0.018866089888316721 -0.36104458289748498 0 0.0075369586313391926 -0.34167334677909461 0 -0.0043603798281900471 -0.34761163765168862 0 0.0053729765802733934 -0.35539994747471337 0 0.0075369586313391926 -0.34167334677909461 0 0.018866089888316721 -0.36104458289748498 0 0.0053729765802733934 -0.35539994747471337 0 0.0059199053988846966 -0.36942765770902131 0 -0.0032628494867885452 -0.36023290609258107 0 0.0053729765802733934 -0.35539994747471337 0 0.0059199053988846966 -0.36942765770902131 0 0.01514550079691261 -0.37629574200501392 0 0.018866089888316721 -0.36104458289748498 0 0.0059199053988846966 -0.36942765770902131 0 0.02539955229970451 -0.32855053335754908 0 0.015105092431395351 -0.32063860965837421 0 0.031722670058716373 -0.31107096669946249 0 0.02539955229970451 -0.32855053335754908 0 0.016473421061724339 -0.32838403569160252 0 0.015105092431395351 -0.32063860965837421 0 0.02539955229970451 -0.32855053335754908 0 0.02975146203174011 -0.34021482606945008 0 0.019265373128315579 -0.33550507969156768 0 0.018970242745497062 -0.34755136403659459 0 0.02975146203174011 -0.34021482606945008 0 0.019265373128315579 -0.33550507969156768 0 0.02539955229970451 -0.32855053335754908 0 0.019265373128315579 -0.33550507969156768 0 0.016473421061724339 -0.32838403569160252 0 -0.0037921726256449932 -0.32230211066070802 0 0.0075369586313391926 -0.34167334677909461 0 0.0061236663874819214 -0.32884192005891888 0 0.018970242745497062 -0.34755136403659459 0 0.019265373128315579 -0.33550507969156768 0 0.0061236663874819214 -0.32884192005891888 0 0.018970242745497062 -0.34755136403659459 0 0.0075369586313391926 -0.34167334677909461 0 0.0061236663874819214 -0.32884192005891888 0 0.018970242745497062 -0.34755136403659459 0 0.0061236663874819214 -0.32884192005891888 0 -0.0037921726256449932 -0.32230211066070802 0 -0.0033729151298831491 -0.33767001452506001 0 0.0075369586313391926 -0.34167334677909461 0 -0.0037921726256449932 -0.32230211066070802 0 0.0075369586313391926 -0.34167334677909461 0 0.019265373128315579 -0.33550507969156768 0 0.016473421061724339 -0.32838403569160252 0 0.0061236663874819214 -0.32884192005891888 0 -0.0037921726256449932 -0.32230211066070802 0 0.01537884362522582 -0.30459616653563149 0 -0.0037921726256449932 -0.32230211066070802 0 0.0061236663874819214 -0.32884192005891888 0 0.015105092431395351 -0.32063860965837421 0 -0.0037921726256449932 -0.32230211066070802 0 0.015105092431395351 -0.32063860965837421 0 0.01537884362522582 -0.30459616653563149 0 0.016473421061724339 -0.32838403569160252 0 0.0061236663874819214 -0.32884192005891888 0 0.015105092431395351 -0.32063860965837421 0 -0.00096333077458985751 -0.30819859734120619 0 0.0061431983584749996 -0.30093735641978903 0 0.01537884362522582 -0.30459616653563149 0 -0.00096333077458985751 -0.30819859734120619 0 -0.0037921726256449932 -0.32230211066070802 0 0.01537884362522582 -0.30459616653563149 0 9.8945833641651826e-05 -0.2985428542879055 0 0.0061431983584749996 -0.30093735641978903 0 0.0030262705068856942 -0.29301483925791921 0 0.0061431983584749996 -0.30093735641978903 0 0.0030262705068856942 -0.29301483925791921 0 -0.00096333077458985751 -0.30819859734120619 0 0.0025681057805491598 -0.30277323199721212 0 9.8945833641651826e-05 -0.2985428542879055 0 -0.00096333077458985751 -0.30819859734120619 0 0.0025681057805491598 -0.30277323199721212 0 0.0061431983584749996 -0.30093735641978903 0 0.0025681057805491598 -0.30277323199721212 0 9.8945833641651826e-05 -0.2985428542879055 0 0.0061431983584749996 -0.30093735641978903 0 9.8945833641651826e-05 -0.2985428542879055 0 0.0061431983584749996 -0.30093735641978903 0 0.01537884362522582 -0.30459616653563149 0 0.012168163980189771 -0.29581373812523709 0 0.019295780570114739 -0.29252329644350011 0 0.0061431983584749996 -0.30093735641978903 0 0.01537884362522582 -0.30459616653563149 0 0.012168163980189771 -0.29581373812523709 0 0.0061431983584749996 -0.30093735641978903 0 0.01537884362522582 -0.30459616653563149 0 0.0030262705068856942 -0.29301483925791921 0 0.015358394186510801 -0.28762524951875079 0 0.01480191342544338 -0.27077749345323737 0 0.0030262705068856942 -0.29301483925791921 0 0.01480191342544338 -0.27077749345323737 0 0.0061431983584749996 -0.30093735641978903 0 0.0030262705068856942 -0.29301483925791921 0 0.012168163980189771 -0.29581373812523709 0 9.8945833641651826e-05 -0.2985428542879055 0 0.0030262705068856942 -0.29301483925791921 0 0.0030262705068856942 -0.29301483925791921 0 0.012168163980189771 -0.29581373812523709 0 0.015358394186510801 -0.28762524951875079 0 0.012168163980189771 -0.29581373812523709 0 0.015358394186510801 -0.28762524951875079 0 0.019295780570114739 -0.29252329644350011 0 0.01537884362522582 -0.30459616653563149 0 0.019295780570114739 -0.29252329644350011 0 0.031063983425232991 -0.29010970398933128 0 0.015358394186510801 -0.28762524951875079 0 0.022509517633411549 -0.28447162404855691 0 0.019295780570114739 -0.29252329644350011 0 0.022509517633411549 -0.28447162404855691 0 0.031063983425232991 -0.29010970398933128 0 0.030389183906020099 -0.28095059438736369 0 0.022509517633411549 -0.28447162404855691 0 0.019295780570114739 -0.29252329644350011 0 0.031063983425232991 -0.29010970398933128 0 0.01537884362522582 -0.30459616653563149 0 0.031722670058716373 -0.31107096669946249 0 0.01537884362522582 -0.30459616653563149 0 0.031063983425232991 -0.29010970398933128 0 0.015105092431395351 -0.32063860965837421 0 0.01537884362522582 -0.30459616653563149 0 0.031722670058716373 -0.31107096669946249 0 0.01537884362522582 -0.30459616653563149 0 0.031063983425232991 -0.29010970398933128 0 0.031722670058716373 -0.31107096669946249 0 0.048066496492204167 -0.31754576686330038 0 0.031722670058716373 -0.31107096669946249 0 0.045416066129779512 -0.29795081154698339 0 0.031063983425232991 -0.29010970398933128 0 0.031722670058716373 -0.31107096669946249 0 0.045416066129779512 -0.29795081154698339 0 0.031063983425232991 -0.29010970398933128 0 0.046749123225239067 -0.27562324144303002 0 0.031063983425232991 -0.29010970398933128 0 0.046749123225239067 -0.27562324144303002 0 0.030389183906020099 -0.28095059438736369 0 0.031063983425232991 -0.29010970398933128 0 0.045416066129779512 -0.29795081154698339 0 0.046749123225239067 -0.27562324144303002 0 0.069478057447505043 -0.29540437873979231 0 0.045416066129779512 -0.29795081154698339 0 0.046749123225239067 -0.27562324144303002 0 0.069478057447505043 -0.29540437873979231 0 0.046749123225239067 -0.27562324144303002 0 0.069478057447505043 -0.29540437873979231 0 0.06907500777980452 -0.31973236965610702 0 0.048066496492204167 -0.31754576686330038 0 0.069478057447505043 -0.29540437873979231 0 0.048066496492204167 -0.31754576686330038 0 0.045416066129779512 -0.29795081154698339 0 0.063547261990930443 -0.26010883665100271 0 0.046749123225239067 -0.27562324144303002 0 0.046315245543317722 -0.25517340167495711 0 0.063547261990930443 -0.26010883665100271 0 0.046315245543317722 -0.25517340167495711 0 0.060053701810692361 -0.2421074245916513 0 0.063547261990930443 -0.26010883665100271 0 0.046749123225239067 -0.27562324144303002 0 0.071700783260091841 -0.27823217668192463 0 0.063547261990930443 -0.26010883665100271 0 0.046749123225239067 -0.27562324144303002 0 0.046749123225239067 -0.27562324144303002 0 0.035119389134190687 -0.26550180923990918 0 0.046749123225239067 -0.27562324144303002 0 0.035119389134190687 -0.26550180923990918 0 0.029204416651152951 -0.27187934885916742 0 0.046749123225239067 -0.27562324144303002 0 0.030389183906020099 -0.28095059438736369 0 0.029204416651152951 -0.27187934885916742 0 0.035119389134190687 -0.26550180923990918 0 0.046315245543317722 -0.25517340167495711 0 0.02295277909154737 -0.25538524526108192 0 0.046749123225239067 -0.27562324144303002 0 0.035119389134190687 -0.26550180923990918 0 0.046315245543317722 -0.25517340167495711 0 0.046315245543317722 -0.25517340167495711 0 0.02295277909154737 -0.25538524526108192 0 0.034024938448101422 -0.2476003648174239 0 0.046315245543317722 -0.25517340167495711 0 0.02295277909154737 -0.25538524526108192 0 0.024269205924047639 -0.25289928004428752 0 0.02295277909154737 -0.25538524526108192 0 0.034024938448101422 -0.2476003648174239 0 0.024269205924047639 -0.25289928004428752 0 0.02295277909154737 -0.25538524526108192 0 0.035119389134190687 -0.26550180923990918 0 0.02295277909154737 -0.25538524526108192 0 0.035119389134190687 -0.26550180923990918 0 0.02330724629175783 -0.26487025851050777 0 0.02295277909154737 -0.25538524526108192 0 0.02295277909154737 -0.25538524526108192 0 0.01480191342544338 -0.27077749345323737 0 0.02330724629175783 -0.26487025851050777 0 0.02295277909154737 -0.25538524526108192 0 0.01480191342544338 -0.27077749345323737 0 0.024269205924047639 -0.25289928004428752 0 0.02295277909154737 -0.25538524526108192 0 0.01919530658825673 -0.24584617285825561 0 0.015358394186510801 -0.28762524951875079 0 0.022509517633411549 -0.28447162404855691 0 0.01480191342544338 -0.27077749345323737 0 0.030389183906020099 -0.28095059438736369 0 0.029204416651152951 -0.27187934885916742 0 0.01480191342544338 -0.27077749345323737 0 0.035119389134190687 -0.26550180923990918 0 0.02330724629175783 -0.26487025851050777 0 0.029204416651152951 -0.27187934885916742 0 0.02330724629175783 -0.26487025851050777 0 0.029204416651152951 -0.27187934885916742 0 0.01480191342544338 -0.27077749345323737 0 0.022509517633411549 -0.28447162404855691 0 0.030389183906020099 -0.28095059438736369 0 0.01480191342544338 -0.27077749345323737 0 0.030389183906020099 -0.28095059438736369 0 0.01480191342544338 -0.27077749345323737 0 -0.0043142377673258247 -0.27435694740148331 0 0.0030262705068856942 -0.29301483925791921 0 0.01480191342544338 -0.27077749345323737 0 -0.0043142377673258247 -0.27435694740148331 0 -0.0075271723521584009 -0.25566162798943282 0 0.01480191342544338 -0.27077749345323737 0 -0.0075271723521584009 -0.25566162798943282 0 0.01480191342544338 -0.27077749345323737 0 -0.0075271723521584009 -0.25566162798943282 0 0.01480191342544338 -0.27077749345323737 0 0.0077128033696945118 -0.25552343662526023 0 0.02295277909154737 -0.25538524526108192 0 0.0077128033696945118 -0.25552343662526023 0 0.02295277909154737 -0.25538524526108192 0 0.0077128033696945118 -0.25552343662526023 0 0.01066113334765747 -0.24421563228935159 0 0.02295277909154737 -0.25538524526108192 0 0.01480191342544338 -0.27077749345323737 0 0.0077128033696945118 -0.25552343662526023 0 -0.0075271723521584009 -0.25566162798943282 0 0.0077128033696945118 -0.25552343662526023 0 -0.001881885382039553 -0.24445819588247239 0 0.0077128033696945118 -0.25552343662526023 0 0.01066113334765747 -0.24421563228935159 0 0.01066113334765747 -0.24421563228935159 0 0.0023598747812821771 -0.2326516880724934 0 0.014115329936660859 -0.23388712002177189 0 0.01066113334765747 -0.24421563228935159 0 0.014115329936660859 -0.23388712002177189 0 0.01919530658825673 -0.24584617285825561 0 -0.001881885382039553 -0.24445819588247239 0 0.01066113334765747 -0.24421563228935159 0 0.0023598747812821771 -0.2326516880724934 0 0.0023598747812821771 -0.2326516880724934 0 0.014115329936660859 -0.23388712002177189 0 0.01980923874053361 -0.2183346514708028 0 0.0023598747812821771 -0.2326516880724934 0 0.0046502749744136568 -0.21863994751338819 0 0.01980923874053361 -0.2183346514708028 0 0.0023598747812821771 -0.2326516880724934 0 0.01980923874053361 -0.2183346514708028 0 -0.003045958614449088 -0.22454262568252861 0 0.0023598747812821771 -0.2326516880724934 0 0.0046502749744136568 -0.21863994751338819 0 0.023638121053461619 -0.2377024525168171 0 0.01980923874053361 -0.2183346514708028 0 0.035212563921212893 -0.2338273403823686 0 0.01980923874053361 -0.2183346514708028 0 0.035212563921212893 -0.2338273403823686 0 0.038184728385490432 -0.21888514740354079 0 0.014115329936660859 -0.23388712002177189 0 0.023638121053461619 -0.2377024525168171 0 0.01980923874053361 -0.2183346514708028 0 0.023638121053461619 -0.2377024525168171 0 0.027172519998448798 -0.2441624725304056 0 0.035212563921212893 -0.2338273403823686 0 0.024269205924047639 -0.25289928004428752 0 0.027172519998448798 -0.2441624725304056 0 0.034024938448101422 -0.2476003648174239 0 0.024269205924047639 -0.25289928004428752 0 0.027172519998448798 -0.2441624725304056 0 0.01919530658825673 -0.24584617285825561 0 0.02295277909154737 -0.25538524526108192 0 0.01066113334765747 -0.24421563228935159 0 0.01919530658825673 -0.24584617285825561 0 0.023638121053461619 -0.2377024525168171 0 0.027172519998448798 -0.2441624725304056 0 0.01919530658825673 -0.24584617285825561 0 0.02295277909154737 -0.25538524526108192 0 0.01066113334765747 -0.24421563228935159 0 0.014115329936660859 -0.23388712002177189 0 0.023638121053461619 -0.2377024525168171 0 0.01919530658825673 -0.24584617285825561 0 -0.003635495953496444 -0.2049843094023977 0 -0.00042353034902907998 -0.1899398315756323 0 0.01520810843541464 -0.1945545070522951 0 -0.003635495953496444 -0.2049843094023977 0 0.01520810843541464 -0.1945545070522951 0 0.0070697742925593674 -0.203825677035196 0 -0.003635495953496444 -0.2049843094023977 0 0.01520810843541464 -0.1945545070522951 0 -0.00042353034902907998 -0.1899398315756323 0 0.01520810843541464 -0.1945545070522951 0 0.011918753624524801 -0.18532321032410209 0 0.01520810843541464 -0.1945545070522951 0 0.01146043953269087 -0.2019529283755086 0 0.0070697742925593674 -0.203825677035196 0 0.0070697742925593674 -0.203825677035196 0 0.0119353723529915 -0.21240085468405889 0 0.02105264448733549 -0.20873558626921079 0 -0.003635495953496444 -0.2049843094023977 0 0.002536162195166944 -0.21032104028401299 0 0.0070697742925593674 -0.203825677035196 0 0.002536162195166944 -0.21032104028401299 0 0.0070697742925593674 -0.203825677035196 0 0.0119353723529915 -0.21240085468405889 0 0.002536162195166944 -0.21032104028401299 0 0.0046502749744136568 -0.21863994751338819 0 0.0119353723529915 -0.21240085468405889 0 -0.0038769997414961109 -0.21422467502611309 0 0.002536162195166944 -0.21032104028401299 0 0.0046502749744136568 -0.21863994751338819 0 0.0046502749744136568 -0.21863994751338819 0 0.0119353723529915 -0.21240085468405889 0 0.01980923874053361 -0.2183346514708028 0 0.0070697742925593674 -0.203825677035196 0 0.02105264448733549 -0.20873558626921079 0 0.03507091176023612 -0.2006172212548713 0 0.01980923874053361 -0.2183346514708028 0 0.03116798052833163 -0.21027353429363099 0 0.038184728385490432 -0.21888514740354079 0 0.0119353723529915 -0.21240085468405889 0 0.01980923874053361 -0.2183346514708028 0 0.02105264448733549 -0.20873558626921079 0 0.01980923874053361 -0.2183346514708028 0 0.03116798052833163 -0.21027353429363099 0 0.02105264448733549 -0.20873558626921079 0 0.03116798052833163 -0.21027353429363099 0 0.02105264448733549 -0.20873558626921079 0 0.03507091176023612 -0.2006172212548713 0 0.0070697742925593674 -0.203825677035196 0 0.03507091176023612 -0.2006172212548713 0 0.01146043953269087 -0.2019529283755086 0 0.028434523818752271 -0.19132139404210091 0 0.036049484308910078 -0.19635701977410339 0 0.01146043953269087 -0.2019529283755086 0 0.03507091176023612 -0.2006172212548713 0 0.036049484308910078 -0.19635701977410339 0 0.01146043953269087 -0.2019529283755086 0 0.036049484308910078 -0.19635701977410339 0 0.01520810843541464 -0.1945545070522951 0 0.028434523818752271 -0.19132139404210091 0 0.034051712824327021 -0.18412470470219469 0 0.01146043953269087 -0.2019529283755086 0 0.0070697742925593674 -0.203825677035196 0 0.03507091176023612 -0.2006172212548713 0 0.01520810843541464 -0.1945545070522951 0 0.01146043953269087 -0.2019529283755086 0 0.028434523818752271 -0.19132139404210091 0 0.01520810843541464 -0.1945545070522951 0 0.034051712824327021 -0.18412470470219469 0 0.01520810843541464 -0.1945545070522951 0 0.0210936387541385 -0.18295059619123721 0 0.011918753624524801 -0.18532321032410209 0 0.03507091176023612 -0.2006172212548713 0 0.036049484308910078 -0.19635701977410339 0 0.063072049227912944 -0.197408765474547 0 0.043820217867337308 -0.1889690333883379 0 0.036049484308910078 -0.19635701977410339 0 0.060638529085129622 -0.19076111117269909 0 0.043820217867337308 -0.1889690333883379 0 0.037831003626636432 -0.1911714642859686 0 0.036049484308910078 -0.19635701977410339 0 0.043820217867337308 -0.1889690333883379 0 0.037831003626636432 -0.1911714642859686 0 0.036987032635197613 -0.18812769043592659 0 0.037831003626636432 -0.1911714642859686 0 0.036987032635197613 -0.18812769043592659 0 0.034467279695100703 -0.19123211354550651 0 0.028434523818752271 -0.19132139404210091 0 0.033485137243344398 -0.1887014756814322 0 0.034467279695100703 -0.19123211354550651 0 0.036987032635197613 -0.18812769043592659 0 0.033485137243344398 -0.1887014756814322 0 0.034467279695100703 -0.19123211354550651 0 0.028434523818752271 -0.19132139404210091 0 0.033485137243344398 -0.1887014756814322 0 0.034051712824327021 -0.18412470470219469 0 0.028434523818752271 -0.19132139404210091 0 0.034467279695100703 -0.19123211354550651 0 0.036049484308910078 -0.19635701977410339 0 0.037831003626636432 -0.1911714642859686 0 0.034467279695100703 -0.19123211354550651 0 0.036049484308910078 -0.19635701977410339 0 0.03507091176023612 -0.2006172212548713 0 0.041533239811672409 -0.2096265375805437 0 0.047651496016372773 -0.20572086816081439 0 0.041533239811672409 -0.2096265375805437 0 0.050929783265669611 -0.21523094833329551 0 0.047651496016372773 -0.20572086816081439 0 0.03116798052833163 -0.21027353429363099 0 0.03507091176023612 -0.2006172212548713 0 0.041533239811672409 -0.2096265375805437 0 0.03116798052833163 -0.21027353429363099 0 0.041533239811672409 -0.2096265375805437 0 0.038184728385490432 -0.21888514740354079 0 0.041533239811672409 -0.2096265375805437 0 0.050929783265669611 -0.21523094833329551 0 0.038184728385490432 -0.21888514740354079 0 0.050929783265669611 -0.21523094833329551 0 0.071708724992268325 -0.22100159866676169 0 0.063072049227912944 -0.197408765474547 0 0.050929783265669611 -0.21523094833329551 0 0.047651496016372773 -0.20572086816081439 0 0.063072049227912944 -0.197408765474547 0 0.03507091176023612 -0.2006172212548713 0 0.047651496016372773 -0.20572086816081439 0 0.063072049227912944 -0.197408765474547 0 0.036049484308910078 -0.19635701977410339 0 0.060638529085129622 -0.19076111117269909 0 0.043820217867337308 -0.1889690333883379 0 0.060638529085129622 -0.19076111117269909 0 0.048162380520665092 -0.18421533686596209 0 0.03507091176023612 -0.2006172212548713 0 0.063072049227912944 -0.197408765474547 0 0.036049484308910078 -0.19635701977410339 0 0.060638529085129622 -0.19076111117269909 0 0.063072049227912944 -0.197408765474547 0 0.060638529085129622 -0.19076111117269909 0 0.063072049227912944 -0.197408765474547 0 0.045216563814896388 -0.2415567737890624 0 0.035212563921212893 -0.2338273403823686 0 0.050476369351157527 -0.22907533747891121 0 0.046315245543317722 -0.25517340167495711 0 0.045216563814896388 -0.2415567737890624 0 0.034024938448101422 -0.2476003648174239 0 0.027172519998448798 -0.2441624725304056 0 0.034024938448101422 -0.2476003648174239 0 0.035212563921212893 -0.2338273403823686 0 0.045216563814896388 -0.2415567737890624 0 0.034024938448101422 -0.2476003648174239 0 0.035212563921212893 -0.2338273403823686 0 0.050929783265669611 -0.21523094833329551 0 0.038184728385490432 -0.21888514740354079 0 0.050476369351157527 -0.22907533747891121 0 0.035212563921212893 -0.2338273403823686 0 0.038184728385490432 -0.21888514740354079 0 0.050476369351157527 -0.22907533747891121 0 0.050929783265669611 -0.21523094833329551 0 0.050476369351157527 -0.22907533747891121 0 0.071708724992268325 -0.22100159866676169 0 0.050476369351157527 -0.22907533747891121 0 0.060053701810692361 -0.2421074245916513 0 0.071708724992268325 -0.22100159866676169 0 0.045216563814896388 -0.2415567737890624 0 0.050476369351157527 -0.22907533747891121 0 0.060053701810692361 -0.2421074245916513 0 0.046315245543317722 -0.25517340167495711 0 0.045216563814896388 -0.2415567737890624 0 0.060053701810692361 -0.2421074245916513 0 0.060053701810692361 -0.2421074245916513 0 0.080345400756623095 -0.2445944318589767 0 0.071708724992268325 -0.22100159866676169 0 0.063547261990930443 -0.26010883665100271 0 0.060053701810692361 -0.2421074245916513 0 0.080345400756623095 -0.2445944318589767 0 0.080345400756623095 -0.2445944318589767 0 0.09645002162584651 -0.22972054549142651 0 0.10132833503864321 -0.25115805244980249 0 0.080345400756623095 -0.2445944318589767 0 0.09645002162584651 -0.22972054549142651 0 0.080345400756623095 -0.2445944318589767 0 0.071708724992268325 -0.22100159866676169 0 0.09645002162584651 -0.22972054549142651 0 0.071708724992268325 -0.22100159866676169 0 0.090324635188752958 -0.21483121786058909 0 0.09645002162584651 -0.22972054549142651 0 0.080345400756623095 -0.2445944318589767 0 0.071708724992268325 -0.22100159866676169 0 0.071708724992268325 -0.22100159866676169 0 0.063072049227912944 -0.197408765474547 0 0.071708724992268325 -0.22100159866676169 0 0.077729825961654037 -0.20542020295353 0 0.063072049227912944 -0.197408765474547 0 0.077729825961654037 -0.20542020295353 0 0.063072049227912944 -0.197408765474547 0 0.090195540984902706 -0.19430087301800761 0 0.063072049227912944 -0.197408765474547 0 0.090195540984902706 -0.19430087301800761 0 0.063072049227912944 -0.197408765474547 0 0.090195540984902706 -0.19430087301800761 0 0.08082897722358269 -0.18616622335039981 0 0.060638529085129622 -0.19076111117269909 0 0.063072049227912944 -0.197408765474547 0 0.08082897722358269 -0.18616622335039981 0 0.060638529085129622 -0.19076111117269909 0 0.08082897722358269 -0.18616622335039981 0 0.077729825961654037 -0.20542020295353 0 0.090195540984902706 -0.19430087301800761 0 0.090048253963082595 -0.20487766797119519 0 0.090195540984902706 -0.19430087301800761 0 0.090048253963082595 -0.20487766797119519 0 0.1007792599171239 -0.20455319424990609 0 0.071708724992268325 -0.22100159866676169 0 0.077729825961654037 -0.20542020295353 0 0.090324635188752958 -0.21483121786058909 0 0.077729825961654037 -0.20542020295353 0 0.090048253963082595 -0.20487766797119519 0 0.090324635188752958 -0.21483121786058909 0 0.090048253963082595 -0.20487766797119519 0 0.090324635188752958 -0.21483121786058909 0 0.1007792599171239 -0.20455319424990609 0 0.1007792599171239 -0.20455319424990609 0 0.1143465569231041 -0.19762560219114481 0 0.11255464249507011 -0.21484665912387649 0 0.090324635188752958 -0.21483121786058909 0 0.1007792599171239 -0.20455319424990609 0 0.11255464249507011 -0.21484665912387649 0 0.1143465569231041 -0.19762560219114481 0 0.1010194253620359 -0.18157133552810081 0 0.10158519579679159 -0.19451275124678979 0 0.1143465569231041 -0.19762560219114481 0 0.1010194253620359 -0.18157133552810081 0 0.090195540984902706 -0.19430087301800761 0 0.10158519579679159 -0.19451275124678979 0 0.1010194253620359 -0.18157133552810081 0 0.090195540984902706 -0.19430087301800761 0 0.1007792599171239 -0.20455319424990609 0 0.10158519579679159 -0.19451275124678979 0 0.1007792599171239 -0.20455319424990609 0 0.10158519579679159 -0.19451275124678979 0 0.1143465569231041 -0.19762560219114481 0 0.11634512805555321 -0.18826558350765391 0 0.1143465569231041 -0.19762560219114481 0 0.1010194253620359 -0.18157133552810081 0 0.11634512805555321 -0.18826558350765391 0 0.12514670634737809 -0.19861739901466799 0 0.12574547062707331 -0.1852302948794648 0 0.11634512805555321 -0.18826558350765391 0 0.1143465569231041 -0.19762560219114481 0 0.12514670634737809 -0.19861739901466799 0 0.1143465569231041 -0.19762560219114481 0 0.12767368848417199 -0.21367986885418899 0 0.1143465569231041 -0.19762560219114481 0 0.11255464249507011 -0.21484665912387649 0 0.12767368848417199 -0.21367986885418899 0 0.1143465569231041 -0.19762560219114481 0 0.12767368848417199 -0.21367986885418899 0 0.12514670634737809 -0.19861739901466799 0 0.11255464249507011 -0.21484665912387649 0 0.1195024120068811 -0.2335579215429488 0 0.09645002162584651 -0.22972054549142651 0 0.11255464249507011 -0.21484665912387649 0 0.1195024120068811 -0.2335579215429488 0 0.12767368848417199 -0.21367986885418899 0 0.10132833503864321 -0.25115805244980249 0 0.123142866472638 -0.2579767125970166 0 0.1195024120068811 -0.2335579215429488 0 0.10132833503864321 -0.25115805244980249 0 0.1195024120068811 -0.2335579215429488 0 0.09645002162584651 -0.22972054549142651 0 0.090324635188752958 -0.21483121786058909 0 0.11255464249507011 -0.21484665912387649 0 0.09645002162584651 -0.22972054549142651 0 0.11255464249507011 -0.21484665912387649 0 0.09645002162584651 -0.22972054549142651 0 0.098381054734330425 -0.15313269116876371 0 0.1076647845188949 -0.13913566363225671 0 0.1164535698450507 -0.15923411716505059 0 0.1076647845188949 -0.13913566363225671 0 0.082002911772309409 -0.1494096746920143 0 0.098381054734330425 -0.15313269116876371 0 0.1076647845188949 -0.13913566363225671 0 0.082002911772309409 -0.1494096746920143 0 0.1076647845188949 -0.13913566363225671 0 0.094168896555345494 -0.12831433454956989 0 0.1115016717466303 -0.12114772177304731 0 0.1076647845188949 -0.13913566363225671 0 0.094168896555345494 -0.12831433454956989 0 0.08524897183280522 -0.13844013566253449 0 0.1076647845188949 -0.13913566363225671 0 0.12770377727919199 -0.14655310492825949 0 0.1333266572654804 -0.12886165257249901 0 0.1076647845188949 -0.13913566363225671 0 0.1333266572654804 -0.12886165257249901 0 0.1076647845188949 -0.13913566363225671 0 0.1115016717466303 -0.12114772177304731 0 0.1333266572654804 -0.12886165257249901 0 0.1115016717466303 -0.12114772177304731 0 0.1333266572654804 -0.12886165257249901 0 0.1076647845188949 -0.13913566363225671 0 0.1164535698450507 -0.15923411716505059 0 0.12770377727919199 -0.14655310492825949 0 0.1164535698450507 -0.15923411716505059 0 0.11546748101817469 -0.17828328592489129 0 0.1015317348748144 -0.1660186515827953 0 0.1164535698450507 -0.15923411716505059 0 0.11546748101817469 -0.17828328592489129 0 0.12814367079806849 -0.17092257721813059 0 0.11634512805555321 -0.18826558350765391 0 0.11546748101817469 -0.17828328592489129 0 0.12574547062707331 -0.1852302948794648 0 0.11546748101817469 -0.17828328592489129 0 0.12574547062707331 -0.1852302948794648 0 0.12814367079806849 -0.17092257721813059 0 0.11634512805555321 -0.18826558350765391 0 0.11546748101817469 -0.17828328592489129 0 0.1010194253620359 -0.18157133552810081 0 0.11546748101817469 -0.17828328592489129 0 0.1010194253620359 -0.18157133552810081 0 0.11546748101817469 -0.17828328592489129 0 0.1010194253620359 -0.18157133552810081 0 0.1015317348748144 -0.1660186515827953 0 0.1010194253620359 -0.18157133552810081 0 0.088947602554897684 -0.1670292518421426 0 0.098381054734330425 -0.15313269116876371 0 0.1164535698450507 -0.15923411716505059 0 0.1015317348748144 -0.1660186515827953 0 0.1010194253620359 -0.18157133552810081 0 0.1015317348748144 -0.1660186515827953 0 0.088947602554897684 -0.1670292518421426 0 0.098381054734330425 -0.15313269116876371 0 0.1015317348748144 -0.1660186515827953 0 0.08892127573439694 -0.156861227867823 0 0.088947602554897684 -0.1670292518421426 0 0.072572393724235629 -0.16280377905094801 0 0.076875779747759138 -0.15248716815618449 0 0.088947602554897684 -0.1670292518421426 0 0.078756115797273082 -0.17268227171777609 0 0.072572393724235629 -0.16280377905094801 0 0.1015317348748144 -0.1660186515827953 0 0.08892127573439694 -0.156861227867823 0 0.088947602554897684 -0.1670292518421426 0 0.088947602554897684 -0.1670292518421426 0 0.076875779747759138 -0.15248716815618449 0 0.08892127573439694 -0.156861227867823 0 0.088947602554897684 -0.1670292518421426 0 0.076875779747759138 -0.15248716815618449 0 0.1010194253620359 -0.18157133552810081 0 0.087388030234447328 -0.1768622706096048 0 0.08082897722358269 -0.18616622335039981 0 0.090195540984902706 -0.19430087301800761 0 0.1010194253620359 -0.18157133552810081 0 0.08082897722358269 -0.18616622335039981 0 0.1010194253620359 -0.18157133552810081 0 0.08082897722358269 -0.18616622335039981 0 0.1010194253620359 -0.18157133552810081 0 0.088947602554897684 -0.1670292518421426 0 0.087388030234447328 -0.1768622706096048 0 0.087388030234447328 -0.1768622706096048 0 0.078756115797273082 -0.17268227171777609 0 0.08082897722358269 -0.18616622335039981 0 0.088947602554897684 -0.1670292518421426 0 0.087388030234447328 -0.1768622706096048 0 0.078756115797273082 -0.17268227171777609 0 0.060638529085129622 -0.19076111117269909 0 0.08082897722358269 -0.18616622335039981 0 0.06860161119316055 -0.1776730011558493 0 0.078756115797273082 -0.17268227171777609 0 0.08082897722358269 -0.18616622335039981 0 0.06860161119316055 -0.1776730011558493 0 0.072572393724235629 -0.16280377905094801 0 0.054139062305866403 -0.1730064982006165 0 0.06860161119316055 -0.1776730011558493 0 0.072572393724235629 -0.16280377905094801 0 0.054139062305866403 -0.1730064982006165 0 0.072572393724235629 -0.16280377905094801 0 0.06767815130796033 -0.1542123940509966 0 0.076875779747759138 -0.15248716815618449 0 0.078756115797273082 -0.17268227171777609 0 0.06860161119316055 -0.1776730011558493 0 0.072572393724235629 -0.16280377905094801 0 0.072572393724235629 -0.16280377905094801 0 0.06767815130796033 -0.1542123940509966 0 0.059893282295676753 -0.16066220533567491 0 0.06767815130796033 -0.1542123940509966 0 0.070978285981710035 -0.1475054373224336 0 0.061040188186091707 -0.14614712487643189 0 0.06767815130796033 -0.1542123940509966 0 0.061040188186091707 -0.14614712487643189 0 0.059893282295676753 -0.16066220533567491 0 0.070978285981710035 -0.1475054373224336 0 0.072234382946654518 -0.139342323299495 0 0.061040188186091707 -0.14614712487643189 0 0.070978285981710035 -0.1475054373224336 0 0.077062927720084481 -0.14533817622906009 0 0.072234382946654518 -0.139342323299495 0 0.06767815130796033 -0.1542123940509966 0 0.070978285981710035 -0.1475054373224336 0 0.076875779747759138 -0.15248716815618449 0 0.070978285981710035 -0.1475054373224336 0 0.077062927720084481 -0.14533817622906009 0 0.076875779747759138 -0.15248716815618449 0 0.098381054734330425 -0.15313269116876371 0 0.08892127573439694 -0.156861227867823 0 0.082002911772309409 -0.1494096746920143 0 0.08892127573439694 -0.156861227867823 0 0.076875779747759138 -0.15248716815618449 0 0.082002911772309409 -0.1494096746920143 0 0.1076647845188949 -0.13913566363225671 0 0.082002911772309409 -0.1494096746920143 0 0.08524897183280522 -0.13844013566253449 0 0.077062927720084481 -0.14533817622906009 0 0.076875779747759138 -0.15248716815618449 0 0.082002911772309409 -0.1494096746920143 0 0.077062927720084481 -0.14533817622906009 0 0.082002911772309409 -0.1494096746920143 0 0.08524897183280522 -0.13844013566253449 0 0.077062927720084481 -0.14533817622906009 0 0.08524897183280522 -0.13844013566253449 0 0.072234382946654518 -0.139342323299495 0 0.094168896555345494 -0.12831433454956989 0 0.08524897183280522 -0.13844013566253449 0 0.079005813537737557 -0.1256905367757252 0 0.08524897183280522 -0.13844013566253449 0 0.079005813537737557 -0.1256905367757252 0 0.072234382946654518 -0.139342323299495 0 0.079005813537737557 -0.1256905367757252 0 0.072234382946654518 -0.139342323299495 0 0.064854242954909574 -0.128892775995012 0 0.072234382946654518 -0.139342323299495 0 0.064854242954909574 -0.128892775995012 0 0.061040188186091707 -0.14614712487643189 0 0.064854242954909574 -0.128892775995012 0 0.052433550475521243 -0.13397523412679119 0 0.052284188340873783 -0.1173779091294445 0 0.064854242954909574 -0.128892775995012 0 0.052433550475521243 -0.13397523412679119 0 0.061040188186091707 -0.14614712487643189 0 0.052433550475521243 -0.13397523412679119 0 0.038650343704988557 -0.1312478704566549 0 0.052284188340873783 -0.1173779091294445 0 0.052433550475521243 -0.13397523412679119 0 0.061040188186091707 -0.14614712487643189 0 0.045338789190742593 -0.14621049017641291 0 0.061040188186091707 -0.14614712487643189 0 0.045338789190742593 -0.14621049017641291 0 0.048565318585536997 -0.15778068569615711 0 0.061040188186091707 -0.14614712487643189 0 0.059893282295676753 -0.16066220533567491 0 0.048565318585536997 -0.15778068569615711 0 0.045338789190742593 -0.14621049017641291 0 0.038650343704988557 -0.1312478704566549 0 0.029159797162385381 -0.1483708153603015 0 0.045338789190742593 -0.14621049017641291 0 0.037823861671205217 -0.1559967853023824 0 0.029159797162385381 -0.1483708153603015 0 0.045338789190742593 -0.14621049017641291 0 0.037823861671205217 -0.1559967853023824 0 0.048565318585536997 -0.15778068569615711 0 0.037823861671205217 -0.1559967853023824 0 0.030346992609117052 -0.1597544836288205 0 0.029159797162385381 -0.1483708153603015 0 0.052433550475521243 -0.13397523412679119 0 0.045338789190742593 -0.14621049017641291 0 0.038650343704988557 -0.1312478704566549 0 0.060638529085129622 -0.19076111117269909 0 0.06860161119316055 -0.1776730011558493 0 0.054139062305866403 -0.1730064982006165 0 0.060638529085129622 -0.19076111117269909 0 0.048162380520665092 -0.18421533686596209 0 0.054139062305866403 -0.1730064982006165 0 0.060638529085129622 -0.19076111117269909 0 0.054139062305866403 -0.1730064982006165 0 0.072572393724235629 -0.16280377905094801 0 0.054139062305866403 -0.1730064982006165 0 0.059893282295676753 -0.16066220533567491 0 0.054139062305866403 -0.1730064982006165 0 0.048565318585536997 -0.15778068569615711 0 0.054139062305866403 -0.1730064982006165 0 0.059893282295676753 -0.16066220533567491 0 0.048565318585536997 -0.15778068569615711 0 0.054139062305866403 -0.1730064982006165 0 0.048565318585536997 -0.15778068569615711 0 0.03570841080824403 -0.16786745165021999 0 0.037823861671205217 -0.1559967853023824 0 0.048565318585536997 -0.15778068569615711 0 0.03570841080824403 -0.16786745165021999 0 0.037823861671205217 -0.1559967853023824 0 0.03570841080824403 -0.16786745165021999 0 0.030346992609117052 -0.1597544836288205 0 0.054139062305866403 -0.1730064982006165 0 0.034051712824327021 -0.18412470470219469 0 0.048162380520665092 -0.18421533686596209 0 0.054139062305866403 -0.1730064982006165 0 0.034051712824327021 -0.18412470470219469 0 0.054139062305866403 -0.1730064982006165 0 0.03570841080824403 -0.16786745165021999 0 0.034051712824327021 -0.18412470470219469 0 0.043820217867337308 -0.1889690333883379 0 0.036987032635197613 -0.18812769043592659 0 0.034051712824327021 -0.18412470470219469 0 0.036987032635197613 -0.18812769043592659 0 0.033485137243344398 -0.1887014756814322 0 0.034051712824327021 -0.18412470470219469 0 0.036987032635197613 -0.18812769043592659 0 0.034051712824327021 -0.18412470470219469 0 0.043820217867337308 -0.1889690333883379 0 0.048162380520665092 -0.18421533686596209 0 0.034051712824327021 -0.18412470470219469 0 0.03570841080824403 -0.16786745165021999 0 0.034051712824327021 -0.18412470470219469 0 0.019705189404886261 -0.16455991030944001 0 0.034051712824327021 -0.18412470470219469 0 0.019705189404886261 -0.16455991030944001 0 0.034051712824327021 -0.18412470470219469 0 0.021661834660231721 -0.17637077942002891 0 0.019705189404886261 -0.16455991030944001 0 0.01520810843541464 -0.1945545070522951 0 0.034051712824327021 -0.18412470470219469 0 0.0210936387541385 -0.18295059619123721 0 0.034051712824327021 -0.18412470470219469 0 0.0210936387541385 -0.18295059619123721 0 0.021661834660231721 -0.17637077942002891 0 0.0210936387541385 -0.18295059619123721 0 0.021661834660231721 -0.17637077942002891 0 0.011796797657575129 -0.17384790647724371 0 0.019705189404886261 -0.16455991030944001 0 0.030346992609117052 -0.1597544836288205 0 0.029159797162385381 -0.1483708153603015 0 0.03570841080824403 -0.16786745165021999 0 0.019705189404886261 -0.16455991030944001 0 0.030346992609117052 -0.1597544836288205 0 0.021661834660231721 -0.17637077942002891 0 0.019705189404886261 -0.16455991030944001 0 0.011796797657575129 -0.17384790647724371 0 0.019705189404886261 -0.16455991030944001 0 0.0037966650830259709 -0.16360897145393929 0 0.011796797657575129 -0.17384790647724371 0 -0.0040505174061042691 -0.1747768553057171 0 0.0037966650830259709 -0.16360897145393929 0 0.011796797657575129 -0.17384790647724371 0 0.019705189404886261 -0.16455991030944001 0 0.0037966650830259709 -0.16360897145393929 0 0.0053586659854457626 -0.14499511591668521 0 -0.0040505174061042691 -0.1747768553057171 0 -0.00042353034902907998 -0.1899398315756323 0 0.011796797657575129 -0.17384790647724371 0 -0.00042353034902907998 -0.1899398315756323 0 0.011796797657575129 -0.17384790647724371 0 0.011918753624524801 -0.18532321032410209 0 -0.00042353034902907998 -0.1899398315756323 0 0.011796797657575129 -0.17384790647724371 0 0.0210936387541385 -0.18295059619123721 0 0.011796797657575129 -0.17384790647724371 0 0.011918753624524801 -0.18532321032410209 0 0.038650343704988557 -0.1312478704566549 0 0.016857890231133349 -0.12565794653822079 0 0.02250667427098826 -0.13756793706796561 0 0.038650343704988557 -0.1312478704566549 0 0.02250667427098826 -0.13756793706796561 0 0.029159797162385381 -0.1483708153603015 0 0.02250667427098826 -0.13756793706796561 0 0.029159797162385381 -0.1483708153603015 0 0.0053586659854457626 -0.14499511591668521 0 0.019705189404886261 -0.16455991030944001 0 0.029159797162385381 -0.1483708153603015 0 0.0053586659854457626 -0.14499511591668521 0 0.019705189404886261 -0.16455991030944001 0 0.0053586659854457626 -0.14499511591668521 0 -0.0089878574339946702 -0.12543032152393041 0 0.016857890231133349 -0.12565794653822079 0 0.0053586659854457626 -0.14499511591668521 0 0.016857890231133349 -0.12565794653822079 0 0.02250667427098826 -0.13756793706796561 0 0.0053586659854457626 -0.14499511591668521 0 -0.0089878574339946702 -0.12543032152393041 0 0.016857890231133349 -0.12565794653822079 0 0.0034213182336197468 -0.1141359666180068 0 0.016857890231133349 -0.12565794653822079 0 0.0034213182336197468 -0.1141359666180068 0 0.025715330494710101 -0.1091575640104929 0 0.038650343704988557 -0.1312478704566549 0 0.016857890231133349 -0.12565794653822079 0 0.025715330494710101 -0.1091575640104929 0 0.025715330494710101 -0.1091575640104929 0 0.001564292753361757 -0.097273036926078374 0 0.026438711682634401 -0.085010028189069775 0 0.0034213182336197468 -0.1141359666180068 0 0.025715330494710101 -0.1091575640104929 0 0.001564292753361757 -0.097273036926078374 0 -0.0097036138545029977 -0.075520092910915104 0 0.001564292753361757 -0.097273036926078374 0 0.0082566518913634469 -0.07587213833182728 0 0.001564292753361757 -0.097273036926078374 0 0.0082566518913634469 -0.07587213833182728 0 0.026438711682634401 -0.085010028189069775 0 0.0082566518913634469 -0.07587213833182728 0 0.001558143314480777 -0.059512012927846143 0 0.021425725560843299 -0.062045520705227029 0 -0.0097036138545029977 -0.075520092910915104 0 0.0082566518913634469 -0.07587213833182728 0 0.001558143314480777 -0.059512012927846143 0 0.026438711682634401 -0.085010028189069775 0 0.038879952424493359 -0.067921250389391841 0 0.021425725560843299 -0.062045520705227029 0 0.0082566518913634469 -0.07587213833182728 0 0.026438711682634401 -0.085010028189069775 0 0.021425725560843299 -0.062045520705227029 0 0.026438711682634401 -0.085010028189069775 0 0.046402258237656722 -0.082803336027947025 0 0.038879952424493359 -0.067921250389391841 0 0.026438711682634401 -0.085010028189069775 0 0.046402258237656722 -0.082803336027947025 0 0.045680088130301083 -0.099555193676864689 0 0.046402258237656722 -0.082803336027947025 0 0.062308777380601969 -0.089411531162380986 0 0.061664881193585208 -0.061385831805610393 0 0.046402258237656722 -0.082803336027947025 0 0.038879952424493359 -0.067921250389391841 0 0.061664881193585208 -0.061385831805610393 0 0.046402258237656722 -0.082803336027947025 0 0.062308777380601969 -0.089411531162380986 0 0.045680088130301083 -0.099555193676864689 0 0.052284188340873783 -0.1173779091294445 0 0.045680088130301083 -0.099555193676864689 0 0.067851700708930249 -0.1057198601741441 0 0.062308777380601969 -0.089411531162380986 0 0.045680088130301083 -0.099555193676864689 0 0.067851700708930249 -0.1057198601741441 0 0.064854242954909574 -0.128892775995012 0 0.052284188340873783 -0.1173779091294445 0 0.067851700708930249 -0.1057198601741441 0 0.038650343704988557 -0.1312478704566549 0 0.025715330494710101 -0.1091575640104929 0 0.052284188340873783 -0.1173779091294445 0 0.025715330494710101 -0.1091575640104929 0 0.026438711682634401 -0.085010028189069775 0 0.045680088130301083 -0.099555193676864689 0 0.025715330494710101 -0.1091575640104929 0 0.052284188340873783 -0.1173779091294445 0 0.045680088130301083 -0.099555193676864689 0 0.026242347348416541 -0.0013883572531308351 0 0.01612565353870302 -0.01770376091585733 0 0.033034959584337907 -0.01819622885212642 0 0.026242347348416541 -0.0013883572531308351 0 0.0013985516642236111 -0.0073630034426261128 0 0.0061287660557067906 0.0082301320146713954 0 0.026242347348416541 -0.0013883572531308351 0 0.0013985516642236111 -0.0073630034426261128 0 0.026242347348416541 -0.0013883572531308351 0 0.0013985516642236111 -0.0073630034426261128 0 0.01612565353870302 -0.01770376091585733 0 0.0013985516642236111 -0.0073630034426261128 0 0.0041110647466055198 -0.019577512634144041 0 0.01612565353870302 -0.01770376091585733 0 0.0041110647466055198 -0.019577512634144041 0 0.0067621230282496154 -0.02966456223700387 0 0.01612565353870302 -0.01770376091585733 0 -0.0078420692447541684 -0.023578723941088849 0 0.0041110647466055198 -0.019577512634144041 0 0.0067621230282496154 -0.02966456223700387 0 0.01612565353870302 -0.01770376091585733 0 0.02476217638998152 -0.031904734550213462 0 0.033034959584337907 -0.01819622885212642 0 0.0067621230282496154 -0.02966456223700387 0 0.01612565353870302 -0.01770376091585733 0 0.02476217638998152 -0.031904734550213462 0 0.02476217638998152 -0.031904734550213462 0 0.028890541986253921 -0.046284879118675473 0 0.013144050776810891 -0.045516407871624948 0 0.0067621230282496154 -0.02966456223700387 0 0.02476217638998152 -0.031904734550213462 0 0.013144050776810891 -0.045516407871624948 0 -0.0034092695816034801 -0.042703784908867837 0 0.0067621230282496154 -0.02966456223700387 0 0.013144050776810891 -0.045516407871624948 0 0.013144050776810891 -0.045516407871624948 0 0.001558143314480777 -0.059512012927846143 0 0.021425725560843299 -0.062045520705227029 0 -0.0034092695816034801 -0.042703784908867837 0 0.013144050776810891 -0.045516407871624948 0 0.001558143314480777 -0.059512012927846143 0 0.028890541986253921 -0.046284879118675473 0 0.013144050776810891 -0.045516407871624948 0 0.021425725560843299 -0.062045520705227029 0 0.028890541986253921 -0.046284879118675473 0 0.021425725560843299 -0.062045520705227029 0 0.042023226862942992 -0.052650251116857928 0 0.038879952424493359 -0.067921250389391841 0 0.021425725560843299 -0.062045520705227029 0 0.042023226862942992 -0.052650251116857928 0 0.061664881193585208 -0.061385831805610393 0 0.054355613510404348 -0.046278466184443201 0 0.067469060261822214 -0.038552995885166648 0 0.038879952424493359 -0.067921250389391841 0 0.042023226862942992 -0.052650251116857928 0 0.061664881193585208 -0.061385831805610393 0 0.042023226862942992 -0.052650251116857928 0 0.061664881193585208 -0.061385831805610393 0 0.054355613510404348 -0.046278466184443201 0 0.054355613510404348 -0.046278466184443201 0 0.046265285723267019 -0.03252478593013787 0 0.067469060261822214 -0.038552995885166648 0 0.042023226862942992 -0.052650251116857928 0 0.054355613510404348 -0.046278466184443201 0 0.046265285723267019 -0.03252478593013787 0 0.028890541986253921 -0.046284879118675473 0 0.042023226862942992 -0.052650251116857928 0 0.046265285723267019 -0.03252478593013787 0 0.02476217638998152 -0.031904734550213462 0 0.028890541986253921 -0.046284879118675473 0 0.046265285723267019 -0.03252478593013787 0 0.046265285723267019 -0.03252478593013787 0 0.033034959584337907 -0.01819622885212642 0 0.04545016601039871 -0.011296691647838249 0 0.02476217638998152 -0.031904734550213462 0 0.046265285723267019 -0.03252478593013787 0 0.033034959584337907 -0.01819622885212642 0 0.046265285723267019 -0.03252478593013787 0 0.060421982146483297 -0.016774548429096859 0 0.04545016601039871 -0.011296691647838249 0 0.046265285723267019 -0.03252478593013787 0 0.060421982146483297 -0.016774548429096859 0 0.067469060261822214 -0.038552995885166648 0 0.051086143032609797 0.0045862889363625266 0 0.060421982146483297 -0.016774548429096859 0 0.051086143032609797 0.0045862889363625266 0 0.060421982146483297 -0.016774548429096859 0 0.04545016601039871 -0.011296691647838249 0 0.026242347348416541 -0.0013883572531308351 0 0.033034959584337907 -0.01819622885212642 0 0.04545016601039871 -0.011296691647838249 0 0.051086143032609797 0.0045862889363625266 0 0.026242347348416541 -0.0013883572531308351 0 0.04545016601039871 -0.011296691647838249 0 0.079680941360938451 0.01146300797895573 0 0.09191763830615414 -0.01046730032093122 0 0.077616861172386295 -0.017898175912622161 0 0.051086143032609797 0.0045862889363625266 0 0.079680941360938451 0.01146300797895573 0 0.060421982146483297 -0.016774548429096859 0 0.079680941360938451 0.01146300797895573 0 0.060421982146483297 -0.016774548429096859 0 0.077616861172386295 -0.017898175912622161 0 0.060421982146483297 -0.016774548429096859 0 0.077616861172386295 -0.017898175912622161 0 0.067469060261822214 -0.038552995885166648 0 0.077616861172386295 -0.017898175912622161 0 0.088594683786533318 -0.035159042906871787 0 0.067469060261822214 -0.038552995885166648 0 0.09191763830615414 -0.01046730032093122 0 0.077616861172386295 -0.017898175912622161 0 0.088594683786533318 -0.035159042906871787 0 0.088594683786533318 -0.035159042906871787 0 0.067469060261822214 -0.038552995885166648 0 0.083551058863305563 -0.056501471993263948 0 0.061664881193585208 -0.061385831805610393 0 0.067469060261822214 -0.038552995885166648 0 0.083551058863305563 -0.056501471993263948 0 0.088594683786533318 -0.035159042906871787 0 0.083551058863305563 -0.056501471993263948 0 0.1024659793800448 -0.050200628030002643 0 0.083551058863305563 -0.056501471993263948 0 0.1024659793800448 -0.050200628030002643 0 0.1028207704585952 -0.074079460928231186 0 0.1024659793800448 -0.050200628030002643 0 0.1160878939766728 -0.058964481447709209 0 0.1028207704585952 -0.074079460928231186 0 0.1160878939766728 -0.058964481447709209 0 0.1245400838813675 -0.069359655844095564 0 0.13125867897722751 -0.056735493994344591 0 0.1160878939766728 -0.058964481447709209 0 0.1177673977171244 -0.044291063579483633 0 0.13125867897722751 -0.056735493994344591 0 0.1024659793800448 -0.050200628030002643 0 0.1160878939766728 -0.058964481447709209 0 0.1177673977171244 -0.044291063579483633 0 0.1177673977171244 -0.044291063579483633 0 0.1046398147872004 -0.029479063617860381 0 0.1202393501977537 -0.022256857202532111 0 0.1177673977171244 -0.044291063579483633 0 0.1202393501977537 -0.022256857202532111 0 0.13068698784571531 -0.042769605042261412 0 0.1024659793800448 -0.050200628030002643 0 0.1177673977171244 -0.044291063579483633 0 0.1046398147872004 -0.029479063617860381 0 0.088594683786533318 -0.035159042906871787 0 0.1024659793800448 -0.050200628030002643 0 0.1046398147872004 -0.029479063617860381 0 0.09191763830615414 -0.01046730032093122 0 0.088594683786533318 -0.035159042906871787 0 0.1046398147872004 -0.029479063617860381 0 0.09191763830615414 -0.01046730032093122 0 0.1046398147872004 -0.029479063617860381 0 0.1067547973811821 -0.01392679302042355 0 0.1046398147872004 -0.029479063617860381 0 0.1202393501977537 -0.022256857202532111 0 0.1067547973811821 -0.01392679302042355 0 0.1202393501977537 -0.022256857202532111 0 0.1154193981372644 -0.0016161727601085791 0 0.129918448839318 -0.0083342704046082475 0 0.1202393501977537 -0.022256857202532111 0 0.1154193981372644 -0.0016161727601085791 0 0.1067547973811821 -0.01392679302042355 0 0.12615006859766659 0.001368105735046596 0 0.1154193981372644 -0.0016161727601085791 0 0.129918448839318 -0.0083342704046082475 0 0.1001505973892798 0.0023223027587165671 0 0.09191763830615414 -0.01046730032093122 0 0.1067547973811821 -0.01392679302042355 0 0.1001505973892798 0.0023223027587165671 0 0.1154193981372644 -0.0016161727601085791 0 0.1067547973811821 -0.01392679302042355 0 0.089214868711135209 -0.095147446149649859 0 0.067851700708930249 -0.1057198601741441 0 0.07813937900796504 -0.080781887893251636 0 0.089214868711135209 -0.095147446149649859 0 0.089676686227780286 -0.1134337909735957 0 0.067851700708930249 -0.1057198601741441 0 0.079005813537737557 -0.1256905367757252 0 0.089676686227780286 -0.1134337909735957 0 0.067851700708930249 -0.1057198601741441 0 0.089676686227780286 -0.1134337909735957 0 0.067851700708930249 -0.1057198601741441 0 0.094168896555345494 -0.12831433454956989 0 0.079005813537737557 -0.1256905367757252 0 0.089676686227780286 -0.1134337909735957 0 0.079005813537737557 -0.1256905367757252 0 0.064854242954909574 -0.128892775995012 0 0.067851700708930249 -0.1057198601741441 0 0.062308777380601969 -0.089411531162380986 0 0.067851700708930249 -0.1057198601741441 0 0.07813937900796504 -0.080781887893251636 0 0.061664881193585208 -0.061385831805610393 0 0.083551058863305563 -0.056501471993263948 0 0.07813937900796504 -0.080781887893251636 0 0.062308777380601969 -0.089411531162380986 0 0.061664881193585208 -0.061385831805610393 0 0.07813937900796504 -0.080781887893251636 0 0.083551058863305563 -0.056501471993263948 0 0.07813937900796504 -0.080781887893251636 0 0.1028207704585952 -0.074079460928231186 0 0.089214868711135209 -0.095147446149649859 0 0.07813937900796504 -0.080781887893251636 0 0.1028207704585952 -0.074079460928231186 0 0.089214868711135209 -0.095147446149649859 0 0.1028207704585952 -0.074079460928231186 0 0.1077063905682611 -0.099103788315019425 0 0.1160878939766728 -0.058964481447709209 0 0.1028207704585952 -0.074079460928231186 0 0.1245400838813675 -0.069359655844095564 0 0.1028207704585952 -0.074079460928231186 0 0.1245400838813675 -0.069359655844095564 0 0.12431832414827509 -0.083611143909649716 0 0.1028207704585952 -0.074079460928231186 0 0.12431832414827509 -0.083611143909649716 0 0.1077063905682611 -0.099103788315019425 0 0.1028207704585952 -0.074079460928231186 0 0.12431832414827509 -0.083611143909649716 0 0.1077063905682611 -0.099103788315019425 0 0.1115016717466303 -0.12114772177304731 0 0.12785433849583239 -0.1057995081350965 0 0.12431832414827509 -0.083611143909649716 0 0.1077063905682611 -0.099103788315019425 0 0.12785433849583239 -0.1057995081350965 0 0.089214868711135209 -0.095147446149649859 0 0.089676686227780286 -0.1134337909735957 0 0.1077063905682611 -0.099103788315019425 0 0.089676686227780286 -0.1134337909735957 0 0.1115016717466303 -0.12114772177304731 0 0.089676686227780286 -0.1134337909735957 0 0.1077063905682611 -0.099103788315019425 0 0.1115016717466303 -0.12114772177304731 0 0.094168896555345494 -0.12831433454956989 0 0.089676686227780286 -0.1134337909735957 0 0.1115016717466303 -0.12114772177304731 0 0.1115016717466303 -0.12114772177304731 0 0.12785433849583239 -0.1057995081350965 0 0.1333266572654804 -0.12886165257249901 0 0.14445710940839229 -0.1089299153492955 0 0.12785433849583239 -0.1057995081350965 0 0.1333266572654804 -0.12886165257249901 0 0.1560018107053362 -0.1197834072112452 0 0.1333266572654804 -0.12886165257249901 0 0.1560018107053362 -0.1197834072112452 0 0.14445710940839229 -0.1089299153492955 0 0.16731343152763531 -0.1026745098724869 0 0.1560018107053362 -0.1197834072112452 0 0.14445710940839229 -0.1089299153492955 0 0.1333266572654804 -0.12886165257249901 0 0.14445710940839229 -0.1089299153492955 0 0.14581587783795519 -0.093142826891068314 0 0.16731343152763531 -0.1026745098724869 0 0.14445710940839229 -0.1089299153492955 0 0.12785433849583239 -0.1057995081350965 0 0.14581587783795519 -0.093142826891068314 0 0.12431832414827509 -0.083611143909649716 0 0.12785433849583239 -0.1057995081350965 0 0.14581587783795519 -0.093142826891068314 0 0.12431832414827509 -0.083611143909649716 0 0.1407473850253487 -0.072462540616019047 0 0.14581587783795519 -0.093142826891068314 0 0.12431832414827509 -0.083611143909649716 0 0.14581587783795519 -0.093142826891068314 0 0.1245400838813675 -0.069359655844095564 0 0.1407473850253487 -0.072462540616019047 0 0.13125867897722751 -0.056735493994344591 0 0.1245400838813675 -0.069359655844095564 0 0.12431832414827509 -0.083611143909649716 0 0.1407473850253487 -0.072462540616019047 0 0.1407473850253487 -0.072462540616019047 0 0.15491189805496711 -0.066993743169356607 0 0.14673075610666811 -0.058055370265685607 0 0.1407473850253487 -0.072462540616019047 0 0.15429687266747619 -0.077481643494690056 0 0.15491189805496711 -0.066993743169356607 0 0.15429687266747619 -0.077481643494690056 0 0.14581587783795519 -0.093142826891068314 0 0.16733416484716801 -0.082741620468484892 0 0.1407473850253487 -0.072462540616019047 0 0.15429687266747619 -0.077481643494690056 0 0.14581587783795519 -0.093142826891068314 0 0.14581587783795519 -0.093142826891068314 0 0.16733416484716801 -0.082741620468484892 0 0.16731343152763531 -0.1026745098724869 0 0.16733416484716801 -0.082741620468484892 0 0.18047089852946141 -0.092345547583055715 0 0.16731343152763531 -0.1026745098724869 0 0.15491189805496711 -0.066993743169356607 0 0.16362453754041051 -0.065579577855942026 0 0.16267503757194221 -0.072067486328521405 0 0.15491189805496711 -0.066993743169356607 0 0.16362453754041051 -0.065579577855942026 0 0.15926279144490521 -0.057716490065542372 0 0.15429687266747619 -0.077481643494690056 0 0.16733416484716801 -0.082741620468484892 0 0.16267503757194221 -0.072067486328521405 0 0.15429687266747619 -0.077481643494690056 0 0.15491189805496711 -0.066993743169356607 0 0.16267503757194221 -0.072067486328521405 0 0.16733416484716801 -0.082741620468484892 0 0.16267503757194221 -0.072067486328521405 0 0.16951290303729591 -0.069566775268866024 0 0.16733416484716801 -0.082741620468484892 0 0.16951290303729591 -0.069566775268866024 0 0.17576283463886139 -0.073681351113207769 0 0.16362453754041051 -0.065579577855942026 0 0.16951290303729591 -0.069566775268866024 0 0.1717600575929418 -0.061553394447423783 0 0.16362453754041051 -0.065579577855942026 0 0.16267503757194221 -0.072067486328521405 0 0.16951290303729591 -0.069566775268866024 0 0.18388838793988879 -0.069367496622505562 0 0.1717600575929418 -0.061553394447423783 0 0.1877883581063079 -0.065194072598296987 0 0.18388838793988879 -0.069367496622505562 0 0.1717600575929418 -0.061553394447423783 0 0.18794238857341561 -0.078387255676269141 0 0.17576283463886139 -0.073681351113207769 0 0.1717600575929418 -0.061553394447423783 0 0.18794238857341561 -0.078387255676269141 0 0.1717600575929418 -0.061553394447423783 0 0.18794238857341561 -0.078387255676269141 0 0.16951290303729591 -0.069566775268866024 0 0.17576283463886139 -0.073681351113207769 0 0.1717600575929418 -0.061553394447423783 0 0.18388838793988879 -0.069367496622505562 0 0.18794238857341561 -0.078387255676269141 0 0.1877883581063079 -0.065194072598296987 0 0.17576283463886139 -0.073681351113207769 0 0.17818601350808549 -0.081995734885261823 0 0.18794238857341561 -0.078387255676269141 0 0.18388838793988879 -0.069367496622505562 0 0.1877883581063079 -0.065194072598296987 0 0.16733416484716801 -0.082741620468484892 0 0.17576283463886139 -0.073681351113207769 0 0.17818601350808549 -0.081995734885261823 0 0.16733416484716801 -0.082741620468484892 0 0.17818601350808549 -0.081995734885261823 0 0.18047089852946141 -0.092345547583055715 0 0.17818601350808549 -0.081995734885261823 0 0.18047089852946141 -0.092345547583055715 0 0.18794238857341561 -0.078387255676269141 0 0.18047089852946141 -0.092345547583055715 0 0.16731343152763531 -0.1026745098724869 0 0.18881098521731529 -0.1122061928539055 0 0.16731343152763531 -0.1026745098724869 0 0.18881098521731529 -0.1122061928539055 0 0.1719882517311821 -0.1163624405822502 0 0.16731343152763531 -0.1026745098724869 0 0.18881098521731529 -0.1122061928539055 0 0.1806104646626647 -0.12389469557318269 0 0.1719882517311821 -0.1163624405822502 0 0.18881098521731529 -0.1122061928539055 0 0.1806104646626647 -0.12389469557318269 0 0.18881098521731529 -0.1122061928539055 0 0.19234933867399059 -0.12558176745800431 0 0.1806104646626647 -0.12389469557318269 0 0.1719882517311821 -0.1163624405822502 0 0.1682983261702492 -0.12625528935958921 0 0.1560018107053362 -0.1197834072112452 0 0.1719882517311821 -0.1163624405822502 0 0.1682983261702492 -0.12625528935958921 0 0.1560018107053362 -0.1197834072112452 0 0.1719882517311821 -0.1163624405822502 0 0.16731343152763531 -0.1026745098724869 0 0.14581587783795519 -0.093142826891068314 0 0.16731343152763531 -0.1026745098724869 0 0.13534502576450419 0.005611493237825893 0 0.1491668569676308 -0.01280760124086304 0 0.14128878675004511 0.0031223626456684389 0 0.13534502576450419 0.005611493237825893 0 0.1491668569676308 -0.01280760124086304 0 0.14128878675004511 0.0031223626456684389 0 0.1491096304618871 -0.00053725345899157057 0 0.1491668569676308 -0.01280760124086304 0 0.1491096304618871 -0.00053725345899157057 0 0.15535990932759591 -0.0021715904441531519 0 0.1491668569676308 -0.01280760124086304 0 0.15535990932759591 -0.0021715904441531519 0 0.1491668569676308 -0.01280760124086304 0 0.16301140787344501 -0.014188714278145951 0 0.1491668569676308 -0.01280760124086304 0 0.129918448839318 -0.0083342704046082475 0 0.13796337547824791 -0.021968950348238449 0 0.13534502576450419 0.005611493237825893 0 0.1491668569676308 -0.01280760124086304 0 0.129918448839318 -0.0083342704046082475 0 0.12615006859766659 0.001368105735046596 0 0.13534502576450419 0.005611493237825893 0 0.129918448839318 -0.0083342704046082475 0 0.1202393501977537 -0.022256857202532111 0 0.1379085384051105 -0.033488195210555738 0 0.1202393501977537 -0.022256857202532111 0 0.13796337547824791 -0.021968950348238449 0 0.1379085384051105 -0.033488195210555738 0 0.1202393501977537 -0.022256857202532111 0 0.129918448839318 -0.0083342704046082475 0 0.13796337547824791 -0.021968950348238449 0 0.13796337547824791 -0.021968950348238449 0 0.1435998941702111 -0.032259451330584957 0 0.1379085384051105 -0.033488195210555738 0 0.1491668569676308 -0.01280760124086304 0 0.14943489208464039 -0.026607003186702931 0 0.16298868817075751 -0.031226695719552031 0 0.1491668569676308 -0.01280760124086304 0 0.16298868817075751 -0.031226695719552031 0 0.13796337547824791 -0.021968950348238449 0 0.14943489208464039 -0.026607003186702931 0 0.1435998941702111 -0.032259451330584957 0 0.1491668569676308 -0.01280760124086304 0 0.13796337547824791 -0.021968950348238449 0 0.14943489208464039 -0.026607003186702931 0 0.14943489208464039 -0.026607003186702931 0 0.15345564563635511 -0.034772317294276212 0 0.16298868817075751 -0.031226695719552031 0 0.14943489208464039 -0.026607003186702931 0 0.15345564563635511 -0.034772317294276212 0 0.1435998941702111 -0.032259451330584957 0 0.1555777266124676 -0.044719533218578827 0 0.1379085384051105 -0.033488195210555738 0 0.1555777266124676 -0.044719533218578827 0 0.1435998941702111 -0.032259451330584957 0 0.1379085384051105 -0.033488195210555738 0 0.1555777266124676 -0.044719533218578827 0 0.1379085384051105 -0.033488195210555738 0 0.1415504310867986 -0.047273043938676512 0 0.15345564563635511 -0.034772317294276212 0 0.1555777266124676 -0.044719533218578827 0 0.1435998941702111 -0.032259451330584957 0 0.1555777266124676 -0.044719533218578827 0 0.1435998941702111 -0.032259451330584957 0 0.1202393501977537 -0.022256857202532111 0 0.1379085384051105 -0.033488195210555738 0 0.13068698784571531 -0.042769605042261412 0 0.1379085384051105 -0.033488195210555738 0 0.13068698784571531 -0.042769605042261412 0 0.1415504310867986 -0.047273043938676512 0 0.13125867897722751 -0.056735493994344591 0 0.14673075610666811 -0.058055370265685607 0 0.1415504310867986 -0.047273043938676512 0 0.1407473850253487 -0.072462540616019047 0 0.13125867897722751 -0.056735493994344591 0 0.14673075610666811 -0.058055370265685607 0 0.13068698784571531 -0.042769605042261412 0 0.13125867897722751 -0.056735493994344591 0 0.1415504310867986 -0.047273043938676512 0 0.1177673977171244 -0.044291063579483633 0 0.13068698784571531 -0.042769605042261412 0 0.13125867897722751 -0.056735493994344591 0 0.1555777266124676 -0.044719533218578827 0 0.14673075610666811 -0.058055370265685607 0 0.1415504310867986 -0.047273043938676512 0 0.1555777266124676 -0.044719533218578827 0 0.14673075610666811 -0.058055370265685607 0 0.15926279144490521 -0.057716490065542372 0 0.15491189805496711 -0.066993743169356607 0 0.14673075610666811 -0.058055370265685607 0 0.15926279144490521 -0.057716490065542372 0 0.1555777266124676 -0.044719533218578827 0 0.15926279144490521 -0.057716490065542372 0 0.1717600575929418 -0.061553394447423783 0 0.1555777266124676 -0.044719533218578827 0 0.171683042359387 -0.054956802908439073 0 0.16669752699895191 -0.045012926557759958 0 0.1555777266124676 -0.044719533218578827 0 0.171683042359387 -0.054956802908439073 0 0.1717600575929418 -0.061553394447423783 0 0.1555777266124676 -0.044719533218578827 0 0.171683042359387 -0.054956802908439073 0 0.1555777266124676 -0.044719533218578827 0 0.1717600575929418 -0.061553394447423783 0 0.171683042359387 -0.054956802908439073 0 0.17681051937388409 -0.049645790198240947 0 0.16669752699895191 -0.045012926557759958 0 0.16362453754041051 -0.065579577855942026 0 0.15926279144490521 -0.057716490065542372 0 0.1717600575929418 -0.061553394447423783 0 0.171683042359387 -0.054956802908439073 0 0.1856429972316547 -0.052557216410850031 0 0.1877883581063079 -0.065194072598296987 0 0.171683042359387 -0.054956802908439073 0 0.1717600575929418 -0.061553394447423783 0 0.1877883581063079 -0.065194072598296987 0 0.171683042359387 -0.054956802908439073 0 0.1877883581063079 -0.065194072598296987 0 0.1856429972316547 -0.052557216410850031 0 0.17681051937388409 -0.049645790198240947 0 0.18957402722284081 -0.043387675870453231 0 0.171683042359387 -0.054956802908439073 0 0.1856429972316547 -0.052557216410850031 0 0.17681051937388409 -0.049645790198240947 0 0.17681051937388409 -0.049645790198240947 0 0.1804075392619934 -0.040511771782400452 0 0.17507718146043669 -0.035623116043384473 0 0.17681051937388409 -0.049645790198240947 0 0.1804075392619934 -0.040511771782400452 0 0.18957402722284081 -0.043387675870453231 0 0.1804075392619934 -0.040511771782400452 0 0.1828582192198783 -0.032473769680008292 0 0.18957402722284081 -0.043387675870453231 0 0.1804075392619934 -0.040511771782400452 0 0.1828582192198783 -0.032473769680008292 0 0.17507718146043669 -0.035623116043384473 0 0.17681051937388409 -0.049645790198240947 0 0.16298868817075751 -0.031226695719552031 0 0.17681051937388409 -0.049645790198240947 0 0.17507718146043669 -0.035623116043384473 0 0.16298868817075751 -0.031226695719552031 0 0.17681051937388409 -0.049645790198240947 0 0.16669752699895191 -0.045012926557759958 0 0.16298868817075751 -0.031226695719552031 0 0.1555777266124676 -0.044719533218578827 0 0.16669752699895191 -0.045012926557759958 0 0.16298868817075751 -0.031226695719552031 0 0.15345564563635511 -0.034772317294276212 0 0.1555777266124676 -0.044719533218578827 0 0.16298868817075751 -0.031226695719552031 0 0.1491668569676308 -0.01280760124086304 0 0.16298868817075751 -0.031226695719552031 0 0.16301140787344501 -0.014188714278145951 0 0.16298868817075751 -0.031226695719552031 0 0.17232094127567041 -0.024257552836720639 0 0.16301140787344501 -0.014188714278145951 0 0.17232094127567041 -0.024257552836720639 0 0.1726303015870774 -0.01257855380681836 0 0.16301140787344501 -0.014188714278145951 0 0.17507718146043669 -0.035623116043384473 0 0.16298868817075751 -0.031226695719552031 0 0.17232094127567041 -0.024257552836720639 0 0.1828582192198783 -0.032473769680008292 0 0.17507718146043669 -0.035623116043384473 0 0.17232094127567041 -0.024257552836720639 0 0.1828582192198783 -0.032473769680008292 0 0.17232094127567041 -0.024257552836720639 0 0.18341882974209001 -0.019828306092236781 0 0.17232094127567041 -0.024257552836720639 0 0.18341882974209001 -0.019828306092236781 0 0.1726303015870774 -0.01257855380681836 0 0.18341882974209001 -0.019828306092236781 0 0.1726303015870774 -0.01257855380681836 0 0.18215142667224191 -0.0088733323790526151 0 0.18341882974209001 -0.019828306092236781 0 0.18215142667224191 -0.0088733323790526151 0 0.19413983989843681 -0.01023072911174208 0 0.18552665683133959 0.001467737439133264 0 0.18215142667224191 -0.0088733323790526151 0 0.19413983989843681 -0.01023072911174208 0 0.18552665683133959 0.001467737439133264 0 0.18215142667224191 -0.0088733323790526151 0 0.17543905916404101 -0.0012346199626770661 0 0.1726303015870774 -0.01257855380681836 0 0.18215142667224191 -0.0088733323790526151 0 0.17543905916404101 -0.0012346199626770661 0 0.1726303015870774 -0.01257855380681836 0 0.17543905916404101 -0.0012346199626770661 0 0.16560174991193791 -0.0020902916207684789 0 0.1726303015870774 -0.01257855380681836 0 0.16560174991193791 -0.0020902916207684789 0 0.16301140787344501 -0.014188714278145951 0 0.15535990932759591 -0.0021715904441531519 0 0.16560174991193791 -0.0020902916207684789 0 0.16301140787344501 -0.014188714278145951 0 0.2182319648880206 0.0064963606874450597 0 0.20820189245955881 -0.002313028373043808 0 0.22510820358900421 -0.01054574043864936 0 0.20820189245955881 -0.002313028373043808 0 0.20819813655250499 -0.017334741968278469 0 0.22510820358900421 -0.01054574043864936 0 0.20820189245955881 -0.002313028373043808 0 0.19413983989843681 -0.01023072911174208 0 0.20819813655250499 -0.017334741968278469 0 0.19773735889018049 0.0035370700800855361 0 0.20820189245955881 -0.002313028373043808 0 0.19413983989843681 -0.01023072911174208 0 0.19773735889018049 0.0035370700800855361 0 0.18552665683133959 0.001467737439133264 0 0.19413983989843681 -0.01023072911174208 0 0.18341882974209001 -0.019828306092236781 0 0.19413983989843681 -0.01023072911174208 0 0.19661102673012301 -0.029574803558617691 0 0.19413983989843681 -0.01023072911174208 0 0.19661102673012301 -0.029574803558617691 0 0.20819813655250499 -0.017334741968278469 0 0.1828582192198783 -0.032473769680008292 0 0.18341882974209001 -0.019828306092236781 0 0.19661102673012301 -0.029574803558617691 0 0.19661102673012301 -0.029574803558617691 0 0.20819813655250499 -0.017334741968278469 0 0.21692972008540301 -0.034009408359339972 0 0.20819813655250499 -0.017334741968278469 0 0.21692972008540301 -0.034009408359339972 0 0.22510820358900421 -0.01054574043864936 0 0.21692972008540301 -0.034009408359339972 0 0.209837856719923 -0.054355616415308977 0 0.19661102673012301 -0.029574803558617691 0 0.21692972008540301 -0.034009408359339972 0 0.20235903909585501 -0.049601740478818067 0 0.21692972008540301 -0.034009408359339972 0 0.20235903909585501 -0.049601740478818067 0 0.209837856719923 -0.054355616415308977 0 0.21692972008540301 -0.034009408359339972 0 0.20235903909585501 -0.049601740478818067 0 0.19661102673012301 -0.029574803558617691 0 0.18957402722284081 -0.043387675870453231 0 0.20235903909585501 -0.049601740478818067 0 0.1828582192198783 -0.032473769680008292 0 0.19661102673012301 -0.029574803558617691 0 0.18957402722284081 -0.043387675870453231 0 0.1856429972316547 -0.052557216410850031 0 0.20235903909585501 -0.049601740478818067 0 0.1877883581063079 -0.065194072598296987 0 0.1856429972316547 -0.052557216410850031 0 0.18957402722284081 -0.043387675870453231 0 0.20235903909585501 -0.049601740478818067 0 0.20235903909585501 -0.049601740478818067 0 0.1877883581063079 -0.065194072598296987 0 0.20235903909585501 -0.049601740478818067 0 0.19982906872828191 -0.061841692149314127 0 0.1877883581063079 -0.065194072598296987 0 0.20235903909585501 -0.049601740478818067 0 0.19982906872828191 -0.061841692149314127 0 0.209837856719923 -0.054355616415308977 0 0.209837856719923 -0.054355616415308977 0 0.22989817392973219 -0.05205311745550411 0 0.22066076048557651 -0.069537114019177088 0 0.25144859584703533 -0.056671562548592028 0 0.22989817392973219 -0.05205311745550411 0 0.23550555057355749 -0.069768994649353683 0 0.25144859584703533 -0.056671562548592028 0 0.22989817392973219 -0.05205311745550411 0 0.23918609440637159 -0.036330695478617073 0 0.21692972008540301 -0.034009408359339972 0 0.209837856719923 -0.054355616415308977 0 0.22989817392973219 -0.05205311745550411 0 0.21692972008540301 -0.034009408359339972 0 0.22989817392973219 -0.05205311745550411 0 0.23918609440637159 -0.036330695478617073 0 0.25252718089966042 0.0040840364167999913 0 0.25983111442221102 -0.029602742009838649 0 0.2347284504925318 -0.014962685971270231 0 0.21692972008540301 -0.034009408359339972 0 0.2347284504925318 -0.014962685971270231 0 0.22510820358900421 -0.01054574043864936 0 0.21692972008540301 -0.034009408359339972 0 0.23918609440637159 -0.036330695478617073 0 0.2347284504925318 -0.014962685971270231 0 0.21692972008540301 -0.034009408359339972 0 0.2347284504925318 -0.014962685971270231 0 0.21692972008540301 -0.034009408359339972 0 0.22510820358900421 -0.01054574043864936 0 0.25983111442221102 -0.029602742009838649 0 0.23918609440637159 -0.036330695478617073 0 0.2347284504925318 -0.014962685971270231 0 0.25252718089966042 0.0040840364167999913 0 0.2347284504925318 -0.014962685971270231 0 0.23328668709260661 0.01291792748204096 0 0.2347284504925318 -0.014962685971270231 0 0.22510820358900421 -0.01054574043864936 0 0.20412471955388931 -0.09522111690511445 0 0.22358840527023791 -0.087950207497234714 0 0.21918006158776479 -0.1058362750275146 0 0.20413029535481511 -0.10844109043087261 0 0.20412471955388931 -0.09522111690511445 0 0.21918006158776479 -0.1058362750275146 0 0.2044054150602912 -0.1205007769369557 0 0.21918006158776479 -0.1058362750275146 0 0.22170122609285289 -0.1240842512237621 0 0.20413029535481511 -0.10844109043087261 0 0.2044054150602912 -0.1205007769369557 0 0.21918006158776479 -0.1058362750275146 0 0.20413029535481511 -0.10844109043087261 0 0.2044054150602912 -0.1205007769369557 0 0.18881098521731529 -0.1122061928539055 0 0.2044054150602912 -0.1205007769369557 0 0.18881098521731529 -0.1122061928539055 0 0.19234933867399059 -0.12558176745800431 0 0.20413029535481511 -0.10844109043087261 0 0.20412471955388931 -0.09522111690511445 0 0.18881098521731529 -0.1122061928539055 0 0.18047089852946141 -0.092345547583055715 0 0.20412471955388931 -0.09522111690511445 0 0.18881098521731529 -0.1122061928539055 0 0.20412471955388931 -0.09522111690511445 0 0.18794238857341561 -0.078387255676269141 0 0.18047089852946141 -0.092345547583055715 0 0.20412471955388931 -0.09522111690511445 0 0.18794238857341561 -0.078387255676269141 0 0.20412471955388931 -0.09522111690511445 0 0.18794238857341561 -0.078387255676269141 0 0.20109432566091701 -0.079440378050207511 0 0.1877883581063079 -0.065194072598296987 0 0.20274599335444179 -0.0747018244712776 0 0.18794238857341561 -0.078387255676269141 0 0.1877883581063079 -0.065194072598296987 0 0.20274599335444179 -0.0747018244712776 0 0.18794238857341561 -0.078387255676269141 0 0.20109432566091701 -0.079440378050207511 0 0.20274599335444179 -0.0747018244712776 0 0.20109432566091701 -0.079440378050207511 0 0.20274599335444179 -0.0747018244712776 0 0.19982906872828191 -0.061841692149314127 0 0.1877883581063079 -0.065194072598296987 0 0.20274599335444179 -0.0747018244712776 0 0.209837856719923 -0.054355616415308977 0 0.20274599335444179 -0.0747018244712776 0 0.209837856719923 -0.054355616415308977 0 0.20274599335444179 -0.0747018244712776 0 0.22066076048557651 -0.069537114019177088 0 0.19982906872828191 -0.061841692149314127 0 0.209837856719923 -0.054355616415308977 0 0.20274599335444179 -0.0747018244712776 0 0.20274599335444179 -0.0747018244712776 0 0.22358840527023791 -0.087950207497234714 0 0.22066076048557651 -0.069537114019177088 0 0.20109432566091701 -0.079440378050207511 0 0.20274599335444179 -0.0747018244712776 0 0.22358840527023791 -0.087950207497234714 0 0.20274599335444179 -0.0747018244712776 0 0.22358840527023791 -0.087950207497234714 0 0.20412471955388931 -0.09522111690511445 0 0.20109432566091701 -0.079440378050207511 0 0.22358840527023791 -0.087950207497234714 0 0.22989817392973219 -0.05205311745550411 0 0.22066076048557651 -0.069537114019177088 0 0.23550555057355749 -0.069768994649353683 0 0.22358840527023791 -0.087950207497234714 0 0.22066076048557651 -0.069537114019177088 0 0.23550555057355749 -0.069768994649353683 0 0.25144859584703533 -0.056671562548592028 0 0.23550555057355749 -0.069768994649353683 0 0.24719719431449419 -0.084876050210440576 0 0.22358840527023791 -0.087950207497234714 0 0.24719719431449419 -0.084876050210440576 0 0.2337771596285966 -0.099947701267451436 0 0.22358840527023791 -0.087950207497234714 0 0.23550555057355749 -0.069768994649353683 0 0.24719719431449419 -0.084876050210440576 0 0.24719719431449419 -0.084876050210440576 0 0.2337771596285966 -0.099947701267451436 0 0.24494749141015429 -0.111037077265734 0 0.22358840527023791 -0.087950207497234714 0 0.2337771596285966 -0.099947701267451436 0 0.21918006158776479 -0.1058362750275146 0 0.2337771596285966 -0.099947701267451436 0 0.21918006158776479 -0.1058362750275146 0 0.22170122609285289 -0.1240842512237621 0 0.22170122609285289 -0.1240842512237621 0 0.24494749141015429 -0.111037077265734 0 0.23589533828077239 -0.12984712511795829 0 0.22170122609285289 -0.1240842512237621 0 0.24494749141015429 -0.111037077265734 0 0.2337771596285966 -0.099947701267451436 0 0.22170122609285289 -0.1240842512237621 0 0.24494749141015429 -0.111037077265734 0 0.25121346724892157 -0.13004324048910579 0 0.24494749141015429 -0.111037077265734 0 0.23589533828077239 -0.12984712511795829 0 0.25121346724892157 -0.13004324048910579 0 0.23589533828077239 -0.12984712511795829 0 0.23794897946417001 -0.1450282348999703 0 0.25769598880847849 -0.1489766397590562 0 0.23794897946417001 -0.1450282348999703 0 0.25121346724892157 -0.13004324048910579 0 0.25769598880847849 -0.1489766397590562 0 0.23794897946417001 -0.1450282348999703 0 0.25769598880847849 -0.1489766397590562 0 0.23794897946417001 -0.1450282348999703 0 0.24115368353005379 -0.16000732749784211 0 0.25769598880847849 -0.1489766397590562 0 0.24115368353005379 -0.16000732749784211 0 0.23794897946417001 -0.1450282348999703 0 0.22666433061815 -0.15011153497637569 0 0.24115368353005379 -0.16000732749784211 0 0.23794897946417001 -0.1450282348999703 0 0.21820197011986131 -0.14107983004088481 0 0.22666433061815 -0.15011153497637569 0 0.20447925036656511 -0.15401017690527569 0 0.22819678140026001 -0.16239301834953471 0 0.23794897946417001 -0.1450282348999703 0 0.22666433061815 -0.15011153497637569 0 0.21820197011986131 -0.14107983004088481 0 0.23589533828077239 -0.12984712511795829 0 0.23794897946417001 -0.1450282348999703 0 0.21820197011986131 -0.14107983004088481 0 0.22170122609285289 -0.1240842512237621 0 0.23589533828077239 -0.12984712511795829 0 0.21820197011986131 -0.14107983004088481 0 0.2044054150602912 -0.1205007769369557 0 0.22170122609285289 -0.1240842512237621 0 0.19845496077555369 -0.1371314251817938 0 0.21820197011986131 -0.14107983004088481 0 0.19845496077555369 -0.1371314251817938 0 0.22170122609285289 -0.1240842512237621 0 0.21820197011986131 -0.14107983004088481 0 0.19845496077555369 -0.1371314251817938 0 0.22170122609285289 -0.1240842512237621 0 0.19845496077555369 -0.1371314251817938 0 0.21820197011986131 -0.14107983004088481 0 0.20447925036656511 -0.15401017690527569 0 0.19845496077555369 -0.1371314251817938 0 0.22666433061815 -0.15011153497637569 0 0.21820197011986131 -0.14107983004088481 0 0.20447925036656511 -0.15401017690527569 0 0.20447925036656511 -0.15401017690527569 0 0.1920565114582177 -0.14072261198816069 0 0.19845496077555369 -0.1371314251817938 0 0.20447925036656511 -0.15401017690527569 0 0.18076171933287019 -0.1456273354610168 0 0.18256714616607861 -0.1592532738719763 0 0.20447925036656511 -0.15401017690527569 0 0.1920565114582177 -0.14072261198816069 0 0.18076171933287019 -0.1456273354610168 0 0.20447925036656511 -0.15401017690527569 0 0.18076171933287019 -0.1456273354610168 0 0.2044054150602912 -0.1205007769369557 0 0.19234933867399059 -0.12558176745800431 0 0.19845496077555369 -0.1371314251817938 0 0.19845496077555369 -0.1371314251817938 0 0.18532895197912991 -0.13450688614358119 0 0.1920565114582177 -0.14072261198816069 0 0.19845496077555369 -0.1371314251817938 0 0.18532895197912991 -0.13450688614358119 0 0.1920565114582177 -0.14072261198816069 0 0.19845496077555369 -0.1371314251817938 0 0.19234933867399059 -0.12558176745800431 0 0.19845496077555369 -0.1371314251817938 0 0.18532895197912991 -0.13450688614358119 0 0.2026782808689486 -0.17222897617173219 0 0.19298038438720599 -0.18397716386467641 0 0.18438218864715511 -0.1728779347639478 0 0.2026782808689486 -0.17222897617173219 0 0.19298038438720599 -0.18397716386467641 0 0.20454471535541899 -0.18698031883355631 0 0.20447925036656511 -0.15401017690527569 0 0.2026782808689486 -0.17222897617173219 0 0.19352671651218681 -0.16459259042823299 0 0.2026782808689486 -0.17222897617173219 0 0.19352671651218681 -0.16459259042823299 0 0.18438218864715511 -0.1728779347639478 0 0.20447925036656511 -0.15401017690527569 0 0.19352671651218681 -0.16459259042823299 0 0.18256714616607861 -0.1592532738719763 0 0.20447925036656511 -0.15401017690527569 0 0.22819678140026001 -0.16239301834953471 0 0.20447925036656511 -0.15401017690527569 0 0.2026782808689486 -0.17222897617173219 0 0.21650235410175339 -0.17007358387844401 0 0.20447925036656511 -0.15401017690527569 0 0.21650235410175339 -0.17007358387844401 0 0.22819678140026001 -0.16239301834953471 0 0.2026782808689486 -0.17222897617173219 0 0.21650235410175339 -0.17007358387844401 0 0.21679717522581099 -0.18284121287414229 0 0.2026782808689486 -0.17222897617173219 0 0.20454471535541899 -0.18698031883355631 0 0.21679717522581099 -0.18284121287414229 0 0.21679717522581099 -0.18284121287414229 0 0.2260251179102987 -0.1752478552364691 0 0.22930773662034951 -0.18465270954046289 0 0.21650235410175339 -0.17007358387844401 0 0.21679717522581099 -0.18284121287414229 0 0.2260251179102987 -0.1752478552364691 0 0.2260251179102987 -0.1752478552364691 0 0.22930773662034951 -0.18465270954046289 0 0.2393215422033195 -0.17627875153976191 0 0.21650235410175339 -0.17007358387844401 0 0.2260251179102987 -0.1752478552364691 0 0.22819678140026001 -0.16239301834953471 0 0.2260251179102987 -0.1752478552364691 0 0.22819678140026001 -0.16239301834953471 0 0.2393215422033195 -0.17627875153976191 0 0.22666433061815 -0.15011153497637569 0 0.22819678140026001 -0.16239301834953471 0 0.24115368353005379 -0.16000732749784211 0 0.22819678140026001 -0.16239301834953471 0 0.24115368353005379 -0.16000732749784211 0 0.2393215422033195 -0.17627875153976191 0 0.24115368353005379 -0.16000732749784211 0 0.24736775893403121 -0.16987052873896019 0 0.2393215422033195 -0.17627875153976191 0 0.25625382477403552 -0.16600008824845111 0 0.24115368353005379 -0.16000732749784211 0 0.24736775893403121 -0.16987052873896019 0 0.25071422220048228 -0.18889674024332551 0 0.2393215422033195 -0.17627875153976191 0 0.23902434627600011 -0.19493937337723771 0 0.22930773662034951 -0.18465270954046289 0 0.2393215422033195 -0.17627875153976191 0 0.23902434627600011 -0.19493937337723771 0 0.25274198522871588 -0.17719594766978569 0 0.24736775893403121 -0.16987052873896019 0 0.2393215422033195 -0.17627875153976191 0 0.25071422220048228 -0.18889674024332551 0 0.25274198522871588 -0.17719594766978569 0 0.2393215422033195 -0.17627875153976191 0 0.25155481569820459 -0.20174152318158639 0 0.25071422220048228 -0.18889674024332551 0 0.23902434627600011 -0.19493937337723771 0 0.25155481569820459 -0.20174152318158639 0 0.23902434627600011 -0.19493937337723771 0 0.24357209439345751 -0.2085764675823209 0 0.25117213108672271 -0.21129904678697509 0 0.24357209439345751 -0.2085764675823209 0 0.24009448254052829 -0.22759828787347619 0 0.24357209439345751 -0.2085764675823209 0 0.23225849837539461 -0.20967680910999401 0 0.24009448254052829 -0.22759828787347619 0 0.25117213108672271 -0.21129904678697509 0 0.25155481569820459 -0.20174152318158639 0 0.24357209439345751 -0.2085764675823209 0 0.23902434627600011 -0.19493937337723771 0 0.24357209439345751 -0.2085764675823209 0 0.23225849837539461 -0.20967680910999401 0 0.23225849837539461 -0.20967680910999401 0 0.21898545313090059 -0.20969916575353531 0 0.2240145706276323 -0.22244174341241291 0 0.23225849837539461 -0.20967680910999401 0 0.21898545313090059 -0.20969916575353531 0 0.2245013154017349 -0.19605109444303939 0 0.21679717522581099 -0.18284121287414229 0 0.22930773662034951 -0.18465270954046289 0 0.2245013154017349 -0.19605109444303939 0 0.22930773662034951 -0.18465270954046289 0 0.23902434627600011 -0.19493937337723771 0 0.2245013154017349 -0.19605109444303939 0 0.23902434627600011 -0.19493937337723771 0 0.23225849837539461 -0.20967680910999401 0 0.2245013154017349 -0.19605109444303939 0 0.26346358465381908 -0.23862003643878141 0 0.24143216616638091 -0.2469397021466557 0 0.24009448254052829 -0.22759828787347619 0 0.23225849837539461 -0.20967680910999401 0 0.24009448254052829 -0.22759828787347619 0 0.2240145706276323 -0.22244174341241291 0 0.24009448254052829 -0.22759828787347619 0 0.2240145706276323 -0.22244174341241291 0 0.21869032422513979 -0.2414783546586948 0 0.22658224093852991 -0.25973476809078111 0 0.24143216616638091 -0.2469397021466557 0 0.21869032422513979 -0.2414783546586948 0 0.24143216616638091 -0.2469397021466557 0 0.24009448254052829 -0.22759828787347619 0 0.21869032422513979 -0.2414783546586948 0 0.24009448254052829 -0.22759828787347619 0 0.21869032422513979 -0.2414783546586948 0 0.19728616590975029 -0.25535842144391158 0 0.21869032422513979 -0.2414783546586948 0 0.19728616590975029 -0.25535842144391158 0 0.21869032422513979 -0.2414783546586948 0 0.19660853105545131 -0.23728442390035109 0 0.21869032422513979 -0.2414783546586948 0 0.21004409486619829 -0.22375609966636409 0 0.19660853105545131 -0.23728442390035109 0 0.2240145706276323 -0.22244174341241291 0 0.21869032422513979 -0.2414783546586948 0 0.21004409486619829 -0.22375609966636409 0 0.21004409486619829 -0.22375609966636409 0 0.19542613439564771 -0.2224620382292547 0 0.20318082788030439 -0.2104161498259936 0 0.19542613439564771 -0.2224620382292547 0 0.19660853105545131 -0.23728442390035109 0 0.18272755491584039 -0.22697668958965239 0 0.21004409486619829 -0.22375609966636409 0 0.19542613439564771 -0.2224620382292547 0 0.19660853105545131 -0.23728442390035109 0 0.19728616590975029 -0.25535842144391158 0 0.19660853105545131 -0.23728442390035109 0 0.17925130101915759 -0.24117316583660039 0 0.19728616590975029 -0.25535842144391158 0 0.17925130101915759 -0.24117316583660039 0 0.2108596429387446 -0.1975163224509125 0 0.20318082788030439 -0.2104161498259936 0 0.19621654858887719 -0.1976902479409644 0 0.20454471535541899 -0.18698031883355631 0 0.2108596429387446 -0.1975163224509125 0 0.19621654858887719 -0.1976902479409644 0 0.20454471535541899 -0.18698031883355631 0 0.21679717522581099 -0.18284121287414229 0 0.2108596429387446 -0.1975163224509125 0 0.21679717522581099 -0.18284121287414229 0 0.2245013154017349 -0.19605109444303939 0 0.2108596429387446 -0.1975163224509125 0 0.21898545313090059 -0.20969916575353531 0 0.2245013154017349 -0.19605109444303939 0 0.2108596429387446 -0.1975163224509125 0 0.21898545313090059 -0.20969916575353531 0 0.2108596429387446 -0.1975163224509125 0 0.20318082788030439 -0.2104161498259936 0 0.21898545313090059 -0.20969916575353531 0 0.21004409486619829 -0.22375609966636409 0 0.20318082788030439 -0.2104161498259936 0 0.21898545313090059 -0.20969916575353531 0 0.2240145706276323 -0.22244174341241291 0 0.21004409486619829 -0.22375609966636409 0 0.20318082788030439 -0.2104161498259936 0 0.19621654858887719 -0.1976902479409644 0 0.18256139875082031 -0.21027112837020259 0 0.19542613439564771 -0.2224620382292547 0 0.20318082788030439 -0.2104161498259936 0 0.18256139875082031 -0.21027112837020259 0 0.19621654858887719 -0.1976902479409644 0 0.18480297858073899 -0.1946303337635451 0 0.18256139875082031 -0.21027112837020259 0 0.19298038438720599 -0.18397716386467641 0 0.20454471535541899 -0.18698031883355631 0 0.19621654858887719 -0.1976902479409644 0 0.19298038438720599 -0.18397716386467641 0 0.19621654858887719 -0.1976902479409644 0 0.18480297858073899 -0.1946303337635451 0 0.18480297858073899 -0.1946303337635451 0 0.1739256246667549 -0.19690472450527979 0 0.18256139875082031 -0.21027112837020259 0 0.19298038438720599 -0.18397716386467641 0 0.18480297858073899 -0.1946303337635451 0 0.1783309365100367 -0.18430840413660229 0 0.18480297858073899 -0.1946303337635451 0 0.1739256246667549 -0.19690472450527979 0 0.1783309365100367 -0.18430840413660229 0 0.1739256246667549 -0.19690472450527979 0 0.18256139875082031 -0.21027112837020259 0 0.15934103119863419 -0.20464806504916799 0 0.18256139875082031 -0.21027112837020259 0 0.15934103119863419 -0.20464806504916799 0 0.16121643612856451 -0.22698791022928971 0 0.1739256246667549 -0.19690472450527979 0 0.15934103119863419 -0.20464806504916799 0 0.16242144825012661 -0.1876490286632026 0 0.1739256246667549 -0.19690472450527979 0 0.16242144825012661 -0.1876490286632026 0 0.1783309365100367 -0.18430840413660229 0 0.15934103119863419 -0.20464806504916799 0 0.16242144825012661 -0.1876490286632026 0 0.15008114745187451 -0.19462609556787491 0 0.19660853105545131 -0.23728442390035109 0 0.17925130101915759 -0.24117316583660039 0 0.18272755491584039 -0.22697668958965239 0 0.19542613439564771 -0.2224620382292547 0 0.18256139875082031 -0.21027112837020259 0 0.18272755491584039 -0.22697668958965239 0 0.18256139875082031 -0.21027112837020259 0 0.18272755491584039 -0.22697668958965239 0 0.16121643612856451 -0.22698791022928971 0 0.17925130101915759 -0.24117316583660039 0 0.18272755491584039 -0.22697668958965239 0 0.16121643612856451 -0.22698791022928971 0 0.17925130101915759 -0.24117316583660039 0 0.16121643612856451 -0.22698791022928971 0 0.15830510050850111 -0.25039762725578801 0 0.17925130101915759 -0.24117316583660039 0 0.16121643612856451 -0.22698791022928971 0 0.15830510050850111 -0.25039762725578801 0 0.16121643612856451 -0.22698791022928971 0 0.13933960457653141 -0.24367352749783699 0 0.16121643612856451 -0.22698791022928971 0 0.1431815712379714 -0.21280265462197889 0 0.16121643612856451 -0.22698791022928971 0 0.13818274248682411 -0.22614037654924871 0 0.1431815712379714 -0.21280265462197889 0 0.16121643612856451 -0.22698791022928971 0 0.13818274248682411 -0.22614037654924871 0 0.13933960457653141 -0.24367352749783699 0 0.1195024120068811 -0.2335579215429488 0 0.13818274248682411 -0.22614037654924871 0 0.12767368848417199 -0.21367986885418899 0 0.1195024120068811 -0.2335579215429488 0 0.13818274248682411 -0.22614037654924871 0 0.13933960457653141 -0.24367352749783699 0 0.123142866472638 -0.2579767125970166 0 0.1195024120068811 -0.2335579215429488 0 0.13933960457653141 -0.24367352749783699 0 0.15934103119863419 -0.20464806504916799 0 0.14313769694864181 -0.20033161226588081 0 0.15008114745187451 -0.19462609556787491 0 0.15008114745187451 -0.19462609556787491 0 0.1379380285073509 -0.19096384707571409 0 0.147745507423163 -0.18328570783512291 0 0.14313769694864181 -0.20033161226588081 0 0.15008114745187451 -0.19462609556787491 0 0.1379380285073509 -0.19096384707571409 0 0.16242144825012661 -0.1876490286632026 0 0.15008114745187451 -0.19462609556787491 0 0.147745507423163 -0.18328570783512291 0 0.15934103119863419 -0.20464806504916799 0 0.14313769694864181 -0.20033161226588081 0 0.1431815712379714 -0.21280265462197889 0 0.15934103119863419 -0.20464806504916799 0 0.16121643612856451 -0.22698791022928971 0 0.1431815712379714 -0.21280265462197889 0 0.1431815712379714 -0.21280265462197889 0 0.12767368848417199 -0.21367986885418899 0 0.12514670634737809 -0.19861739901466799 0 0.14313769694864181 -0.20033161226588081 0 0.1431815712379714 -0.21280265462197889 0 0.12514670634737809 -0.19861739901466799 0 0.1431815712379714 -0.21280265462197889 0 0.12514670634737809 -0.19861739901466799 0 0.13818274248682411 -0.22614037654924871 0 0.1431815712379714 -0.21280265462197889 0 0.12767368848417199 -0.21367986885418899 0 0.14313769694864181 -0.20033161226588081 0 0.12514670634737809 -0.19861739901466799 0 0.1379380285073509 -0.19096384707571409 0 0.12514670634737809 -0.19861739901466799 0 0.1379380285073509 -0.19096384707571409 0 0.12574547062707331 -0.1852302948794648 0 0.1364439083436586 -0.1807690698955261 0 0.14529363781186369 -0.17138098291155399 0 0.12814367079806849 -0.17092257721813059 0 0.12574547062707331 -0.1852302948794648 0 0.1364439083436586 -0.1807690698955261 0 0.12814367079806849 -0.17092257721813059 0 0.1379380285073509 -0.19096384707571409 0 0.12574547062707331 -0.1852302948794648 0 0.1364439083436586 -0.1807690698955261 0 0.1379380285073509 -0.19096384707571409 0 0.1364439083436586 -0.1807690698955261 0 0.147745507423163 -0.18328570783512291 0 0.1364439083436586 -0.1807690698955261 0 0.147745507423163 -0.18328570783512291 0 0.14529363781186369 -0.17138098291155399 0 0.147745507423163 -0.18328570783512291 0 0.14529363781186369 -0.17138098291155399 0 0.15709237008651861 -0.1769256250064265 0 0.16242144825012661 -0.1876490286632026 0 0.147745507423163 -0.18328570783512291 0 0.15709237008651861 -0.1769256250064265 0 0.149475414252289 -0.15976379733569299 0 0.157703038597335 -0.15375619843672689 0 0.1585547080321236 -0.16637811434435301 0 0.149475414252289 -0.15976379733569299 0 0.14529363781186369 -0.17138098291155399 0 0.1585547080321236 -0.16637811434435301 0 0.14529363781186369 -0.17138098291155399 0 0.15709237008651861 -0.1769256250064265 0 0.1585547080321236 -0.16637811434435301 0 0.149475414252289 -0.15976379733569299 0 0.14529363781186369 -0.17138098291155399 0 0.13524720571683771 -0.15857702227783571 0 0.1164535698450507 -0.15923411716505059 0 0.13524720571683771 -0.15857702227783571 0 0.12814367079806849 -0.17092257721813059 0 0.14529363781186369 -0.17138098291155399 0 0.13524720571683771 -0.15857702227783571 0 0.12814367079806849 -0.17092257721813059 0 0.12770377727919199 -0.14655310492825949 0 0.1333266572654804 -0.12886165257249901 0 0.14392062155977001 -0.14770402740220609 0 0.13524720571683771 -0.15857702227783571 0 0.12770377727919199 -0.14655310492825949 0 0.14392062155977001 -0.14770402740220609 0 0.1164535698450507 -0.15923411716505059 0 0.13524720571683771 -0.15857702227783571 0 0.12770377727919199 -0.14655310492825949 0 0.1560018107053362 -0.1197834072112452 0 0.1333266572654804 -0.12886165257249901 0 0.1570441882991753 -0.1372444940167579 0 0.1333266572654804 -0.12886165257249901 0 0.14392062155977001 -0.14770402740220609 0 0.1570441882991753 -0.1372444940167579 0 0.1333266572654804 -0.12886165257249901 0 0.1570441882991753 -0.1372444940167579 0 0.14392062155977001 -0.14770402740220609 0 0.157703038597335 -0.15375619843672689 0 0.1570441882991753 -0.1372444940167579 0 0.149475414252289 -0.15976379733569299 0 0.13524720571683771 -0.15857702227783571 0 0.14392062155977001 -0.14770402740220609 0 0.149475414252289 -0.15976379733569299 0 0.14392062155977001 -0.14770402740220609 0 0.157703038597335 -0.15375619843672689 0 0.1684341254522555 -0.15048100282535329 0 0.1570441882991753 -0.1372444940167579 0 0.18076171933287019 -0.1456273354610168 0 0.157703038597335 -0.15375619843672689 0 0.1684341254522555 -0.15048100282535329 0 0.1570441882991753 -0.1372444940167579 0 0.1570441882991753 -0.1372444940167579 0 0.18076171933287019 -0.1456273354610168 0 0.1684341254522555 -0.15048100282535329 0 0.17515172883410551 -0.15503510417274999 0 0.16878917398839691 -0.1609657546959983 0 0.157703038597335 -0.15375619843672689 0 0.1684341254522555 -0.15048100282535329 0 0.16878917398839691 -0.1609657546959983 0 0.1570441882991753 -0.1372444940167579 0 0.17464142885258321 -0.1332327249500963 0 0.18076171933287019 -0.1456273354610168 0 0.1560018107053362 -0.1197834072112452 0 0.1570441882991753 -0.1372444940167579 0 0.1682983261702492 -0.12625528935958921 0 0.1570441882991753 -0.1372444940167579 0 0.1682983261702492 -0.12625528935958921 0 0.17464142885258321 -0.1332327249500963 0 0.1806104646626647 -0.12389469557318269 0 0.1682983261702492 -0.12625528935958921 0 0.17464142885258321 -0.1332327249500963 0 0.1920565114582177 -0.14072261198816069 0 0.18532895197912991 -0.13450688614358119 0 0.18076171933287019 -0.1456273354610168 0 0.17464142885258321 -0.1332327249500963 0 0.18532895197912991 -0.13450688614358119 0 0.18076171933287019 -0.1456273354610168 0 0.1806104646626647 -0.12389469557318269 0 0.17464142885258321 -0.1332327249500963 0 0.18532895197912991 -0.13450688614358119 0 0.1806104646626647 -0.12389469557318269 0 0.19234933867399059 -0.12558176745800431 0 0.18532895197912991 -0.13450688614358119 0 0.17515172883410551 -0.15503510417274999 0 0.18076171933287019 -0.1456273354610168 0 0.18256714616607861 -0.1592532738719763 0 0.1684341254522555 -0.15048100282535329 0 0.17515172883410551 -0.15503510417274999 0 0.18076171933287019 -0.1456273354610168 0 0.17515172883410551 -0.15503510417274999 0 0.17653147917426451 -0.16630731514522151 0 0.16878917398839691 -0.1609657546959983 0 0.17515172883410551 -0.15503510417274999 0 0.18256714616607861 -0.1592532738719763 0 0.17653147917426451 -0.16630731514522151 0 0.17653147917426451 -0.16630731514522151 0 0.18438218864715511 -0.1728779347639478 0 0.16995116550802811 -0.1740084328342543 0 0.18256714616607861 -0.1592532738719763 0 0.17653147917426451 -0.16630731514522151 0 0.18438218864715511 -0.1728779347639478 0 0.19352671651218681 -0.16459259042823299 0 0.18256714616607861 -0.1592532738719763 0 0.18438218864715511 -0.1728779347639478 0 0.19298038438720599 -0.18397716386467641 0 0.18438218864715511 -0.1728779347639478 0 0.1783309365100367 -0.18430840413660229 0 0.18438218864715511 -0.1728779347639478 0 0.1783309365100367 -0.18430840413660229 0 0.16995116550802811 -0.1740084328342543 0 0.16242144825012661 -0.1876490286632026 0 0.1783309365100367 -0.18430840413660229 0 0.16995116550802811 -0.1740084328342543 0 0.16995116550802811 -0.1740084328342543 0 0.15709237008651861 -0.1769256250064265 0 0.1585547080321236 -0.16637811434435301 0 0.16242144825012661 -0.1876490286632026 0 0.16995116550802811 -0.1740084328342543 0 0.15709237008651861 -0.1769256250064265 0 0.157703038597335 -0.15375619843672689 0 0.1585547080321236 -0.16637811434435301 0 0.16878917398839691 -0.1609657546959983 0 0.16995116550802811 -0.1740084328342543 0 0.1585547080321236 -0.16637811434435301 0 0.16878917398839691 -0.1609657546959983 0 0.17653147917426451 -0.16630731514522151 0 0.16995116550802811 -0.1740084328342543 0 0.16878917398839691 -0.1609657546959983 0 
</DataArray>
</Points>
<Cells>
<DataArray type="UInt32" Name="connectivity" format="ascii">
0 1 2 3 4 5 6 7 8 9 10 11 12 13 14 15 16 17 18 19 20 21 22 23 24 25 26 27 28 29 30 31 32 33 34 35 36 37 38 39 40 41 42 43 44 45 46 47 48 49 50 51 52 53 54 55 56 57 58 59 60 61 62 63 64 65 66 67 68 69 70 71 72 73 74 75 76 77 78 79 80 81 82 83 84 85 86 87 88 89 90 91 92 93 94 95 96 97 98 99 100 101 102 103 104 105 106 107 108 109 110 111 112 113 114 115 116 117 118 119 120 121 122 123 124 125 126 127 128 129 130 131 132 133 134 135 136 137 138 139 140 141 142 143 144 145 146 147 148 149 150 151 152 153 154 155 156 157 158 159 160 161 162 163 164 165 166 167 168 169 170 171 172 173 174 175 176 177 178 179 180 181 182 183 184 185 186 187 188 189 190 191 192 193 194 195 196 197 198 199 200 201 202 203 204 205 206 207 208 209 210 211 212 213 214 215 216 217 218 219 220 221 222 223 224 225 226 227 228 229 230 231 232 233 234 235 236 237 238 239 240 241 242 243 244 245 246 247 248 249 250 251 252 253 254 255 256 257 258 259 260 261 262 263 264 265 266 267 268 269 270 271 272 273 274 275 276 277 278 279 280 281 282 283 284 285 286 287 288 289 290 291 292 293 294 295 296 297 298 299 300 301 302 303 304 305 306 307 308 309 310 311 312 313 314 315 316 317 318 319 320 321 322 323 324 325 326 327 328 329 330 331 332 333 334 335 336 337 338 339 340 341 342 343 344 345 346 347 348 349 350 351 352 353 354 355 356 357 358 359 360 361 362 363 364 365 366 367 368 369 370 371 372 373 374 375 376 377 378 379 380 381 382 383 384 385 386 387 388 389 390 391 392 393 394 395 396 397 398 399 400 401 402 403 404 405 406 407 408 409 410 411 412 413 414 415 416 417 418 419 420 421 422 423 424 425 426 427 428 429 430 431 432 433 434 435 436 437 438 439 440 441 442 443 444 445 446 447 448 449 450 451 452 453 454 455 456 457 458 459 460 461 462 463 464 465 466 467 468 469 470 471 472 473 474 475 476 477 478 479 480 481 482 483 484 485 486 487 488 489 490 491 492 493 494 495 496 497 498 499 500 501 502 503 504 505 506 507 508 509 510 511 512 513 514 515 516 517 518 519 520 521 522 523 524 525 526 527 528 529 530 531 532 533 534 535 536 537 538 539 540 541 542 543 544 545 546 547 548 549 550 551 552 553 554 555 556 557 558 559 560 561 562 563 564 565 566 567 568 569 570 571 572 573 574 575 576 577 578 579 580 581 582 583 584 585 586 587 588 589 590 591 592 593 594 595 596 597 598 599 600 601 602 603 604 605 606 607 608 609 610 611 612 613 614 615 616 617 618 619 620 621 622 623 624 625 626 627 628 629 630 631 632 633 634 635 636 637 638 639 640 641 642 643 644 645 646 647 648 649 650 651 652 653 654 655 656 657 658 659 660 661 662 663 664 665 666 667 668 669 670 671 672 673 674 675 676 677 678 679 680 681 682 683 684 685 686 687 688 689 690 691 692 693 694 695 696 697 698 699 700 701 702 703 704 705 706 707 708 709 710 711 712 713 714 715 716 717 718 719 720 721 722 723 724 725 726 727 728 729 730 731 732 733 734 735 736 737 738 739 740 741 742 743 744 745 746 747 748 749 750 751 752 753 754 755 756 757 758 759 760 761 762 763 764 765 766 767 768 769 770 771 772 773 774 775 776 777 778 779 780 781 782 783 784 785 786 787 788 789 790 791 792 793 794 795 796 797 798 799 800 801 802 803 804 805 806 807 808 809 810 811 812 813 814 815 816 817 818 819 820 821 822 823 824 825 826 827 828 829 830 831 832 833 834 835 836 837 838 839 840 841 842 843 844 845 846 847 848 849 850 851 852 853 854 855 856 857 858 859 860 861 862 863 864 865 866 867 868 869 870 871 872 873 874 875 876 877 878 879 880 881 882 883 884 885 886 887 888 889 890 891 892 893 894 895 896 897 898 899 900 901 902 903 904 905 906 907 908 909 910 911 912 913 914 915 916 917 918 919 920 921 922 923 924 925 926 927 928 929 930 931 932 933 934 935 936 937 938 939 940 941 942 943 944 945 946 947 948 949 950 951 952 953 954 955 956 957 958 959 960 961 962 963 964 965 966 967 968 969 970 971 972 973 974 975 976 977 978 979 980 981 982 983 984 985 986 987 988 989 990 991 992 993 994 995 996 997 998 999 1000 1001 1002 1003 1004 1005 1006 1007 1008 1009 1010 1011 1012 1013 1014 1015 1016 1017 1018 1019 1020 1021 1022 1023 1024 1025 1026 1027 1028 1029 1030 1031 1032 1033 1034 1035 1036 1037 1038 1039 1040 1041 1042 1043 1044 1045 1046 1047 1048 1049 1050 1051 1052 1053 1054 1055 1056 1057 1058 1059 1060 1061 1062 1063 1064 1065 1066 1067 1068 1069 1070 1071 1072 1073 1074 1075 1076 1077 1078 1079 1080 1081 1082 1083 1084 1085 1086 1087 1088 1089 1090 1091 1092 1093 1094 1095 1096 1097 1098 1099 1100 1101 1102 1103 1104 1105 1106 1107 1108 1109 1110 1111 1112 1113 1114 1115 1116 1117 1118 1119 1120 1121 1122 1123 1124 1125 1126 1127 1128 1129 1130 1131 1132 1133 1134 1135 1136 1137 1138 1139 1140 1141 1142 1143 1144 1145 1146 1147 1148 1149 1150 1151 1152 1153 1154 1155 1156 1157 1158 1159 1160 1161 1162 1163 1164 1165 1166 1167 1168 1169 1170 1171 1172 1173 1174 1175 1176 1177 1178 1179 1180 1181 1182 1183 1184 1185 1186 1187 1188 1189 1190 1191 1192 1193 1194 1195 1196 1197 1198 1199 1200 1201 1202 1203 1204 1205 1206 1207 1208 1209 1210 1211 1212 1213 1214 1215 1216 1217 1218 1219 1220 1221 1222 1223 1224 1225 1226 1227 1228 1229 1230 1231 1232 1233 1234 1235 1236 1237 1238 1239 1240 1241 1242 1243 1244 1245 1246 1247 1248 1249 1250 1251 1252 1253 1254 1255 1256 1257 1258 1259 1260 1261 1262 1263 1264 1265 1266 1267 1268 1269 1270 1271 1272 1273 1274 1275 1276 1277 1278 1279 1280 1281 1282 1283 1284 1285 1286 1287 1288 1289 1290 1291 1292 1293 1294 1295 1296 1297 1298 1299 1300 1301 1302 1303 1304 1305 1306 1307 1308 1309 1310 1311 1312 1313 1314 1315 1316 1317 1318 1319 1320 1321 1322 1323 1324 1325 1326 1327 1328 1329 1330 1331 1332 1333 1334 1335 1336 1337 1338 1339 1340 1341 1342 1343 1344 1345 1346 1347 1348 1349 1350 1351 1352 1353 1354 1355 1356 1357 1358 1359 1360 1361 1362 1363 1364 1365 1366 1367 1368 1369 1370 1371 1372 1373 1374 1375 1376 1377 1378 1379 1380 1381 1382 1383 1384 1385 1386 1387 1388 1389 1390 1391 1392 1393 1394 1395 1396 1397 1398 1399 1400 1401 1402 1403 1404 1405 1406 1407 1408 1409 1410 1411 1412 1413 1414 1415 1416 1417 1418 1419 1420 1421 1422 1423 1424 1425 1426 1427 1428 1429 1430 1431 1432 1433 1434 1435 1436 1437 1438 1439 1440 1441 1442 1443 1444 1445 1446 1447 1448 1449 1450 1451 1452 1453 1454 1455 1456 1457 1458 1459 1460 1461 1462 1463 1464 1465 1466 1467 1468 1469 1470 1471 1472 1473 1474 1475 1476 1477 1478 1479 1480 1481 1482 1483 1484 1485 1486 1487 1488 1489 1490 1491 1492 1493 1494 1495 1496 1497 1498 1499 1500 1501 1502 1503 1504 1505 1506 1507 1508 1509 1510 1511 1512 1513 1514 1515 1516 1517 1518 1519 1520 1521 1522 1523 1524 1525 1526 1527 1528 1529 1530 1531 1532 1533 1534 1535 1536 1537 1538 1539 1540 1541 1542 1543 1544 1545 1546 1547 1548 1549 1550 1551 1552 1553 1554 1555 1556 1557 1558 1559 1560 1561 1562 1563 1564 1565 1566 1567 1568 1569 1570 1571 1572 1573 1574 1575 1576 1577 1578 1579 1580 1581 1582 1583 1584 1585 1586 1587 1588 1589 1590 1591 1592 1593 1594 1595 1596 1597 1598 1599 1600 1601 1602 1603 1604 1605 1606 1607 1608 1609 1610 1611 1612 1613 1614 1615 1616 1617 1618 1619 1620 1621 1622 1623 1624 1625 1626 1627 1628 1629 1630 1631 1632 1633 1634 1635 1636 1637 1638 1639 1640 1641 1642 1643 1644 1645 1646 1647 1648 1649 1650 1651 1652 1653 1654 1655 1656 1657 1658 1659 1660 1661 1662 1663 1664 1665 1666 1667 1668 1669 1670 1671 1672 1673 1674 1675 1676 1677 1678 1679 1680 1681 1682 1683 1684 1685 1686 1687 1688 1689 1690 1691 1692 1693 1694 1695 1696 1697 1698 1699 1700 1701 1702 1703 1704 1705 1706 1707 1708 1709 1710 1711 1712 1713 1714 1715 1716 1717 1718 1719 1720 1721 1722 1723 1724 1725 1726 1727 1728 1729 1730 1731 1732 1733 1734 1735 1736 1737 1738 1739 1740 1741 1742 1743 1744 1745 1746 1747 1748 1749 1750 1751 1752 1753 1754 1755 1756 1757 1758 1759 1760 1761 1762 1763 1764 1765 1766 1767 1768 1769 1770 1771 1772 1773 1774 1775 1776 1777 1778 1779 1780 1781 1782 1783 1784 1785 1786 1787 1788 1789 1790 1791 1792 1793 1794 1795 1796 1797 1798 1799 1800 1801 1802 1803 1804 1805 1806 1807 1808 1809 1810 1811 1812 1813 1814 1815 1816 1817 1818 1819 1820 1821 1822 1823 1824 1825 1826 1827 1828 1829 1830 1831 1832 1833 1834 1835 1836 1837 1838 1839 1840 1841 1842 1843 1844 1845 1846 1847 1848 1849 1850 1851 1852 1853 1854 1855 1856 1857 1858 1859 1860 1861 1862 1863 1864 1865 1866 1867 1868 1869 1870 1871 1872 1873 1874 1875 1876 1877 1878 1879 1880 1881 1882 1883 1884 1885 1886 1887 1888 1889 1890 1891 1892 1893 1894 1895 1896 1897 1898 1899 1900 1901 1902 1903 1904 1905 1906 1907 1908 1909 1910 1911 1912 1913 1914 1915 1916 1917 1918 1919 1920 1921 1922 1923 1924 1925 1926 1927 1928 1929 1930 1931 1932 1933 1934 1935 1936 1937 1938 1939 1940 1941 1942 1943 1944 1945 1946 1947 1948 1949 1950 1951 1952 1953 1954 1955 1956 1957 1958 1959 1960 1961 1962 1963 1964 1965 1966 1967 1968 1969 1970 1971 1972 1973 1974 1975 1976 1977 1978 1979 1980 1981 1982 1983 1984 1985 1986 1987 1988 1989 1990 1991 1992 1993 1994 1995 1996 1997 1998 1999 2000 2001 2002 2003 2004 2005 2006 2007 2008 2009 2010 2011 2012 2013 2014 2015 2016 2017 2018 2019 2020 2021 2022 2023 2024 2025 2026 2027 2028 2029 2030 2031 2032 2033 2034 2035 2036 2037 2038 2039 2040 2041 2042 2043 2044 2045 2046 2047 2048 2049 2050 2051 2052 2053 2054 2055 2056 2057 2058 2059 2060 2061 2062 2063 2064 2065 2066 2067 2068 2069 2070 2071 2072 2073 2074 2075 2076 2077 2078 2079 2080 2081 2082 2083 2084 2085 2086 2087 2088 2089 2090 2091 2092 2093 2094 2095 2096 2097 2098 2099 2100 2101 2102 2103 2104 2105 2106 2107 2108 2109 2110 2111 2112 2113 2114 2115 2116 2117 2118 2119 2120 2121 2122 2123 2124 2125 2126 2127 2128 2129 2130 2131 2132 2133 2134 2135 2136 2137 2138 2139 2140 2141 2142 2143 2144 2145 2146 2147 2148 2149 2150 2151 2152 2153 2154 2155 2156 2157 2158 2159 2160 2161 2162 2163 2164 2165 2166 2167 2168 2169 2170 2171 2172 2173 2174 2175 2176 2177 2178 2179 2180 2181 2182 2183 2184 2185 2186 2187 2188 2189 2190 2191 2192 2193 2194 2195 2196 2197 2198 2199 2200 2201 2202 2203 2204 2205 2206 2207 2208 2209 2210 2211 2212 2213 2214 2215 2216 2217 2218 2219 2220 2221 2222 2223 2224 2225 2226 2227 2228 2229 2230 2231 2232 2233 2234 2235 2236 2237 2238 2239 2240 2241 2242 2243 2244 2245 2246 2247 2248 2249 2250 2251 2252 2253 2254 2255 2256 2257 2258 2259 2260 2261 2262 2263 2264 2265 2266 2267 2268 2269 2270 2271 2272 2273 2274 2275 2276 2277 2278 2279 2280 2281 2282 2283 2284 2285 2286 2287 2288 2289 2290 2291 2292 2293 2294 2295 2296 2297 2298 2299 2300 2301 2302 2303 2304 2305 2306 2307 2308 2309 2310 2311 2312 2313 2314 2315 2316 2317 2318 2319 2320 2321 2322 2323 2324 2325 2326 2327 2328 2329 2330 2331 2332 2333 2334 2335 2336 2337 2338 2339 2340 2341 2342 2343 2344 2345 2346 2347 2348 2349 2350 2351 2352 2353 2354 2355 2356 2357 2358 2359 2360 2361 2362 2363 2364 2365 2366 2367 2368 2369 2370 2371 2372 2373 2374 2375 2376 2377 2378 2379 2380 2381 2382 2383 2384 2385 2386 2387 2388 2389 2390 2391 2392 2393 2394 2395 2396 2397 2398 2399 2400 2401 2402 2403 2404 2405 2406 2407 2408 2409 2410 2411 2412 2413 2414 2415 2416 2417 2418 2419 2420 2421 2422 2423 2424 2425 2426 2427 2428 2429 2430 2431 2432 2433 2434 2435 2436 2437 2438 2439 2440 2441 2442 2443 2444 2445 2446 2447 2448 2449 2450 2451 2452 2453 2454 2455 2456 2457 2458 2459 2460 2461 2462 2463 2464 2465 2466 2467 2468 2469 2470 2471 2472 2473 2474 2475 2476 2477 2478 2479 2480 2481 2482 2483 2484 2485 2486 2487 2488 2489 2490 2491 2492 2493 2494 2495 2496 2497 2498 2499 2500 2501 2502 2503 2504 2505 2506 2507 2508 2509 2510 2511 2512 2513 2514 2515 2516 2517 2518 2519 2520 2521 2522 2523 2524 2525 2526 2527 2528 2529 2530 2531 2532 2533 2534 2535 2536 2537 2538 2539 2540 2541 2542 2543 2544 2545 2546 2547 2548 2549 2550 2551 2552 2553 2554 2555 2556 2557 2558 2559 2560 2561 2562 2563 2564 2565 2566 2567 2568 2569 2570 2571 2572 2573 2574 2575 2576 2577 2578 2579 2580 2581 2582 2583 2584 2585 2586 2587 2588 2589 2590 2591 2592 2593 2594 2595 2596 2597 2598 2599 2600 2601 2602 2603 2604 2605 2606 2607 2608 2609 2610 2611 2612 2613 2614 2615 2616 2617 2618 2619 2620 2621 2622 2623 2624 2625 2626 2627 2628 2629 2630 2631 2632 2633 2634 2635 2636 2637 2638 2639 2640 2641 2642 2643 2644 2645 2646 2647 2648 2649 2650 2651 2652 2653 2654 2655 2656 2657 2658 2659 2660 2661 2662 2663 2664 2665 2666 2667 2668 2669 2670 2671 2672 2673 2674 2675 2676 2677 2678 2679 2680 2681 2682 2683 2684 2685 2686 2687 2688 2689 2690 2691 2692 2693 2694 2695 2696 2697 2698 2699 2700 2701 2702 2703 2704 2705 2706 2707 2708 2709 2710 2711 2712 2713 2714 2715 2716 2717 2718 2719 2720 2721 2722 2723 2724 2725 2726 2727 2728 2729 2730 2731 2732 2733 2734 2735 2736 2737 2738 2739 2740 2741 2742 2743 2744 2745 2746 2747 2748 2749 2750 2751 2752 2753 2754 2755 2756 2757 2758 2759 2760 2761 2762 2763 2764 2765 2766 2767 2768 2769 2770 2771 2772 2773 2774 2775 2776 2777 2778 2779 2780 2781 2782 2783 2784 2785 2786 2787 2788 2789 2790 2791 2792 2793 2794 2795 2796 2797 2798 2799 2800 2801 2802 2803 2804 2805 2806 2807 2808 2809 2810 2811 2812 2813 2814 2815 2816 2817 2818 2819 2820 2821 2822 2823 2824 2825 2826 2827 2828 2829 2830 2831 2832 2833 2834 2835 2836 2837 2838 2839 2840 2841 2842 2843 2844 2845 2846 2847 2848 2849 2850 2851 2852 2853 2854 2855 2856 2857 2858 2859 2860 2861 2862 2863 2864 2865 2866 2867 2868 2869 2870 2871 2872 2873 2874 2875 2876 2877 2878 2879 2880 2881 2882 2883 2884 2885 2886 2887 2888 2889 2890 2891 2892 2893 2894 2895 2896 2897 2898 2899 2900 2901 2902 2903 2904 2905 2906 2907 2908 2909 2910 2911 2912 2913 2914 2915 2916 2917 2918 2919 2920 2921 2922 2923 2924 2925 2926 2927 2928 2929 2930 2931 2932 2933 2934 2935 2936 2937 2938 2939 2940 2941 2942 2943 2944 2945 2946 2947 2948 2949 2950 2951 2952 2953 2954 2955 2956 2957 2958 2959 2960 2961 2962 2963 2964 2965 2966 2967 2968 2969 2970 2971 2972 2973 2974 2975 2976 2977 2978 2979 2980 2981 2982 2983 2984 2985 2986 2987 2988 2989 2990 2991 2992 2993 2994 2995 2996 2997 2998 2999 3000 3001 3002 3003 3004 3005 3006 3007 3008 3009 3010 3011 3012 3013 3014 3015 3016 3017 3018 3019 3020 3021 3022 3023 3024 3025 3026 3027 3028 3029 3030 3031 3032 3033 3034 3035 3036 3037 3038 3039 3040 3041 3042 3043 3044 3045 3046 3047 3048 3049 3050 3051 3052 3053 3054 3055 3056 3057 3058 3059 3060 3061 3062 3063 3064 3065 3066 3067 3068 3069 3070 3071 3072 3073 3074 3075 3076 3077 3078 3079 3080 3081 3082 3083 3084 3085 3086 3087 3088 3089 3090 3091 3092 3093 3094 3095 3096 3097 3098 3099 3100 3101 3102 3103 3104 3105 3106 3107 3108 3109 3110 3111 3112 3113 3114 3115 3116 3117 3118 3119 3120 3121 3122 3123 3124 3125 3126 3127 3128 3129 3130 3131 3132 3133 3134 3135 3136 3137 3138 3139 3140 3141 3142 3143 3144 3145 3146 3147 3148 3149 3150 3151 3152 3153 3154 3155 3156 3157 3158 3159 3160 3161 3162 3163 3164 3165 3166 3167 3168 3169 3170 3171 3172 3173 3174 3175 3176 3177 3178 3179 3180 3181 3182 3183 3184 3185 3186 3187 3188 3189 3190 3191 3192 3193 3194 3195 3196 3197 3198 3199 3200 3201 3202 3203 3204 3205 3206 3207 3208 3209 3210 3211 3212 3213 3214 3215 3216 3217 3218 3219 3220 3221 3222 3223 3224 3225 3226 3227 3228 3229 3230 3231 3232 3233 3234 3235 3236 3237 3238 3239 3240 3241 3242 3243 3244 3245 3246 3247 3248 3249 3250 3251 3252 3253 3254 3255 3256 3257 3258 3259 3260 3261 3262 3263 3264 3265 3266 3267 3268 3269 3270 3271 3272 3273 3274 3275 3276 3277 3278 3279 3280 3281 3282 3283 3284 3285 3286 3287 3288 3289 3290 3291 3292 3293 3294 3295 3296 3297 3298 3299 3300 3301 3302 3303 3304 3305 3306 3307 3308 3309 3310 3311 3312 3313 3314 3315 3316 3317 3318 3319 3320 3321 3322 3323 3324 3325 3326 3327 3328 3329 3330 3331 3332 3333 3334 3335 3336 3337 3338 3339 3340 3341 3342 3343 3344 3345 3346 3347 3348 3349 3350 3351 3352 3353 3354 3355 3356 3357 3358 3359 3360 3361 3362 3363 3364 3365 3366 3367 3368 3369 3370 3371 3372 3373 3374 3375 3376 3377 3378 3379 3380 3381 3382 3383 3384 3385 3386 3387 3388 3389 3390 3391 3392 3393 3394 3395 3396 3397 3398 3399 3400 3401 3402 3403 3404 3405 3406 3407 3408 3409 3410 3411 3412 3413 3414 3415 3416 3417 3418 3419 3420 3421 3422 3423 3424 3425 3426 3427 3428 3429 3430 3431 3432 3433 3434 3435 3436 3437 3438 3439 3440 3441 3442 3443 3444 3445 3446 3447 3448 3449 3450 3451 3452 3453 3454 3455 3456 3457 3458 3459 3460 3461 3462 3463 3464 3465 3466 3467 3468 3469 3470 3471 3472 3473 3474 3475 3476 3477 3478 3479 3480 3481 3482 3483 3484 3485 3486 3487 3488 3489 3490 3491 3492 3493 3494 3495 3496 3497 3498 3499 3500 3501 3502 3503 3504 3505 3506 3507 3508 3509 3510 3511 3512 3513 3514 3515 3516 3517 3518 3519 3520 3521 3522 3523 3524 3525 3526 3527 3528 3529 3530 3531 3532 3533 3534 3535 3536 3537 3538 3539 3540 3541 3542 3543 3544 3545 3546 3547 3548 3549 3550 3551 3552 3553 3554 3555 3556 3557 3558 3559 3560 3561 3562 3563 3564 3565 3566 3567 3568 3569 3570 3571 3572 3573 3574 3575 3576 3577 3578 3579 3580 3581 3582 3583 3584 3585 3586 3587 3588 3589 3590 3591 3592 3593 3594 3595 3596 3597 3598 3599 3600 3601 3602 3603 3604 3605 3606 3607 3608 3609 3610 3611 3612 3613 3614 3615 3616 3617 3618 3619 3620 3621 3622 3623 3624 3625 3626 3627 3628 3629 3630 3631 3632 3633 3634 3635 3636 3637 3638 3639 3640 3641 3642 3643 3644 3645 3646 3647 3648 3649 3650 3651 3652 3653 3654 3655 3656 3657 3658 3659 3660 3661 3662 3663 3664 3665 3666 3667 3668 3669 3670 3671 3672 3673 3674 3675 3676 3677 3678 3679 3680 3681 3682 3683 3684 3685 3686 3687 3688 3689 3690 3691 3692 3693 3694 3695 3696 3697 3698 3699 3700 3701 3702 3703 3704 3705 3706 3707 3708 3709 3710 3711 3712 3713 3714 3715 3716 3717 3718 3719 3720 3721 3722 3723 3724 3725 3726 3727 3728 3729 3730 3731 3732 3733 3734 3735 3736 3737 3738 3739 3740 3741 3742 3743 3744 3745 3746 3747 3748 3749 3750 3751 3752 3753 3754 3755 3756 3757 3758 3759 3760 3761 3762 3763 3764 3765 3766 3767 3768 3769 3770 3771 3772 3773 3774 3775 3776 3777 3778 3779 3780 3781 3782 3783 3784 3785 3786 3787 3788 3789 3790 3791 3792 3793 3794 3795 3796 3797 3798 3799 3800 3801 3802 3803 3804 3805 3806 3807 3808 3809 3810 3811 3812 3813 3814 3815 3816 3817 3818 3819 3820 3821 3822 3823 3824 3825 3826 3827 3828 3829 3830 3831 3832 3833 3834 3835 3836 3837 3838 3839 3840 3841 3842 3843 3844 3845 3846 3847 3848 3849 3850 3851 3852 3853 3854 3855 3856 3857 3858 3859 3860 3861 3862 3863 3864 3865 3866 3867 3868 3869 3870 3871 3872 3873 3874 3875 3876 3877 3878 3879 3880 3881 3882 3883 3884 3885 3886 3887 3888 3889 3890 3891 3892 3893 3894 3895 3896 3897 3898 3899 3900 3901 3902 3903 3904 3905 3906 3907 3908 3909 3910 3911 3912 3913 3914 3915 3916 3917 3918 3919 3920 3921 3922 3923 3924 3925 3926 3927 3928 3929 3930 3931 3932 3933 3934 3935 3936 3937 3938 3939 3940 3941 3942 3943 3944 3945 3946 3947 3948 3949 3950 3951 3952 3953 3954 3955 3956 3957 3958 3959 3960 3961 3962 3963 3964 3965 3966 3967 3968 3969 3970 3971 3972 3973 3974 3975 3976 3977 3978 3979 3980 3981 3982 3983 3984 3985 3986 3987 3988 3989 3990 3991 3992 3993 3994 3995 3996 3997 3998 3999 4000 4001 4002 4003 4004 4005 4006 4007 4008 4009 4010 4011 4012 4013 4014 4015 4016 4017 4018 4019 4020 4021 4022 4023 4024 4025 4026 4027 4028 4029 4030 4031 4032 4033 4034 4035 4036 4037 4038 4039 4040 4041 4042 4043 4044 4045 4046 4047 4048 4049 4050 4051 4052 4053 4054 4055 4056 4057 4058 4059 4060 4061 4062 4063 4064 4065 4066 4067 4068 4069 4070 4071 4072 4073 4074 4075 4076 4077 4078 4079 4080 4081 4082 4083 4084 4085 4086 4087 4088 4089 4090 4091 4092 4093 4094 4095 4096 4097 4098 4099 4100 4101 4102 4103 4104 4105 4106 4107 4108 4109 4110 4111 4112 4113 4114 4115 4116 4117 4118 4119 4120 4121 4122 4123 4124 4125 4126 4127 4128 4129 4130 4131 4132 4133 4134 4135 4136 4137 4138 4139 4140 4141 4142 4143 4144 4145 4146 4147 4148 4149 4150 4151 4152 4153 4154 4155 4156 4157 4158 4159 4160 4161 4162 4163 4164 4165 4166 4167 4168 4169 4170 4171 4172 4173 4174 4175 4176 4177 4178 4179 4180 4181 4182 4183 4184 4185 4186 4187 4188 4189 4190 4191 4192 4193 4194 4195 4196 4197 4198 4199 4200 4201 4202 4203 4204 4205 4206 4207 4208 4209 4210 4211 4212 4213 4214 4215 4216 4217 4218 4219 4220 4221 4222 4223 4224 4225 4226 4227 4228 4229 4230 4231 4232 4233 4234 4235 4236 4237 4238 4239 4240 4241 4242 4243 4244 4245 4246 4247 4248 4249 4250 4251 4252 4253 4254 4255 4256 4257 4258 4259 4260 4261 4262 4263 4264 4265 4266 4267 4268 4269 4270 4271 4272 4273 4274 4275 4276 4277 4278 4279 4280 4281 4282 4283 4284 4285 4286 4287 4288 4289 4290 4291 4292 4293 4294 4295 4296 4297 4298 4299 4300 4301 4302 4303 4304 4305 4306 4307 4308 4309 4310 4311 4312 4313 4314 4315 4316 4317 4318 4319 4320 4321 4322 4323 4324 4325 4326 4327 4328 4329 4330 4331 4332 4333 4334 4335 4336 4337 4338 4339 4340 4341 4342 4343 4344 4345 4346 4347 4348 4349 4350 4351 4352 4353 4354 4355 4356 4357 4358 4359 4360 4361 4362 4363 4364 4365 4366 4367 4368 4369 4370 4371 4372 4373 4374 4375 4376 4377 4378 4379 4380 4381 4382 4383 4384 4385 4386 4387 4388 4389 4390 4391 4392 4393 4394 4395 4396 4397 4398 4399 4400 4401 4402 4403 4404 4405 4406 4407 4408 4409 4410 4411 4412 4413 4414 4415 4416 4417 4418 4419 4420 4421 4422 4423 4424 4425 4426 4427 4428 4429 4430 4431 4432 4433 4434 4435 4436 4437 4438 4439 4440 4441 4442 4443 4444 4445 4446 4447 4448 4449 4450 4451 4452 4453 4454 4455 4456 4457 4458 4459 4460 4461 4462 4463 4464 4465 4466 4467 4468 4469 4470 4471 4472 4473 4474 4475 4476 4477 4478 4479 4480 4481 4482 4483 4484 4485 4486 4487 4488 4489 4490 4491 4492 4493 4494 4495 4496 4497 4498 4499 4500 4501 4502 4503 4504 4505 4506 4507 4508 4509 4510 4511 4512 4513 4514 4515 4516 4517 4518 4519 4520 4521 4522 4523 4524 4525 4526 4527 4528 4529 4530 4531 4532 4533 4534 4535 4536 4537 4538 4539 4540 4541 4542 4543 4544 4545 4546 4547 4548 4549 4550 4551 4552 4553 4554 4555 4556 4557 4558 4559 4560 4561 4562 4563 4564 4565 4566 4567 4568 4569 4570 4571 4572 4573 4574 4575 4576 4577 4578 4579 4580 4581 4582 4583 4584 4585 4586 4587 4588 4589 4590 4591 4592 4593 4594 4595 4596 4597 4598 4599 4600 4601 4602 4603 4604 4605 4606 4607 4608 4609 4610 4611 4612 4613 4614 4615 4616 4617 4618 4619 4620 4621 4622 4623 4624 4625 4626 4627 4628 4629 4630 4631 4632 4633 4634 4635 4636 4637 4638 4639 4640 4641 4642 4643 4644 4645 4646 4647 4648 4649 4650 4651 4652 4653 4654 4655 4656 4657 4658 4659 4660 4661 4662 4663 4664 4665 4666 4667 4668 4669 4670 4671 4672 4673 4674 4675 4676 4677 4678 4679 4680 4681 4682 4683 4684 4685 4686 4687 4688 4689 4690 4691 4692 4693 4694 4695 4696 4697 4698 4699 4700 4701 4702 4703 4704 4705 4706 4707 4708 4709 4710 4711 4712 4713 4714 4715 4716 4717 4718 4719 4720 4721 4722 4723 4724 4725 4726 4727 4728 4729 4730 4731 4732 4733 4734 4735 4736 4737 4738 4739 4740 4741 4742 4743 4744 4745 4746 4747 4748 4749 4750 4751 4752 4753 4754 4755 4756 4757 4758 4759 4760 4761 4762 4763 4764 4765 4766 4767 4768 4769 4770 4771 4772 4773 4774 4775 4776 4777 4778 4779 4780 4781 4782 4783 4784 4785 4786 4787 4788 4789 4790 4791 4792 4793 4794 4795 4796 4797 4798 4799 4800 4801 4802 4803 4804 4805 4806 4807 4808 4809 4810 4811 4812 4813 4814 4815 4816 4817 4818 4819 4820 4821 4822 4823 4824 4825 4826 4827 4828 4829 4830 4831 4832 4833 4834 4835 4836 4837 4838 4839 4840 4841 4842 4843 4844 4845 4846 4847 4848 4849 4850 4851 4852 4853 4854 4855 4856 4857 4858 4859 4860 4861 4862 4863 4864 4865 4866 4867 4868 4869 4870 4871 4872 4873 4874 4875 4876 4877 4878 4879 4880 4881 4882 4883 4884 4885 4886 4887 4888 4889 4890 4891 4892 4893 4894 4895 4896 4897 4898 4899 4900 4901 4902 4903 4904 4905 4906 4907 4908 4909 4910 4911 4912 4913 4914 4915 4916 4917 4918 4919 4920 4921 4922 4923 4924 4925 4926 4927 4928 4929 4930 4931 4932 4933 4934 4935 4936 4937 4938 4939 4940 4941 4942 4943 4944 4945 4946 4947 4948 4949 4950 4951 4952 4953 4954 4955 4956 4957 4958 4959 4960 4961 4962 4963 4964 4965 4966 4967 4968 4969 4970 4971 4972 4973 4974 4975 4976 4977 4978 4979 4980 4981 4982 4983 4984 4985 4986 4987 4988 4989 4990 4991 4992 4993 4994 4995 4996 4997 4998 4999 5000 5001 5002 5003 5004 5005 5006 5007 5008 5009 5010 5011 5012 5013 5014 5015 5016 5017 5018 5019 5020 5021 5022 5023 5024 5025 5026 5027 5028 5029 5030 5031 5032 5033 5034 5035 5036 5037 5038 5039 5040 5041 5042 5043 5044 5045 5046 5047 5048 5049 5050 5051 5052 5053 5054 5055 5056 5057 5058 5059 5060 5061 5062 5063 5064 5065 5066 5067 5068 5069 5070 5071 5072 5073 5074 5075 5076 5077 5078 5079 5080 5081 5082 5083 5084 5085 5086 5087 5088 5089 5090 5091 5092 5093 5094 5095 5096 5097 5098 5099 5100 5101 5102 5103 5104 5105 5106 5107 5108 5109 5110 5111 5112 5113 5114 5115 5116 5117 5118 5119 5120 5121 5122 5123 5124 5125 5126 5127 5128 5129 5130 5131 5132 5133 5134 5135 5136 5137 5138 5139 5140 5141 5142 5143 5144 5145 5146 5147 5148 5149 5150 5151 5152 5153 5154 5155 5156 5157 5158 5159 5160 5161 5162 5163 5164 5165 5166 5167 5168 5169 5170 5171 5172 5173 5174 5175 5176 5177 5178 5179 5180 5181 5182 5183 5184 5185 5186 5187 5188 5189 5190 5191 5192 5193 5194 5195 5196 5197 5198 5199 5200 5201 5202 5203 5204 5205 5206 5207 5208 5209 5210 5211 5212 5213 5214 5215 5216 5217 5218 5219 5220 5221 5222 5223 5224 5225 5226 5227 5228 5229 5230 5231 5232 5233 5234 5235 5236 5237 5238 5239 5240 5241 5242 5243 5244 5245 5246 5247 5248 5249 5250 5251 5252 5253 5254 5255 5256 5257 5258 5259 5260 5261 5262 5263 5264 5265 5266 5267 5268 5269 5270 5271 5272 5273 5274 5275 5276 5277 5278 5279 5280 5281 5282 5283 5284 5285 5286 5287 5288 5289 5290 5291 5292 5293 5294 5295 5296 5297 5298 5299 5300 5301 5302 5303 5304 5305 5306 5307 5308 5309 5310 5311 5312 5313 5314 5315 5316 5317 5318 5319 5320 5321 5322 5323 5324 5325 5326 5327 5328 5329 5330 5331 5332 5333 5334 5335 5336 5337 5338 5339 5340 5341 5342 5343 5344 5345 5346 5347 5348 5349 5350 5351 5352 5353 5354 5355 5356 5357 5358 5359 5360 5361 5362 5363 5364 5365 5366 5367 5368 5369 5370 5371 5372 5373 5374 5375 5376 5377 5378 5379 5380 5381 5382 5383 5384 5385 5386 5387 5388 5389 5390 5391 5392 5393 5394 5395 5396 5397 5398 5399 5400 5401 5402 5403 5404 5405 5406 5407 5408 5409 5410 5411 5412 5413 5414 5415 5416 5417 5418 5419 5420 5421 5422 5423 5424 5425 5426 5427 5428 5429 5430 5431 5432 5433 5434 5435 5436 5437 5438 5439 5440 5441 5442 5443 5444 5445 5446 5447 5448 5449 5450 5451 5452 5453 5454 5455 5456 5457 5458 5459 5460 5461 5462 5463 5464 5465 5466 5467 5468 5469 5470 5471 5472 5473 5474 5475 5476 5477 5478 5479 5480 5481 5482 5483 5484 5485 5486 5487 5488 5489 5490 5491 5492 5493 5494 5495 5496 5497 5498 5499 5500 5501 5502 5503 5504 5505 5506 5507 5508 5509 5510 5511 5512 5513 5514 5515 5516 5517 5518 5519 5520 5521 5522 5523 5524 5525 5526 5527 5528 5529 5530 5531 5532 5533 5534 5535 5536 5537 5538 5539 5540 5541 5542 5543 5544 5545 5546 5547 5548 5549 5550 5551 5552 5553 5554 5555 5556 5557 5558 5559 5560 5561 5562 5563 5564 5565 5566 5567 5568 5569 5570 5571 5572 5573 5574 5575 5576 5577 5578 5579 5580 5581 5582 5583 5584 5585 5586 5587 5588 5589 5590 5591 5592 5593 5594 5595 5596 5597 5598 5599 5600 5601 5602 5603 5604 5605 5606 5607 5608 5609 5610 5611 5612 5613 5614 5615 5616 5617 5618 5619 5620 5621 5622 5623 5624 5625 5626 5627 5628 5629 5630 5631 5632 5633 5634 5635 5636 5637 5638 5639 5640 5641 5642 5643 5644 5645 5646 5647 5648 5649 5650 5651 5652 5653 5654 5655 5656 5657 5658 5659 5660 5661 5662 5663 5664 5665 5666 5667 5668 5669 5670 5671 5672 5673 5674 5675 5676 5677 5678 5679 5680 5681 5682 5683 5684 5685 5686 5687 5688 5689 5690 5691 5692 5693 5694 5695 5696 5697 5698 5699 5700 5701 5702 5703 5704 5705 5706 5707 5708 5709 5710 5711 5712 5713 5714 5715 5716 5717 5718 5719 5720 5721 5722 5723 5724 5725 5726 5727 5728 5729 5730 5731 5732 5733 5734 5735 5736 5737 5738 5739 5740 5741 5742 5743 5744 5745 5746 5747 5748 5749 5750 5751 5752 5753 5754 5755 5756 5757 5758 5759 5760 5761 5762 5763 5764 5765 5766 5767 5768 5769 5770 5771 5772 5773 5774 5775 5776 5777 5778 5779 5780 5781 5782 5783 5784 5785 5786 5787 5788 5789 5790 5791 5792 5793 5794 5795 5796 5797 5798 5799 5800 5801 5802 5803 5804 5805 5806 5807 5808 5809 5810 5811 5812 5813 5814 5815 5816 5817 5818 5819 5820 5821 5822 5823 5824 5825 5826 5827 5828 5829 5830 5831 5832 5833 5834 5835 5836 5837 5838 5839 5840 5841 5842 5843 5844 5845 5846 5847 5848 5849 5850 5851 5852 5853 5854 5855 5856 5857 5858 5859 5860 5861 5862 5863 5864 5865 5866 5867 5868 5869 5870 5871 5872 5873 5874 5875 5876 5877 5878 5879 5880 5881 5882 5883 5884 5885 5886 5887 5888 5889 5890 5891 5892 5893 5894 5895 5896 5897 5898 5899 5900 5901 5902 5903 5904 5905 5906 5907 5908 5909 5910 5911 5912 5913 5914 5915 5916 5917 5918 5919 5920 5921 5922 5923 5924 5925 5926 5927 5928 5929 5930 5931 5932 5933 5934 5935 5936 5937 5938 5939 5940 5941 5942 5943 5944 5945 5946 5947 5948 5949 5950 5951 5952 5953 5954 5955 5956 5957 5958 5959 5960 5961 5962 5963 5964 5965 5966 5967 5968 5969 5970 5971 5972 5973 5974 5975 5976 5977 5978 5979 5980 5981 5982 5983 5984 5985 5986 5987 5988 5989 5990 5991 5992 5993 5994 5995 5996 5997 5998 5999 6000 6001 6002 6003 6004 6005 6006 6007 6008 6009 6010 6011 6012 6013 6014 6015 6016 6017 6018 6019 6020 6021 6022 6023 6024 6025 6026 6027 6028 6029 6030 6031 6032 6033 6034 6035 6036 6037 6038 6039 6040 6041 6042 6043 6044 6045 6046 6047 6048 6049 6050 6051 6052 6053 6054 6055 6056 6057 6058 6059 6060 6061 6062 6063 6064 6065 6066 6067 6068 6069 6070 6071 6072 6073 6074 6075 6076 6077 6078 6079 6080 6081 6082 6083 6084 6085 6086 6087 6088 6089 6090 6091 6092 6093 6094 6095 6096 6097 6098 6099 6100 6101 6102 6103 6104 6105 6106 6107 6108 6109 6110 6111 6112 6113 6114 6115 6116 6117 6118 6119 6120 6121 6122 6123 6124 6125 6126 6127 6128 6129 6130 6131 6132 6133 6134 6135 6136 6137 6138 6139 6140 6141 6142 6143 6144 6145 6146 6147 6148 6149 6150 6151 6152 6153 6154 6155 6156 6157 6158 6159 6160 6161 6162 6163 6164 6165 6166 6167 6168 6169 6170 6171 6172 6173 6174 6175 6176 6177 6178 6179 6180 6181 6182 6183 6184 6185 6186 6187 6188 6189 6190 6191 6192 6193 6194 6195 6196 6197 6198 6199 6200 6201 6202 6203 6204 6205 6206 6207 6208 6209 6210 6211 6212 6213 6214 6215 6216 6217 6218 6219 6220 6221 6222 6223 6224 6225 6226 6227 6228 6229 6230 6231 6232 6233 6234 6235 6236 6237 6238 6239 6240 6241 6242 6243 6244 6245 6246 6247 6248 6249 6250 6251 6252 6253 6254 6255 6256 6257 6258 6259 6260 6261 6262 6263 6264 6265 6266 6267 6268 6269 6270 6271 6272 6273 6274 6275 6276 6277 6278 6279 6280 6281 6282 6283 6284 6285 6286 6287 6288 6289 6290 6291 6292 6293 6294 6295 6296 6297 6298 6299 6300 6301 6302 6303 6304 6305 6306 6307 6308 6309 6310 6311 6312 6313 6314 6315 6316 6317 6318 6319 6320 6321 6322 6323 6324 6325 6326 6327 6328 6329 6330 6331 6332 6333 6334 6335 6336 6337 6338 6339 6340 6341 6342 6343 6344 6345 6346 6347 6348 6349 6350 6351 6352 6353 6354 6355 6356 6357 6358 6359 6360 6361 6362 6363 6364 6365 6366 6367 6368 6369 6370 6371 6372 6373 6374 6375 6376 6377 6378 6379 6380 6381 6382 6383 6384 6385 6386 6387 6388 6389 6390 6391 6392 6393 6394 6395 6396 6397 6398 6399 6400 6401 6402 6403 6404 6405 6406 6407 6408 6409 6410 6411 6412 6413 6414 6415 6416 6417 6418 6419 6420 6421 6422 6423 6424 6425 6426 6427 6428 6429 6430 6431 6432 6433 6434 6435 6436 6437 6438 6439 6440 6441 6442 6443 6444 6445 6446 6447 6448 6449 6450 6451 6452 6453 6454 6455 6456 6457 6458 6459 6460 6461 6462 6463 6464 6465 6466 6467 6468 6469 6470 6471 6472 6473 6474 6475 6476 6477 6478 6479 6480 6481 6482 6483 6484 6485 6486 6487 6488 6489 6490 6491 6492 6493 6494 6495 6496 6497 6498 6499 6500 6501 6502 6503 6504 6505 6506 6507 6508 6509 6510 6511 6512 6513 6514 6515 6516 6517 6518 6519 6520 6521 6522 6523 6524 6525 6526 6527 6528 6529 6530 6531 6532 6533 6534 6535 6536 6537 6538 6539 6540 6541 6542 6543 6544 6545 6546 6547 6548 6549 6550 6551 6552 6553 6554 6555 6556 6557 6558 6559 6560 6561 6562 6563 6564 6565 6566 6567 6568 6569 6570 6571 6572 6573 6574 6575 6576 6577 6578 6579 6580 6581 6582 6583 6584 6585 6586 6587 6588 6589 6590 6591 6592 6593 6594 6595 6596 6597 6598 6599 6600 6601 6602 6603 6604 6605 6606 6607 6608 6609 6610 6611 6612 6613 6614 6615 6616 6617 6618 6619 6620 6621 6622 6623 6624 6625 6626 6627 6628 6629 6630 6631 6632 6633 6634 6635 6636 6637 6638 6639 6640 6641 6642 6643 6644 6645 6646 6647 6648 6649 6650 6651 6652 6653 6654 6655 6656 6657 6658 6659 6660 6661 6662 6663 6664 6665 6666 6667 6668 6669 6670 6671 6672 6673 6674 6675 6676 6677 6678 6679 6680 6681 6682 6683 6684 6685 6686 6687 6688 6689 6690 6691 6692 6693 6694 6695 6696 6697 6698 6699 6700 6701 6702 6703 6704 6705 6706 6707 6708 6709 6710 6711 6712 6713 6714 6715 6716 6717 6718 6719 6720 6721 6722 6723 6724 6725 6726 6727 6728 6729 6730 6731 6732 6733 6734 6735 6736 6737 6738 6739 6740 6741 6742 6743 6744 6745 6746 6747 6748 6749 6750 6751 6752 6753 6754 6755 6756 6757 6758 6759 6760 6761 6762 6763 6764 6765 6766 6767 6768 6769 6770 6771 6772 6773 6774 6775 6776 6777 6778 6779 6780 6781 6782 6783 6784 6785 6786 6787 6788 6789 6790 6791 6792 6793 6794 6795 6796 6797 6798 6799 6800 6801 6802 6803 6804 6805 6806 6807 6808 6809 6810 6811 6812 6813 6814 6815 6816 6817 6818 6819 6820 6821 6822 6823 6824 6825 6826 6827 6828 6829 6830 6831 6832 6833 6834 6835 6836 6837 6838 6839 6840 6841 6842 6843 6844 6845 6846 6847 6848 6849 6850 6851 6852 6853 6854 6855 6856 6857 6858 6859 6860 6861 6862 6863 6864 6865 6866 6867 6868 6869 6870 6871 6872 6873 6874 6875 6876 6877 6878 6879 6880 6881 6882 6883 6884 6885 6886 6887 6888 6889 6890 6891 6892 6893 6894 6895 6896 6897 6898 6899 6900 6901 6902 6903 6904 6905 6906 6907 6908 6909 6910 6911 6912 6913 6914 6915 6916 6917 6918 6919 6920 6921 6922 6923 6924 6925 6926 6927 6928 6929 6930 6931 6932 6933 6934 6935 6936 6937 6938 6939 6940 6941 6942 6943 6944 6945 6946 6947 6948 6949 6950 6951 6952 6953 6954 6955 6956 6957 6958 6959 6960 6961 6962 6963 6964 6965 6966 6967 6968 6969 6970 6971 6972 6973 6974 6975 6976 6977 6978 6979 6980 6981 6982 6983 6984 6985 6986 6987 6988 6989 6990 6991 6992 6993 6994 6995 6996 6997 6998 6999 7000 7001 7002 7003 7004 7005 7006 7007 7008 7009 7010 7011 7012 7013 7014 7015 7016 7017 7018 7019 7020 7021 7022 7023 7024 7025 7026 7027 7028 7029 7030 7031 7032 7033 7034 7035 7036 7037 7038 7039 7040 7041 7042 7043 7044 7045 7046 7047 7048 7049 7050 7051 7052 7053 7054 7055 7056 7057 7058 7059 7060 7061 7062 7063 7064 7065 7066 7067 7068 7069 7070 7071 7072 7073 7074 7075 7076 7077 7078 7079 7080 7081 7082 7083 7084 7085 7086 7087 7088 7089 7090 7091 7092 7093 7094 7095 7096 7097 7098 7099 7100 7101 7102 7103 7104 7105 7106 7107 7108 7109 7110 7111 7112 7113 7114 7115 7116 7117 7118 7119 7120 7121 7122 7123 7124 7125 7126 7127 7128 7129 7130 7131 7132 7133 7134 7135 7136 7137 7138 7139 7140 7141 7142 7143 7144 7145 7146 7147 7148 7149 7150 7151 7152 7153 7154 7155 7156 7157 7158 7159 7160 7161 7162 7163 7164 7165 7166 7167 7168 7169 7170 7171 7172 7173 7174 7175 7176 7177 7178 7179 7180 7181 7182 7183 7184 7185 7186 7187 7188 7189 7190 7191 7192 7193 7194 7195 7196 7197 7198 7199 7200 7201 7202 7203 7204 7205 7206 7207 7208 7209 7210 7211 7212 7213 7214 7215 7216 7217 7218 7219 7220 7221 7222 7223 7224 7225 7226 7227 7228 7229 7230 7231 7232 7233 7234 7235 7236 7237 7238 7239 7240 7241 7242 7243 7244 7245 7246 7247 7248 7249 7250 7251 7252 7253 7254 7255 7256 7257 7258 7259 7260 7261 7262 7263 7264 7265 7266 7267 7268 7269 7270 7271 7272 7273 7274 7275 7276 7277 7278 7279 7280 7281 7282 7283 7284 7285 7286 7287 7288 7289 7290 7291 7292 7293 7294 7295 7296 7297 7298 7299 7300 7301 7302 7303 7304 7305 7306 7307 7308 7309 7310 7311 7312 7313 7314 7315 7316 7317 7318 7319 7320 7321 7322 7323 7324 7325 7326 7327 7328 7329 7330 7331 7332 7333 7334 7335 7336 7337 7338 7339 7340 7341 7342 7343 7344 7345 7346 7347 7348 7349 7350 7351 7352 7353 7354 7355 7356 7357 7358 7359 7360 7361 7362 7363 7364 7365 7366 7367 7368 7369 7370 7371 7372 7373 7374 7375 7376 7377 7378 7379 7380 7381 7382 7383 7384 7385 7386 7387 7388 7389 7390 7391 7392 7393 7394 7395 7396 7397 7398 7399 7400 7401 7402 7403 7404 7405 7406 7407 7408 7409 7410 7411 7412 7413 7414 7415 7416 7417 7418 7419 7420 7421 7422 7423 7424 7425 7426 7427 7428 7429 7430 7431 7432 7433 7434 7435 7436 7437 7438 7439 7440 7441 7442 7443 7444 7445 7446 7447 7448 7449 7450 7451 7452 7453 7454 7455 7456 7457 7458 7459 7460 7461 7462 7463 7464 7465 7466 7467 7468 7469 7470 7471 7472 7473 7474 7475 7476 7477 7478 7479 7480 7481 7482 7483 7484 7485 7486 7487 7488 7489 7490 7491 7492 7493 7494 7495 7496 7497 7498 7499 7500 7501 7502 7503 7504 7505 7506 7507 7508 7509 7510 7511 7512 7513 7514 7515 7516 7517 7518 7519 7520 7521 7522 7523 7524 7525 7526 7527 7528 7529 7530 7531 7532 7533 7534 7535 7536 7537 7538 7539 7540 7541 7542 7543 7544 7545 7546 7547 7548 7549 7550 7551 7552 7553 7554 7555 7556 7557 7558 7559 7560 7561 7562 7563 7564 7565 7566 7567 7568 7569 7570 7571 7572 7573 7574 7575 7576 7577 7578 7579 7580 7581 7582 7583 7584 7585 7586 7587 7588 7589 7590 7591 7592 7593 7594 7595 7596 7597 7598 7599 7600 7601 7602 7603 7604 7605 7606 7607 7608 7609 7610 7611 7612 7613 7614 7615 7616 7617 7618 7619 7620 7621 7622 7623 7624 7625 7626 7627 7628 7629 7630 7631 7632 7633 7634 7635 7636 7637 7638 7639 7640 7641 7642 7643 7644 7645 7646 7647 7648 7649 7650 7651 7652 7653 7654 7655 7656 7657 7658 7659 7660 7661 7662 7663 7664 7665 7666 7667 7668 7669 7670 7671 7672 7673 7674 7675 7676 7677 7678 7679 7680 7681 7682 7683 7684 7685 7686 7687 7688 7689 7690 7691 7692 7693 7694 7695 7696 7697 7698 7699 7700 7701 7702 7703 7704 7705 7706 7707 7708 7709 7710 7711 7712 7713 7714 7715 7716 7717 7718 7719 7720 7721 7722 7723 7724 7725 7726 7727 7728 7729 7730 7731 7732 7733 7734 7735 7736 7737 7738 7739 7740 7741 7742 7743 7744 7745 7746 7747 7748 7749 7750 7751 7752 7753 7754 7755 7756 7757 7758 7759 7760 7761 7762 7763 7764 7765 7766 7767 7768 7769 7770 7771 7772 7773 7774 7775 7776 7777 7778 7779 7780 7781 7782 7783 7784 7785 7786 7787 7788 7789 7790 7791 7792 7793 7794 7795 7796 7797 7798 7799 7800 7801 7802 7803 7804 7805 7806 7807 7808 7809 7810 7811 7812 7813 7814 7815 7816 7817 7818 7819 7820 7821 7822 7823 7824 7825 7826 7827 7828 7829 7830 7831 7832 7833 7834 7835 7836 7837 7838 7839 7840 7841 7842 7843 7844 7845 7846 7847 7848 7849 7850 7851 7852 7853 7854 7855 7856 7857 7858 7859 7860 7861 7862 7863 7864 7865 7866 7867 7868 7869 7870 7871 7872 7873 7874 7875 7876 7877 7878 7879 7880 7881 7882 7883 7884 7885 7886 7887 7888 7889 7890 7891 7892 7893 7894 7895 7896 7897 7898 7899 7900 7901 7902 7903 7904 7905 7906 7907 7908 7909 7910 7911 7912 7913 7914 7915 7916 7917 7918 7919 7920 7921 7922 7923 7924 7925 7926 7927 7928 7929 7930 7931 7932 7933 7934 7935 7936 7937 7938 7939 7940 7941 7942 7943 7944 7945 7946 7947 7948 7949 7950 7951 7952 7953 7954 7955 7956 7957 7958 7959 7960 7961 7962 7963 7964 7965 7966 7967 7968 7969 7970 7971 7972 7973 7974 7975 7976 7977 7978 7979 7980 7981 7982 7983 7984 7985 7986 7987 7988 7989 7990 7991 7992 7993 7994 7995 7996 7997 7998 7999 8000 8001 8002 8003 8004 8005 8006 8007 8008 8009 8010 8011 8012 8013 8014 8015 8016 8017 8018 8019 8020 8021 8022 8023 8024 8025 8026 8027 8028 8029 8030 8031 8032 8033 8034 8035 8036 8037 8038 8039 8040 8041 8042 8043 8044 8045 8046 8047 8048 8049 8050 8051 8052 8053 8054 8055 8056 8057 8058 8059 8060 8061 8062 8063 8064 8065 8066 8067 8068 8069 8070 8071 8072 8073 8074 8075 8076 8077 8078 8079 8080 8081 8082 8083 8084 8085 8086 8087 8088 8089 8090 8091 8092 8093 8094 8095 8096 8097 8098 8099 8100 8101 8102 8103 8104 8105 8106 8107 8108 8109 8110 8111 8112 8113 8114 8115 8116 8117 8118 8119 8120 8121 8122 8123 8124 8125 8126 8127 8128 8129 8130 8131 8132 8133 8134 8135 8136 8137 8138 8139 8140 8141 8142 8143 8144 8145 8146 8147 8148 8149 8150 8151 8152 8153 8154 8155 8156 8157 8158 8159 8160 8161 8162 8163 8164 8165 8166 8167 8168 8169 8170 8171 8172 8173 8174 8175 8176 8177 8178 8179 8180 8181 8182 8183 8184 8185 8186 8187 8188 8189 8190 8191 8192 8193 8194 8195 8196 8197 8198 8199 8200 8201 8202 8203 8204 8205 8206 8207 8208 8209 8210 8211 8212 8213 8214 8215 8216 8217 8218 8219 8220 8221 8222 8223 8224 8225 8226 8227 8228 8229 8230 8231 8232 8233 8234 8235 8236 8237 8238 8239 8240 8241 8242 8243 8244 8245 8246 8247 8248 8249 8250 8251 8252 8253 8254 8255 8256 8257 8258 8259 8260 8261 8262 8263 8264 8265 8266 8267 8268 8269 8270 8271 8272 8273 8274 8275 8276 8277 8278 8279 8280 8281 8282 8283 8284 8285 8286 8287 8288 8289 8290 8291 8292 8293 8294 8295 8296 8297 8298 8299 8300 8301 8302 8303 8304 8305 8306 8307 8308 8309 8310 8311 8312 8313 8314 8315 8316 8317 8318 8319 8320 8321 8322 8323 8324 8325 8326 8327 8328 8329 8330 8331 8332 8333 8334 8335 8336 8337 8338 8339 8340 8341 8342 8343 8344 8345 8346 8347 8348 8349 8350 8351 8352 8353 8354 8355 8356 8357 8358 8359 8360 8361 8362 8363 8364 8365 8366 8367 8368 8369 8370 8371 8372 8373 8374 8375 8376 8377 8378 8379 8380 8381 8382 8383 8384 8385 8386 8387 8388 8389 8390 8391 8392 8393 8394 8395 8396 8397 8398 8399 8400 8401 8402 8403 8404 8405 8406 8407 8408 8409 8410 8411 8412 8413 8414 8415 8416 8417 8418 8419 8420 8421 8422 8423 8424 8425 8426 8427 8428 8429 8430 8431 8432 8433 8434 8435 8436 8437 8438 8439 8440 8441 8442 8443 8444 8445 8446 8447 8448 8449 8450 8451 8452 8453 8454 8455 8456 8457 8458 8459 8460 8461 8462 8463 8464 8465 8466 8467 8468 8469 8470 8471 8472 8473 8474 8475 8476 8477 8478 8479 8480 8481 8482 8483 8484 8485 8486 8487 8488 8489 8490 8491 8492 8493 8494 8495 8496 8497 8498 8499 8500 8501 8502 8503 8504 8505 8506 8507 8508 8509 8510 8511 8512 8513 8514 8515 8516 8517 8518 8519 8520 8521 8522 8523 8524 8525 8526 8527 8528 8529 8530 8531 8532 8533 8534 8535 8536 8537 8538 8539 8540 8541 8542 8543 8544 8545 8546 8547 8548 8549 8550 8551 8552 8553 8554 8555 8556 8557 8558 8559 8560 8561 8562 8563 8564 8565 8566 8567 8568 8569 8570 8571 8572 8573 8574 8575 8576 8577 8578 8579 8580 8581 8582 8583 8584 8585 8586 8587 8588 8589 8590 8591 8592 8593 8594 8595 8596 8597 8598 8599 8600 8601 8602 8603 8604 8605 8606 8607 8608 8609 8610 8611 8612 8613 8614 8615 8616 8617 8618 8619 8620 8621 8622 8623 8624 8625 8626 8627 8628 8629 8630 8631 8632 8633 8634 8635 8636 8637 8638 8639 8640 8641 8642 8643 8644 8645 8646 8647 8648 8649 8650 8651 8652 8653 8654 8655 8656 8657 8658 8659 8660 8661 8662 8663 8664 8665 8666 8667 8668 8669 8670 8671 8672 8673 8674 8675 8676 8677 8678 8679 8680 8681 8682 8683 8684 8685 8686 8687 8688 8689 8690 8691 8692 8693 8694 8695 8696 8697 8698 8699 8700 8701 8702 8703 8704 8705 8706 8707 8708 8709 8710 8711 8712 8713 8714 8715 8716 8717 8718 8719 8720 8721 8722 8723 8724 8725 8726 8727 8728 8729 8730 8731 8732 8733 8734 8735 8736 8737 8738 8739 8740 8741 8742 8743 8744 8745 8746 8747 8748 8749 8750 8751 8752 8753 8754 8755 8756 8757 8758 8759 8760 8761 8762 8763 8764 8765 8766 8767 8768 8769 8770 8771 8772 8773 8774 8775 8776 8777 8778 8779 8780 8781 8782 8783 8784 8785 8786 8787 8788 8789 8790 8791 8792 8793 8794 8795 8796 8797 8798 8799 8800 8801 8802 8803 8804 8805 8806 8807 8808 8809 8810 8811 8812 8813 8814 8815 8816 8817 8818 8819 8820 8821 8822 8823 8824 8825 8826 8827 8828 8829 8830 8831 8832 8833 8834 8835 8836 8837 8838 8839 8840 8841 8842 8843 8844 8845 8846 8847 8848 8849 8850 8851 8852 8853 8854 8855 8856 8857 8858 8859 8860 8861 8862 8863 8864 8865 8866 8867 8868 8869 8870 8871 8872 8873 8874 8875 8876 8877 8878 8879 8880 8881 8882 8883 8884 8885 8886 8887 8888 8889 8890 8891 8892 8893 8894 8895 8896 8897 8898 8899 8900 8901 8902 8903 8904 8905 8906 8907 8908 8909 8910 8911 8912 8913 8914 8915 8916 8917 8918 8919 8920 8921 8922 8923 8924 8925 8926 8927 8928 8929 8930 8931 8932 8933 8934 8935 8936 8937 8938 8939 8940 8941 8942 8943 8944 8945 8946 8947 8948 8949 8950 8951 8952 8953 8954 8955 8956 8957 8958 8959 8960 8961 8962 8963 8964 8965 8966 8967 8968 8969 8970 8971 8972 8973 8974 8975 8976 8977 8978 8979 8980 8981 8982 8983 8984 8985 8986 8987 8988 8989 8990 8991 8992 8993 8994 8995 8996 8997 8998 8999 9000 9001 9002 9003 9004 9005 9006 9007 9008 9009 9010 9011 9012 9013 9014 9015 9016 9017 9018 9019 9020 9021 9022 9023 9024 9025 9026 9027 9028 9029 9030 9031 9032 9033 9034 9035 9036 9037 9038 9039 9040 9041 9042 9043 9044 9045 9046 9047 9048 9049 9050 9051 9052 9053 9054 9055 9056 9057 9058 9059 9060 9061 9062 9063 9064 9065 9066 9067 9068 9069 9070 9071 9072 9073 9074 9075 9076 9077 9078 9079 9080 9081 9082 9083 9084 9085 9086 9087 9088 9089 9090 9091 9092 9093 9094 9095 9096 9097 9098 9099 9100 9101 9102 9103 9104 9105 9106 9107 9108 9109 9110 9111 9112 9113 9114 9115 9116 9117 9118 9119 9120 9121 9122 9123 9124 9125 9126 9127 9128 9129 9130 9131 9132 9133 9134 9135 9136 9137 9138 9139 9140 9141 9142 9143 9144 9145 9146 9147 9148 9149 9150 9151 9152 9153 9154 9155 9156 9157 9158 9159 9160 9161 9162 9163 9164 9165 9166 9167 9168 9169 9170 9171 9172 9173 9174 9175 9176 9177 9178 9179 9180 9181 9182 9183 9184 9185 9186 9187 9188 9189 9190 9191 9192 9193 9194 9195 9196 9197 9198 9199 9200 9201 9202 9203 9204 9205 9206 9207 9208 9209 9210 9211 9212 9213 9214 9215 9216 9217 9218 9219 9220 9221 9222 9223 9224 9225 9226 9227 9228 9229 9230 9231 9232 9233 9234 9235 9236 9237 9238 9239 9240 9241 9242 9243 9244 9245 9246 9247 9248 9249 9250 9251 9252 9253 9254 9255 9256 9257 9258 9259 9260 9261 9262 9263 9264 9265 9266 9267 9268 9269 9270 9271 9272 9273 9274 9275 9276 9277 9278 9279 9280 9281 9282 9283 9284 9285 9286 9287 9288 9289 9290 9291 9292 9293 9294 9295 9296 9297 9298 9299 9300 9301 9302 9303 9304 9305 9306 9307 9308 9309 9310 9311 9312 9313 9314 9315 9316 9317 9318 9319 9320 9321 9322 9323 9324 9325 9326 9327 9328 9329 9330 9331 9332 9333 9334 9335 9336 9337 9338 9339 9340 9341 9342 9343 9344 9345 9346 9347 9348 9349 9350 9351 9352 9353 9354 9355 9356 9357 9358 9359 9360 9361 9362 9363 9364 9365 9366 9367 9368 9369 9370 9371 9372 9373 9374 9375 9376 9377 9378 9379 9380 9381 9382 9383 9384 9385 9386 9387 9388 9389 9390 9391 9392 9393 9394 9395 9396 9397 9398 9399 9400 9401 9402 9403 9404 9405 9406 9407 9408 9409 9410 9411 9412 9413 9414 9415 9416 9417 9418 9419 9420 9421 9422 9423 9424 9425 9426 9427 9428 9429 9430 9431 9432 9433 9434 9435 9436 9437 9438 9439 9440 9441 9442 9443 9444 9445 9446 9447 9448 9449 9450 9451 9452 9453 9454 9455 9456 9457 9458 9459 9460 9461 9462 9463 9464 9465 9466 9467 9468 9469 9470 9471 9472 9473 9474 9475 9476 9477 9478 9479 9480 9481 9482 9483 9484 9485 9486 9487 9488 9489 9490 9491 9492 9493 9494 9495 9496 9497 9498 9499 9500 9501 9502 9503 9504 9505 9506 9507 9508 9509 9510 9511 9512 9513 9514 9515 9516 9517 9518 9519 9520 9521 9522 9523 9524 9525 9526 9527 9528 9529 9530 9531 9532 9533 9534 9535 9536 9537 9538 9539 9540 9541 9542 9543 9544 9545 9546 9547 9548 9549 9550 9551 9552 9553 9554 9555 9556 9557 9558 9559 9560 9561 9562 9563 9564 9565 9566 9567 9568 9569 9570 9571 9572 9573 9574 9575 9576 9577 9578 9579 9580 9581 9582 9583 9584 9585 9586 9587 9588 9589 9590 9591 9592 9593 9594 9595 9596 9597 9598 9599 9600 9601 9602 9603 9604 9605 9606 9607 9608 9609 9610 9611 9612 9613 9614 9615 9616 9617 9618 9619 9620 9621 9622 9623 9624 9625 9626 9627 9628 9629 9630 9631 9632 9633 9634 9635 9636 9637 9638 9639 9640 9641 9642 9643 9644 9645 9646 9647 9648 9649 9650 9651 9652 9653 9654 9655 9656 9657 9658 9659 9660 9661 9662 9663 9664 9665 9666 9667 9668 9669 9670 9671 9672 9673 9674 9675 9676 9677 9678 9679 9680 9681 9682 9683 9684 9685 9686 9687 9688 9689 9690 9691 9692 9693 9694 9695 9696 9697 9698 9699 9700 9701 9702 9703 9704 9705 9706 9707 9708 9709 9710 9711 9712 9713 9714 9715 9716 9717 9718 9719 9720 9721 9722 9723 9724 9725 9726 9727 9728 9729 9730 9731 9732 9733 9734 9735 9736 9737 9738 9739 9740 9741 9742 9743 9744 9745 9746 9747 9748 9749 9750 9751 9752 9753 9754 9755 9756 9757 9758 9759 9760 9761 9762 9763 9764 9765 9766 9767 9768 9769 9770 9771 9772 9773 9774 9775 9776 9777 9778 9779 9780 9781 9782 9783 9784 9785 9786 9787 9788 9789 9790 9791 9792 9793 9794 9795 9796 9797 9798 9799 9800 9801 9802 9803 9804 9805 9806 9807 9808 9809 9810 9811 9812 9813 9814 9815 9816 9817 9818 9819 9820 9821 9822 9823 9824 9825 9826 9827 9828 9829 9830 9831 9832 9833 9834 9835 9836 9837 9838 9839 9840 9841 9842 9843 9844 9845 9846 9847 9848 9849 9850 9851 9852 9853 9854 9855 9856 9857 9858 9859 9860 9861 9862 9863 9864 9865 9866 9867 9868 9869 9870 9871 9872 9873 9874 9875 9876 9877 9878 9879 9880 9881 9882 9883 9884 9885 9886 9887 9888 9889 9890 9891 9892 9893 9894 9895 9896 9897 9898 9899 9900 9901 9902 9903 9904 9905 9906 9907 9908 9909 9910 9911 9912 9913 9914 9915 9916 9917 9918 9919 9920 9921 9922 9923 9924 9925 9926 9927 9928 9929 9930 9931 9932 9933 9934 9935 9936 9937 9938 9939 9940 9941 9942 9943 9944 9945 9946 9947 9948 9949 9950 9951 9952 9953 9954 9955 9956 9957 9958 9959 9960 9961 9962 9963 9964 9965 9966 9967 9968 9969 9970 9971 9972 9973 9974 9975 9976 9977 9978 9979 9980 9981 9982 9983 9984 9985 9986 9987 9988 9989 9990 9991 9992 9993 9994 9995 9996 9997 9998 9999 10000 10001 10002 10003 10004 10005 10006 10007 10008 10009 10010 10011 10012 10013 10014 10015 10016 10017 10018 10019 10020 10021 10022 10023 10024 10025 10026 10027 10028 10029 10030 10031 10032 10033 10034 10035 10036 10037 10038 10039 10040 10041 10042 10043 10044 10045 10046 10047 10048 10049 10050 10051 10052 10053 10054 10055 10056 10057 10058 10059 10060 10061 10062 10063 10064 10065 10066 10067 10068 10069 10070 10071 10072 10073 10074 10075 10076 10077 10078 10079 10080 10081 10082 10083 10084 10085 10086 10087 10088 10089 10090 10091 10092 10093 10094 10095 10096 10097 10098 10099 10100 10101 10102 10103 10104 10105 10106 10107 10108 10109 10110 10111 10112 10113 10114 10115 10116 10117 10118 10119 10120 10121 10122 10123 10124 10125 10126 10127 10128 10129 10130 10131 10132 10133 10134 10135 10136 10137 10138 10139 10140 10141 10142 10143 10144 10145 10146 10147 10148 10149 10150 10151 10152 10153 10154 10155 10156 10157 10158 10159 10160 10161 10162 10163 10164 10165 10166 10167 10168 10169 10170 10171 10172 10173 10174 10175 10176 10177 10178 10179 10180 10181 10182 10183 10184 10185 10186 10187 10188 10189 10190 10191 10192 10193 10194 10195 10196 10197 10198 10199 10200 10201 10202 10203 10204 10205 10206 10207 10208 10209 10210 10211 10212 10213 10214 10215 10216 10217 10218 10219 10220 10221 10222 10223 10224 10225 10226 10227 10228 10229 10230 10231 10232 10233 10234 10235 10236 10237 10238 10239 10240 10241 10242 10243 10244 10245 10246 10247 10248 10249 10250 10251 10252 10253 10254 10255 10256 10257 10258 10259 10260 10261 10262 10263 10264 10265 10266 10267 10268 10269 10270 10271 10272 10273 10274 10275 10276 10277 10278 10279 10280 10281 10282 10283 10284 10285 10286 10287 10288 10289 10290 10291 10292 10293 10294 10295 10296 10297 10298 10299 10300 10301 10302 10303 10304 10305 10306 10307 10308 10309 10310 10311 10312 10313 10314 10315 10316 10317 10318 10319 10320 10321 10322 10323 10324 10325 10326 10327 10328 10329 10330 10331 10332 10333 10334 10335 10336 10337 10338 10339 10340 10341 10342 10343 10344 10345 10346 10347 10348 10349 10350 10351 10352 10353 10354 10355 10356 10357 10358 10359 10360 10361 10362 10363 10364 10365 10366 10367 10368 10369 10370 10371 10372 10373 10374 10375 10376 10377 10378 10379 10380 10381 10382 10383 10384 10385 10386 10387 10388 10389 10390 10391 10392 10393 10394 10395 10396 10397 10398 10399 10400 10401 10402 10403 10404 10405 10406 10407 10408 10409 10410 10411 10412 10413 10414 10415 10416 10417 10418 10419 10420 10421 10422 10423 10424 10425 10426 10427 10428 10429 10430 10431 10432 10433 10434 10435 10436 10437 10438 10439 10440 10441 10442 10443 10444 10445 10446 10447 10448 10449 10450 10451 10452 10453 10454 10455 10456 10457 10458 10459 10460 10461 10462 10463 10464 10465 10466 10467 10468 10469 10470 10471 10472 10473 10474 10475 10476 10477 10478 10479 10480 10481 10482 10483 10484 10485 10486 10487 10488 10489 10490 10491 10492 10493 10494 10495 10496 10497 10498 10499 10500 10501 10502 10503 10504 10505 10506 10507 10508 10509 10510 10511 10512 10513 10514 10515 10516 10517 10518 10519 10520 10521 10522 10523 10524 10525 10526 10527 10528 10529 10530 10531 10532 10533 10534 10535 10536 10537 10538 10539 10540 10541 10542 10543 10544 10545 10546 10547 10548 10549 10550 10551 10552 10553 10554 10555 10556 10557 10558 10559 10560 10561 10562 10563 10564 10565 10566 10567 10568 10569 10570 10571 10572 10573 10574 10575 10576 10577 10578 10579 10580 10581 10582 10583 10584 10585 10586 10587 10588 10589 10590 10591 10592 10593 10594 10595 10596 10597 10598 10599 10600 10601 10602 10603 10604 10605 10606 10607 10608 10609 10610 10611 10612 10613 10614 10615 10616 10617 10618 10619 10620 10621 10622 10623 10624 10625 10626 10627 10628 10629 10630 10631 10632 10633 10634 10635 10636 10637 10638 10639 10640 10641 10642 10643 10644 10645 10646 10647 10648 10649 10650 10651 10652 10653 10654 10655 10656 10657 10658 10659 10660 10661 10662 10663 10664 10665 10666 10667 10668 10669 10670 10671 10672 10673 10674 10675 10676 10677 10678 10679 10680 10681 10682 10683 10684 10685 10686 10687 10688 10689 10690 10691 10692 10693 10694 10695 10696 10697 10698 10699 10700 10701 10702 10703 10704 10705 10706 10707 10708 10709 10710 10711 10712 10713 10714 10715 10716 10717 10718 10719 10720 10721 10722 10723 10724 10725 10726 10727 10728 10729 10730 10731 10732 10733 10734 10735 10736 10737 10738 10739 10740 10741 10742 10743 10744 10745 10746 10747 10748 10749 10750 10751 10752 10753 10754 10755 10756 10757 10758 10759 10760 10761 10762 10763 10764 10765 10766 10767 10768 10769 10770 10771 10772 10773 10774 10775 10776 10777 10778 10779 10780 10781 10782 10783 10784 10785 10786 10787 10788 10789 10790 10791 10792 10793 10794 10795 10796 10797 10798 10799 10800 10801 10802 10803 10804 10805 10806 10807 10808 10809 10810 10811 10812 10813 10814 10815 10816 10817 10818 10819 10820 10821 10822 10823 10824 10825 10826 10827 10828 10829 10830 10831 10832 10833 10834 10835 10836 10837 10838 10839 10840 10841 10842 10843 10844 10845 10846 10847 10848 10849 10850 10851 10852 10853 10854 10855 10856 10857 10858 10859 10860 10861 10862 10863 10864 10865 10866 10867 10868 10869 10870 10871 10872 10873 10874 10875 10876 10877 10878 10879 10880 10881 10882 10883 10884 10885 10886 10887 10888 10889 10890 10891 10892 10893 10894 10895 10896 10897 10898 10899 10900 10901 10902 10903 10904 10905 10906 10907 10908 10909 10910 10911 10912 10913 10914 10915 10916 10917 10918 10919 10920 10921 10922 10923 10924 10925 10926 10927 10928 10929 10930 10931 10932 10933 10934 10935 10936 10937 10938 10939 10940 10941 10942 10943 10944 10945 10946 10947 10948 10949 10950 10951 10952 10953 10954 10955 10956 10957 10958 10959 10960 10961 10962 10963 10964 10965 10966 10967 10968 10969 10970 10971 10972 10973 10974 10975 10976 10977 10978 10979 10980 10981 10982 10983 10984 10985 10986 10987 10988 10989 10990 10991 10992 10993 10994 10995 10996 10997 10998 10999 11000 11001 11002 11003 11004 11005 11006 11007 11008 11009 11010 11011 11012 11013 11014 11015 11016 11017 11018 11019 11020 11021 11022 11023 11024 11025 11026 11027 11028 11029 11030 11031 11032 11033 11034 11035 11036 11037 11038 11039 11040 11041 11042 11043 11044 11045 11046 11047 11048 11049 11050 11051 11052 11053 11054 11055 11056 11057 11058 11059 11060 11061 11062 11063 11064 11065 11066 11067 11068 11069 11070 11071 11072 11073 11074 11075 11076 11077 11078 11079 11080 11081 11082 11083 11084 11085 11086 11087 11088 11089 11090 11091 11092 11093 11094 11095 11096 11097 11098 11099 11100 11101 11102 11103 11104 11105 11106 11107 11108 11109 11110 11111 11112 11113 11114 11115 11116 11117 11118 11119 11120 11121 11122 11123 11124 11125 11126 11127 11128 11129 11130 11131 11132 11133 11134 11135 11136 11137 11138 11139 11140 11141 11142 11143 11144 11145 11146 11147 11148 11149 11150 11151 11152 11153 11154 11155 11156 11157 11158 11159 11160 11161 11162 11163 11164 11165 11166 11167 11168 11169 11170 11171 11172 11173 11174 11175 11176 11177 11178 11179 11180 11181 11182 11183 11184 11185 11186 11187 11188 11189 11190 11191 11192 11193 11194 11195 11196 11197 11198 11199 11200 11201 11202 11203 11204 11205 11206 11207 11208 11209 11210 11211 11212 11213 11214 11215 11216 11217 11218 11219 11220 11221 11222 11223 11224 11225 11226 11227 11228 11229 11230 11231 11232 11233 11234 11235 11236 11237 11238 11239 11240 11241 11242 11243 11244 11245 11246 11247 11248 11249 11250 11251 11252 11253 11254 11255 11256 11257 11258 11259 11260 11261 11262 11263 11264 11265 11266 11267 11268 11269 11270 11271 11272 11273 11274 11275 11276 11277 11278 11279 11280 11281 11282 11283 11284 11285 11286 11287 11288 11289 11290 11291 11292 11293 11294 11295 11296 11297 11298 11299 11300 11301 11302 11303 11304 11305 11306 11307 11308 11309 11310 11311 11312 11313 11314 11315 11316 11317 11318 11319 11320 11321 11322 11323 11324 11325 11326 11327 11328 11329 11330 11331 11332 11333 11334 11335 11336 11337 11338 11339 11340 11341 11342 11343 11344 11345 11346 11347 11348 11349 11350 11351 11352 11353 11354 11355 11356 11357 11358 11359 11360 11361 11362 11363 11364 11365 11366 11367 11368 11369 11370 11371 11372 11373 11374 11375 11376 11377 11378 11379 11380 11381 11382 11383 11384 11385 11386 11387 11388 11389 11390 11391 11392 11393 11394 11395 11396 11397 11398 11399 11400 11401 11402 11403 11404 11405 11406 11407 11408 11409 11410 11411 11412 11413 11414 11415 11416 11417 11418 11419 11420 11421 11422 11423 11424 11425 11426 11427 11428 11429 11430 11431 11432 11433 11434 11435 11436 11437 11438 11439 11440 11441 11442 11443 11444 11445 11446 11447 11448 11449 11450 11451 11452 11453 11454 11455 11456 11457 11458 11459 11460 11461 11462 11463 11464 11465 11466 11467 11468 11469 11470 11471 11472 11473 11474 11475 11476 11477 11478 11479 11480 11481 11482 11483 11484 11485 11486 11487 11488 11489 11490 11491 11492 11493 11494 11495 11496 11497 11498 11499 11500 11501 11502 11503 11504 11505 11506 11507 11508 11509 11510 11511 11512 11513 11514 11515 11516 11517 11518 11519 11520 11521 11522 11523 11524 11525 11526 11527 11528 11529 11530 11531 11532 11533 11534 11535 11536 11537 11538 11539 11540 11541 11542 11543 11544 11545 11546 11547 11548 11549 11550 11551 11552 11553 11554 11555 11556 11557 11558 11559 11560 11561 11562 11563 11564 11565 11566 11567 11568 11569 11570 11571 11572 11573 11574 11575 11576 11577 11578 11579 11580 11581 11582 11583 11584 11585 11586 11587 11588 11589 11590 11591 11592 11593 11594 11595 11596 11597 11598 11599 11600 11601 11602 11603 11604 11605 11606 11607 11608 11609 11610 11611 11612 11613 11614 11615 11616 11617 11618 11619 11620 11621 11622 11623 11624 11625 11626 11627 11628 11629 11630 11631 11632 11633 11634 11635 11636 11637 11638 11639 11640 11641 11642 11643 11644 11645 11646 11647 11648 11649 11650 11651 11652 11653 11654 11655 11656 11657 11658 11659 11660 11661 11662 11663 11664 11665 11666 11667 11668 11669 11670 11671 11672 11673 11674 11675 11676 11677 11678 11679 11680 11681 11682 11683 11684 11685 11686 11687 11688 11689 11690 11691 11692 11693 11694 11695 11696 11697 11698 11699 11700 11701 11702 11703 11704 11705 11706 11707 11708 11709 11710 11711 11712 11713 11714 11715 11716 11717 11718 11719 11720 11721 11722 11723 11724 11725 11726 11727 11728 11729 11730 11731 11732 11733 11734 11735 11736 11737 11738 11739 11740 11741 11742 11743 11744 11745 11746 11747 11748 11749 11750 11751 11752 11753 11754 11755 11756 11757 11758 11759 11760 11761 11762 11763 11764 11765 11766 11767 11768 11769 11770 11771 11772 11773 11774 11775 11776 11777 11778 11779 11780 11781 11782 11783 11784 11785 11786 11787 11788 11789 11790 11791 11792 11793 11794 11795 11796 11797 11798 11799 11800 11801 11802 11803 11804 11805 11806 11807 11808 11809 11810 11811 11812 11813 11814 11815 11816 11817 11818 11819 11820 11821 11822 11823 11824 11825 11826 11827 11828 11829 11830 11831 11832 11833 11834 11835 11836 11837 11838 11839 11840 11841 11842 11843 11844 11845 11846 11847 11848 11849 11850 11851 11852 11853 11854 11855 11856 11857 11858 11859 11860 11861 11862 11863 11864 11865 11866 11867 11868 11869 11870 11871 11872 11873 11874 11875 11876 11877 11878 11879 11880 11881 11882 11883 11884 11885 11886 11887 11888 11889 11890 11891 11892 11893 11894 11895 11896 11897 11898 11899 11900 11901 11902 11903 11904 11905 11906 11907 11908 11909 11910 11911 11912 11913 11914 11915 11916 11917 11918 11919 11920 11921 11922 11923 11924 11925 11926 11927 11928 11929 11930 11931 11932 11933 11934 11935 11936 11937 11938 11939 11940 11941 11942 11943 11944 11945 11946 11947 11948 11949 11950 11951 11952 11953 11954 11955 11956 11957 11958 11959 11960 11961 11962 11963 11964 11965 11966 11967 11968 11969 11970 11971 11972 11973 11974 11975 11976 11977 11978 11979 11980 11981 11982 11983 11984 11985 11986 11987 11988 11989 11990 11991 11992 11993 11994 11995 11996 11997 11998 11999 12000 12001 12002 12003 12004 12005 12006 12007 12008 12009 12010 12011 12012 12013 12014 12015 12016 12017 12018 12019 12020 12021 12022 12023 12024 12025 12026 12027 12028 12029 12030 12031 12032 12033 12034 12035 12036 12037 12038 12039 12040 12041 12042 12043 12044 12045 12046 12047 12048 12049 12050 12051 12052 12053 12054 12055 12056 12057 12058 12059 12060 12061 12062 12063 12064 12065 12066 12067 12068 12069 12070 12071 12072 12073 12074 12075 12076 12077 12078 12079 12080 12081 12082 12083 12084 12085 12086 12087 12088 12089 12090 12091 12092 12093 12094 12095 12096 12097 12098 12099 12100 12101 12102 12103 12104 12105 12106 12107 12108 12109 12110 12111 12112 12113 12114 12115 12116 12117 12118 12119 12120 12121 12122 12123 12124 12125 12126 12127 12128 12129 12130 12131 12132 12133 12134 12135 12136 12137 12138 12139 12140 12141 12142 12143 12144 12145 12146 12147 12148 12149 12150 12151 12152 12153 12154 12155 12156 12157 12158 12159 12160 12161 12162 12163 12164 12165 12166 12167 12168 12169 12170 12171 12172 12173 12174 12175 12176 12177 12178 12179 12180 12181 12182 12183 12184 12185 12186 12187 12188 12189 12190 12191 12192 12193 12194 12195 12196 12197 12198 12199 12200 12201 12202 12203 12204 12205 12206 12207 12208 12209 12210 12211 12212 12213 12214 12215 12216 12217 12218 12219 12220 12221 12222 12223 12224 12225 12226 12227 12228 12229 12230 12231 12232 12233 12234 12235 12236 12237 12238 12239 12240 12241 12242 12243 12244 12245 12246 12247 12248 12249 12250 12251 12252 12253 12254 12255 12256 12257 12258 12259 12260 12261 12262 12263 12264 12265 12266 12267 12268 12269 12270 12271 12272 12273 12274 12275 12276 12277 12278 12279 12280 12281 12282 12283 12284 12285 12286 12287 12288 12289 12290 12291 12292 12293 12294 12295 12296 12297 12298 12299 12300 12301 12302 12303 12304 12305 12306 12307 12308 12309 12310 12311 12312 12313 12314 12315 12316 12317 12318 12319 12320 12321 12322 12323 12324 12325 12326 12327 12328 12329 12330 12331 12332 12333 12334 12335 12336 12337 12338 12339 12340 12341 12342 12343 12344 12345 12346 12347 12348 12349 12350 12351 12352 12353 12354 12355 12356 12357 12358 12359 12360 12361 12362 12363 12364 12365 12366 12367 12368 12369 12370 12371 12372 12373 12374 12375 12376 12377 12378 12379 12380 12381 12382 12383 12384 12385 12386 12387 12388 12389 12390 12391 12392 12393 12394 12395 12396 12397 12398 12399 12400 12401 12402 12403 12404 12405 12406 12407 12408 12409 12410 12411 12412 12413 12414 12415 12416 12417 12418 12419 12420 12421 12422 12423 12424 12425 12426 12427 12428 12429 12430 12431 12432 12433 12434 12435 12436 12437 12438 12439 12440 12441 12442 12443 12444 12445 12446 12447 12448 12449 12450 12451 12452 12453 12454 12455 12456 12457 12458 12459 12460 12461 12462 12463 12464 12465 12466 12467 12468 12469 12470 12471 12472 12473 12474 12475 12476 12477 12478 12479 12480 12481 12482 12483 12484 12485 12486 12487 12488 12489 12490 12491 12492 12493 12494 12495 12496 12497 12498 12499 12500 12501 12502 12503 12504 12505 12506 12507 12508 12509 12510 12511 12512 12513 12514 12515 12516 12517 12518 12519 12520 12521 12522 12523 12524 12525 12526 12527 12528 12529 12530 12531 12532 12533 12534 12535 12536 12537 12538 12539 12540 12541 12542 12543 12544 12545 12546 12547 12548 12549 12550 12551 12552 12553 12554 12555 12556 12557 12558 12559 12560 12561 12562 12563 12564 12565 12566 12567 12568 12569 12570 12571 12572 12573 12574 12575 12576 12577 12578 12579 12580 12581 12582 12583 12584 12585 12586 12587 12588 12589 12590 12591 12592 12593 12594 12595 12596 12597 12598 12599 12600 12601 12602 12603 12604 12605 12606 12607 12608 12609 12610 12611 12612 12613 12614 12615 12616 12617 12618 12619 12620 12621 12622 12623 12624 12625 12626 12627 12628 12629 12630 12631 12632 12633 12634 12635 12636 12637 12638 12639 12640 12641 12642 12643 12644 12645 12646 12647 12648 12649 12650 12651 12652 12653 12654 12655 12656 12657 12658 12659 12660 12661 12662 12663 12664 12665 12666 12667 12668 12669 12670 12671 12672 12673 12674 12675 12676 12677 12678 12679 12680 12681 12682 12683 12684 12685 12686 12687 12688 12689 12690 12691 12692 12693 12694 12695 12696 12697 12698 12699 12700 12701 12702 12703 12704 12705 12706 12707 12708 12709 12710 12711 12712 12713 12714 12715 12716 12717 12718 12719 12720 12721 12722 12723 12724 12725 12726 12727 12728 12729 12730 12731 12732 12733 12734 12735 12736 12737 12738 12739 12740 12741 12742 12743 12744 12745 12746 12747 12748 12749 12750 12751 12752 12753 12754 12755 12756 12757 12758 12759 12760 12761 12762 12763 12764 12765 12766 12767 12768 12769 12770 12771 12772 12773 12774 12775 12776 12777 12778 12779 12780 12781 12782 12783 12784 12785 12786 12787 12788 12789 12790 12791 12792 12793 12794 12795 12796 12797 12798 12799 12800 12801 12802 12803 12804 12805 12806 12807 12808 12809 12810 12811 12812 12813 12814 12815 12816 12817 12818 12819 12820 12821 12822 12823 12824 12825 12826 12827 12828 12829 12830 12831 12832 12833 12834 12835 12836 12837 12838 12839 12840 12841 12842 12843 12844 12845 12846 12847 12848 12849 12850 12851 12852 12853 12854 12855 12856 12857 12858 12859 12860 12861 12862 12863 12864 12865 12866 12867 12868 12869 12870 12871 12872 12873 12874 12875 12876 12877 12878 12879 12880 12881 12882 12883 12884 12885 12886 12887 12888 12889 12890 12891 12892 12893 12894 12895 12896 12897 12898 12899 12900 12901 12902 12903 12904 12905 12906 12907 12908 12909 12910 12911 12912 12913 12914 12915 12916 12917 12918 12919 12920 12921 12922 12923 12924 12925 12926 12927 12928 12929 12930 12931 12932 12933 12934 12935 12936 12937 12938 12939 12940 12941 12942 12943 12944 12945 12946 12947 12948 12949 12950 12951 12952 12953 12954 12955 12956 12957 12958 12959 12960 12961 12962 12963 12964 12965 12966 12967 12968 12969 12970 12971 12972 12973 12974 12975 12976 12977 12978 12979 12980 12981 12982 12983 12984 12985 12986 12987 12988 12989 12990 12991 12992 12993 12994 12995 12996 12997 12998 12999 13000 13001 13002 13003 13004 13005 13006 13007 13008 13009 13010 13011 13012 13013 13014 13015 13016 13017 13018 13019 13020 13021 13022 13023 13024 13025 13026 13027 13028 13029 13030 13031 13032 13033 13034 13035 13036 13037 13038 13039 13040 13041 13042 13043 13044 13045 13046 13047 13048 13049 13050 13051 13052 13053 13054 13055 13056 13057 13058 13059 13060 13061 13062 13063 13064 13065 13066 13067 13068 13069 13070 13071 13072 13073 13074 13075 13076 13077 13078 13079 13080 13081 13082 13083 13084 13085 13086 13087 13088 13089 13090 13091 13092 13093 13094 13095 13096 13097 13098 13099 13100 13101 13102 13103 13104 13105 13106 13107 13108 13109 13110 13111 13112 13113 13114 13115 13116 13117 13118 13119 13120 13121 13122 13123 13124 13125 13126 13127 13128 13129 13130 13131 13132 13133 13134 13135 13136 13137 13138 13139 13140 13141 13142 13143 13144 13145 13146 13147 13148 13149 13150 13151 13152 13153 13154 13155 13156 13157 13158 13159 13160 13161 13162 13163 13164 13165 13166 13167 13168 13169 13170 13171 13172 13173 13174 13175 13176 13177 13178 13179 13180 13181 13182 13183 13184 13185 13186 13187 13188 13189 13190 13191 13192 13193 13194 13195 13196 13197 13198 13199 13200 13201 13202 13203 13204 13205 13206 13207 13208 13209 13210 13211 13212 13213 13214 13215 13216 13217 13218 13219 13220 13221 13222 13223 13224 13225 13226 13227 13228 13229 13230 13231 13232 13233 13234 13235 13236 13237 13238 13239 13240 13241 13242 13243 13244 13245 13246 13247 13248 13249 13250 13251 13252 13253 13254 13255 13256 13257 13258 13259 13260 13261 13262 13263 13264 13265 13266 13267 13268 13269 13270 13271 13272 13273 13274 13275 13276 13277 13278 13279 13280 13281 13282 13283 13284 13285 13286 13287 13288 13289 13290 13291 13292 13293 13294 13295 13296 13297 13298 13299 13300 13301 13302 13303 13304 13305 13306 13307 13308 13309 13310 13311 13312 13313 13314 13315 13316 13317 13318 13319 13320 13321 13322 13323 13324 13325 13326 13327 13328 13329 13330 13331 13332 13333 13334 13335 13336 13337 13338 13339 13340 13341 13342 13343 13344 13345 13346 13347 13348 13349 13350 13351 13352 13353 13354 13355 13356 13357 13358 13359 13360 13361 13362 13363 13364 13365 13366 13367 13368 13369 13370 13371 13372 13373 13374 13375 13376 13377 13378 13379 13380 13381 13382 13383 13384 13385 13386 13387 13388 13389 13390 13391 13392 13393 13394 13395 13396 13397 13398 13399 13400 13401 13402 13403 13404 13405 13406 13407 13408 13409 13410 13411 13412 13413 13414 13415 13416 13417 13418 13419 13420 13421 13422 13423 13424 13425 13426 13427 13428 13429 13430 13431 13432 13433 13434 13435 13436 13437 13438 13439 13440 13441 13442 13443 13444 13445 13446 13447 13448 13449 13450 13451 13452 13453 13454 13455 13456 13457 13458 13459 13460 13461 13462 13463 13464 13465 13466 13467 13468 13469 13470 13471 13472 13473 13474 13475 13476 13477 13478 13479 13480 13481 13482 13483 13484 13485 13486 13487 13488 13489 13490 13491 13492 13493 13494 13495 13496 13497 13498 13499 13500 13501 13502 13503 13504 13505 13506 13507 13508 13509 13510 13511 13512 13513 13514 13515 13516 13517 13518 13519 13520 13521 13522 13523 13524 13525 13526 13527 13528 13529 13530 13531 13532 13533 13534 13535 13536 13537 13538 13539 13540 13541 13542 13543 13544 13545 13546 13547 13548 13549 13550 13551 13552 13553 13554 13555 13556 13557 13558 13559 13560 13561 13562 13563 13564 13565 13566 13567 13568 13569 13570 13571 13572 13573 13574 13575 13576 13577 13578 13579 13580 13581 13582 13583 13584 13585 13586 13587 13588 13589 13590 13591 13592 13593 13594 13595 13596 13597 13598 13599 13600 13601 13602 13603 13604 13605 13606 13607 13608 13609 13610 13611 13612 13613 13614 13615 13616 13617 13618 13619 13620 13621 13622 13623 13624 13625 13626 13627 13628 13629 13630 13631 13632 13633 13634 13635 13636 13637 13638 13639 13640 13641 13642 13643 13644 13645 13646 13647 13648 13649 13650 13651 13652 13653 13654 13655 13656 13657 13658 13659 13660 13661 13662 13663 13664 13665 13666 13667 13668 13669 13670 13671 13672 13673 13674 13675 13676 13677 13678 13679 13680 13681 13682 13683 13684 13685 13686 13687 13688 13689 13690 13691 13692 13693 13694 13695 13696 13697 13698 13699 13700 13701 13702 13703 13704 13705 13706 13707 13708 13709 13710 13711 13712 13713 13714 13715 13716 13717 13718 13719 13720 13721 13722 13723 13724 13725 13726 13727 13728 13729 13730 13731 13732 13733 13734 13735 13736 13737 13738 13739 13740 13741 13742 13743 13744 13745 13746 13747 13748 13749 13750 13751 13752 13753 13754 13755 13756 13757 13758 13759 13760 13761 13762 13763 13764 13765 13766 13767 13768 13769 13770 13771 13772 13773 13774 13775 13776 13777 13778 13779 13780 13781 13782 13783 13784 13785 13786 13787 13788 13789 13790 13791 13792 13793 13794 13795 13796 13797 13798 13799 13800 13801 13802 13803 13804 13805 13806 13807 13808 13809 13810 13811 13812 13813 13814 13815 13816 13817 13818 13819 13820 13821 13822 13823 13824 13825 13826 13827 13828 13829 13830 13831 13832 13833 13834 13835 13836 13837 13838 13839 13840 13841 13842 13843 13844 13845 13846 13847 13848 13849 13850 13851 13852 13853 13854 13855 13856 13857 13858 13859 13860 13861 13862 13863 13864 13865 13866 13867 13868 13869 13870 13871 13872 13873 13874 13875 13876 13877 13878 13879 13880 13881 13882 13883 13884 13885 13886 13887 13888 13889 13890 13891 13892 13893 13894 13895 13896 13897 13898 13899 13900 13901 13902 13903 13904 13905 13906 13907 13908 13909 13910 13911 13912 13913 13914 13915 13916 13917 13918 13919 13920 13921 13922 13923 13924 13925 13926 13927 13928 13929 13930 13931 13932 13933 13934 13935 13936 13937 13938 13939 13940 13941 13942 13943 13944 13945 13946 13947 13948 13949 13950 13951 13952 13953 13954 13955 13956 13957 13958 13959 13960 13961 13962 13963 13964 13965 13966 13967 13968 13969 13970 13971 13972 13973 13974 13975 13976 13977 13978 13979 13980 13981 13982 13983 13984 13985 13986 13987 13988 13989 13990 13991 13992 13993 13994 13995 13996 13997 13998 13999 14000 14001 14002 14003 14004 14005 14006 14007 14008 14009 14010 14011 14012 14013 14014 14015 14016 14017 14018 14019 14020 14021 14022 14023 14024 14025 14026 14027 14028 14029 14030 14031 14032 14033 14034 14035 14036 14037 14038 14039 14040 14041 14042 14043 14044 14045 14046 14047 14048 14049 14050 14051 14052 14053 14054 14055 14056 14057 14058 14059 14060 14061 14062 14063 14064 14065 14066 14067 14068 14069 14070 14071 14072 14073 14074 14075 14076 14077 14078 14079 14080 14081 14082 14083 14084 14085 14086 14087 14088 14089 14090 14091 14092 14093 14094 14095 14096 14097 14098 14099 14100 14101 14102 14103 14104 14105 14106 14107 14108 14109 14110 14111 14112 14113 14114 14115 14116 14117 14118 14119 14120 14121 14122 14123 14124 14125 14126 14127 14128 14129 14130 14131 14132 14133 14134 14135 14136 14137 14138 14139 14140 14141 14142 14143 14144 14145 14146 14147 14148 14149 14150 14151 14152 14153 14154 14155 14156 14157 14158 14159 14160 14161 14162 14163 14164 14165 14166 14167 14168 14169 14170 14171 14172 14173 14174 14175 14176 14177 14178 14179 14180 14181 14182 14183 14184 14185 14186 14187 14188 14189 14190 14191 14192 14193 14194 14195 14196 14197 14198 14199 14200 14201 14202 14203 14204 14205 14206 14207 14208 14209 14210 14211 14212 14213 14214 14215 14216 14217 14218 14219 14220 14221 14222 14223 14224 14225 14226 14227 14228 14229 14230 14231 14232 14233 14234 14235 14236 14237 14238 14239 14240 14241 14242 14243 14244 14245 14246 14247 14248 14249 14250 14251 14252 14253 14254 14255 14256 14257 14258 14259 14260 14261 14262 14263 14264 14265 14266 14267 14268 14269 14270 14271 14272 14273 14274 14275 14276 14277 14278 14279 14280 14281 14282 14283 14284 14285 14286 14287 14288 14289 14290 14291 14292 14293 14294 14295 14296 14297 14298 14299 14300 14301 14302 14303 14304 14305 14306 14307 14308 14309 14310 14311 14312 14313 14314 14315 14316 14317 14318 14319 14320 14321 14322 14323 14324 14325 14326 14327 14328 14329 14330 14331 14332 14333 14334 14335 14336 14337 14338 14339 14340 14341 14342 14343 14344 14345 14346 14347 14348 14349 14350 14351 14352 14353 14354 14355 14356 14357 14358 14359 14360 14361 14362 14363 14364 14365 14366 14367 14368 14369 14370 14371 14372 14373 14374 14375 14376 14377 14378 14379 14380 14381 14382 14383 14384 14385 14386 14387 14388 14389 14390 14391 14392 14393 14394 14395 14396 14397 14398 14399 14400 14401 14402 14403 14404 14405 14406 14407 14408 14409 14410 14411 14412 14413 14414 14415 14416 14417 14418 14419 14420 14421 14422 14423 14424 14425 14426 14427 14428 14429 14430 14431 14432 14433 14434 14435 14436 14437 14438 14439 14440 14441 14442 14443 14444 14445 14446 14447 14448 14449 14450 14451 14452 14453 14454 14455 14456 14457 14458 14459 14460 14461 14462 14463 14464 14465 14466 14467 14468 14469 14470 14471 14472 14473 14474 14475 14476 14477 14478 14479 14480 14481 14482 14483 14484 14485 14486 14487 14488 14489 14490 14491 14492 14493 14494 14495 14496 14497 14498 14499 14500 14501 14502 14503 14504 14505 14506 14507 14508 14509 14510 14511 14512 14513 14514 14515 14516 14517 14518 14519 14520 14521 14522 14523 14524 14525 14526 14527 14528 14529 14530 14531 14532 14533 14534 14535 14536 14537 14538 14539 14540 14541 14542 14543 14544 14545 14546 14547 14548 14549 14550 14551 14552 14553 14554 14555 14556 14557 14558 14559 14560 14561 14562 14563 14564 14565 14566 14567 14568 14569 14570 14571 14572 14573 14574 14575 14576 14577 14578 14579 14580 14581 14582 14583 14584 14585 14586 14587 14588 14589 14590 14591 14592 14593 14594 14595 14596 14597 14598 14599 14600 14601 14602 14603 14604 14605 14606 14607 14608 14609 14610 14611 14612 14613 14614 14615 14616 14617 14618 14619 14620 14621 14622 14623 14624 14625 14626 14627 14628 14629 14630 14631 14632 14633 14634 14635 14636 14637 14638 14639 14640 14641 14642 14643 14644 14645 14646 14647 14648 14649 14650 14651 14652 14653 14654 14655 14656 14657 14658 14659 14660 14661 14662 14663 14664 14665 14666 14667 14668 14669 14670 14671 14672 14673 14674 14675 14676 14677 14678 14679 14680 14681 14682 14683 14684 14685 14686 14687 14688 14689 14690 14691 14692 14693 14694 14695 14696 14697 14698 14699 14700 14701 14702 14703 14704 14705 14706 14707 14708 14709 14710 14711 14712 14713 14714 14715 14716 14717 14718 14719 14720 14721 14722 14723 14724 14725 14726 14727 14728 14729 14730 14731 14732 14733 14734 14735 14736 14737 14738 14739 14740 14741 14742 14743 14744 14745 14746 14747 14748 14749 14750 14751 14752 14753 14754 14755 14756 14757 14758 14759 14760 14761 14762 14763 14764 14765 14766 14767 14768 14769 14770 14771 14772 14773 14774 14775 14776 14777 14778 14779 14780 14781 14782 14783 14784 14785 14786 14787 14788 14789 14790 14791 14792 14793 14794 14795 14796 14797 14798 14799 14800 14801 14802 14803 14804 14805 14806 14807 14808 14809 14810 14811 14812 14813 14814 14815 14816 14817 14818 14819 14820 14821 14822 14823 14824 14825 14826 14827 14828 14829 14830 14831 14832 14833 14834 14835 14836 14837 14838 14839 14840 14841 14842 14843 14844 14845 14846 14847 14848 14849 14850 14851 14852 14853 14854 14855 14856 14857 14858 14859 14860 14861 14862 14863 14864 14865 14866 14867 14868 14869 14870 14871 14872 14873 14874 14875 14876 14877 14878 14879 14880 14881 14882 14883 14884 14885 14886 14887 14888 14889 14890 14891 14892 14893 14894 14895 14896 14897 14898 14899 14900 14901 14902 14903 14904 14905 14906 14907 14908 14909 14910 14911 14912 14913 14914 14915 14916 14917 14918 14919 14920 14921 14922 14923 14924 14925 14926 14927 14928 14929 14930 14931 14932 14933 14934 14935 14936 14937 14938 14939 14940 14941 14942 14943 14944 14945 14946 14947 14948 14949 14950 14951 14952 14953 14954 14955 14956 14957 14958 14959 14960 14961 14962 14963 14964 14965 14966 14967 14968 14969 14970 14971 14972 14973 14974 14975 14976 14977 14978 14979 14980 14981 14982 14983 14984 14985 14986 14987 14988 14989 14990 14991 14992 14993 14994 14995 14996 14997 14998 14999 15000 15001 15002 15003 15004 15005 15006 15007 15008 15009 15010 15011 15012 15013 15014 15015 15016 15017 15018 15019 15020 15021 15022 15023 15024 15025 15026 15027 15028 15029 15030 15031 15032 15033 15034 15035 15036 15037 15038 15039 15040 15041 15042 15043 15044 15045 15046 15047 15048 15049 15050 15051 15052 15053 15054 15055 15056 15057 15058 15059 15060 15061 15062 15063 15064 15065 15066 15067 15068 15069 15070 15071 15072 15073 15074 15075 15076 15077 15078 15079 15080 15081 15082 15083 15084 15085 15086 15087 15088 15089 15090 15091 15092 15093 15094 15095 15096 15097 15098 15099 15100 15101 15102 15103 15104 15105 15106 15107 15108 15109 15110 15111 15112 15113 15114 15115 15116 15117 15118 15119 15120 15121 15122 15123 15124 15125 15126 15127 15128 15129 15130 15131 15132 15133 15134 15135 15136 15137 15138 15139 15140 15141 15142 15143 15144 15145 15146 15147 15148 15149 15150 15151 15152 15153 15154 15155 15156 15157 15158 15159 15160 15161 15162 15163 15164 15165 15166 15167 15168 15169 15170 15171 15172 15173 15174 15175 15176 15177 15178 15179 15180 15181 15182 15183 15184 15185 15186 15187 15188 15189 15190 15191 15192 15193 15194 15195 15196 15197 15198 15199 15200 15201 15202 15203 15204 15205 15206 15207 15208 15209 15210 15211 15212 15213 15214 15215 15216 15217 15218 15219 15220 15221 15222 15223 15224 15225 15226 15227 15228 15229 15230 15231 15232 15233 15234 15235 15236 15237 15238 15239 15240 15241 15242 15243 15244 15245 15246 15247 15248 15249 15250 15251 15252 15253 15254 15255 15256 15257 15258 15259 15260 15261 15262 15263 15264 15265 15266 15267 15268 15269 15270 15271 15272 15273 15274 15275 15276 15277 15278 15279 15280 15281 15282 15283 15284 15285 15286 15287 15288 15289 15290 15291 15292 15293 15294 15295 15296 15297 15298 15299 15300 15301 15302 15303 15304 15305 15306 15307 15308 15309 15310 15311 15312 15313 15314 15315 15316 15317 15318 15319 15320 15321 15322 15323 15324 15325 15326 15327 15328 15329 15330 15331 15332 15333 15334 15335 15336 15337 15338 15339 15340 15341 15342 15343 15344 15345 15346 15347 15348 15349 15350 15351 15352 15353 15354 15355 15356 15357 15358 15359 15360 15361 15362 15363 15364 15365 15366 15367 15368 15369 15370 15371 15372 15373 15374 15375 15376 15377 15378 15379 15380 15381 15382 15383 15384 15385 15386 15387 15388 15389 15390 15391 15392 15393 15394 15395 15396 15397 15398 15399 15400 15401 15402 15403 15404 15405 15406 15407 15408 15409 15410 15411 15412 15413 15414 15415 15416 15417 15418 15419 15420 15421 15422 15423 15424 15425 15426 15427 15428 15429 15430 15431 15432 15433 15434 15435 15436 15437 15438 15439 15440 15441 15442 15443 15444 15445 15446 15447 15448 15449 15450 15451 15452 15453 15454 15455 15456 15457 15458 15459 15460 15461 15462 15463 15464 15465 15466 15467 15468 15469 15470 15471 15472 15473 15474 15475 15476 15477 15478 15479 15480 15481 15482 15483 15484 15485 15486 15487 15488 15489 15490 15491 15492 15493 15494 15495 15496 15497 15498 15499 15500 15501 15502 15503 15504 15505 15506 15507 15508 15509 15510 15511 15512 15513 15514 15515 15516 15517 15518 15519 15520 15521 15522 15523 15524 15525 15526 15527 15528 15529 15530 15531 15532 15533 15534 15535 15536 15537 15538 15539 15540 15541 15542 15543 15544 15545 15546 15547 15548 15549 15550 15551 15552 15553 15554 15555 15556 15557 15558 15559 15560 15561 15562 15563 15564 15565 15566 15567 15568 15569 15570 15571 15572 15573 15574 15575 15576 15577 15578 15579 15580 15581 15582 15583 15584 15585 15586 15587 15588 15589 15590 15591 15592 15593 15594 15595 15596 15597 15598 15599 15600 15601 15602 15603 15604 15605 15606 15607 15608 15609 15610 15611 15612 15613 15614 15615 15616 15617 15618 15619 15620 15621 15622 15623 15624 15625 15626 15627 15628 15629 15630 15631 15632 15633 15634 15635 15636 15637 15638 15639 15640 15641 15642 15643 15644 15645 15646 15647 15648 15649 15650 15651 15652 15653 15654 15655 15656 15657 15658 15659 15660 15661 15662 15663 15664 15665 15666 15667 15668 15669 15670 15671 15672 15673 15674 15675 15676 15677 15678 15679 15680 15681 15682 15683 15684 15685 15686 15687 15688 15689 15690 15691 15692 15693 15694 15695 15696 15697 15698 15699 15700 15701 15702 15703 15704 15705 15706 15707 15708 15709 15710 15711 15712 15713 15714 15715 15716 15717 15718 15719 15720 15721 15722 15723 15724 15725 15726 15727 15728 15729 15730 15731 15732 15733 15734 15735 15736 15737 15738 15739 15740 15741 15742 15743 15744 15745 15746 15747 15748 15749 15750 15751 15752 15753 15754 15755 15756 15757 15758 15759 15760 15761 15762 15763 15764 15765 15766 15767 15768 15769 15770 15771 15772 15773 15774 15775 15776 15777 15778 15779 15780 15781 15782 15783 15784 15785 15786 15787 15788 15789 15790 15791 15792 15793 15794 15795 15796 15797 15798 15799 15800 15801 15802 15803 15804 15805 15806 15807 15808 15809 15810 15811 15812 15813 15814 15815 15816 15817 15818 15819 15820 15821 15822 15823 15824 15825 15826 15827 15828 15829 15830 15831 15832 15833 15834 15835 15836 15837 15838 15839 15840 15841 15842 15843 15844 15845 15846 15847 15848 15849 15850 15851 15852 15853 15854 15855 15856 15857 15858 15859 15860 15861 15862 15863 15864 15865 15866 15867 15868 15869 15870 15871 15872 15873 15874 15875 15876 15877 15878 15879 15880 15881 15882 15883 15884 15885 15886 15887 15888 15889 15890 15891 15892 15893 15894 15895 15896 15897 15898 15899 15900 15901 15902 15903 15904 15905 15906 15907 15908 15909 15910 15911 15912 15913 15914 15915 15916 15917 15918 15919 15920 15921 15922 15923 15924 15925 15926 15927 15928 15929 15930 15931 15932 15933 15934 15935 15936 15937 15938 15939 15940 15941 15942 15943 15944 15945 15946 15947 15948 15949 15950 15951 15952 15953 15954 15955 15956 15957 15958 15959 15960 15961 15962 15963 15964 15965 15966 15967 15968 15969 15970 15971 15972 15973 15974 15975 15976 15977 15978 15979 15980 15981 15982 15983 15984 15985 15986 15987 15988 15989 15990 15991 15992 15993 15994 15995 15996 15997 15998 15999 16000 16001 16002 16003 16004 16005 16006 16007 16008 16009 16010 16011 16012 16013 16014 16015 16016 16017 16018 16019 16020 16021 16022 16023 16024 16025 16026 16027 16028 16029 16030 16031 16032 16033 16034 16035 16036 16037 16038 16039 16040 16041 16042 16043 16044 16045 16046 16047 16048 16049 16050 16051 16052 16053 16054 16055 16056 16057 16058 16059 16060 16061 16062 16063 16064 16065 16066 16067 16068 16069 16070 16071 16072 16073 16074 16075 16076 16077 16078 16079 16080 16081 16082 16083 16084 16085 16086 16087 16088 16089 16090 16091 16092 16093 16094 16095 16096 16097 16098 16099 16100 16101 16102 16103 16104 16105 16106 16107 16108 16109 16110 16111 16112 16113 16114 16115 16116 16117 16118 16119 16120 16121 16122 16123 16124 16125 16126 16127 16128 16129 16130 16131 16132 16133 16134 16135 16136 16137 16138 16139 16140 16141 16142 16143 16144 16145 16146 16147 16148 16149 16150 16151 16152 16153 16154 16155 16156 16157 16158 16159 16160 16161 16162 16163 16164 16165 16166 16167 16168 16169 16170 16171 16172 16173 16174 16175 16176 16177 16178 16179 16180 16181 16182 16183 16184 16185 16186 16187 16188 16189 16190 16191 16192 16193 16194 16195 16196 16197 16198 16199 16200 16201 16202 16203 16204 16205 16206 16207 16208 16209 16210 16211 16212 16213 16214 16215 16216 16217 16218 16219 16220 16221 16222 16223 16224 16225 16226 16227 16228 16229 16230 16231 16232 16233 16234 16235 16236 16237 16238 16239 16240 16241 16242 16243 16244 16245 16246 16247 16248 16249 16250 16251 16252 16253 16254 16255 16256 16257 16258 16259 16260 16261 16262 16263 16264 16265 16266 16267 16268 16269 16270 16271 16272 16273 16274 16275 16276 16277 16278 16279 16280 16281 16282 16283 16284 16285 16286 16287 16288 16289 16290 16291 16292 16293 16294 16295 16296 16297 16298 16299 16300 16301 16302 16303 16304 16305 16306 16307 16308 16309 16310 16311 16312 16313 16314 16315 16316 16317 16318 16319 16320 16321 16322 16323 16324 16325 16326 16327 16328 16329 16330 16331 16332 16333 16334 16335 16336 16337 16338 16339 16340 16341 16342 16343 16344 16345 16346 16347 16348 16349 16350 16351 16352 16353 16354 16355 16356 16357 16358 16359 16360 16361 16362 16363 16364 16365 16366 16367 16368 16369 16370 16371 16372 16373 16374 16375 16376 16377 16378 16379 16380 16381 16382 16383 16384 16385 16386 16387 16388 16389 16390 16391 16392 16393 16394 16395 16396 16397 16398 16399 16400 16401 16402 16403 16404 16405 16406 16407 16408 16409 16410 16411 16412 16413 16414 16415 16416 16417 16418 16419 16420 16421 16422 16423 16424 16425 16426 16427 16428 16429 16430 16431 16432 16433 16434 16435 16436 16437 16438 16439 16440 16441 16442 16443 16444 16445 16446 16447 16448 16449 16450 16451 16452 16453 16454 16455 16456 16457 16458 16459 16460 16461 16462 16463 16464 16465 16466 16467 16468 16469 16470 16471 16472 16473 16474 16475 16476 16477 16478 16479 16480 16481 16482 16483 16484 16485 16486 16487 16488 16489 16490 16491 16492 16493 16494 16495 16496 16497 16498 16499 16500 16501 16502 16503 16504 16505 16506 16507 16508 16509 16510 16511 16512 16513 16514 16515 16516 16517 16518 16519 16520 16521 16522 16523 16524 16525 16526 16527 16528 16529 16530 16531 16532 16533 16534 16535 16536 16537 16538 16539 16540 16541 16542 16543 16544 16545 16546 16547 16548 16549 16550 16551 16552 16553 16554 16555 16556 16557 16558 16559 16560 16561 16562 16563 16564 16565 16566 16567 16568 16569 16570 16571 16572 16573 16574 16575 16576 16577 16578 16579 16580 16581 16582 16583 16584 16585 16586 16587 16588 16589 16590 16591 16592 16593 16594 16595 16596 16597 16598 16599 16600 16601 16602 16603 16604 16605 16606 16607 16608 16609 16610 16611 16612 16613 16614 16615 16616 16617 16618 16619 16620 16621 16622 16623 16624 16625 16626 16627 16628 16629 16630 16631 16632 16633 16634 16635 16636 16637 16638 16639 16640 16641 16642 16643 16644 16645 16646 16647 16648 16649 16650 16651 16652 16653 16654 16655 16656 16657 16658 16659 16660 16661 16662 16663 16664 16665 16666 16667 16668 16669 16670 16671 16672 16673 16674 16675 16676 16677 16678 16679 16680 16681 16682 16683 16684 16685 16686 16687 16688 16689 16690 16691 16692 16693 16694 16695 16696 16697 16698 16699 16700 16701 16702 16703 16704 16705 16706 16707 16708 16709 16710 16711 16712 16713 16714 16715 16716 16717 16718 16719 16720 16721 16722 16723 16724 16725 16726 16727 16728 16729 16730 16731 16732 16733 16734 16735 16736 16737 16738 16739 16740 16741 16742 16743 16744 16745 16746 16747 16748 16749 16750 16751 16752 16753 16754 16755 16756 16757 16758 16759 16760 16761 16762 16763 16764 16765 16766 16767 16768 16769 16770 16771 16772 16773 16774 16775 16776 16777 16778 16779 16780 16781 16782 16783 16784 16785 16786 16787 16788 16789 16790 16791 16792 16793 16794 16795 16796 16797 16798 16799 16800 16801 16802 16803 16804 16805 16806 16807 16808 16809 16810 16811 16812 16813 16814 16815 16816 16817 16818 16819 16820 16821 16822 16823 16824 16825 16826 16827 16828 16829 16830 16831 16832 16833 16834 16835 16836 16837 16838 16839 16840 16841 16842 16843 16844 16845 16846 16847 16848 16849 16850 16851 16852 16853 16854 16855 16856 16857 16858 16859 16860 16861 16862 16863 16864 16865 16866 16867 16868 16869 16870 16871 16872 16873 16874 16875 16876 16877 16878 16879 16880 16881 16882 16883 16884 16885 16886 16887 16888 16889 16890 16891 16892 16893 16894 16895 16896 16897 16898 16899 16900 16901 16902 16903 16904 16905 16906 16907 16908 16909 16910 16911 16912 16913 16914 16915 16916 16917 16918 16919 16920 16921 16922 16923 16924 16925 16926 16927 16928 16929 16930 16931 16932 16933 16934 16935 16936 16937 16938 16939 16940 16941 16942 16943 16944 16945 16946 16947 16948 16949 16950 16951 16952 16953 16954 16955 16956 16957 16958 16959 16960 16961 16962 16963 16964 16965 16966 16967 16968 16969 16970 16971 16972 16973 16974 16975 16976 16977 16978 16979 16980 16981 16982 16983 16984 16985 16986 16987 16988 16989 16990 16991 16992 16993 16994 16995 16996 16997 16998 16999 17000 17001 17002 17003 17004 17005 17006 17007 17008 17009 17010 17011 17012 17013 17014 17015 17016 17017 17018 17019 17020 17021 17022 17023 17024 17025 17026 17027 17028 17029 17030 17031 17032 17033 17034 17035 17036 17037 17038 17039 17040 17041 17042 17043 17044 17045 17046 17047 17048 17049 17050 17051 17052 17053 17054 17055 17056 17057 17058 17059 17060 17061 17062 17063 17064 17065 17066 17067 17068 17069 17070 17071 17072 17073 17074 17075 17076 17077 17078 17079 17080 17081 17082 17083 17084 17085 17086 17087 17088 17089 17090 17091 17092 17093 17094 17095 17096 17097 17098 17099 17100 17101 17102 17103 17104 17105 17106 17107 17108 17109 17110 17111 17112 17113 17114 17115 17116 17117 17118 17119 17120 17121 17122 17123 17124 17125 17126 17127 17128 17129 17130 17131 17132 17133 17134 17135 17136 17137 17138 17139 17140 17141 17142 17143 17144 17145 17146 17147 17148 17149 17150 17151 17152 17153 17154 17155 17156 17157 17158 17159 17160 17161 17162 17163 17164 17165 17166 17167 17168 17169 17170 17171 17172 17173 17174 17175 17176 17177 17178 17179 17180 17181 17182 17183 17184 17185 17186 17187 17188 17189 17190 17191 17192 17193 17194 17195 17196 17197 17198 17199 17200 17201 17202 17203 17204 17205 17206 17207 17208 17209 17210 17211 17212 17213 17214 17215 17216 17217 17218 17219 17220 17221 17222 17223 17224 17225 17226 17227 17228 17229 17230 17231 17232 17233 17234 17235 17236 17237 17238 17239 17240 17241 17242 17243 17244 17245 17246 17247 17248 17249 17250 17251 17252 17253 17254 17255 17256 17257 17258 17259 17260 17261 17262 17263 17264 17265 17266 17267 17268 17269 17270 17271 17272 17273 17274 17275 17276 17277 17278 17279 17280 17281 17282 17283 17284 17285 17286 17287 17288 17289 17290 17291 17292 17293 17294 17295 17296 17297 17298 17299 17300 17301 17302 17303 17304 17305 17306 17307 17308 17309 17310 17311 17312 17313 17314 17315 17316 17317 17318 17319 17320 17321 17322 17323 17324 17325 17326 17327 17328 17329 17330 17331 17332 17333 17334 17335 17336 17337 17338 17339 17340 17341 17342 17343 17344 17345 17346 17347 17348 17349 17350 17351 17352 17353 17354 17355 17356 17357 17358 17359 17360 17361 17362 17363 17364 17365 17366 17367 17368 17369 17370 17371 17372 17373 17374 17375 17376 17377 17378 17379 17380 17381 17382 17383 17384 17385 17386 17387 17388 17389 17390 17391 17392 17393 17394 17395 17396 17397 17398 17399 17400 17401 17402 17403 17404 17405 17406 17407 17408 17409 17410 17411 17412 17413 17414 17415 17416 17417 17418 17419 17420 17421 17422 17423 17424 17425 17426 17427 17428 17429 17430 17431 17432 17433 17434 17435 17436 17437 17438 17439 17440 17441 17442 17443 17444 17445 17446 17447 17448 17449 17450 17451 17452 17453 17454 17455 17456 17457 17458 17459 17460 17461 17462 17463 17464 17465 17466 17467 17468 17469 17470 17471 17472 17473 17474 17475 17476 17477 17478 17479 17480 17481 17482 17483 17484 17485 17486 17487 17488 17489 17490 17491 17492 17493 17494 17495 17496 17497 17498 17499 17500 17501 17502 17503 17504 17505 17506 17507 17508 17509 17510 17511 17512 17513 17514 17515 17516 17517 17518 17519 17520 17521 17522 17523 17524 17525 17526 17527 17528 17529 17530 17531 17532 17533 17534 17535 17536 17537 17538 17539 17540 17541 17542 17543 17544 17545 17546 17547 17548 17549 17550 17551 17552 17553 17554 17555 17556 17557 17558 17559 17560 17561 17562 17563 17564 17565 17566 17567 17568 17569 17570 17571 17572 17573 17574 17575 17576 17577 17578 17579 17580 17581 17582 17583 17584 17585 17586 17587 17588 17589 17590 17591 17592 17593 17594 17595 17596 17597 17598 17599 17600 17601 17602 17603 17604 17605 17606 17607 17608 17609 17610 17611 17612 17613 17614 17615 17616 17617 17618 17619 17620 17621 17622 17623 17624 17625 17626 17627 17628 17629 17630 17631 17632 17633 17634 17635 17636 17637 17638 17639 17640 17641 17642 17643 17644 17645 17646 17647 17648 17649 17650 17651 17652 17653 17654 17655 17656 17657 17658 17659 17660 17661 17662 17663 17664 17665 17666 17667 17668 17669 17670 17671 17672 17673 17674 17675 17676 17677 17678 17679 17680 17681 17682 17683 17684 17685 17686 17687 17688 17689 17690 17691 17692 17693 17694 17695 17696 17697 17698 17699 17700 17701 17702 17703 17704 17705 17706 17707 17708 17709 17710 17711 17712 17713 17714 17715 17716 17717 17718 17719 17720 17721 17722 17723 17724 17725 17726 17727 17728 17729 17730 17731 17732 17733 17734 17735 17736 17737 17738 17739 17740 17741 17742 17743 17744 17745 17746 17747 17748 17749 17750 17751 17752 17753 17754 17755 17756 17757 17758 17759 17760 17761 17762 17763 17764 17765 17766 17767 17768 17769 17770 17771 17772 17773 17774 17775 17776 17777 17778 17779 17780 17781 17782 17783 17784 17785 17786 17787 17788 17789 17790 17791 17792 17793 17794 17795 17796 17797 17798 17799 17800 17801 17802 17803 17804 17805 17806 17807 17808 17809 17810 17811 17812 17813 17814 17815 17816 17817 17818 17819 17820 17821 17822 17823 17824 17825 17826 17827 17828 17829 17830 17831 17832 17833 17834 17835 17836 17837 17838 17839 17840 17841 17842 17843 17844 17845 17846 17847 17848 17849 17850 17851 17852 17853 17854 17855 17856 17857 17858 17859 17860 17861 17862 17863 17864 17865 17866 17867 17868 17869 17870 17871 17872 17873 17874 17875 17876 17877 17878 17879 17880 17881 17882 17883 17884 17885 17886 17887 17888 17889 17890 17891 17892 17893 17894 17895 17896 17897 17898 17899 17900 17901 17902 17903 17904 17905 17906 17907 17908 17909 17910 17911 17912 17913 17914 17915 17916 17917 17918 17919 17920 17921 17922 17923 17924 17925 17926 17927 17928 17929 17930 17931 17932 17933 17934 17935 17936 17937 17938 17939 17940 17941 17942 17943 17944 17945 17946 17947 17948 17949 17950 17951 17952 17953 17954 17955 17956 17957 17958 17959 17960 17961 17962 17963 17964 17965 17966 17967 17968 17969 17970 17971 17972 17973 17974 17975 17976 17977 17978 17979 17980 17981 17982 17983 17984 17985 17986 17987 17988 17989 17990 17991 17992 17993 17994 17995 17996 17997 17998 17999 18000 18001 18002 18003 18004 18005 18006 18007 18008 18009 18010 18011 18012 18013 18014 18015 18016 18017 18018 18019 18020 18021 18022 18023 18024 18025 18026 18027 18028 18029 18030 18031 18032 18033 18034 18035 18036 18037 18038 18039 18040 18041 18042 18043 18044 18045 18046 18047 18048 18049 18050 18051 18052 18053 18054 18055 18056 18057 18058 18059 18060 18061 18062 18063 18064 18065 18066 18067 18068 18069 18070 18071 18072 18073 18074 18075 18076 18077 18078 18079 18080 18081 18082 18083 18084 18085 18086 18087 18088 18089 18090 18091 18092 18093 18094 18095 18096 18097 18098 18099 18100 18101 18102 18103 18104 18105 18106 18107 18108 18109 18110 18111 18112 18113 18114 18115 18116 18117 18118 18119 18120 18121 18122 18123 18124 18125 18126 18127 18128 18129 18130 18131 18132 18133 18134 18135 18136 18137 18138 18139 18140 18141 18142 18143 18144 18145 18146 18147 18148 18149 18150 18151 18152 18153 18154 18155 18156 18157 18158 18159 18160 18161 18162 18163 18164 18165 18166 18167 18168 18169 18170 18171 18172 18173 18174 18175 18176 18177 18178 18179 18180 18181 18182 18183 18184 18185 18186 18187 18188 18189 18190 18191 18192 18193 18194 18195 18196 18197 18198 18199 18200 18201 18202 18203 18204 18205 18206 18207 18208 18209 18210 18211 18212 18213 18214 18215 18216 18217 18218 18219 18220 18221 18222 18223 18224 18225 18226 18227 18228 18229 18230 18231 18232 18233 18234 18235 18236 18237 18238 18239 18240 18241 18242 18243 18244 18245 18246 18247 18248 18249 18250 18251 18252 18253 18254 18255 18256 18257 18258 18259 18260 18261 18262 18263 18264 18265 18266 18267 18268 18269 18270 18271 18272 18273 18274 18275 18276 18277 18278 18279 18280 18281 18282 18283 18284 18285 18286 18287 18288 18289 18290 18291 18292 18293 18294 18295 18296 18297 18298 18299 18300 18301 18302 18303 18304 18305 18306 18307 18308 18309 18310 18311 18312 18313 18314 18315 18316 18317 18318 18319 18320 18321 18322 18323 18324 18325 18326 18327 18328 18329 18330 18331 18332 18333 18334 18335 18336 18337 18338 18339 18340 18341 18342 18343 18344 18345 18346 18347 18348 18349 18350 18351 18352 18353 18354 18355 18356 18357 18358 18359 18360 18361 18362 18363 18364 18365 18366 18367 18368 18369 18370 18371 18372 18373 18374 18375 18376 18377 18378 18379 18380 18381 18382 18383 18384 18385 18386 18387 18388 18389 18390 18391 18392 18393 18394 18395 18396 18397 18398 18399 18400 18401 18402 18403 18404 18405 18406 18407 18408 18409 18410 18411 18412 18413 18414 18415 18416 18417 18418 18419 18420 18421 18422 18423 18424 18425 18426 18427 18428 18429 18430 18431 18432 18433 18434 18435 18436 18437 18438 18439 18440 18441 18442 18443 18444 18445 18446 18447 18448 18449 18450 18451 18452 18453 18454 18455 18456 18457 18458 18459 18460 18461 18462 18463 18464 18465 18466 18467 18468 18469 18470 18471 18472 18473 18474 18475 18476 18477 18478 18479 18480 18481 18482 18483 18484 18485 18486 18487 18488 18489 18490 18491 18492 18493 18494 18495 18496 18497 18498 18499 18500 18501 18502 18503 18504 18505 18506 18507 18508 18509 18510 18511 18512 18513 18514 18515 18516 18517 18518 18519 18520 18521 18522 18523 18524 18525 18526 18527 18528 18529 18530 18531 18532 18533 18534 18535 18536 18537 18538 18539 18540 18541 18542 18543 18544 18545 18546 18547 18548 18549 18550 18551 18552 18553 18554 18555 18556 18557 18558 18559 18560 18561 18562 18563 18564 18565 18566 18567 18568 18569 18570 18571 18572 18573 18574 18575 18576 18577 18578 18579 18580 18581 18582 18583 18584 18585 18586 18587 18588 18589 18590 18591 18592 18593 18594 18595 18596 18597 18598 18599 18600 18601 18602 18603 18604 18605 18606 18607 18608 18609 18610 18611 18612 18613 18614 18615 18616 18617 18618 18619 18620 18621 18622 18623 18624 18625 18626 18627 18628 18629 18630 18631 18632 18633 18634 18635 18636 18637 18638 18639 18640 18641 18642 18643 18644 18645 18646 18647 18648 18649 18650 18651 18652 18653 18654 18655 18656 18657 18658 18659 18660 18661 18662 18663 18664 18665 18666 18667 18668 18669 18670 18671 18672 18673 18674 18675 18676 18677 18678 18679 18680 18681 18682 18683 18684 18685 18686 18687 18688 18689 18690 18691 18692 18693 18694 18695 18696 18697 18698 18699 18700 18701 18702 18703 18704 18705 18706 18707 18708 18709 18710 18711 18712 18713 18714 18715 18716 18717 18718 18719 18720 18721 18722 18723 18724 18725 18726 18727 18728 18729 18730 18731 18732 18733 18734 18735 18736 18737 18738 18739 18740 18741 18742 18743 18744 18745 18746 18747 18748 18749 18750 18751 18752 18753 18754 18755 18756 18757 18758 18759 18760 18761 18762 18763 18764 18765 18766 18767 18768 18769 18770 18771 18772 18773 18774 18775 18776 18777 18778 18779 18780 18781 18782 18783 18784 18785 18786 18787 18788 18789 18790 18791 18792 18793 18794 18795 18796 18797 18798 18799 18800 18801 18802 18803 18804 18805 18806 18807 18808 18809 18810 18811 18812 18813 18814 18815 18816 18817 18818 18819 18820 18821 18822 18823 18824 18825 18826 18827 18828 18829 18830 18831 18832 18833 18834 18835 18836 18837 18838 18839 18840 18841 18842 18843 18844 18845 18846 18847 18848 18849 18850 18851 18852 18853 18854 18855 18856 18857 18858 18859 18860 18861 18862 18863 18864 18865 18866 18867 18868 18869 18870 18871 18872 18873 18874 18875 18876 18877 18878 18879 18880 18881 18882 18883 18884 18885 18886 18887 18888 18889 18890 18891 18892 18893 18894 18895 18896 18897 18898 18899 18900 18901 18902 18903 18904 18905 18906 18907 18908 18909 18910 18911 18912 18913 18914 18915 18916 18917 18918 18919 18920 18921 18922 18923 18924 18925 18926 18927 18928 18929 18930 18931 18932 18933 18934 18935 18936 18937 18938 18939 18940 18941 18942 18943 18944 18945 18946 18947 18948 18949 18950 18951 18952 18953 18954 18955 18956 18957 18958 18959 18960 18961 18962 18963 18964 18965 18966 18967 18968 18969 18970 18971 18972 18973 18974 18975 18976 18977 18978 18979 18980 18981 18982 18983 18984 18985 18986 18987 18988 18989 18990 18991 18992 18993 18994 18995 18996 18997 18998 18999 19000 19001 19002 19003 19004 19005 19006 19007 19008 19009 19010 19011 19012 19013 19014 19015 19016 19017 19018 19019 19020 19021 19022 19023 19024 19025 19026 19027 19028 19029 19030 19031 19032 19033 19034 19035 19036 19037 19038 19039 19040 19041 19042 19043 19044 19045 19046 19047 19048 19049 19050 19051 19052 19053 19054 19055 19056 19057 19058 19059 19060 19061 19062 19063 19064 19065 19066 19067 19068 19069 19070 19071 19072 19073 19074 19075 19076 19077 19078 19079 19080 19081 19082 19083 19084 19085 19086 19087 19088 19089 19090 19091 19092 19093 19094 19095 19096 19097 19098 19099 19100 19101 19102 19103 19104 19105 19106 19107 19108 19109 19110 19111 19112 19113 19114 19115 19116 19117 19118 19119 19120 19121 19122 19123 19124 19125 19126 19127 19128 19129 19130 19131 19132 19133 19134 19135 19136 19137 19138 19139 19140 19141 19142 19143 19144 19145 19146 19147 19148 19149 19150 19151 19152 19153 19154 19155 19156 19157 19158 19159 19160 19161 19162 19163 19164 19165 19166 19167 19168 19169 19170 19171 19172 19173 19174 19175 19176 19177 19178 19179 19180 19181 19182 19183 19184 19185 19186 19187 19188 19189 19190 19191 19192 19193 19194 19195 19196 19197 19198 19199 19200 19201 19202 19203 19204 19205 19206 19207 19208 19209 19210 19211 19212 19213 19214 19215 19216 19217 19218 19219 19220 19221 19222 19223 19224 19225 19226 19227 19228 19229 19230 19231 19232 19233 19234 19235 19236 19237 19238 19239 19240 19241 19242 19243 19244 19245 19246 19247 19248 19249 19250 19251 19252 19253 19254 19255 19256 19257 19258 19259 19260 19261 19262 19263 19264 19265 19266 19267 19268 19269 19270 19271 19272 19273 19274 19275 19276 19277 19278 19279 19280 19281 19282 19283 19284 19285 19286 19287 19288 19289 19290 19291 19292 19293 19294 19295 19296 19297 19298 19299 19300 19301 19302 19303 19304 19305 19306 19307 19308 19309 19310 19311 19312 19313 19314 19315 19316 19317 19318 19319 19320 19321 19322 19323 19324 19325 19326 19327 19328 19329 19330 19331 19332 19333 19334 19335 19336 19337 19338 19339 19340 19341 19342 19343 19344 19345 19346 19347 19348 19349 19350 19351 19352 19353 19354 19355 19356 19357 19358 19359 19360 19361 19362 19363 19364 19365 19366 19367 19368 19369 19370 19371 19372 19373 19374 19375 19376 19377 19378 19379 19380 19381 19382 19383 19384 19385 19386 19387 19388 19389 19390 19391 19392 19393 19394 19395 19396 19397 19398 19399 19400 19401 19402 19403 19404 19405 19406 19407 19408 19409 19410 19411 19412 19413 19414 19415 19416 19417 19418 19419 19420 19421 19422 19423 19424 19425 19426 19427 19428 19429 19430 19431 19432 19433 19434 19435 19436 19437 19438 19439 19440 19441 19442 19443 19444 19445 19446 19447 19448 19449 19450 19451 19452 19453 19454 19455 19456 19457 19458 19459 19460 19461 19462 19463 19464 19465 19466 19467 19468 19469 19470 19471 19472 19473 19474 19475 19476 19477 19478 19479 19480 19481 19482 19483 19484 19485 19486 19487 19488 19489 19490 19491 19492 19493 19494 19495 19496 19497 19498 19499 19500 19501 19502 19503 19504 19505 19506 19507 19508 19509 19510 19511 19512 19513 19514 19515 19516 19517 19518 19519 19520 19521 19522 19523 19524 19525 19526 19527 19528 19529 19530 19531 19532 19533 19534 19535 19536 19537 19538 19539 19540 19541 19542 19543 19544 19545 19546 19547 19548 19549 19550 19551 19552 19553 19554 19555 19556 19557 19558 19559 19560 19561 19562 19563 19564 19565 19566 19567 19568 19569 19570 19571 19572 19573 19574 19575 19576 19577 19578 19579 19580 19581 19582 19583 19584 19585 19586 19587 19588 19589 19590 19591 19592 19593 19594 19595 19596 19597 19598 19599 19600 19601 19602 19603 19604 19605 19606 19607 19608 19609 19610 19611 19612 19613 19614 19615 19616 19617 19618 19619 19620 19621 19622 19623 19624 19625 19626 19627 19628 19629 19630 19631 19632 19633 19634 19635 19636 19637 19638 19639 19640 19641 19642 19643 19644 19645 19646 19647 19648 19649 19650 19651 19652 19653 19654 19655 19656 19657 19658 19659 19660 19661 19662 19663 19664 19665 19666 19667 19668 19669 19670 19671 19672 19673 19674 19675 19676 19677 19678 19679 19680 19681 19682 19683 19684 19685 19686 19687 19688 19689 19690 19691 19692 19693 19694 19695 19696 19697 19698 19699 19700 19701 19702 19703 19704 19705 19706 19707 19708 19709 19710 19711 19712 19713 19714 19715 19716 19717 19718 19719 19720 19721 19722 19723 19724 19725 19726 19727 19728 19729 19730 19731 19732 19733 19734 19735 19736 19737 19738 19739 19740 19741 19742 19743 19744 19745 19746 19747 19748 19749 19750 19751 19752 19753 19754 19755 19756 19757 19758 19759 19760 19761 19762 19763 19764 19765 19766 19767 19768 19769 19770 19771 19772 19773 19774 19775 19776 19777 19778 19779 19780 19781 19782 19783 19784 19785 19786 19787 19788 19789 19790 19791 19792 19793 19794 19795 19796 19797 19798 19799 19800 19801 19802 19803 19804 19805 19806 19807 19808 19809 19810 19811 19812 19813 19814 19815 19816 19817 19818 19819 19820 19821 19822 19823 19824 19825 19826 19827 19828 19829 19830 19831 19832 19833 19834 19835 19836 19837 19838 19839 19840 19841 19842 19843 19844 19845 19846 19847 19848 19849 19850 19851 19852 19853 19854 19855 19856 19857 19858 19859 19860 19861 19862 19863 19864 19865 19866 19867 19868 19869 19870 19871 19872 19873 19874 19875 19876 19877 19878 19879 19880 19881 19882 19883 19884 19885 19886 19887 19888 19889 19890 19891 19892 19893 19894 19895 19896 19897 19898 19899 19900 19901 19902 19903 19904 19905 19906 19907 19908 19909 19910 19911 19912 19913 19914 19915 19916 19917 19918 19919 19920 19921 19922 19923 19924 19925 19926 19927 19928 19929 19930 19931 19932 19933 19934 19935 19936 19937 19938 19939 19940 19941 19942 19943 19944 19945 19946 19947 19948 19949 19950 19951 19952 19953 19954 19955 19956 19957 19958 19959 19960 19961 19962 19963 19964 19965 19966 19967 19968 19969 19970 19971 19972 19973 19974 19975 19976 19977 19978 19979 19980 19981 19982 19983 19984 19985 19986 19987 19988 19989 19990 19991 19992 19993 19994 19995 19996 19997 19998 19999 20000 20001 20002 20003 20004 20005 20006 20007 20008 20009 20010 20011 20012 20013 20014 20015 20016 20017 20018 20019 20020 20021 20022 20023 20024 20025 20026 20027 20028 20029 20030 20031 20032 20033 20034 20035 20036 20037 20038 20039 20040 20041 20042 20043 20044 20045 20046 20047 20048 20049 20050 20051 20052 20053 20054 20055 20056 20057 20058 20059 20060 20061 20062 20063 20064 20065 20066 20067 20068 20069 20070 20071 20072 20073 20074 20075 20076 20077 20078 20079 20080 20081 20082 20083 20084 20085 20086 20087 20088 20089 20090 20091 20092 20093 20094 20095 20096 20097 20098 20099 20100 20101 20102 20103 20104 20105 20106 20107 20108 20109 20110 20111 20112 20113 20114 20115 20116 20117 20118 20119 20120 20121 20122 20123 20124 20125 20126 20127 20128 20129 20130 20131 20132 20133 20134 20135 20136 20137 20138 20139 20140 20141 20142 20143 20144 20145 20146 20147 20148 20149 20150 20151 20152 20153 20154 20155 20156 20157 20158 20159 20160 20161 20162 20163 20164 20165 20166 20167 20168 20169 20170 20171 20172 20173 20174 20175 20176 20177 20178 20179 20180 20181 20182 20183 20184 20185 20186 20187 20188 20189 20190 20191 20192 20193 20194 20195 20196 20197 20198 20199 20200 20201 20202 20203 20204 20205 20206 20207 20208 20209 20210 20211 20212 20213 20214 20215 20216 20217 20218 20219 20220 20221 20222 20223 20224 20225 20226 20227 20228 20229 20230 20231 20232 20233 20234 20235 20236 20237 20238 20239 20240 20241 20242 20243 20244 20245 20246 20247 20248 20249 20250 20251 20252 20253 20254 20255 20256 20257 20258 20259 20260 20261 20262 20263 20264 20265 20266 20267 20268 20269 20270 20271 20272 20273 20274 20275 20276 20277 20278 20279 20280 20281 20282 20283 20284 20285 20286 20287 20288 20289 20290 20291 20292 20293 20294 20295 20296 20297 20298 20299 20300 20301 20302 20303 20304 20305 20306 20307 20308 20309 20310 20311 20312 20313 20314 20315 20316 20317 20318 20319 20320 20321 20322 20323 20324 20325 20326 20327 20328 20329 20330 20331 20332 20333 20334 20335 20336 20337 20338 20339 20340 20341 20342 20343 20344 20345 20346 20347 20348 20349 20350 20351 20352 20353 20354 20355 20356 20357 20358 20359 20360 20361 20362 20363 20364 20365 20366 20367 20368 20369 20370 20371 20372 20373 20374 20375 20376 20377 20378 20379 20380 20381 20382 20383 20384 20385 20386 20387 20388 20389 20390 20391 20392 20393 20394 20395 20396 20397 20398 20399 20400 20401 20402 20403 20404 20405 20406 20407 20408 20409 20410 20411 20412 20413 20414 20415 20416 20417 20418 20419 20420 20421 20422 20423 20424 20425 20426 20427 20428 20429 20430 20431 20432 20433 20434 20435 20436 20437 20438 20439 20440 20441 20442 20443 20444 20445 20446 20447 20448 20449 20450 20451 20452 20453 20454 20455 20456 20457 20458 20459 20460 20461 20462 20463 20464 20465 20466 20467 20468 20469 20470 20471 20472 20473 20474 20475 20476 20477 20478 20479 20480 20481 20482 20483 20484 20485 20486 20487 20488 20489 20490 20491 20492 20493 20494 20495 20496 20497 20498 20499 20500 20501 20502 20503 20504 20505 20506 20507 20508 20509 20510 20511 20512 20513 20514 20515 20516 20517 20518 20519 20520 20521 20522 20523 20524 20525 20526 20527 20528 20529 20530 20531 20532 20533 20534 20535 20536 20537 20538 20539 20540 20541 20542 20543 20544 20545 20546 20547 20548 20549 20550 20551 20552 20553 20554 20555 20556 20557 20558 20559 20560 20561 20562 20563 20564 20565 20566 20567 20568 20569 20570 20571 20572 20573 20574 20575 20576 20577 20578 20579 20580 20581 20582 20583 20584 20585 20586 20587 20588 20589 20590 20591 20592 20593 20594 20595 20596 20597 20598 20599 20600 20601 20602 20603 20604 20605 20606 20607 20608 20609 20610 20611 20612 20613 20614 20615 20616 20617 20618 20619 20620 20621 20622 20623 20624 20625 20626 20627 20628 20629 20630 20631 20632 20633 20634 20635 20636 20637 20638 20639 20640 20641 20642 20643 20644 20645 20646 20647 20648 20649 20650 20651 20652 20653 20654 20655 20656 20657 20658 20659 20660 20661 20662 20663 20664 20665 20666 20667 20668 20669 20670 20671 20672 20673 20674 20675 20676 20677 20678 20679 20680 20681 20682 20683 20684 20685 20686 20687 20688 20689 20690 20691 20692 20693 20694 20695 20696 20697 20698 20699 20700 20701 20702 20703 20704 20705 20706 20707 20708 20709 20710 20711 20712 20713 20714 20715 20716 20717 20718 20719 20720 20721 20722 20723 20724 20725 20726 20727 20728 20729 20730 20731 20732 20733 20734 20735 20736 20737 20738 20739 20740 20741 20742 20743 20744 20745 20746 20747 20748 20749 20750 20751 20752 20753 20754 20755 20756 20757 20758 20759 20760 20761 20762 20763 20764 20765 20766 20767 20768 20769 20770 20771 20772 20773 20774 20775 20776 20777 20778 20779 20780 20781 20782 20783 20784 20785 20786 20787 20788 20789 20790 20791 20792 20793 20794 20795 20796 20797 20798 20799 20800 20801 20802 20803 20804 20805 20806 20807 20808 20809 20810 20811 20812 20813 20814 20815 20816 20817 20818 20819 20820 20821 20822 20823 20824 20825 20826 20827 20828 20829 20830 20831 20832 20833 20834 20835 20836 20837 20838 20839 20840 20841 20842 20843 20844 20845 20846 20847 20848 20849 20850 20851 20852 20853 20854 20855 20856 20857 20858 20859 20860 20861 20862 20863 20864 20865 20866 20867 20868 20869 20870 20871 20872 20873 20874 20875 20876 20877 20878 20879 20880 20881 20882 20883 20884 20885 20886 20887 20888 20889 20890 20891 20892 20893 20894 20895 20896 20897 20898 20899 20900 20901 20902 20903 20904 20905 20906 20907 20908 20909 20910 20911 20912 20913 20914 20915 20916 20917 20918 20919 20920 20921 20922 20923 20924 20925 20926 20927 20928 20929 20930 20931 20932 20933 20934 20935 20936 20937 20938 20939 20940 20941 20942 20943 20944 20945 20946 20947 20948 20949 20950 20951 20952 20953 20954 20955 20956 20957 20958 20959 20960 20961 20962 20963 20964 20965 20966 20967 20968 20969 20970 20971 20972 20973 20974 20975 20976 20977 20978 20979 20980 20981 20982 20983 20984 20985 20986 20987 20988 20989 20990 20991 20992 20993 20994 20995 20996 20997 20998 20999 21000 21001 21002 21003 21004 21005 21006 21007 21008 21009 21010 21011 21012 21013 21014 21015 21016 21017 21018 21019 21020 21021 21022 21023 21024 21025 21026 21027 21028 21029 21030 21031 21032 21033 21034 21035 21036 21037 21038 21039 21040 21041 21042 21043 21044 21045 21046 21047 21048 21049 21050 21051 21052 21053 21054 21055 21056 21057 21058 21059 21060 21061 21062 21063 21064 21065 21066 21067 21068 21069 21070 21071 21072 21073 21074 21075 21076 21077 21078 21079 21080 21081 21082 21083 21084 21085 21086 21087 21088 21089 21090 21091 21092 21093 21094 21095 21096 21097 21098 21099 21100 21101 21102 21103 21104 21105 21106 21107 21108 21109 21110 21111 21112 21113 21114 21115 21116 21117 21118 21119 21120 21121 21122 21123 21124 21125 21126 21127 21128 21129 21130 21131 21132 21133 21134 21135 21136 21137 21138 21139 21140 21141 21142 21143 21144 21145 21146 21147 21148 21149 21150 21151 21152 21153 21154 21155 21156 21157 21158 21159 21160 21161 21162 21163 21164 21165 21166 21167 21168 21169 21170 21171 21172 21173 21174 21175 21176 21177 21178 21179 21180 21181 21182 21183 21184 21185 21186 21187 21188 21189 21190 21191 21192 21193 21194 21195 21196 21197 21198 21199 21200 21201 21202 21203 21204 21205 21206 21207 21208 21209 21210 21211 21212 21213 21214 21215 21216 21217 21218 21219 21220 21221 21222 21223 21224 21225 21226 21227 21228 21229 21230 21231 21232 21233 21234 21235 21236 21237 21238 21239 21240 21241 21242 21243 21244 21245 21246 21247 21248 21249 21250 21251 21252 21253 21254 21255 21256 21257 21258 21259 21260 21261 21262 21263 21264 21265 21266 21267 21268 21269 21270 21271 21272 21273 21274 21275 21276 21277 21278 21279 21280 21281 21282 21283 21284 21285 21286 21287 21288 21289 21290 21291 21292 21293 21294 21295 21296 21297 21298 21299 21300 21301 21302 21303 21304 21305 21306 21307 21308 21309 21310 21311 21312 21313 21314 21315 21316 21317 21318 21319 21320 21321 21322 21323 21324 21325 21326 21327 21328 21329 21330 21331 21332 21333 21334 21335 21336 21337 21338 21339 21340 21341 21342 21343 21344 21345 21346 21347 21348 21349 21350 21351 21352 21353 21354 21355 21356 21357 21358 21359 21360 21361 21362 21363 21364 21365 21366 21367 21368 21369 21370 21371 21372 21373 21374 21375 21376 21377 21378 21379 21380 21381 21382 21383 21384 21385 21386 21387 21388 21389 21390 21391 21392 21393 21394 21395 21396 21397 21398 21399 21400 21401 21402 21403 21404 21405 21406 21407 21408 21409 21410 21411 21412 21413 21414 21415 21416 21417 21418 21419 21420 21421 21422 21423 21424 21425 21426 21427 21428 21429 21430 21431 21432 21433 21434 21435 21436 21437 21438 21439 21440 21441 21442 21443 21444 21445 21446 21447 21448 21449 21450 21451 21452 21453 21454 21455 21456 21457 21458 21459 21460 21461 21462 21463 21464 21465 21466 21467 21468 21469 21470 21471 21472 21473 21474 21475 21476 21477 21478 21479 21480 21481 21482 21483 21484 21485 21486 21487 21488 21489 21490 21491 21492 21493 21494 21495 21496 21497 21498 21499 21500 21501 21502 21503 21504 21505 21506 21507 21508 21509 21510 21511 21512 21513 21514 21515 21516 21517 21518 21519 21520 21521 21522 21523 21524 21525 21526 21527 21528 21529 21530 21531 21532 21533 21534 21535 21536 21537 21538 21539 21540 21541 21542 21543 21544 21545 21546 21547 21548 21549 21550 21551 21552 21553 21554 21555 21556 21557 21558 21559 21560 21561 21562 21563 21564 21565 21566 21567 21568 21569 21570 21571 21572 21573 21574 21575 21576 21577 21578 21579 21580 21581 21582 21583 21584 21585 21586 21587 21588 21589 21590 21591 21592 21593 21594 21595 21596 21597 21598 21599 21600 21601 21602 21603 21604 21605 21606 21607 21608 21609 21610 21611 21612 21613 21614 21615 21616 21617 21618 21619 21620 21621 21622 21623 21624 21625 21626 21627 21628 21629 21630 21631 21632 21633 21634 21635 21636 21637 21638 21639 21640 21641 21642 21643 21644 21645 21646 21647 21648 21649 21650 21651 21652 21653 21654 21655 21656 21657 21658 21659 21660 21661 21662 21663 21664 21665 21666 21667 21668 21669 21670 21671 21672 21673 21674 21675 21676 21677 21678 21679 21680 21681 21682 21683 21684 21685 21686 21687 21688 21689 21690 21691 21692 21693 21694 21695 21696 21697 21698 21699 21700 21701 21702 21703 21704 21705 21706 21707 21708 21709 21710 21711 21712 21713 21714 21715 21716 21717 21718 21719 21720 21721 21722 21723 21724 21725 21726 21727 21728 21729 21730 21731 21732 21733 21734 21735 21736 21737 21738 21739 21740 21741 21742 21743 21744 21745 21746 21747 21748 21749 21750 21751 21752 21753 21754 21755 21756 21757 21758 21759 21760 21761 21762 21763 21764 21765 21766 21767 21768 21769 21770 21771 21772 21773 21774 21775 21776 21777 21778 21779 21780 21781 21782 21783 21784 21785 21786 21787 21788 21789 21790 21791 21792 21793 21794 21795 21796 21797 21798 21799 21800 21801 21802 21803 21804 21805 21806 21807 21808 21809 21810 21811 21812 21813 21814 21815 21816 21817 21818 21819 21820 21821 21822 21823 21824 21825 21826 21827 21828 21829 21830 21831 21832 21833 21834 21835 21836 21837 21838 21839 21840 21841 21842 21843 21844 21845 21846 21847 21848 21849 21850 21851 21852 21853 21854 21855 21856 21857 21858 21859 21860 21861 21862 21863 21864 21865 21866 21867 21868 21869 21870 21871 21872 21873 21874 21875 21876 21877 21878 21879 21880 21881 21882 21883 21884 21885 21886 21887 21888 21889 21890 21891 21892 21893 21894 21895 21896 21897 21898 21899 21900 21901 21902 21903 21904 21905 21906 21907 21908 21909 21910 21911 21912 21913 21914 21915 21916 21917 21918 21919 21920 21921 21922 21923 21924 21925 21926 21927 21928 21929 21930 21931 21932 21933 21934 21935 21936 21937 21938 21939 21940 21941 21942 21943 21944 21945 21946 21947 21948 21949 21950 21951 21952 21953 21954 21955 21956 21957 21958 21959 21960 21961 21962 21963 21964 21965 21966 21967 21968 21969 21970 21971 21972 21973 21974 21975 21976 21977 21978 21979 21980 21981 21982 21983 21984 21985 21986 21987 21988 21989 21990 21991 21992 21993 21994 21995 21996 21997 21998 21999 22000 22001 22002 22003 22004 22005 22006 22007 22008 22009 22010 22011 22012 22013 22014 22015 22016 22017 22018 22019 22020 22021 22022 22023 22024 22025 22026 22027 22028 22029 22030 22031 22032 22033 22034 22035 22036 22037 22038 22039 22040 22041 22042 22043 22044 22045 22046 22047 22048 22049 22050 22051 22052 22053 22054 22055 22056 22057 22058 22059 22060 22061 22062 22063 22064 22065 22066 22067 22068 22069 22070 22071 22072 22073 22074 22075 22076 22077 22078 22079 22080 22081 22082 22083 22084 22085 22086 22087 22088 22089 22090 22091 22092 22093 22094 22095 22096 22097 22098 22099 22100 22101 22102 22103 22104 22105 22106 22107 22108 22109 22110 22111 22112 22113 22114 22115 22116 22117 22118 22119 22120 22121 22122 22123 22124 22125 22126 22127 22128 22129 22130 22131 22132 22133 22134 22135 22136 22137 22138 22139 22140 22141 22142 22143 22144 22145 22146 22147 22148 22149 22150 22151 22152 22153 22154 22155 22156 22157 22158 22159 22160 22161 22162 22163 22164 22165 22166 22167 22168 22169 22170 22171 22172 22173 22174 22175 22176 22177 22178 22179 22180 22181 22182 22183 22184 22185 22186 22187 22188 22189 22190 22191 22192 22193 22194 22195 22196 22197 22198 22199 22200 22201 22202 22203 22204 22205 22206 22207 22208 22209 22210 22211 22212 22213 22214 22215 22216 22217 22218 22219 22220 22221 22222 22223 22224 22225 22226 22227 22228 22229 22230 22231 22232 22233 22234 22235 22236 22237 22238 22239 22240 22241 22242 22243 22244 22245 22246 22247 22248 22249 22250 22251 22252 22253 22254 22255 22256 22257 22258 22259 22260 22261 22262 22263 22264 22265 22266 22267 22268 22269 22270 22271 22272 22273 22274 22275 22276 22277 22278 22279 22280 22281 22282 22283 22284 22285 22286 22287 22288 22289 22290 22291 22292 22293 22294 22295 22296 22297 22298 22299 22300 22301 22302 22303 22304 22305 22306 22307 22308 22309 22310 22311 22312 22313 22314 22315 22316 22317 22318 22319 22320 22321 22322 22323 22324 22325 22326 22327 22328 22329 22330 22331 22332 22333 22334 22335 22336 22337 22338 22339 22340 22341 22342 22343 22344 22345 22346 22347 22348 22349 22350 22351 22352 22353 22354 22355 22356 22357 22358 22359 22360 22361 22362 22363 22364 22365 22366 22367 22368 22369 22370 22371 22372 22373 22374 22375 22376 22377 22378 22379 22380 22381 22382 22383 22384 22385 22386 22387 22388 22389 22390 22391 22392 22393 22394 22395 22396 22397 22398 22399 22400 22401 22402 22403 22404 22405 22406 22407 22408 22409 22410 22411 22412 22413 22414 22415 22416 22417 22418 22419 22420 22421 22422 22423 22424 22425 22426 22427 22428 22429 22430 22431 22432 22433 22434 22435 22436 22437 22438 22439 22440 22441 22442 22443 22444 22445 22446 22447 22448 22449 22450 22451 22452 22453 22454 22455 22456 22457 22458 22459 22460 22461 22462 22463 22464 22465 22466 22467 22468 22469 22470 22471 22472 22473 22474 22475 22476 22477 22478 22479 22480 22481 22482 22483 22484 22485 22486 22487 22488 22489 22490 22491 22492 22493 22494 22495 22496 22497 22498 22499 22500 22501 22502 22503 22504 22505 22506 22507 22508 22509 22510 22511 22512 22513 22514 22515 22516 22517 22518 22519 22520 22521 22522 22523 22524 22525 22526 22527 22528 22529 22530 22531 22532 22533 22534 22535 22536 22537 22538 22539 22540 22541 22542 22543 22544 22545 22546 22547 22548 22549 22550 22551 22552 22553 22554 22555 22556 22557 22558 22559 22560 22561 22562 22563 22564 22565 22566 22567 22568 22569 22570 22571 22572 22573 22574 22575 22576 22577 22578 22579 22580 22581 22582 22583 22584 22585 22586 22587 22588 22589 22590 22591 22592 22593 22594 22595 22596 22597 22598 22599 22600 22601 22602 22603 22604 22605 22606 22607 22608 22609 22610 22611 22612 22613 22614 22615 22616 22617 22618 22619 22620 22621 22622 22623 22624 22625 22626 22627 22628 22629 22630 22631 22632 22633 22634 22635 22636 22637 22638 22639 22640 22641 22642 22643 22644 22645 22646 22647 22648 22649 22650 22651 22652 22653 22654 22655 22656 22657 22658 22659 22660 22661 22662 22663 22664 22665 22666 22667 22668 22669 22670 22671 22672 22673 22674 22675 22676 22677 22678 22679 22680 22681 22682 22683 22684 22685 22686 22687 22688 22689 22690 22691 22692 22693 22694 22695 22696 22697 22698 22699 22700 22701 22702 22703 22704 22705 22706 22707 22708 22709 22710 22711 22712 22713 22714 22715 22716 22717 22718 22719 22720 22721 22722 22723 22724 22725 22726 22727 22728 22729 22730 22731 22732 22733 22734 22735 22736 22737 22738 22739 22740 22741 22742 22743 22744 22745 22746 22747 22748 22749 22750 22751 22752 22753 22754 22755 22756 22757 22758 22759 22760 22761 22762 22763 22764 22765 22766 22767 22768 22769 22770 22771 22772 22773 22774 22775 22776 22777 22778 22779 22780 22781 22782 22783 22784 22785 22786 22787 22788 22789 22790 22791 22792 22793 22794 22795 22796 22797 22798 22799 22800 22801 22802 22803 22804 22805 22806 22807 22808 22809 22810 22811 22812 22813 22814 22815 22816 22817 22818 22819 22820 22821 22822 22823 22824 22825 22826 22827 22828 22829 22830 22831 22832 22833 22834 22835 22836 22837 22838 22839 22840 22841 22842 22843 22844 22845 22846 22847 22848 22849 22850 22851 22852 22853 22854 22855 22856 22857 22858 22859 22860 22861 22862 22863 22864 22865 22866 22867 22868 22869 22870 22871 22872 22873 22874 22875 22876 22877 22878 22879 22880 22881 22882 22883 22884 22885 22886 22887 22888 22889 22890 22891 22892 22893 22894 22895 22896 22897 22898 22899 22900 22901 22902 22903 22904 22905 22906 22907 22908 22909 22910 22911 22912 22913 22914 22915 22916 22917 22918 22919 22920 22921 22922 22923 22924 22925 22926 22927 22928 22929 22930 22931 22932 22933 22934 22935 22936 22937 22938 22939 22940 22941 22942 22943 22944 22945 22946 22947 22948 22949 22950 22951 22952 22953 22954 22955 22956 22957 22958 22959 22960 22961 22962 22963 22964 22965 22966 22967 22968 22969 22970 22971 22972 22973 22974 22975 22976 22977 22978 22979 22980 22981 22982 22983 22984 22985 22986 22987 22988 22989 22990 22991 22992 22993 22994 22995 22996 22997 22998 22999 23000 23001 23002 23003 23004 23005 23006 23007 23008 23009 23010 23011 23012 23013 23014 23015 23016 23017 23018 23019 23020 23021 23022 23023 23024 23025 23026 23027 23028 23029 23030 23031 23032 23033 23034 23035 23036 23037 23038 23039 23040 23041 23042 23043 23044 23045 23046 23047 23048 23049 23050 23051 23052 23053 23054 23055 23056 23057 23058 23059 23060 23061 23062 23063 23064 23065 23066 23067 23068 23069 23070 23071 23072 23073 23074 23075 23076 23077 23078 23079 23080 23081 23082 23083 23084 23085 23086 23087 23088 23089 23090 23091 23092 23093 23094 23095 23096 23097 23098 23099 23100 23101 23102 23103 23104 23105 23106 23107 23108 23109 23110 23111 23112 23113 23114 23115 23116 23117 23118 23119 23120 23121 23122 23123 23124 23125 23126 23127 23128 23129 23130 23131 23132 23133 23134 23135 23136 23137 23138 23139 23140 23141 23142 23143 23144 23145 23146 23147 23148 23149 23150 23151 23152 23153 23154 23155 23156 23157 23158 23159 23160 23161 23162 23163 23164 23165 23166 23167 23168 23169 23170 23171 23172 23173 23174 23175 23176 23177 23178 23179 23180 23181 23182 23183 23184 23185 23186 23187 23188 23189 23190 23191 23192 23193 23194 23195 23196 23197 23198 23199 23200 23201 23202 23203 23204 23205 23206 23207 23208 23209 23210 23211 23212 23213 23214 23215 23216 23217 23218 23219 23220 23221 23222 23223 23224 23225 23226 23227 23228 23229 23230 23231 23232 23233 23234 23235 23236 23237 23238 23239 23240 23241 23242 23243 23244 23245 23246 23247 23248 23249 23250 23251 23252 23253 23254 23255 23256 23257 23258 23259 23260 23261 23262 23263 23264 23265 23266 23267 23268 23269 23270 23271 23272 23273 23274 23275 23276 23277 23278 23279 23280 23281 23282 23283 23284 23285 23286 23287 23288 23289 23290 23291 23292 23293 23294 23295 23296 23297 23298 23299 23300 23301 23302 23303 23304 23305 23306 23307 23308 23309 23310 23311 23312 23313 23314 23315 23316 23317 23318 23319 23320 23321 23322 23323 23324 23325 23326 23327 23328 23329 23330 23331 23332 23333 23334 23335 23336 23337 23338 23339 23340 23341 23342 23343 23344 23345 23346 23347 23348 23349 23350 23351 23352 23353 23354 23355 23356 23357 23358 23359 23360 23361 23362 23363 23364 23365 23366 23367 23368 23369 23370 23371 23372 23373 23374 23375 23376 23377 23378 23379 23380 23381 23382 23383 23384 23385 23386 23387 23388 23389 23390 23391 23392 23393 23394 23395 23396 23397 23398 23399 23400 23401 23402 23403 23404 23405 23406 23407 23408 23409 23410 23411 23412 23413 23414 23415 23416 23417 23418 23419 23420 23421 23422 23423 23424 23425 23426 23427 23428 23429 23430 23431 23432 23433 23434 23435 23436 23437 23438 23439 23440 23441 23442 23443 23444 23445 23446 23447 23448 23449 23450 23451 23452 23453 23454 23455 23456 23457 23458 23459 23460 23461 23462 23463 23464 23465 23466 23467 23468 23469 23470 23471 23472 23473 23474 23475 23476 23477 23478 23479 23480 23481 23482 23483 23484 23485 23486 23487 23488 23489 23490 23491 23492 23493 23494 23495 23496 23497 23498 23499 23500 23501 23502 23503 23504 23505 23506 23507 23508 23509 23510 23511 23512 23513 23514 23515 23516 23517 23518 23519 23520 23521 23522 23523 23524 23525 23526 23527 23528 23529 23530 23531 23532 23533 23534 23535 23536 23537 23538 23539 23540 23541 23542 23543 23544 23545 23546 23547 23548 23549 23550 23551 23552 23553 23554 23555 23556 23557 23558 23559 23560 23561 23562 23563 23564 23565 23566 23567 23568 23569 23570 23571 23572 23573 23574 23575 23576 23577 23578 23579 23580 23581 23582 23583 23584 23585 23586 23587 23588 23589 23590 23591 23592 23593 23594 23595 23596 23597 23598 23599 23600 23601 23602 23603 23604 23605 23606 23607 23608 23609 23610 23611 23612 23613 23614 23615 23616 23617 23618 23619 23620 23621 23622 23623 23624 23625 23626 23627 23628 23629 23630 23631 23632 23633 23634 23635 23636 23637 23638 23639 23640 23641 23642 23643 23644 23645 23646 23647 23648 23649 23650 23651 23652 23653 23654 23655 23656 23657 23658 23659 23660 23661 23662 23663 23664 23665 23666 23667 23668 23669 23670 23671 23672 23673 23674 23675 23676 23677 23678 23679 23680 23681 23682 23683 23684 23685 23686 23687 23688 23689 23690 23691 23692 23693 23694 23695 23696 23697 23698 23699 23700 23701 23702 23703 23704 23705 23706 23707 23708 23709 23710 23711 23712 23713 23714 23715 23716 23717 23718 23719 23720 23721 23722 23723 23724 23725 23726 23727 23728 23729 23730 23731 23732 23733 23734 23735 23736 23737 23738 23739 23740 23741 23742 23743 23744 23745 23746 23747 23748 23749 23750 23751 23752 23753 23754 23755 23756 23757 23758 23759 23760 23761 23762 23763 23764 23765 23766 23767 23768 23769 23770 23771 23772 23773 23774 23775 23776 23777 23778 23779 23780 23781 23782 23783 23784 23785 23786 23787 23788 23789 23790 23791 23792 23793 23794 23795 23796 23797 23798 23799 23800 23801 23802 23803 23804 23805 23806 23807 23808 23809 23810 23811 23812 23813 23814 23815 23816 23817 23818 23819 23820 23821 23822 23823 23824 23825 23826 23827 23828 23829 23830 23831 23832 23833 23834 23835 23836 23837 23838 23839 23840 23841 23842 23843 23844 23845 23846 23847 23848 23849 23850 23851 23852 23853 23854 23855 23856 23857 23858 23859 23860 23861 23862 23863 23864 23865 23866 23867 23868 23869 23870 23871 23872 23873 23874 23875 23876 23877 23878 23879 23880 23881 23882 23883 23884 23885 23886 23887 23888 23889 23890 23891 23892 23893 23894 23895 23896 23897 23898 23899 23900 23901 23902 23903 23904 23905 23906 23907 23908 23909 23910 23911 23912 23913 23914 23915 23916 23917 23918 23919 23920 23921 23922 23923 23924 23925 23926 23927 23928 23929 23930 23931 23932 23933 23934 23935 23936 23937 23938 23939 23940 23941 23942 23943 23944 23945 23946 23947 23948 23949 23950 23951 23952 23953 23954 23955 23956 23957 23958 23959 23960 23961 23962 23963 23964 23965 23966 23967 23968 23969 23970 23971 23972 23973 23974 23975 23976 23977 23978 23979 23980 23981 23982 23983 23984 23985 23986 23987 23988 23989 23990 23991 23992 23993 23994 23995 23996 23997 23998 23999 24000 24001 24002 24003 24004 24005 24006 24007 24008 24009 24010 24011 24012 24013 24014 24015 24016 24017 24018 24019 24020 24021 24022 24023 24024 24025 24026 24027 24028 24029 24030 24031 24032 24033 24034 24035 24036 24037 24038 24039 24040 24041 24042 24043 24044 24045 24046 24047 24048 24049 24050 24051 24052 24053 24054 24055 24056 24057 24058 24059 24060 24061 24062 24063 24064 24065 24066 24067 24068 24069 24070 24071 24072 24073 24074 24075 24076 24077 24078 24079 24080 24081 24082 24083 24084 24085 24086 24087 24088 24089 24090 24091 24092 24093 24094 24095 24096 24097 24098 24099 24100 24101 24102 24103 24104 24105 24106 24107 24108 24109 24110 24111 24112 24113 24114 24115 24116 24117 24118 24119 24120 24121 24122 24123 24124 24125 24126 24127 24128 24129 24130 24131 24132 24133 24134 24135 24136 24137 24138 24139 24140 24141 24142 24143 24144 24145 24146 24147 24148 24149 24150 24151 24152 24153 24154 24155 24156 24157 24158 24159 24160 24161 24162 24163 24164 24165 24166 24167 24168 24169 24170 24171 24172 24173 24174 24175 24176 24177 24178 24179 24180 24181 24182 24183 24184 24185 24186 24187 24188 24189 24190 24191 24192 24193 24194 24195 24196 24197 24198 24199 24200 24201 24202 24203 24204 24205 24206 24207 24208 24209 24210 24211 24212 24213 24214 24215 24216 24217 24218 24219 24220 24221 24222 24223 24224 24225 24226 24227 24228 24229 24230 24231 24232 24233 24234 24235 24236 24237 24238 24239 24240 24241 24242 24243 24244 24245 24246 24247 24248 24249 24250 24251 24252 24253 24254 24255 24256 24257 24258 24259 24260 24261 24262 24263 24264 24265 24266 24267 24268 24269 24270 24271 24272 24273 24274 24275 24276 24277 24278 24279 24280 24281 24282 24283 24284 24285 24286 24287 24288 24289 24290 24291 24292 24293 24294 24295 24296 24297 24298 24299 24300 24301 24302 24303 24304 24305 24306 24307 24308 24309 24310 24311 24312 24313 24314 24315 24316 24317 24318 24319 24320 24321 24322 24323 24324 24325 24326 24327 24328 24329 24330 24331 24332 24333 24334 24335 24336 24337 24338 24339 24340 24341 24342 24343 24344 24345 24346 24347 24348 24349 24350 24351 24352 24353 24354 24355 24356 24357 24358 24359 24360 24361 24362 24363 24364 24365 24366 24367 24368 24369 24370 24371 24372 24373 24374 24375 24376 24377 24378 24379 24380 24381 24382 24383 24384 24385 24386 24387 24388 24389 24390 24391 24392 24393 24394 24395 24396 24397 24398 24399 24400 24401 24402 24403 24404 24405 24406 24407 24408 24409 24410 24411 24412 24413 24414 24415 24416 24417 24418 24419 24420 24421 24422 24423 24424 24425 24426 24427 24428 24429 24430 24431 24432 24433 24434 24435 24436 24437 24438 24439 24440 24441 24442 24443 24444 24445 24446 24447 24448 24449 24450 24451 24452 24453 24454 24455 24456 24457 24458 24459 24460 24461 24462 24463 24464 24465 24466 24467 24468 24469 24470 24471 24472 24473 24474 24475 24476 24477 24478 24479 24480 24481 24482 24483 24484 24485 24486 24487 24488 24489 24490 24491 24492 24493 24494 24495 24496 24497 24498 24499 24500 24501 24502 24503 24504 24505 24506 24507 24508 24509 24510 24511 24512 24513 24514 24515 24516 24517 24518 24519 24520 24521 24522 24523 24524 24525 24526 24527 24528 24529 24530 24531 24532 24533 24534 24535 24536 24537 24538 24539 24540 24541 24542 24543 24544 24545 24546 24547 24548 24549 24550 24551 24552 24553 24554 24555 24556 24557 24558 24559 24560 24561 24562 24563 24564 24565 24566 24567 24568 24569 24570 24571 24572 24573 24574 24575 24576 24577 24578 24579 24580 24581 24582 24583 24584 24585 24586 24587 24588 24589 24590 24591 24592 24593 24594 24595 24596 24597 24598 24599 24600 24601 24602 24603 24604 24605 24606 24607 24608 24609 24610 24611 24612 24613 24614 24615 24616 24617 24618 24619 24620 24621 24622 24623 24624 24625 24626 24627 24628 24629 24630 24631 24632 24633 24634 24635 24636 24637 24638 24639 24640 24641 24642 24643 24644 24645 24646 24647 24648 24649 24650 24651 24652 24653 24654 24655 24656 24657 24658 24659 24660 24661 24662 24663 24664 24665 24666 24667 24668 24669 24670 24671 24672 24673 24674 24675 24676 24677 24678 24679 24680 24681 24682 24683 24684 24685 24686 24687 24688 24689 24690 24691 24692 24693 24694 24695 24696 24697 24698 24699 24700 24701 24702 24703 24704 24705 24706 24707 24708 24709 24710 24711 24712 24713 24714 24715 24716 24717 24718 24719 24720 24721 24722 24723 24724 24725 24726 24727 24728 24729 24730 24731 24732 24733 24734 24735 24736 24737 24738 24739 24740 24741 24742 24743 24744 24745 24746 24747 24748 24749 24750 24751 24752 24753 24754 24755 24756 24757 24758 24759 24760 24761 24762 24763 24764 24765 24766 24767 24768 24769 24770 24771 24772 24773 24774 24775 24776 24777 24778 24779 24780 24781 24782 24783 24784 24785 24786 24787 24788 24789 24790 24791 24792 24793 24794 24795 24796 24797 24798 24799 24800 24801 24802 24803 24804 24805 24806 24807 24808 24809 24810 24811 24812 24813 24814 24815 24816 24817 24818 24819 24820 24821 24822 24823 24824 24825 24826 24827 24828 24829 24830 24831 24832 24833 24834 24835 24836 24837 24838 24839 24840 24841 24842 24843 24844 24845 24846 24847 24848 24849 24850 24851 24852 24853 24854 24855 24856 24857 24858 24859 24860 24861 24862 24863 24864 24865 24866 24867 24868 24869 24870 24871 24872 24873 24874 24875 24876 24877 24878 24879 24880 24881 24882 24883 24884 24885 24886 24887 24888 24889 24890 24891 24892 24893 24894 24895 24896 24897 24898 24899 24900 24901 24902 24903 24904 24905 24906 24907 24908 24909 24910 24911 24912 24913 24914 24915 24916 24917 24918 24919 24920 24921 24922 24923 24924 24925 24926 24927 24928 24929 24930 24931 24932 24933 24934 24935 24936 24937 24938 24939 24940 24941 24942 24943 24944 24945 24946 24947 24948 24949 24950 24951 24952 24953 24954 24955 24956 24957 24958 24959 24960 24961 24962 24963 24964 24965 24966 24967 24968 24969 24970 24971 24972 24973 24974 24975 24976 24977 24978 24979 24980 24981 24982 24983 24984 24985 24986 24987 24988 24989 24990 24991 24992 24993 24994 24995 24996 24997 24998 24999 25000 25001 25002 25003 25004 25005 25006 25007 25008 25009 25010 25011 25012 25013 25014 25015 25016 25017 25018 25019 25020 25021 25022 25023 25024 25025 25026 25027 25028 25029 25030 25031 25032 25033 25034 25035 25036 25037 25038 25039 25040 25041 25042 25043 25044 25045 25046 25047 25048 25049 25050 25051 25052 25053 25054 25055 25056 25057 25058 25059 25060 25061 25062 25063 25064 25065 25066 25067 25068 25069 25070 25071 25072 25073 25074 25075 25076 25077 25078 25079 25080 25081 25082 25083 25084 25085 25086 25087 25088 25089 25090 25091 25092 25093 25094 25095 25096 25097 25098 25099 25100 25101 25102 25103 25104 25105 25106 25107 25108 25109 25110 25111 25112 25113 25114 25115 25116 25117 25118 25119 25120 25121 25122 25123 25124 25125 25126 25127 25128 25129 25130 25131 25132 25133 25134 25135 25136 25137 25138 25139 25140 25141 25142 25143 25144 25145 25146 25147 25148 25149 25150 25151 25152 25153 25154 25155 25156 25157 25158 25159 25160 25161 25162 25163 25164 25165 25166 25167 25168 25169 25170 25171 25172 25173 25174 25175 25176 25177 25178 25179 25180 25181 25182 25183 25184 25185 25186 25187 25188 25189 25190 25191 25192 25193 25194 25195 25196 25197 25198 25199 25200 25201 25202 25203 25204 25205 25206 25207 25208 25209 25210 25211 25212 25213 25214 25215 25216 25217 25218 25219 25220 25221 25222 25223 25224 25225 25226 25227 25228 25229 25230 25231 25232 25233 25234 25235 25236 25237 25238 25239 25240 25241 25242 25243 25244 25245 25246 25247 25248 25249 25250 25251 25252 25253 25254 25255 25256 25257 25258 25259 25260 25261 25262 25263 25264 25265 25266 25267 25268 25269 25270 25271 25272 25273 25274 25275 25276 25277 25278 25279 25280 25281 25282 25283 25284 25285 25286 25287 25288 25289 25290 25291 25292 25293 25294 25295 25296 25297 25298 25299 25300 25301 25302 25303 25304 25305 25306 25307 25308 25309 25310 25311 25312 25313 25314 25315 25316 25317 25318 25319 25320 25321 25322 25323 25324 25325 25326 25327 25328 25329 25330 25331 25332 25333 25334 25335 25336 25337 25338 25339 25340 25341 25342 25343 25344 25345 25346 25347 25348 25349 25350 25351 25352 25353 25354 25355 25356 25357 25358 25359 25360 25361 25362 25363 25364 25365 25366 25367 25368 25369 25370 25371 25372 25373 25374 25375 25376 25377 25378 25379 25380 25381 25382 25383 25384 25385 25386 25387 25388 25389 25390 25391 25392 25393 25394 25395 25396 25397 25398 25399 25400 25401 25402 25403 25404 25405 25406 25407 25408 25409 25410 25411 25412 25413 25414 25415 25416 25417 25418 25419 25420 25421 25422 25423 25424 25425 25426 25427 25428 25429 25430 25431 25432 25433 25434 25435 25436 25437 25438 25439 25440 25441 25442 25443 25444 25445 25446 25447 25448 25449 25450 25451 25452 25453 25454 25455 25456 25457 25458 25459 25460 25461 25462 25463 25464 25465 25466 25467 25468 25469 25470 25471 25472 25473 25474 25475 25476 25477 25478 25479 25480 25481 25482 25483 25484 25485 25486 25487 25488 25489 25490 25491 25492 25493 25494 25495 25496 25497 25498 25499 25500 25501 25502 25503 25504 25505 25506 25507 25508 25509 25510 25511 25512 25513 25514 25515 25516 25517 25518 25519 25520 25521 25522 25523 25524 25525 25526 25527 25528 25529 25530 25531 25532 25533 25534 25535 25536 25537 25538 25539 25540 25541 25542 25543 25544 25545 25546 25547 25548 25549 25550 25551 25552 25553 25554 25555 25556 25557 25558 25559 25560 25561 25562 25563 25564 25565 25566 25567 25568 25569 25570 25571 25572 25573 25574 25575 25576 25577 25578 25579 25580 25581 25582 25583 25584 25585 25586 25587 25588 25589 25590 25591 25592 25593 25594 25595 25596 25597 25598 25599 25600 25601 25602 25603 25604 25605 25606 25607 25608 25609 25610 25611 25612 25613 25614 25615 25616 25617 25618 25619 25620 25621 25622 25623 25624 25625 25626 25627 25628 25629 25630 25631 25632 25633 25634 25635 25636 25637 25638 25639 25640 25641 25642 25643 25644 25645 25646 25647 25648 25649 25650 25651 25652 25653 25654 25655 25656 25657 25658 25659 25660 25661 25662 25663 25664 25665 25666 25667 25668 25669 25670 25671 25672 25673 25674 25675 25676 25677 25678 25679 25680 25681 25682 25683 25684 25685 25686 25687 25688 25689 25690 25691 25692 25693 25694 25695 25696 25697 25698 25699 25700 25701 25702 25703 25704 25705 25706 25707 25708 25709 25710 25711 25712 25713 25714 25715 25716 25717 25718 25719 25720 25721 25722 25723 25724 25725 25726 25727 25728 25729 25730 25731 25732 25733 25734 25735 25736 25737 25738 25739 25740 25741 25742 25743 25744 25745 25746 25747 25748 25749 25750 25751 25752 25753 25754 25755 25756 25757 25758 25759 25760 25761 25762 25763 25764 25765 25766 25767 25768 25769 25770 25771 25772 25773 25774 25775 25776 25777 25778 25779 25780 25781 25782 25783 25784 25785 25786 25787 25788 25789 25790 25791 25792 25793 25794 25795 25796 25797 25798 25799 25800 25801 25802 25803 25804 25805 25806 25807 25808 25809 25810 25811 25812 25813 25814 25815 25816 25817 25818 25819 25820 25821 25822 25823 25824 25825 25826 25827 25828 25829 25830 25831 25832 25833 25834 25835 25836 25837 25838 25839 25840 25841 25842 25843 25844 25845 25846 25847 25848 25849 25850 25851 25852 25853 25854 25855 25856 25857 25858 25859 25860 25861 25862 25863 25864 25865 25866 25867 25868 25869 25870 25871 25872 25873 25874 25875 25876 25877 25878 25879 25880 25881 25882 25883 25884 25885 25886 25887 25888 25889 25890 25891 25892 25893 25894 25895 25896 25897 25898 25899 25900 25901 25902 25903 25904 25905 25906 25907 25908 25909 25910 25911 25912 25913 25914 25915 25916 25917 25918 25919 25920 25921 25922 25923 25924 25925 25926 25927 25928 25929 25930 25931 25932 25933 25934 25935 25936 25937 25938 25939 25940 25941 25942 25943 25944 25945 25946 25947 25948 25949 25950 25951 25952 25953 25954 25955 25956 25957 25958 25959 25960 25961 25962 25963 25964 25965 25966 25967 25968 25969 25970 25971 25972 25973 25974 25975 25976 25977 25978 25979 25980 25981 25982 25983 25984 25985 25986 25987 25988 25989 25990 25991 25992 25993 25994 25995 25996 25997 25998 25999 26000 26001 26002 26003 26004 26005 26006 26007 26008 26009 26010 26011 26012 26013 26014 26015 26016 26017 26018 26019 26020 26021 26022 26023 26024 26025 26026 26027 26028 26029 26030 26031 26032 26033 26034 26035 26036 26037 26038 26039 26040 26041 26042 26043 26044 26045 26046 26047 26048 26049 26050 26051 26052 26053 26054 26055 26056 26057 26058 26059 26060 26061 26062 26063 26064 26065 26066 26067 26068 26069 26070 26071 26072 26073 26074 26075 26076 26077 26078 26079 26080 26081 26082 26083 26084 26085 26086 26087 26088 26089 26090 26091 26092 26093 26094 26095 26096 26097 26098 26099 26100 26101 26102 26103 26104 26105 26106 26107 26108 26109 26110 26111 26112 26113 26114 26115 26116 26117 26118 26119 26120 26121 26122 26123 26124 26125 26126 26127 26128 26129 26130 26131 26132 26133 26134 26135 26136 26137 26138 26139 26140 26141 26142 26143 26144 26145 26146 26147 26148 26149 26150 26151 26152 26153 26154 26155 26156 26157 26158 26159 26160 26161 26162 26163 26164 26165 26166 26167 26168 26169 26170 26171 26172 26173 26174 26175 26176 26177 26178 26179 26180 26181 26182 26183 26184 26185 26186 26187 26188 26189 26190 26191 26192 26193 26194 26195 26196 26197 26198 26199 26200 26201 26202 26203 26204 26205 26206 26207 26208 26209 26210 26211 26212 26213 26214 26215 26216 26217 26218 26219 26220 26221 26222 26223 26224 26225 26226 26227 26228 26229 26230 26231 26232 26233 26234 26235 26236 26237 26238 26239 26240 26241 26242 26243 26244 26245 26246 26247 26248 26249 26250 26251 26252 26253 26254 26255 26256 26257 26258 26259 26260 26261 26262 26263 26264 26265 26266 26267 26268 26269 26270 26271 26272 26273 26274 26275 26276 26277 26278 26279 26280 26281 26282 26283 26284 26285 26286 26287 26288 26289 26290 26291 26292 26293 26294 26295 26296 26297 26298 26299 26300 26301 26302 26303 26304 26305 26306 26307 26308 26309 26310 26311 26312 26313 26314 26315 26316 26317 26318 26319 26320 26321 26322 26323 26324 26325 26326 26327 26328 26329 26330 26331 26332 26333 26334 26335 26336 26337 26338 26339 26340 26341 26342 26343 26344 26345 26346 26347 26348 26349 26350 26351 26352 26353 26354 26355 26356 26357 26358 26359 26360 26361 26362 26363 26364 26365 26366 26367 26368 26369 26370 26371 26372 26373 26374 26375 26376 26377 26378 26379 26380 26381 26382 26383 26384 26385 26386 26387 26388 26389 26390 26391 26392 26393 26394 26395 26396 26397 26398 26399 26400 26401 26402 26403 26404 26405 26406 26407 26408 26409 26410 26411 26412 26413 26414 26415 26416 26417 26418 26419 26420 26421 26422 26423 26424 26425 26426 26427 26428 26429 26430 26431 26432 26433 26434 26435 26436 26437 26438 26439 26440 26441 26442 26443 26444 26445 26446 26447 26448 26449 26450 26451 26452 26453 26454 26455 26456 26457 26458 26459 26460 26461 26462 26463 26464 26465 26466 26467 26468 26469 26470 26471 26472 26473 26474 26475 26476 26477 26478 26479 26480 26481 26482 26483 26484 26485 26486 26487 26488 26489 26490 26491 26492 26493 26494 26495 26496 26497 26498 26499 26500 26501 26502 26503 26504 26505 26506 26507 26508 26509 26510 26511 26512 26513 26514 26515 26516 26517 26518 26519 26520 26521 26522 26523 26524 26525 26526 26527 26528 26529 26530 26531 26532 26533 26534 26535 26536 26537 26538 26539 26540 26541 26542 26543 26544 26545 26546 26547 26548 26549 26550 26551 26552 26553 26554 26555 26556 26557 26558 26559 26560 26561 26562 26563 26564 26565 26566 26567 26568 26569 26570 26571 26572 26573 26574 26575 26576 26577 26578 26579 26580 26581 26582 26583 26584 26585 26586 26587 26588 26589 26590 26591 26592 26593 26594 26595 26596 26597 26598 26599 26600 26601 26602 26603 26604 26605 26606 26607 26608 26609 26610 26611 26612 26613 26614 26615 26616 26617 26618 26619 26620 26621 26622 26623 26624 26625 26626 26627 26628 26629 26630 26631 26632 26633 26634 26635 26636 26637 26638 26639 26640 26641 26642 26643 26644 26645 26646 26647 26648 26649 26650 26651 26652 26653 26654 26655 26656 26657 26658 26659 26660 26661 26662 26663 26664 26665 26666 26667 26668 26669 26670 26671 26672 26673 26674 26675 26676 26677 26678 26679 26680 26681 26682 26683 26684 26685 26686 26687 26688 26689 26690 26691 26692 26693 26694 26695 26696 26697 26698 26699 26700 26701 26702 26703 26704 26705 26706 26707 26708 26709 26710 26711 26712 26713 26714 26715 26716 26717 26718 26719 26720 26721 26722 26723 26724 26725 26726 26727 26728 26729 26730 26731 26732 26733 26734 26735 26736 26737 26738 26739 26740 26741 26742 26743 26744 26745 26746 26747 26748 26749 26750 26751 26752 26753 26754 26755 26756 26757 26758 26759 26760 26761 26762 26763 26764 26765 26766 26767 26768 26769 26770 26771 26772 26773 26774 26775 26776 26777 26778 26779 26780 26781 26782 26783 26784 26785 26786 26787 26788 26789 26790 26791 26792 26793 26794 26795 26796 26797 26798 26799 26800 26801 26802 26803 26804 26805 26806 26807 26808 26809 26810 26811 26812 26813 26814 26815 26816 26817 26818 26819 26820 26821 26822 26823 26824 26825 26826 26827 26828 26829 26830 26831 26832 26833 26834 26835 26836 26837 26838 26839 26840 26841 26842 26843 26844 26845 26846 26847 26848 26849 26850 26851 26852 26853 26854 26855 26856 26857 26858 26859 26860 26861 26862 26863 26864 26865 26866 26867 26868 26869 26870 26871 26872 26873 26874 26875 26876 26877 26878 26879 26880 26881 26882 26883 26884 26885 26886 26887 26888 26889 26890 26891 26892 26893 26894 26895 26896 26897 26898 26899 26900 26901 26902 26903 26904 26905 26906 26907 26908 26909 26910 26911 26912 26913 26914 26915 26916 26917 26918 26919 26920 26921 26922 26923 26924 26925 26926 26927 26928 26929 26930 26931 26932 26933 26934 26935 26936 26937 26938 26939 26940 26941 26942 26943 26944 26945 26946 26947 26948 26949 26950 26951 26952 26953 26954 26955 26956 26957 26958 26959 26960 26961 26962 26963 26964 26965 26966 26967 26968 26969 26970 26971 26972 26973 26974 26975 26976 26977 26978 26979 26980 26981 26982 26983 26984 26985 26986 26987 26988 26989 26990 26991 26992 26993 26994 26995 26996 26997 26998 26999 27000 27001 27002 27003 27004 27005 27006 27007 27008 27009 27010 27011 27012 27013 27014 27015 27016 27017 27018 27019 27020 27021 27022 27023 27024 27025 27026 27027 27028 27029 27030 27031 27032 27033 27034 27035 27036 27037 27038 27039 27040 27041 27042 27043 27044 27045 27046 27047 27048 27049 27050 27051 27052 27053 27054 27055 27056 27057 27058 27059 27060 27061 27062 27063 27064 27065 27066 27067 27068 27069 27070 27071 27072 27073 27074 27075 27076 27077 27078 27079 27080 27081 27082 27083 27084 27085 27086 27087 27088 27089 27090 27091 27092 27093 27094 27095 27096 27097 27098 27099 27100 27101 27102 27103 27104 27105 27106 27107 27108 27109 27110 27111 27112 27113 27114 27115 27116 27117 27118 27119 27120 27121 27122 27123 27124 27125 27126 27127 27128 27129 27130 27131 27132 27133 27134 27135 27136 27137 27138 27139 27140 27141 27142 27143 27144 27145 27146 27147 27148 27149 27150 27151 27152 27153 27154 27155 27156 27157 27158 27159 27160 27161 27162 27163 27164 27165 27166 27167 27168 27169 27170 27171 27172 27173 27174 27175 27176 27177 27178 27179 27180 27181 27182 27183 27184 27185 27186 27187 27188 27189 27190 27191 27192 27193 27194 27195 27196 27197 27198 27199 27200 27201 27202 27203 27204 27205 27206 27207 27208 27209 27210 27211 27212 27213 27214 27215 27216 27217 27218 27219 27220 27221 27222 27223 27224 27225 27226 27227 27228 27229 27230 27231 27232 27233 27234 27235 27236 27237 27238 27239 27240 27241 27242 27243 27244 27245 27246 27247 27248 27249 27250 27251 27252 27253 27254 27255 27256 27257 27258 27259 27260 27261 27262 27263 27264 27265 27266 27267 27268 27269 27270 27271 27272 27273 27274 27275 27276 27277 27278 27279 27280 27281 27282 27283 27284 27285 27286 27287 27288 27289 27290 27291 27292 27293 27294 27295 27296 27297 27298 27299 27300 27301 27302 27303 27304 27305 27306 27307 27308 27309 27310 27311 27312 27313 27314 27315 27316 27317 27318 27319 27320 27321 27322 27323 27324 27325 27326 27327 27328 27329 27330 27331 27332 27333 27334 27335 27336 27337 27338 27339 27340 27341 27342 27343 27344 27345 27346 27347 27348 27349 27350 27351 27352 27353 27354 27355 27356 27357 27358 27359 27360 27361 27362 27363 27364 27365 27366 27367 27368 27369 27370 27371 27372 27373 27374 27375 27376 27377 27378 27379 27380 27381 27382 27383 27384 27385 27386 27387 27388 27389 27390 27391 27392 27393 27394 27395 27396 27397 27398 27399 27400 27401 27402 27403 27404 27405 27406 27407 27408 27409 27410 27411 27412 27413 27414 27415 27416 27417 27418 27419 27420 27421 27422 27423 27424 27425 27426 27427 27428 27429 27430 27431 27432 27433 27434 27435 27436 27437 27438 27439 27440 27441 27442 27443 27444 27445 27446 27447 27448 27449 27450 27451 27452 27453 27454 27455 27456 27457 27458 27459 27460 27461 27462 27463 27464 27465 27466 27467 27468 27469 27470 27471 27472 27473 27474 27475 27476 27477 27478 27479 27480 27481 27482 27483 27484 27485 27486 27487 27488 27489 27490 27491 27492 27493 27494 27495 27496 27497 27498 27499 27500 27501 27502 27503 27504 27505 27506 27507 27508 27509 27510 27511 27512 27513 27514 27515 27516 27517 27518 27519 27520 27521 27522 27523 27524 27525 27526 27527 27528 27529 27530 27531 27532 27533 27534 27535 27536 27537 27538 27539 27540 27541 27542 27543 27544 27545 27546 27547 27548 27549 27550 27551 27552 27553 27554 27555 27556 27557 27558 27559 27560 27561 27562 27563 27564 27565 27566 27567 27568 27569 27570 27571 27572 27573 27574 27575 27576 27577 27578 27579 27580 27581 27582 27583 27584 27585 27586 27587 27588 27589 27590 27591 27592 27593 27594 27595 27596 27597 27598 27599 27600 27601 27602 27603 27604 27605 27606 27607 27608 27609 27610 27611 27612 27613 27614 27615 27616 27617 27618 27619 27620 27621 27622 27623 27624 27625 27626 27627 27628 27629 27630 27631 27632 27633 27634 27635 27636 27637 27638 27639 27640 27641 27642 27643 27644 27645 27646 27647 27648 27649 27650 27651 27652 27653 27654 27655 27656 27657 27658 27659 27660 27661 27662 27663 27664 27665 27666 27667 27668 27669 27670 27671 27672 27673 27674 27675 27676 27677 27678 27679 27680 27681 27682 27683 27684 27685 27686 27687 27688 27689 27690 27691 27692 27693 27694 27695 27696 27697 27698 27699 27700 27701 27702 27703 27704 27705 27706 27707 27708 27709 27710 27711 27712 27713 27714 27715 27716 27717 27718 27719 27720 27721 27722 27723 27724 27725 27726 27727 27728 27729 27730 27731 27732 27733 27734 27735 27736 27737 27738 27739 27740 27741 27742 27743 27744 27745 27746 27747 27748 27749 27750 27751 27752 27753 27754 27755 27756 27757 27758 27759 27760 27761 27762 27763 27764 27765 27766 27767 27768 27769 27770 27771 27772 27773 27774 27775 27776 27777 27778 27779 27780 27781 27782 27783 27784 27785 27786 27787 27788 27789 27790 27791 27792 27793 27794 27795 27796 27797 27798 27799 27800 27801 27802 27803 27804 27805 27806 27807 27808 27809 27810 27811 27812 27813 27814 27815 27816 27817 27818 27819 27820 27821 27822 27823 27824 27825 27826 27827 27828 27829 27830 27831 27832 27833 27834 27835 27836 27837 27838 27839 27840 27841 27842 27843 27844 27845 27846 27847 27848 27849 27850 27851 27852 27853 27854 27855 27856 27857 27858 27859 27860 27861 27862 27863 27864 27865 27866 27867 27868 27869 27870 27871 27872 27873 27874 27875 27876 27877 27878 27879 27880 27881 27882 27883 27884 27885 27886 27887 27888 27889 27890 27891 27892 27893 27894 27895 27896 27897 27898 27899 27900 27901 27902 27903 27904 27905 27906 27907 27908 27909 27910 27911 27912 27913 27914 27915 27916 27917 27918 27919 27920 27921 27922 27923 27924 27925 27926 27927 27928 27929 27930 27931 27932 27933 27934 27935 27936 27937 27938 27939 27940 27941 27942 27943 27944 27945 27946 27947 27948 27949 27950 27951 27952 27953 27954 27955 27956 27957 27958 27959 27960 27961 27962 27963 27964 27965 27966 27967 27968 27969 27970 27971 27972 27973 27974 27975 27976 27977 27978 27979 27980 27981 27982 27983 27984 27985 27986 27987 27988 27989 27990 27991 27992 27993 27994 27995 27996 27997 27998 27999 28000 28001 28002 28003 28004 28005 28006 28007 28008 28009 28010 28011 28012 28013 28014 28015 28016 28017 28018 28019 28020 28021 28022 28023 28024 28025 28026 28027 28028 28029 28030 28031 28032 28033 28034 28035 28036 28037 28038 28039 28040 28041 28042 28043 28044 28045 28046 28047 28048 28049 28050 28051 28052 28053 28054 28055 28056 28057 28058 28059 28060 28061 28062 28063 28064 28065 28066 28067 28068 28069 28070 28071 28072 28073 28074 28075 28076 28077 28078 28079 28080 28081 28082 28083 28084 28085 28086 28087 28088 28089 28090 28091 28092 28093 28094 28095 28096 28097 28098 28099 28100 28101 28102 28103 28104 28105 28106 28107 28108 28109 28110 28111 28112 28113 28114 28115 28116 28117 28118 28119 28120 28121 28122 28123 28124 28125 28126 28127 28128 28129 28130 28131 28132 28133 28134 28135 28136 28137 28138 28139 28140 28141 28142 28143 28144 28145 28146 28147 28148 28149 28150 28151 28152 28153 28154 28155 28156 28157 28158 28159 28160 28161 28162 28163 28164 28165 28166 28167 28168 28169 28170 28171 28172 28173 28174 28175 28176 28177 28178 28179 28180 28181 28182 28183 28184 28185 28186 28187 28188 28189 28190 28191 28192 28193 28194 28195 28196 28197 28198 28199 28200 28201 28202 28203 28204 28205 28206 28207 28208 28209 28210 28211 28212 28213 28214 28215 28216 28217 28218 28219 28220 28221 28222 28223 28224 28225 28226 28227 28228 28229 28230 28231 28232 28233 28234 28235 28236 28237 28238 28239 28240 28241 28242 28243 28244 28245 28246 28247 28248 28249 28250 28251 28252 28253 28254 28255 28256 28257 28258 28259 28260 28261 28262 28263 28264 28265 28266 28267 28268 28269 28270 28271 28272 28273 28274 28275 28276 28277 28278 28279 28280 28281 28282 28283 28284 28285 28286 28287 28288 28289 28290 28291 28292 28293 28294 28295 28296 28297 28298 28299 28300 28301 28302 28303 28304 28305 28306 28307 28308 28309 28310 28311 28312 28313 28314 28315 28316 28317 28318 28319 28320 28321 28322 28323 28324 28325 28326 28327 28328 28329 28330 28331 28332 28333 28334 28335 28336 28337 28338 28339 28340 28341 28342 28343 28344 28345 28346 28347 28348 28349 28350 28351 28352 28353 28354 28355 28356 28357 28358 28359 28360 28361 28362 28363 28364 28365 28366 28367 28368 28369 28370 28371 28372 28373 28374 28375 28376 28377 28378 28379 28380 28381 28382 28383 28384 28385 28386 28387 28388 28389 28390 28391 28392 28393 28394 28395 28396 28397 28398 28399 28400 28401 28402 28403 28404 28405 28406 28407 28408 28409 28410 28411 28412 28413 28414 28415 28416 28417 28418 28419 28420 28421 28422 28423 28424 28425 28426 28427 28428 28429 28430 28431 28432 28433 28434 28435 28436 28437 28438 28439 28440 28441 28442 28443 28444 28445 28446 28447 28448 28449 28450 28451 28452 28453 28454 28455 28456 28457 28458 28459 28460 28461 28462 28463 28464 28465 28466 28467 28468 28469 28470 28471 28472 28473 28474 28475 28476 28477 28478 28479 28480 28481 28482 28483 28484 28485 28486 28487 28488 28489 28490 28491 28492 28493 28494 28495 28496 28497 28498 28499 28500 28501 28502 28503 28504 28505 28506 28507 28508 28509 28510 28511 28512 28513 28514 28515 28516 28517 28518 28519 28520 28521 28522 28523 28524 28525 28526 28527 28528 28529 28530 28531 28532 28533 28534 28535 28536 28537 28538 28539 28540 28541 28542 28543 28544 28545 28546 28547 28548 28549 28550 28551 28552 28553 28554 28555 28556 28557 28558 28559 28560 28561 28562 28563 28564 28565 28566 28567 28568 28569 28570 28571 28572 28573 28574 28575 28576 28577 28578 28579 28580 28581 28582 28583 28584 28585 28586 28587 28588 28589 28590 28591 28592 28593 28594 28595 28596 28597 28598 28599 28600 28601 28602 28603 28604 28605 28606 28607 28608 28609 28610 28611 28612 28613 28614 28615 28616 28617 28618 28619 28620 28621 28622 28623 28624 28625 28626 28627 28628 28629 28630 28631 28632 28633 28634 28635 28636 28637 28638 28639 28640 28641 28642 28643 28644 28645 28646 28647 28648 28649 28650 28651 28652 28653 28654 28655 28656 28657 28658 28659 28660 28661 28662 28663 28664 28665 28666 28667 28668 28669 28670 28671 28672 28673 28674 28675 28676 28677 28678 28679 28680 28681 28682 28683 28684 28685 28686 28687 28688 28689 28690 28691 28692 28693 28694 28695 28696 28697 28698 28699 28700 28701 28702 28703 28704 28705 28706 28707 28708 28709 28710 28711 28712 28713 28714 28715 28716 28717 28718 28719 28720 28721 28722 28723 28724 28725 28726 28727 28728 28729 28730 28731 28732 28733 28734 28735 28736 28737 28738 28739 28740 28741 28742 28743 28744 28745 28746 28747 28748 28749 28750 28751 28752 28753 28754 28755 28756 28757 28758 28759 28760 28761 28762 28763 28764 28765 28766 28767 28768 28769 28770 28771 28772 28773 28774 28775 28776 28777 28778 28779 28780 28781 28782 28783 28784 28785 28786 28787 28788 28789 28790 28791 28792 28793 28794 28795 28796 28797 28798 28799 28800 28801 28802 28803 28804 28805 28806 28807 28808 28809 28810 28811 28812 28813 28814 28815 28816 28817 28818 28819 28820 28821 28822 28823 28824 28825 28826 28827 28828 28829 28830 28831 28832 28833 28834 28835 28836 28837 28838 28839 28840 28841 28842 28843 28844 28845 28846 28847 28848 28849 28850 28851 28852 28853 28854 28855 28856 28857 28858 28859 28860 28861 28862 28863 28864 28865 28866 28867 28868 28869 28870 28871 28872 28873 28874 28875 28876 28877 28878 28879 28880 28881 28882 28883 28884 28885 28886 28887 28888 28889 28890 28891 28892 28893 28894 28895 28896 28897 28898 28899 28900 28901 28902 28903 28904 28905 28906 28907 28908 28909 28910 28911 28912 28913 28914 28915 28916 28917 28918 28919 28920 28921 28922 28923 28924 28925 28926 28927 28928 28929 28930 28931 28932 28933 28934 28935 28936 28937 28938 28939 28940 28941 28942 28943 28944 28945 28946 28947 28948 28949 28950 28951 28952 28953 28954 28955 28956 28957 28958 28959 28960 28961 28962 28963 28964 28965 28966 28967 28968 28969 28970 28971 28972 28973 28974 28975 28976 28977 28978 28979 28980 28981 28982 28983 28984 28985 28986 28987 28988 28989 28990 28991 28992 28993 28994 28995 28996 28997 28998 28999 29000 29001 29002 29003 29004 29005 29006 29007 29008 29009 29010 29011 29012 29013 29014 29015 29016 29017 29018 29019 29020 29021 29022 29023 29024 29025 29026 29027 29028 29029 29030 29031 29032 29033 29034 29035 29036 29037 29038 29039 29040 29041 29042 29043 29044 29045 29046 29047 29048 29049 29050 29051 29052 29053 29054 29055 29056 29057 29058 29059 29060 29061 29062 29063 29064 29065 29066 29067 29068 29069 29070 29071 29072 29073 29074 29075 29076 29077 29078 29079 29080 29081 29082 29083 29084 29085 29086 29087 29088 29089 29090 29091 29092 29093 29094 29095 29096 29097 29098 29099 29100 29101 29102 29103 29104 29105 29106 29107 29108 29109 29110 29111 29112 29113 29114 29115 29116 29117 29118 29119 29120 29121 29122 29123 29124 29125 29126 29127 29128 29129 29130 29131 29132 29133 29134 29135 29136 29137 29138 29139 29140 29141 29142 29143 29144 29145 29146 29147 29148 29149 29150 29151 29152 29153 29154 29155 29156 29157 29158 29159 29160 29161 29162 29163 29164 29165 29166 29167 29168 29169 29170 29171 29172 29173 29174 29175 29176 29177 29178 29179 29180 29181 29182 29183 29184 29185 29186 29187 29188 29189 29190 29191 29192 29193 29194 29195 29196 29197 29198 29199 29200 29201 29202 29203 29204 29205 29206 29207 29208 29209 29210 29211 29212 29213 29214 29215 29216 29217 29218 29219 29220 29221 29222 29223 29224 29225 29226 29227 29228 29229 29230 29231 29232 29233 29234 29235 29236 29237 29238 29239 29240 29241 29242 29243 29244 29245 29246 29247 29248 29249 29250 29251 29252 29253 29254 29255 29256 29257 29258 29259 29260 29261 29262 29263 29264 29265 29266 29267 29268 29269 29270 29271 29272 29273 29274 29275 29276 29277 29278 29279 29280 29281 29282 29283 29284 29285 29286 29287 29288 29289 29290 29291 29292 29293 29294 29295 29296 29297 29298 29299 29300 29301 29302 29303 29304 29305 29306 29307 29308 29309 29310 29311 29312 29313 29314 29315 29316 29317 29318 29319 29320 29321 29322 29323 29324 29325 29326 29327 29328 29329 29330 29331 29332 29333 29334 29335 29336 29337 29338 29339 29340 29341 29342 29343 29344 29345 29346 29347 29348 29349 29350 29351 29352 29353 29354 29355 29356 29357 29358 29359 29360 29361 29362 29363 29364 29365 29366 29367 29368 29369 29370 29371 29372 29373 29374 29375 29376 29377 29378 29379 29380 29381 29382 29383 29384 29385 29386 29387 29388 29389 29390 29391 29392 29393 29394 29395 29396 29397 29398 29399 29400 29401 29402 29403 29404 29405 29406 29407 29408 29409 29410 29411 29412 29413 29414 29415 29416 29417 29418 29419 29420 29421 29422 29423 29424 29425 29426 29427 29428 29429 29430 29431 29432 29433 29434 29435 29436 29437 29438 29439 29440 29441 29442 29443 29444 29445 29446 29447 29448 29449 29450 29451 29452 29453 29454 29455 29456 29457 29458 29459 29460 29461 29462 29463 29464 29465 29466 29467 29468 29469 29470 29471 29472 29473 29474 29475 29476 29477 29478 29479 29480 29481 29482 29483 29484 29485 29486 29487 29488 29489 29490 29491 29492 29493 29494 29495 29496 29497 29498 29499 29500 29501 29502 29503 29504 29505 29506 29507 29508 29509 29510 29511 29512 29513 29514 29515 29516 29517 29518 29519 29520 29521 29522 29523 29524 29525 29526 29527 29528 29529 29530 29531 29532 29533 29534 29535 29536 29537 29538 29539 29540 29541 29542 29543 29544 29545 29546 29547 29548 29549 29550 29551 29552 29553 29554 29555 29556 29557 29558 29559 29560 29561 29562 29563 29564 29565 29566 29567 29568 29569 29570 29571 29572 29573 29574 29575 29576 29577 29578 29579 29580 29581 29582 29583 29584 29585 29586 29587 29588 29589 29590 29591 29592 29593 29594 29595 29596 29597 29598 29599 29600 29601 29602 29603 29604 29605 29606 29607 29608 29609 29610 29611 29612 29613 29614 29615 29616 29617 29618 29619 29620 29621 29622 29623 29624 29625 29626 29627 29628 29629 29630 29631 29632 29633 29634 29635 29636 29637 29638 29639 29640 29641 29642 29643 29644 29645 29646 29647 29648 29649 29650 29651 29652 29653 29654 29655 29656 29657 29658 29659 29660 29661 29662 29663 29664 29665 29666 29667 29668 29669 29670 29671 29672 29673 29674 29675 29676 29677 29678 29679 29680 29681 29682 29683 29684 29685 29686 29687 29688 29689 29690 29691 29692 29693 29694 29695 29696 29697 29698 29699 29700 29701 29702 29703 29704 29705 29706 29707 29708 29709 29710 29711 29712 29713 29714 29715 29716 29717 29718 29719 29720 29721 29722 29723 29724 29725 29726 29727 29728 29729 29730 29731 29732 29733 29734 29735 29736 29737 29738 29739 29740 29741 29742 29743 29744 29745 29746 29747 29748 29749 29750 29751 29752 29753 29754 29755 29756 29757 29758 29759 29760 29761 29762 29763 29764 29765 29766 29767 29768 29769 29770 29771 29772 29773 29774 29775 29776 29777 29778 29779 29780 29781 29782 29783 29784 29785 29786 29787 29788 29789 29790 29791 29792 29793 29794 29795 29796 29797 29798 29799 29800 29801 29802 29803 29804 29805 29806 29807 29808 29809 29810 29811 29812 29813 29814 29815 29816 29817 29818 29819 29820 29821 29822 29823 29824 29825 29826 29827 29828 29829 29830 29831 29832 29833 29834 29835 29836 29837 29838 29839 29840 29841 29842 29843 29844 29845 29846 29847 29848 29849 29850 29851 29852 29853 29854 29855 29856 29857 29858 29859 29860 29861 29862 29863 29864 29865 29866 29867 29868 29869 29870 29871 29872 29873 29874 29875 29876 29877 29878 29879 29880 29881 29882 29883 29884 29885 29886 29887 29888 29889 29890 29891 29892 29893 29894 29895 29896 29897 29898 29899 29900 29901 29902 29903 29904 29905 29906 29907 29908 29909 29910 29911 29912 29913 29914 29915 29916 29917 29918 29919 29920 29921 29922 29923 29924 29925 29926 29927 29928 29929 29930 29931 29932 29933 29934 29935 29936 29937 29938 29939 29940 29941 29942 29943 29944 29945 29946 29947 29948 29949 29950 29951 29952 29953 29954 29955 29956 29957 29958 29959 29960 29961 29962 29963 29964 29965 29966 29967 29968 29969 29970 29971 29972 29973 29974 29975 29976 29977 29978 29979 29980 29981 29982 29983 29984 29985 29986 29987 29988 29989 29990 29991 29992 29993 29994 29995 29996 29997 29998 29999 30000 30001 30002 30003 30004 30005 30006 30007 30008 30009 30010 30011 30012 30013 30014 30015 30016 30017 30018 30019 30020 30021 30022 30023 30024 30025 30026 30027 30028 30029 30030 30031 30032 30033 30034 30035 30036 30037 30038 30039 30040 30041 30042 30043 30044 30045 30046 30047 30048 30049 30050 30051 30052 30053 30054 30055 30056 30057 30058 30059 30060 30061 30062 30063 30064 30065 30066 30067 30068 30069 30070 30071 30072 30073 30074 30075 30076 30077 30078 30079 30080 30081 30082 30083 30084 30085 30086 30087 30088 30089 30090 30091 30092 30093 30094 30095 30096 30097 30098 30099 30100 30101 30102 30103 30104 30105 30106 30107 30108 30109 30110 30111 30112 30113 30114 30115 30116 30117 30118 30119 30120 30121 30122 30123 30124 30125 30126 30127 30128 30129 30130 30131 30132 30133 30134 30135 30136 30137 30138 30139 30140 30141 30142 30143 30144 30145 30146 30147 30148 30149 30150 30151 30152 30153 30154 30155 30156 30157 30158 30159 30160 30161 30162 30163 30164 30165 30166 30167 30168 30169 30170 30171 30172 30173 30174 30175 30176 30177 30178 30179 30180 30181 30182 30183 30184 30185 30186 30187 30188 30189 30190 30191 30192 30193 30194 30195 30196 30197 30198 30199 30200 30201 30202 30203 30204 30205 30206 30207 30208 30209 30210 30211 30212 30213 30214 30215 30216 30217 30218 30219 30220 30221 30222 30223 30224 30225 30226 30227 30228 30229 30230 30231 30232 30233 30234 30235 30236 30237 30238 30239 30240 30241 30242 30243 30244 30245 30246 30247 30248 30249 30250 30251 30252 30253 30254 30255 30256 30257 30258 30259 30260 30261 30262 30263 30264 30265 30266 30267 30268 30269 30270 30271 30272 30273 30274 30275 30276 30277 30278 30279 30280 30281 30282 30283 30284 30285 30286 30287 30288 30289 30290 30291 30292 30293 30294 30295 30296 30297 30298 30299 30300 30301 30302 30303 30304 30305 30306 30307 30308 30309 30310 30311 30312 30313 30314 30315 30316 30317 30318 30319 30320 30321 30322 30323 30324 30325 30326 30327 30328 30329 30330 30331 30332 30333 30334 30335 30336 30337 30338 30339 30340 30341 30342 30343 30344 30345 30346 30347 30348 30349 30350 30351 30352 30353 30354 30355 30356 30357 30358 30359 30360 
</DataArray>
<DataArray type="UInt32" Name="offsets" format="ascii">
3 6 9 12 14 17 20 22 25 28 31 33 35 38 41 44 47 49 52 55 58 60 63 66 69 72 75 77 80 83 86 88 91 94 97 100 103 106 109 111 113 116 119 122 125 128 131 134 137 140 143 146 149 152 155 157 160 163 165 168 171 174 177 180 183 186 189 192 195 198 201 204 207 210 213 216 219 222 225 228 231 234 236 239 241 244 247 249 251 254 257 260 262 265 268 270 273 276 279 282 285 288 290 293 296 299 301 304 306 309 312 315 318 321 324 327 330 333 336 339 342 345 348 351 354 357 360 363 366 369 372 375 378 381 384 387 390 393 396 398 401 404 407 409 412 415 418 421 424 427 430 433 436 439 442 445 448 451 454 457 460 463 466 469 472 475 478 481 483 486 489 492 495 498 501 504 507 510 513 516 519 522 525 528 531 534 537 540 543 546 549 552 555 558 560 563 566 569 572 574 577 580 583 586 589 592 595 598 601 604 607 610 613 616 619 622 625 628 631 634 637 640 643 646 649 652 655 657 660 662 665 668 671 674 677 680 683 685 688 691 694 697 700 703 706 709 712 714 717 720 723 726 729 732 735 738 741 744 747 750 753 756 759 762 764 767 770 772 775 778 781 784 787 790 793 796 799 801 804 807 809 812 815 818 821 824 827 830 833 836 839 842 845 847 850 853 856 859 862 865 868 871 874 877 880 883 886 889 892 895 898 901 904 907 910 913 916 919 922 925 928 931 934 937 940 943 946 949 952 955 958 961 964 967 970 973 976 979 982 985 988 991 994 997 1000 1003 1006 1009 1012 1015 1018 1021 1024 1027 1030 1033 1036 1039 1042 1044 1047 1050 1053 1055 1058 1060 1063 1066 1068 1071 1073 1075 1078 1081 1084 1087 1090 1093 1096 1099 1102 1105 1108 1111 1114 1116 1119 1122 1125 1128 1131 1134 1137 1139 1142 1145 1148 1151 1154 1157 1160 1163 1166 1169 1172 1175 1178 1181 1184 1186 1189 1192 1195 1198 1201 1204 1206 1209 1212 1215 1218 1221 1224 1227 1230 1233 1236 1239 1242 1245 1248 1251 1254 1257 1260 1263 1266 1269 1272 1275 1278 1281 1284 1286 1289 1291 1293 1296 1299 1302 1305 1308 1311 1314 1317 1320 1323 1326 1328 1331 1334 1336 1339 1342 1345 1348 1351 1353 1356 1359 1361 1364 1367 1370 1373 1376 1378 1381 1384 1387 1390 1393 1396 1399 1402 1405 1407 1410 1413 1416 1419 1421 1424 1427 1429 1432 1435 1438 1441 1443 1446 1449 1452 1455 1458 1461 1464 1466 1469 1472 1475 1478 1480 1483 1485 1488 1491 1494 1497 1500 1503 1506 1509 1511 1513 1516 1519 1522 1525 1527 1530 1533 1536 1538 1541 1543 1546 1548 1550 1553 1555 1558 1561 1564 1567 1570 1573 1576 1578 1581 1584 1586 1589 1592 1595 1598 1600 1603 1606 1609 1611 1613 1616 1619 1622 1625 1628 1630 1633 1636 1639 1642 1645 1648 1650 1653 1656 1659 1662 1665 1668 1671 1674 1677 1680 1683 1686 1689 1692 1695 1698 1701 1704 1707 1710 1713 1716 1719 1722 1725 1728 1731 1734 1737 1740 1743 1746 1749 1752 1755 1758 1761 1764 1766 1769 1772 1775 1777 1780 1783 1786 1789 1792 1795 1798 1800 1803 1806 1809 1812 1815 1818 1821 1824 1827 1830 1833 1836 1839 1842 1845 1848 1851 1854 1857 1860 1863 1866 1869 1872 1875 1878 1881 1884 1887 1889 1892 1894 1897 1900 1903 1905 1908 1911 1914 1917 1919 1922 1925 1928 1931 1934 1936 1939 1942 1945 1948 1951 1954 1957 1960 1963 1966 1968 1970 1973 1976 1979 1982 1985 1988 1991 1993 1996 1998 2001 2004 2007 2010 2013 2015 2018 2021 2024 2027 2030 2033 2036 2038 2041 2044 2047 2049 2052 2054 2057 2060 2062 2064 2067 2070 2072 2075 2077 2080 2082 2084 2087 2090 2093 2096 2099 2101 2104 2107 2110 2112 2115 2118 2121 2124 2127 2130 2132 2135 2138 2141 2143 2146 2149 2151 2154 2157 2160 2163 2166 2169 2172 2175 2178 2181 2184 2187 2190 2192 2195 2198 2201 2204 2207 2210 2213 2216 2219 2222 2225 2228 2231 2234 2237 2240 2243 2246 2249 2252 2255 2258 2261 2263 2265 2268 2271 2274 2277 2279 2282 2284 2287 2290 2293 2296 2299 2302 2305 2308 2311 2314 2316 2319 2322 2325 2328 2331 2334 2337 2340 2343 2346 2349 2352 2355 2358 2361 2364 2367 2370 2373 2376 2379 2382 2385 2388 2391 2394 2397 2400 2403 2406 2409 2412 2415 2417 2420 2422 2425 2428 2431 2434 2437 2440 2443 2445 2447 2450 2453 2456 2459 2462 2465 2468 2471 2474 2477 2480 2483 2486 2489 2492 2495 2498 2500 2503 2506 2508 2511 2514 2517 2520 2523 2526 2529 2531 2534 2537 2539 2542 2545 2548 2550 2553 2556 2559 2562 2565 2568 2571 2574 2577 2580 2583 2586 2589 2592 2595 2598 2601 2604 2606 2609 2612 2614 2617 2620 2623 2626 2629 2631 2634 2637 2639 2642 2645 2648 2650 2653 2656 2658 2661 2664 2667 2670 2673 2676 2679 2682 2685 2688 2691 2694 2697 2700 2702 2705 2708 2711 2714 2717 2720 2723 2726 2729 2731 2734 2737 2740 2743 2746 2749 2752 2754 2757 2760 2763 2766 2769 2771 2774 2777 2780 2783 2786 2789 2792 2795 2798 2801 2804 2806 2809 2812 2815 2818 2821 2824 2827 2830 2833 2835 2838 2841 2844 2846 2849 2852 2855 2857 2860 2863 2866 2869 2872 2875 2878 2880 2883 2886 2888 2891 2894 2897 2899 2901 2904 2906 2909 2912 2915 2918 2921 2924 2927 2930 2933 2935 2938 2941 2944 2947 2949 2951 2953 2955 2957 2960 2962 2965 2968 2971 2973 2976 2979 2981 2983 2986 2989 2991 2994 2997 3000 3002 3005 3008 3010 3013 3016 3019 3022 3025 3027 3030 3033 3036 3039 3042 3045 3048 3051 3054 3057 3060 3063 3066 3068 3070 3073 3076 3078 3080 3083 3086 3088 3091 3094 3097 3099 3102 3105 3108 3111 3114 3116 3119 3122 3124 3127 3129 3132 3135 3138 3141 3144 3147 3150 3153 3155 3158 3160 3163 3166 3169 3171 3173 3176 3179 3182 3184 3186 3189 3191 3194 3197 3200 3203 3206 3209 3211 3214 3217 3219 3222 3225 3228 3230 3232 3235 3237 3240 3242 3245 3247 3250 3253 3256 3259 3262 3264 3267 3270 3273 3276 3278 3281 3284 3287 3290 3292 3295 3298 3301 3304 3307 3310 3312 3315 3318 3321 3324 3327 3330 3333 3336 3338 3341 3344 3347 3350 3353 3356 3358 3361 3364 3367 3370 3373 3376 3379 3382 3385 3387 3390 3393 3396 3399 3401 3404 3407 3409 3412 3414 3417 3420 3422 3425 3428 3431 3433 3435 3438 3441 3444 3447 3449 3452 3455 3458 3460 3463 3466 3469 3472 3475 3478 3481 3484 3487 3490 3493 3496 3499 3502 3505 3508 3511 3514 3517 3520 3523 3526 3528 3530 3533 3535 3538 3540 3543 3545 3548 3551 3553 3556 3559 3562 3565 3568 3571 3574 3577 3580 3582 3585 3588 3591 3594 3596 3599 3601 3604 3607 3610 3613 3615 3617 3619 3621 3624 3627 3629 3632 3635 3637 3640 3643 3645 3647 3650 3653 3655 3658 3661 3664 3666 3669 3672 3674 3677 3680 3682 3685 3688 3690 3693 3696 3699 3702 3704 3707 3710 3713 3715 3717 3720 3723 3726 3728 3731 3734 3737 3740 3743 3746 3749 3752 3755 3758 3761 3764 3767 3769 3771 3774 3777 3780 3783 3785 3787 3790 3793 3796 3798 3801 3804 3807 3810 3813 3816 3819 3821 3824 3827 3830 3833 3836 3839 3842 3845 3848 3851 3854 3857 3860 3863 3866 3869 3872 3875 3878 3881 3884 3887 3890 3893 3896 3899 3902 3905 3908 3911 3914 3917 3920 3923 3926 3929 3932 3935 3938 3941 3944 3947 3950 3953 3955 3958 3961 3964 3967 3970 3973 3976 3979 3982 3985 3988 3991 3993 3996 3999 4002 4004 4007 4010 4013 4016 4018 4021 4024 4027 4030 4033 4036 4039 4042 4044 4047 4050 4053 4056 4059 4062 4065 4068 4071 4074 4077 4080 4083 4086 4089 4091 4094 4097 4099 4102 4105 4107 4110 4113 4116 4119 4121 4124 4127 4130 4133 4136 4139 4142 4145 4148 4151 4154 4157 4160 4163 4165 4168 4171 4174 4177 4179 4182 4185 4188 4190 4193 4195 4198 4201 4204 4207 4209 4211 4214 4217 4219 4222 4225 4228 4231 4234 4236 4239 4241 4244 4247 4250 4253 4256 4259 4262 4265 4267 4270 4273 4275 4278 4281 4283 4285 4288 4291 4294 4297 4299 4302 4305 4308 4311 4314 4317 4320 4323 4326 4328 4331 4334 4337 4340 4342 4345 4347 4350 4353 4356 4359 4362 4364 4366 4369 4372 4374 4377 4380 4383 4386 4388 4391 4394 4396 4398 4401 4403 4405 4407 4409 4412 4415 4417 4420 4423 4425 4428 4431 4434 4437 4440 4443 4446 4449 4452 4455 4458 4461 4464 4467 4470 4473 4476 4478 4481 4483 4486 4488 4490 4493 4496 4499 4501 4504 4507 4510 4513 4516 4519 4522 4525 4528 4530 4533 4536 4539 4542 4545 4548 4551 4554 4557 4560 4563 4566 4569 4572 4575 4578 4581 4584 4587 4590 4593 4596 4599 4602 4605 4608 4611 4614 4616 4619 4621 4624 4627 4629 4632 4635 4638 4641 4643 4646 4649 4652 4655 4658 4661 4664 4667 4670 4673 4676 4679 4682 4685 4688 4691 4694 4697 4700 4703 4705 4708 4711 4713 4716 4719 4722 4725 4728 4731 4734 4737 4739 4742 4745 4748 4751 4754 4757 4760 4763 4766 4769 4772 4775 4778 4781 4783 4786 4789 4792 4795 4798 4801 4804 4807 4810 4812 4815 4818 4821 4824 4827 4830 4832 4835 4838 4841 4844 4847 4850 4853 4855 4858 4861 4864 4867 4870 4873 4875 4878 4881 4884 4887 4890 4893 4896 4899 4901 4904 4907 4910 4913 4916 4919 4921 4924 4927 4930 4932 4935 4938 4940 4943 4946 4949 4952 4955 4958 4960 4963 4966 4968 4970 4973 4976 4978 4981 4984 4987 4989 4992 4995 4997 5000 5003 5006 5009 5012 5015 5018 5021 5024 5027 5030 5033 5036 5039 5042 5045 5048 5051 5054 5057 5060 5063 5066 5069 5072 5075 5077 5080 5083 5085 5088 5091 5094 5097 5099 5102 5105 5108 5111 5114 5117 5119 5122 5125 5128 5131 5134 5137 5140 5143 5146 5149 5152 5155 5158 5161 5164 5167 5170 5172 5175 5178 5181 5184 5187 5190 5192 5195 5198 5201 5204 5207 5210 5213 5216 5219 5222 5225 5228 5231 5234 5237 5240 5243 5246 5249 5252 5254 5257 5260 5263 5266 5269 5272 5275 5278 5281 5283 5286 5288 5291 5294 5297 5299 5302 5305 5308 5311 5314 5317 5320 5323 5326 5329 5331 5334 5337 5340 5343 5346 5349 5352 5355 5358 5361 5364 5367 5370 5373 5376 5379 5382 5385 5388 5391 5394 5397 5399 5402 5404 5407 5410 5413 5416 5419 5422 5425 5428 5431 5434 5437 5439 5442 5445 5448 5451 5454 5457 5460 5462 5464 5467 5470 5473 5476 5478 5481 5483 5486 5488 5491 5494 5497 5500 5503 5506 5508 5511 5513 5516 5519 5522 5525 5528 5531 5534 5537 5540 5542 5545 5548 5550 5553 5556 5559 5562 5565 5568 5571 5574 5577 5580 5583 5586 5589 5592 5595 5598 5601 5604 5607 5610 5613 5616 5619 5622 5625 5628 5631 5634 5637 5640 5643 5646 5649 5652 5655 5658 5661 5664 5667 5670 5673 5676 5679 5682 5685 5688 5691 5693 5696 5699 5702 5704 5707 5710 5713 5716 5719 5722 5725 5728 5731 5734 5737 5739 5742 5745 5748 5751 5753 5756 5759 5762 5765 5768 5770 5773 5776 5779 5782 5784 5787 5790 5793 5796 5798 5801 5803 5806 5808 5811 5814 5816 5818 5820 5823 5826 5829 5831 5834 5837 5840 5843 5846 5848 5851 5854 5857 5860 5862 5865 5868 5871 5874 5877 5880 5883 5886 5889 5892 5895 5898 5900 5903 5906 5908 5911 5914 5916 5919 5921 5924 5927 5930 5932 5935 5938 5941 5944 5946 5949 5952 5955 5958 5961 5963 5966 5969 5972 5975 5977 5980 5983 5986 5989 5992 5995 5998 6000 6003 6006 6009 6011 6014 6017 6020 6023 6026 6029 6032 6035 6038 6041 6044 6047 6050 6053 6056 6059 6062 6065 6068 6071 6074 6077 6080 6083 6086 6089 6092 6095 6098 6100 6103 6105 6108 6111 6114 6117 6119 6122 6125 6128 6131 6134 6137 6139 6142 6145 6148 6151 6154 6157 6160 6163 6166 6169 6172 6175 6178 6181 6184 6186 6189 6192 6195 6198 6201 6204 6207 6210 6213 6216 6219 6222 6225 6228 6231 6234 6237 6240 6243 6246 6249 6252 6254 6257 6260 6263 6265 6268 6270 6273 6276 6278 6281 6284 6287 6289 6292 6295 6297 6300 6303 6305 6308 6310 6313 6316 6319 6322 6325 6328 6331 6334 6337 6340 6343 6346 6349 6351 6354 6357 6360 6363 6366 6369 6372 6374 6377 6380 6383 6386 6389 6392 6395 6398 6400 6403 6406 6409 6412 6415 6418 6420 6423 6426 6429 6432 6435 6438 6441 6444 6447 6449 6452 6455 6457 6460 6463 6466 6469 6471 6474 6477 6480 6482 6484 6487 6490 6493 6495 6498 6500 6503 6506 6509 6512 6514 6516 6519 6522 6525 6527 6530 6533 6535 6538 6541 6543 6546 6549 6552 6555 6558 6561 6564 6567 6570 6573 6576 6579 6581 6584 6587 6590 6593 6596 6599 6602 6605 6608 6610 6613 6616 6619 6621 6623 6626 6629 6631 6634 6637 6640 6643 6646 6649 6652 6655 6658 6661 6664 6667 6669 6672 6675 6678 6681 6684 6687 6690 6693 6696 6699 6702 6705 6708 6711 6714 6717 6720 6723 6726 6729 6732 6735 6738 6741 6744 6747 6750 6753 6756 6759 6762 6765 6768 6771 6774 6777 6780 6783 6786 6789 6792 6795 6798 6801 6804 6807 6810 6813 6816 6819 6822 6825 6828 6831 6834 6837 6840 6843 6846 6849 6852 6855 6858 6861 6864 6867 6870 6873 6876 6879 6882 6885 6888 6890 6892 6895 6898 6900 6903 6906 6909 6912 6915 6918 6921 6924 6927 6930 6932 6935 6938 6940 6943 6946 6949 6952 6955 6958 6961 6964 6967 6970 6973 6976 6979 6981 6983 6986 6989 6992 6995 6998 7001 7003 7005 7008 7011 7014 7017 7020 7023 7026 7029 7032 7035 7038 7041 7044 7046 7049 7052 7054 7057 7060 7063 7066 7069 7072 7075 7078 7081 7084 7087 7090 7093 7096 7099 7102 7105 7108 7111 7114 7117 7120 7123 7126 7129 7132 7135 7138 7141 7143 7146 7149 7152 7155 7158 7161 7164 7167 7170 7173 7176 7179 7182 7185 7188 7191 7194 7197 7200 7203 7206 7208 7211 7214 7217 7220 7223 7226 7229 7232 7235 7238 7241 7244 7247 7250 7253 7255 7258 7261 7264 7267 7270 7273 7276 7279 7282 7285 7287 7289 7292 7295 7298 7300 7303 7306 7309 7312 7315 7318 7321 7324 7327 7330 7333 7336 7339 7341 7344 7347 7350 7353 7356 7359 7362 7365 7368 7371 7374 7377 7379 7382 7385 7388 7391 7394 7397 7400 7403 7406 7409 7412 7415 7418 7421 7424 7427 7430 7433 7436 7439 7442 7445 7448 7451 7454 7457 7460 7463 7466 7469 7472 7475 7478 7481 7484 7487 7490 7493 7496 7499 7502 7505 7508 7511 7514 7517 7520 7522 7525 7528 7531 7533 7536 7539 7542 7545 7548 7551 7554 7557 7560 7563 7566 7568 7571 7574 7576 7578 7581 7584 7587 7590 7593 7596 7599 7602 7604 7607 7609 7612 7615 7618 7621 7624 7627 7630 7633 7636 7639 7641 7644 7647 7649 7652 7654 7657 7660 7662 7665 7668 7671 7674 7677 7680 7683 7685 7688 7690 7693 7696 7699 7702 7704 7707 7710 7713 7716 7719 7722 7724 7727 7730 7733 7736 7739 7742 7745 7748 7751 7754 7757 7760 7763 7766 7769 7772 7775 7778 7781 7784 7787 7790 7793 7796 7799 7802 7805 7808 7811 7814 7817 7820 7823 7826 7829 7831 7834 7837 7839 7842 7844 7847 7850 7852 7855 7858 7861 7864 7867 7870 7873 7876 7879 7882 7885 7888 7891 7894 7897 7900 7903 7906 7909 7912 7914 7917 7920 7923 7925 7928 7931 7934 7937 7940 7943 7946 7949 7952 7955 7958 7961 7964 7967 7970 7973 7976 7979 7982 7985 7988 7991 7994 7997 8000 8003 8006 8009 8012 8015 8018 8021 8024 8027 8030 8033 8036 8039 8042 8045 8048 8051 8054 8057 8060 8063 8066 8069 8072 8075 8078 8081 8084 8087 8089 8092 8095 8098 8101 8104 8107 8110 8113 8116 8119 8122 8125 8128 8131 8134 8137 8140 8143 8146 8149 8152 8155 8158 8161 8164 8167 8170 8173 8176 8179 8182 8185 8188 8191 8194 8196 8198 8201 8204 8207 8210 8213 8216 8219 8222 8224 8227 8230 8233 8236 8238 8241 8244 8247 8250 8253 8256 8259 8262 8265 8268 8271 8274 8277 8280 8283 8286 8289 8292 8295 8298 8301 8304 8307 8310 8313 8316 8319 8322 8325 8328 8331 8334 8337 8340 8343 8346 8349 8352 8355 8358 8361 8364 8366 8369 8372 8374 8377 8380 8383 8386 8389 8392 8395 8398 8401 8404 8407 8410 8413 8416 8418 8421 8424 8427 8430 8433 8436 8439 8442 8445 8448 8451 8454 8457 8460 8463 8465 8468 8470 8473 8476 8479 8482 8485 8487 8490 8493 8496 8499 8502 8505 8508 8511 8514 8516 8519 8522 8525 8528 8531 8534 8537 8540 8542 8545 8548 8551 8554 8557 8560 8563 8566 8569 8572 8575 8578 8581 8584 8587 8590 8593 8596 8598 8601 8603 8606 8609 8612 8615 8618 8621 8624 8626 8629 8632 8635 8638 8641 8643 8646 8649 8652 8655 8657 8660 8662 8665 8668 8671 8674 8677 8680 8683 8686 8689 8692 8695 8698 8701 8704 8707 8709 8712 8715 8718 8720 8723 8726 8728 8731 8734 8737 8740 8742 8745 8748 8751 8754 8757 8760 8763 8765 8768 8771 8774 8777 8780 8783 8786 8789 8792 8795 8798 8801 8804 8807 8810 8813 8816 8819 8822 8825 8827 8830 8833 8835 8838 8841 8844 8847 8850 8853 8856 8859 8862 8865 8868 8871 8874 8877 8879 8882 8885 8888 8891 8894 8897 8900 8903 8906 8909 8912 8915 8918 8921 8923 8926 8929 8932 8935 8938 8941 8943 8946 8949 8952 8955 8958 8961 8964 8967 8970 8973 8976 8979 8982 8985 8988 8991 8994 8996 8999 9002 9005 9008 9011 9013 9016 9019 9022 9025 9028 9031 9034 9037 9040 9042 9045 9048 9051 9053 9056 9059 9062 9065 9068 9071 9074 9077 9080 9083 9085 9088 9091 9094 9096 9099 9102 9105 9108 9110 9113 9116 9119 9122 9124 9127 9130 9133 9135 9138 9141 9144 9147 9150 9153 9156 9159 9161 9164 9167 9170 9173 9175 9178 9181 9184 9187 9190 9193 9196 9199 9202 9204 9207 9210 9213 9216 9218 9221 9223 9226 9229 9232 9235 9238 9241 9243 9246 9249 9252 9254 9257 9259 9262 9265 9268 9271 9274 9277 9280 9283 9286 9289 9292 9295 9298 9301 9304 9307 9310 9313 9316 9319 9322 9325 9328 9331 9334 9337 9340 9343 9346 9349 9352 9355 9358 9361 9364 9367 9370 9373 9376 9379 9382 9385 9388 9391 9394 9397 9400 9403 9406 9409 9412 9415 9418 9421 9424 9427 9430 9432 9435 9438 9441 9444 9447 9450 9453 9456 9458 9461 9464 9467 9470 9472 9475 9478 9481 9484 9487 9490 9493 9496 9499 9502 9504 9507 9510 9512 9515 9518 9521 9524 9527 9530 9533 9535 9538 9541 9544 9547 9550 9552 9555 9558 9561 9564 9567 9570 9572 9575 9578 9581 9584 9586 9589 9592 9595 9598 9601 9604 9607 9610 9613 9616 9618 9621 9624 9627 9630 9633 9635 9638 9641 9643 9646 9649 9652 9655 9658 9661 9664 9667 9670 9673 9676 9679 9682 9685 9688 9691 9694 9697 9700 9703 9706 9708 9711 9714 9717 9720 9723 9725 9728 9731 9734 9737 9740 9743 9746 9749 9752 9755 9758 9761 9764 9767 9770 9773 9776 9779 9782 9785 9788 9791 9794 9797 9799 9802 9805 9808 9811 9813 9816 9819 9821 9824 9827 9830 9833 9836 9839 9842 9845 9848 9851 9854 9856 9859 9862 9865 9868 9871 9874 9877 9880 9883 9886 9889 9891 9894 9896 9899 9902 9905 9907 9910 9913 9916 9919 9921 9924 9927 9930 9933 9936 9939 9942 9945 9948 9951 9953 9956 9959 9962 9965 9967 9970 9973 9976 9979 9982 9984 9987 9990 9992 9995 9998 10001 10004 10007 10010 10013 10016 10019 10022 10025 10027 10030 10033 10036 10038 10041 10044 10046 10049 10052 10055 10058 10061 10064 10067 10070 10073 10075 10078 10081 10084 10087 10090 10093 10096 10099 10102 10105 10108 10111 10114 10116 10119 10122 10125 10128 10131 10134 10137 10140 10143 10145 10148 10151 10154 10157 10160 10162 10165 10168 10170 10172 10175 10178 10181 10183 10185 10188 10191 10193 10196 10199 10202 10205 10207 10210 10213 10216 10219 10221 10224 10227 10230 10233 10236 10239 10242 10245 10248 10251 10254 10256 10258 10260 10263 10265 10268 10270 10273 10275 10277 10280 10283 10286 10289 10292 10295 10298 10301 10304 10307 10310 10313 10315 10318 10321 10324 10327 10330 10333 10336 10339 10342 10345 10348 10351 10354 10357 10360 10363 10366 10369 10372 10375 10378 10381 10383 10386 10389 10392 10395 10397 10400 10403 10406 10409 10412 10415 10418 10420 10423 10426 10429 10432 10435 10437 10440 10443 10446 10449 10452 10455 10458 10461 10464 10467 10470 10473 10476 10479 10482 10485 10488 10491 10494 10497 10500 10503 10506 10509 10512 10515 10518 10521 10524 10527 10530 10533 10535 10538 10541 10544 10547 10550 10552 10554 10556 10559 10562 10565 10568 10571 10574 10576 10579 10582 10584 10587 10589 10592 10595 10597 10600 10603 10606 10609 10612 10615 10618 10620 10623 10626 10629 10631 10634 10637 10640 10643 10646 10649 10652 10655 10658 10661 10664 10667 10670 10673 10676 10679 10682 10685 10688 10691 10694 10697 10700 10703 10706 10709 10712 10715 10718 10721 10724 10727 10730 10733 10736 10739 10742 10745 10748 10751 10754 10757 10760 10763 10766 10769 10772 10775 10778 10781 10784 10787 10790 10793 10796 10799 10802 10805 10808 10811 10814 10817 10820 10823 10826 10829 10832 10835 10838 10841 10844 10847 10850 10853 10856 10859 10862 10865 10868 10871 10874 10877 10880 10883 10885 10888 10891 10894 10897 10900 10903 10906 10909 10912 10915 10918 10921 10924 10927 10930 10933 10936 10939 10942 10945 10948 10951 10954 10957 10960 10963 10966 10969 10971 10974 10977 10980 10983 10986 10989 10992 10995 10997 11000 11003 11006 11009 11012 11014 11017 11019 11021 11023 11026 11028 11031 11034 11037 11039 11042 11045 11048 11051 11054 11057 11060 11063 11066 11069 11072 11074 11077 11080 11083 11086 11089 11092 11095 11098 11101 11104 11107 11110 11113 11115 11118 11121 11124 11127 11130 11133 11136 11139 11142 11145 11147 11149 11152 11154 11157 11160 11163 11166 11169 11172 11175 11178 11181 11184 11186 11189 11191 11194 11197 11200 11203 11206 11209 11212 11215 11218 11221 11223 11226 11229 11232 11234 11237 11240 11243 11246 11249 11252 11255 11258 11261 11264 11267 11270 11273 11276 11279 11282 11285 11288 11291 11294 11297 11300 11303 11306 11308 11311 11314 11316 11318 11321 11324 11326 11329 11332 11334 11337 11340 11343 11346 11349 11352 11355 11358 11361 11364 11367 11370 11373 11376 11379 11382 11385 11388 11391 11394 11397 11400 11403 11406 11409 11412 11415 11418 11421 11424 11427 11430 11433 11436 11439 11442 11445 11448 11451 11454 11457 11460 11463 11466 11469 11471 11474 11477 11480 11483 11486 11489 11492 11495 11497 11499 11502 11505 11508 11511 11514 11516 11519 11522 11525 11527 11530 11533 11536 11539 11542 11545 11547 11550 11553 11556 11559 11562 11565 11568 11571 11574 11577 11580 11582 11585 11588 11591 11594 11597 11599 11602 11605 11608 11611 11614 11617 11620 11623 11626 11629 11632 11635 11637 11640 11643 11646 11648 11651 11654 11657 11660 11663 11666 11669 11671 11674 11677 11680 11683 11686 11689 11692 11695 11698 11700 11702 11705 11708 11711 11714 11717 11720 11723 11726 11729 11732 11735 11738 11741 11744 11746 11749 11752 11755 11757 11760 11763 11766 11769 11772 11775 11778 11781 11784 11787 11790 11793 11796 11799 11802 11805 11808 11811 11814 11816 11819 11821 11823 11826 11829 11832 11834 11836 11839 11841 11843 11846 11849 11852 11855 11858 11860 11863 11865 11868 11871 11874 11877 11880 11883 11886 11889 11892 11894 11896 11899 11902 11904 11906 11909 11912 11915 11918 11921 11924 11926 11929 11932 11935 11937 11940 11943 11946 11949 11952 11955 11958 11961 11964 11967 11970 11973 11976 11979 11982 11985 11988 11991 11994 11997 12000 12003 12006 12009 12012 12015 12018 12020 12023 12025 12028 12031 12034 12037 12039 12042 12045 12047 12049 12052 12055 12058 12060 12063 12066 12068 12071 12074 12076 12079 12082 12085 12088 12091 12094 12097 12100 12103 12106 12109 12112 12115 12118 12121 12124 12127 12129 12132 12135 12138 12141 12144 12147 12150 12153 12156 12159 12162 12165 12168 12170 12173 12176 12179 12182 12185 12187 12190 12192 12195 12198 12201 12204 12207 12210 12212 12215 12218 12221 12223 12226 12229 12232 12235 12238 12241 12244 12247 12250 12253 12256 12259 12262 12265 12268 12271 12274 12277 12280 12283 12286 12289 12292 12295 12298 12300 12303 12306 12309 12312 12315 12317 12320 12323 12326 12329 12332 12335 12338 12341 12344 12347 12350 12353 12356 12359 12362 12365 12368 12371 12374 12377 12380 12383 12386 12389 12392 12395 12398 12401 12404 12407 12410 12413 12416 12419 12422 12425 12428 12431 12434 12437 12440 12443 12446 12449 12452 12455 12458 12461 12464 12467 12469 12472 12475 12478 12480 12483 12486 12489 12492 12495 12498 12501 12503 12506 12509 12512 12515 12518 12521 12524 12527 12530 12533 12536 12539 12542 12545 12548 12551 12554 12557 12560 12563 12566 12569 12572 12575 12578 12581 12584 12586 12589 12592 12595 12598 12601 12604 12606 12608 12611 12614 12617 12620 12622 12625 12628 12631 12634 12637 12640 12642 12645 12648 12650 12653 12656 12659 12661 12664 12667 12670 12673 12676 12679 12681 12684 12687 12690 12693 12696 12699 12702 12705 12708 12711 12714 12717 12720 12723 12726 12729 12732 12735 12737 12740 12743 12746 12749 12751 12753 12756 12759 12762 12764 12767 12770 12773 12776 12779 12782 12784 12787 12789 12792 12795 12797 12800 12803 12806 12809 12812 12815 12818 12821 12823 12826 12829 12832 12835 12838 12841 12844 12847 12850 12853 12856 12859 12862 12865 12868 12871 12874 12877 12879 12882 12885 12888 12891 12894 12897 12899 12902 12905 12908 12911 12914 12917 12919 12922 12925 12928 12931 12934 12937 12939 12942 12945 12948 12950 12953 12956 12959 12962 12965 12968 12971 12974 12977 12980 12983 12986 12989 12992 12995 12998 13001 13004 13007 13010 13013 13016 13019 13021 13024 13026 13029 13032 13035 13038 13041 13044 13047 13050 13053 13056 13059 13061 13064 13066 13069 13071 13074 13077 13080 13083 13086 13089 13092 13095 13098 13101 13104 13107 13110 13112 13115 13118 13121 13124 13127 13130 13132 13135 13137 13140 13143 13146 13148 13151 13154 13157 13159 13162 13165 13168 13171 13173 13176 13178 13181 13184 13187 13190 13192 13195 13198 13201 13204 13207 13209 13212 13215 13218 13221 13224 13227 13230 13233 13236 13239 13242 13245 13248 13250 13253 13256 13259 13261 13264 13267 13270 13273 13275 13278 13281 13284 13287 13290 13293 13296 13299 13302 13305 13308 13311 13314 13317 13320 13323 13326 13329 13332 13335 13337 13340 13343 13346 13349 13352 13354 13357 13360 13363 13366 13369 13372 13375 13378 13381 13384 13387 13390 13393 13396 13399 13402 13405 13408 13410 13413 13416 13419 13422 13425 13428 13431 13434 13437 13440 13443 13445 13448 13451 13454 13457 13460 13463 13466 13469 13472 13475 13478 13481 13484 13487 13490 13493 13496 13499 13502 13505 13508 13511 13514 13517 13520 13523 13526 13529 13532 13535 13538 13541 13544 13547 13549 13552 13555 13558 13561 13564 13567 13570 13573 13576 13579 13582 13585 13588 13591 13594 13597 13600 13603 13606 13609 13612 13615 13618 13621 13624 13627 13630 13633 13636 13639 13642 13645 13648 13651 13654 13657 13660 13663 13666 13669 13672 13675 13678 13681 13684 13687 13690 13693 13696 13699 13702 13704 13707 13710 13712 13715 13717 13720 13723 13725 13728 13731 13734 13737 13740 13742 13745 13748 13751 13754 13757 13760 13762 13765 13768 13771 13774 13777 13780 13783 13786 13789 13792 13795 13798 13801 13804 13807 13810 13813 13816 13819 13822 13825 13828 13831 13834 13836 13839 13842 13845 13848 13851 13854 13857 13860 13863 13866 13868 13871 13874 13877 13880 13883 13886 13889 13892 13895 13898 13901 13904 13907 13910 13913 13916 13919 13922 13925 13928 13930 13933 13936 13939 13942 13944 13947 13950 13952 13955 13958 13961 13964 13966 13969 13972 13975 13977 13980 13982 13984 13986 13989 13992 13994 13997 14000 14003 14006 14009 14012 14014 14017 14020 14023 14026 14029 14032 14035 14038 14040 14042 14045 14048 14051 14054 14057 14060 14063 14066 14069 14072 14075 14078 14081 14084 14087 14090 14093 14096 14099 14102 14105 14108 14111 14114 14116 14119 14122 14125 14128 14130 14133 14136 14139 14142 14145 14148 14151 14153 14156 14159 14162 14165 14167 14170 14173 14176 14179 14182 14185 14188 14191 14194 14197 14200 14203 14206 14209 14212 14215 14218 14220 14223 14225 14228 14231 14234 14237 14240 14243 14246 14249 14252 14255 14258 14261 14264 14267 14270 14273 14276 14279 14282 14285 14288 14291 14294 14296 14299 14302 14304 14307 14310 14313 14316 14319 14322 14325 14328 14330 14333 14336 14338 14341 14344 14347 14349 14352 14355 14357 14360 14362 14364 14367 14370 14373 14376 14379 14382 14385 14388 14391 14394 14397 14400 14403 14405 14408 14410 14412 14415 14418 14421 14424 14426 14429 14432 14435 14437 14440 14443 14445 14448 14451 14454 14456 14459 14462 14464 14467 14470 14473 14476 14479 14482 14485 14488 14491 14494 14497 14500 14502 14505 14508 14510 14513 14516 14518 14520 14523 14526 14529 14531 14534 14536 14538 14541 14544 14547 14550 14552 14555 14558 14561 14563 14566 14569 14572 14575 14578 14581 14584 14587 14590 14593 14596 14599 14602 14605 14608 14611 14614 14617 14620 14623 14626 14629 14632 14635 14638 14641 14644 14647 14650 14653 14656 14659 14662 14665 14668 14671 14674 14677 14680 14683 14686 14689 14692 14695 14698 14701 14704 14707 14710 14713 14716 14719 14722 14725 14728 14731 14734 14737 14740 14743 14746 14749 14752 14755 14758 14761 14763 14766 14769 14772 14775 14777 14780 14783 14786 14789 14792 14794 14797 14800 14802 14805 14808 14811 14814 14817 14820 14823 14826 14829 14832 14835 14838 14841 14844 14847 14849 14852 14855 14858 14861 14864 14867 14870 14873 14876 14879 14882 14885 14888 14891 14894 14897 14900 14903 14906 14909 14912 14915 14918 14921 14924 14927 14930 14933 14936 14939 14942 14945 14948 14951 14954 14957 14960 14963 14966 14969 14972 14975 14978 14981 14984 14987 14990 14993 14996 14999 15002 15005 15008 15011 15014 15017 15020 15023 15026 15029 15032 15035 15038 15041 15044 15047 15050 15053 15056 15059 15062 15065 15068 15071 15074 15077 15080 15082 15085 15088 15091 15094 15096 15099 15102 15105 15108 15111 15114 15117 15119 15122 15125 15128 15130 15133 15136 15139 15142 15145 15148 15151 15154 15157 15159 15162 15165 15168 15171 15174 15177 15179 15182 15185 15188 15191 15194 15197 15200 15203 15206 15209 15212 15215 15218 15221 15224 15227 15230 15233 15236 15239 15242 15245 15248 15251 15254 15257 15260 15263 15266 15269 15272 15275 15278 15281 15284 15287 15290 15293 15296 15299 15302 15305 15308 15311 15314 15317 15320 15323 15326 15329 15332 15335 15338 15341 15344 15347 15350 15353 15356 15359 15362 15365 15368 15371 15374 15377 15380 15383 15386 15389 15392 15395 15398 15401 15404 15407 15410 15413 15416 15419 15422 15425 15428 15431 15434 15437 15440 15442 15444 15447 15450 15452 15454 15457 15459 15461 15464 15466 15468 15471 15474 15476 15479 15481 15484 15486 15489 15491 15494 15497 15500 15503 15506 15509 15512 15515 15518 15521 15524 15527 15530 15533 15536 15539 15542 15545 15548 15551 15554 15556 15559 15561 15563 15566 15569 15572 15574 15576 15579 15582 15585 15588 15591 15593 15595 15598 15601 15604 15607 15610 15613 15616 15618 15620 15623 15626 15629 15632 15635 15638 15641 15644 15647 15649 15652 15655 15658 15661 15664 15667 15670 15673 15676 15679 15682 15685 15688 15691 15694 15697 15700 15703 15706 15709 15712 15715 15718 15721 15723 15726 15729 15732 15735 15738 15741 15743 15746 15749 15751 15754 15757 15760 15763 15766 15769 15772 15775 15778 15781 15784 15787 15790 15793 15796 15799 15802 15805 15808 15811 15814 15817 15820 15823 15826 15828 15831 15834 15837 15840 15843 15846 15849 15852 15854 15857 15860 15863 15866 15868 15871 15874 15877 15880 15883 15886 15889 15892 15895 15897 15900 15903 15906 15908 15911 15914 15917 15920 15922 15925 15928 15931 15933 15936 15938 15941 15943 15946 15949 15952 15955 15958 15961 15964 15967 15970 15973 15976 15979 15982 15985 15987 15990 15993 15995 15998 16001 16003 16005 16007 16010 16013 16016 16019 16022 16024 16027 16030 16033 16036 16039 16042 16045 16048 16051 16054 16057 16060 16063 16066 16069 16072 16075 16078 16081 16084 16087 16089 16092 16095 16098 16101 16104 16107 16109 16112 16115 16117 16120 16123 16126 16129 16132 16135 16138 16141 16144 16146 16149 16152 16155 16158 16161 16164 16167 16170 16173 16176 16179 16182 16185 16188 16191 16194 16197 16200 16203 16205 16208 16211 16214 16217 16220 16222 16225 16228 16231 16234 16237 16239 16241 16244 16247 16249 16252 16255 16258 16261 16264 16267 16270 16272 16275 16278 16281 16284 16287 16290 16293 16296 16299 16302 16305 16308 16310 16313 16316 16319 16322 16325 16328 16331 16333 16336 16338 16341 16344 16346 16349 16352 16355 16358 16361 16364 16366 16369 16372 16375 16378 16381 16384 16387 16390 16393 16396 16399 16402 16405 16408 16411 16414 16417 16420 16423 16425 16428 16431 16434 16437 16440 16443 16445 16447 16450 16453 16456 16459 16462 16465 16468 16470 16473 16476 16479 16482 16484 16487 16490 16493 16496 16499 16502 16505 16508 16511 16514 16517 16519 16522 16525 16528 16531 16534 16537 16540 16543 16545 16548 16551 16554 16557 16560 16562 16565 16568 16571 16574 16577 16580 16583 16585 16588 16591 16593 16596 16599 16602 16605 16608 16611 16614 16617 16619 16622 16625 16628 16631 16634 16637 16640 16642 16645 16648 16651 16654 16657 16660 16663 16666 16669 16672 16675 16678 16680 16683 16686 16689 16692 16694 16697 16700 16703 16706 16709 16712 16715 16718 16721 16724 16727 16730 16733 16736 16739 16742 16744 16747 16750 16753 16756 16759 16762 16765 16768 16771 16774 16777 16779 16782 16785 16788 16791 16793 16796 16799 16802 16805 16808 16811 16814 16817 16820 16823 16826 16829 16832 16835 16838 16841 16844 16846 16849 16852 16854 16856 16859 16862 16865 16868 16871 16874 16877 16880 16883 16886 16889 16892 16895 16898 16900 16903 16906 16909 16912 16915 16918 16920 16923 16926 16929 16932 16935 16938 16941 16944 16947 16950 16953 16956 16959 16962 16965 16968 16971 16974 16977 16980 16983 16986 16989 16992 16995 16998 17001 17004 17007 17010 17013 17016 17019 17022 17025 17028 17031 17034 17037 17040 17043 17046 17049 17052 17055 17058 17061 17064 17067 17070 17073 17076 17079 17082 17085 17088 17091 17094 17097 17100 17103 17106 17109 17112 17115 17118 17121 17124 17127 17130 17132 17135 17138 17141 17144 17146 17149 17152 17155 17158 17161 17164 17167 17170 17173 17176 17179 17182 17185 17188 17191 17194 17197 17200 17203 17206 17209 17212 17215 17218 17221 17224 17227 17229 17232 17234 17236 17239 17242 17245 17248 17251 17254 17257 17260 17263 17266 17269 17271 17274 17277 17280 17283 17285 17287 17290 17293 17296 17299 17302 17305 17307 17310 17313 17316 17319 17322 17325 17328 17331 17334 17336 17339 17342 17345 17347 17350 17353 17356 17359 17362 17364 17367 17370 17372 17375 17378 17381 17384 17387 17390 17393 17396 17399 17402 17405 17408 17411 17414 17417 17420 17423 17426 17429 17432 17435 17438 17441 17444 17447 17450 17453 17456 17458 17461 17464 17466 17469 17472 17474 17477 17479 17482 17484 17487 17490 17493 17495 17497 17500 17503 17505 17507 17510 17513 17516 17519 17522 17525 17528 17531 17534 17537 17540 17543 17546 17549 17552 17555 17558 17561 17564 17566 17569 17572 17575 17578 17581 17584 17587 17590 17593 17596 17599 17602 17605 17608 17611 17614 17617 17620 17623 17626 17629 17632 17634 17637 17640 17643 17646 17649 17652 17655 17658 17661 17664 17667 17669 17672 17675 17678 17681 17683 17686 17689 17691 17694 17697 17700 17702 17705 17708 17711 17713 17716 17718 17721 17723 17726 17729 17732 17735 17738 17741 17744 17747 17749 17752 17754 17757 17760 17763 17766 17769 17772 17774 17777 17780 17782 17785 17788 17790 17793 17796 17798 17801 17804 17807 17809 17812 17815 17818 17821 17824 17826 17829 17832 17834 17837 17840 17843 17846 17849 17852 17854 17857 17860 17863 17866 17868 17871 17874 17877 17880 17883 17886 17889 17892 17895 17898 17901 17904 17907 17910 17913 17916 17919 17922 17925 17928 17931 17934 17936 17939 17942 17945 17948 17951 17954 17956 17959 17962 17965 17968 17971 17974 17976 17979 17982 17985 17988 17991 17994 17997 18000 18002 18005 18007 18010 18012 18014 18016 18019 18022 18025 18028 18031 18034 18037 18040 18043 18046 18049 18052 18054 18057 18060 18062 18065 18068 18070 18073 18076 18079 18082 18085 18087 18090 18093 18095 18098 18101 18103 18106 18109 18112 18115 18118 18121 18124 18126 18129 18131 18134 18137 18140 18143 18146 18149 18152 18155 18158 18161 18164 18167 18170 18172 18175 18178 18181 18184 18186 18189 18192 18195 18198 18201 18204 18207 18210 18213 18216 18219 18222 18225 18228 18231 18234 18236 18239 18242 18245 18248 18250 18252 18255 18258 18261 18264 18266 18269 18272 18275 18277 18280 18283 18285 18288 18290 18293 18296 18298 18301 18303 18306 18309 18312 18314 18316 18319 18322 18325 18328 18331 18334 18337 18340 18342 18345 18348 18351 18354 18357 18359 18361 18364 18367 18370 18373 18376 18379 18382 18385 18388 18390 18393 18395 18397 18400 18402 18404 18407 18410 18412 18415 18418 18420 18423 18426 18429 18432 18435 18438 18440 18442 18445 18448 18451 18453 18456 18459 18462 18464 18467 18470 18473 18476 18479 18481 18484 18487 18490 18492 18495 18498 18501 18504 18506 18509 18512 18514 18517 18520 18522 18525 18528 18531 18534 18537 18540 18542 18545 18547 18550 18553 18556 18558 18561 18564 18566 18569 18572 18574 18577 18579 18582 18585 18588 18591 18594 18597 18600 18603 18606 18609 18612 18614 18617 18619 18622 18625 18628 18631 18634 18637 18640 18643 18646 18649 18652 18654 18657 18659 18662 18665 18668 18671 18674 18677 18680 18683 18686 18689 18692 18695 18698 18701 18704 18707 18710 18713 18716 18719 18721 18723 18726 18729 18732 18735 18738 18741 18744 18746 18749 18751 18754 18757 18760 18763 18766 18769 18772 18775 18778 18781 18784 18787 18790 18793 18796 18799 18802 18805 18808 18811 18814 18817 18820 18823 18826 18829 18832 18835 18838 18841 18844 18847 18850 18853 18856 18859 18862 18865 18868 18871 18874 18877 18880 18883 18886 18889 18892 18895 18898 18901 18903 18906 18909 18912 18915 18918 18921 18924 18927 18930 18933 18935 18938 18940 18943 18946 18949 18952 18955 18958 18961 18964 18967 18970 18973 18976 18979 18981 18984 18987 18990 18992 18995 18998 19001 19004 19007 19009 19012 19014 19017 19020 19023 19026 19029 19032 19034 19037 19040 19043 19046 19049 19052 19055 19058 19061 19064 19067 19070 19073 19076 19079 19082 19085 19088 19091 19094 19097 19100 19103 19105 19108 19110 19113 19116 19118 19121 19124 19126 19129 19132 19134 19137 19140 19143 19146 19149 19152 19155 19158 19161 19164 19167 19170 19173 19175 19177 19180 19183 19186 19189 19192 19195 19198 19201 19204 19207 19209 19212 19215 19218 19221 19224 19227 19230 19233 19236 19239 19242 19245 19248 19251 19254 19257 19260 19263 19266 19269 19272 19275 19278 19281 19284 19286 19289 19291 19294 19297 19300 19303 19305 19308 19311 19314 19317 19320 19323 19325 19328 19331 19334 19337 19340 19343 19346 19349 19352 19355 19357 19360 19363 19366 19369 19372 19375 19378 19381 19384 19387 19390 19393 19396 19398 19401 19404 19407 19410 19413 19415 19418 19420 19423 19426 19428 19431 19434 19437 19440 19443 19446 19449 19452 19455 19457 19460 19463 19466 19468 19471 19474 19477 19480 19483 19486 19489 19492 19494 19497 19500 19503 19505 19508 19511 19514 19517 19520 19523 19526 19529 19532 19535 19538 19541 19544 19547 19550 19553 19556 19559 19562 19565 19568 19571 19574 19577 19579 19582 19585 19588 19591 19594 19597 19600 19603 19606 19608 19611 19614 19616 19619 19622 19625 19628 19631 19634 19637 19640 19643 19646 19649 19652 19655 19658 19661 19664 19667 19670 19673 19676 19679 19682 19685 19688 19691 19694 19697 19700 19703 19706 19709 19712 19715 19718 19721 19724 19726 19729 19732 19735 19738 19741 19744 19746 19749 19752 19754 19757 19760 19762 19765 19767 19770 19772 19775 19778 19781 19783 19786 19788 19791 19794 19797 19800 19803 19806 19809 19812 19815 19818 19821 19824 19827 19830 19833 19836 19839 19842 19845 19848 19851 19854 19857 19859 19862 19865 19868 19871 19874 19877 19880 19883 19885 19888 19891 19894 19897 19900 19903 19906 19908 19911 19914 19917 19919 19922 19925 19927 19930 19933 19935 19938 19941 19944 19947 19950 19953 19956 19959 19962 19965 19967 19970 19973 19976 19979 19982 19985 19988 19991 19994 19997 20000 20003 20006 20009 20012 20015 20018 20021 20024 20027 20030 20033 20035 20038 20041 20044 20047 20049 20051 20054 20057 20059 20062 20064 20067 20069 20072 20075 20078 20080 20083 20086 20089 20092 20094 20097 20099 20102 20105 20108 20111 20114 20117 20119 20122 20125 20128 20131 20134 20137 20140 20143 20145 20148 20151 20154 20157 20160 20163 20166 20169 20171 20173 20176 20179 20182 20185 20188 20191 20194 20197 20199 20202 20205 20208 20210 20213 20216 20219 20222 20225 20227 20230 20233 20236 20239 20242 20245 20247 20249 20252 20255 20258 20261 20263 20265 20268 20270 20273 20275 20278 20281 20284 20287 20290 20293 20296 20299 20302 20305 20308 20311 20314 20317 20320 20323 20326 20329 20332 20335 20337 20340 20343 20345 20348 20351 20354 20356 20358 20361 20363 20366 20369 20372 20375 20378 20381 20384 20387 20390 20393 20396 20399 20402 20404 20407 20410 20413 20416 20419 20422 20425 20428 20431 20433 20436 20438 20441 20444 20447 20450 20453 20456 20459 20462 20465 20468 20471 20474 20477 20480 20483 20486 20489 20492 20495 20498 20501 20504 20507 20509 20512 20514 20517 20520 20522 20525 20527 20530 20533 20536 20539 20542 20544 20547 20550 20553 20555 20558 20561 20564 20567 20570 20573 20576 20579 20582 20585 20588 20591 20594 20597 20600 20603 20606 20609 20612 20615 20618 20621 20624 20627 20630 20633 20636 20639 20642 20645 20648 20651 20654 20657 20660 20663 20666 20669 20672 20675 20678 20681 20684 20686 20688 20691 20694 20697 20699 20702 20704 20707 20710 20712 20715 20718 20721 20723 20726 20728 20731 20734 20736 20739 20741 20744 20746 20749 20752 20755 20757 20759 20762 20765 20768 20771 20774 20777 20779 20782 20785 20787 20790 20793 20795 20798 20801 20804 20807 20810 20812 20814 20817 20820 20822 20825 20828 20831 20834 20837 20840 20843 20846 20848 20851 20854 20857 20860 20863 20866 20869 20872 20875 20878 20881 20884 20887 20890 20893 20896 20899 20902 20905 20908 20911 20914 20917 20920 20923 20926 20929 20932 20935 20937 20940 20943 20946 20949 20951 20954 20956 20959 20962 20964 20967 20970 20973 20976 20978 20981 20984 20987 20990 20992 20995 20998 21001 21004 21007 21010 21013 21016 21019 21022 21025 21028 21031 21034 21036 21039 21042 21045 21048 21051 21053 21056 21059 21062 21065 21068 21071 21074 21076 21079 21081 21084 21087 21090 21093 21096 21099 21102 21105 21107 21110 21112 21115 21118 21120 21123 21126 21129 21132 21134 21136 21139 21142 21145 21148 21150 21153 21156 21159 21162 21165 21167 21170 21173 21176 21179 21181 21184 21187 21190 21193 21196 21199 21202 21205 21208 21211 21214 21217 21220 21222 21225 21228 21231 21234 21237 21240 21243 21246 21249 21252 21255 21257 21260 21263 21265 21268 21271 21274 21277 21280 21283 21286 21289 21292 21295 21298 21301 21304 21307 21310 21313 21316 21319 21322 21325 21328 21331 21333 21336 21339 21342 21345 21348 21351 21354 21357 21360 21363 21366 21369 21372 21374 21377 21380 21383 21386 21389 21392 21395 21398 21401 21404 21407 21410 21413 21416 21419 21422 21425 21428 21431 21434 21437 21440 21443 21445 21447 21450 21453 21456 21459 21462 21465 21468 21471 21474 21476 21479 21482 21485 21488 21491 21494 21496 21498 21501 21504 21506 21509 21511 21514 21517 21520 21523 21526 21529 21532 21535 21538 21541 21544 21547 21549 21552 21555 21557 21560 21563 21566 21568 21571 21574 21576 21579 21582 21585 21587 21590 21592 21595 21598 21601 21604 21607 21610 21613 21616 21619 21622 21625 21628 21631 21634 21637 21639 21642 21645 21648 21651 21654 21657 21660 21663 21666 21669 21671 21674 21677 21679 21682 21685 21688 21691 21694 21697 21699 21702 21705 21708 21710 21713 21716 21719 21722 21725 21728 21731 21734 21737 21740 21742 21745 21747 21750 21753 21756 21758 21761 21764 21767 21770 21773 21775 21778 21781 21784 21787 21790 21793 21796 21798 21801 21804 21807 21810 21813 21815 21818 21821 21824 21827 21830 21832 21835 21838 21841 21844 21847 21850 21853 21856 21859 21862 21865 21868 21870 21873 21876 21879 21881 21884 21886 21889 21891 21894 21897 21900 21903 21906 21909 21912 21915 21918 21921 21923 21926 21929 21932 21935 21937 21940 21942 21945 21948 21951 21954 21957 21960 21963 21966 21969 21972 21975 21978 21981 21983 21986 21989 21991 21994 21997 22000 22002 22005 22007 22010 22013 22015 22018 22021 22024 22027 22029 22032 22035 22038 22041 22044 22047 22050 22053 22056 22059 22062 22065 22068 22071 22074 22077 22080 22083 22086 22089 22092 22095 22098 22101 22104 22106 22109 22112 22115 22118 22121 22124 22127 22130 22133 22136 22139 22142 22145 22148 22151 22153 22156 22159 22162 22164 22167 22170 22173 22176 22179 22182 22185 22188 22191 22194 22197 22200 22203 22206 22209 22212 22214 22217 22220 22222 22224 22227 22230 22233 22236 22239 22242 22245 22248 22250 22253 22256 22259 22262 22265 22267 22270 22273 22276 22278 22281 22284 22286 22289 22292 22294 22297 22300 22302 22305 22308 22311 22314 22317 22320 22323 22325 22328 22331 22334 22336 22339 22341 22344 22347 22350 22353 22356 22359 22362 22365 22368 22371 22373 22376 22379 22381 22384 22387 22390 22392 22395 22398 22401 22403 22406 22408 22411 22414 22417 22420 22423 22426 22428 22431 22434 22437 22440 22442 22445 22448 22451 22454 22457 22459 22462 22465 22467 22470 22472 22475 22477 22479 22482 22485 22488 22490 22493 22496 22499 22502 22505 22508 22510 22513 22515 22518 22520 22523 22526 22528 22531 22534 22537 22539 22542 22545 22548 22551 22554 22557 22560 22563 22566 22569 22572 22575 22578 22580 22583 22586 22589 22592 22595 22598 22601 22604 22607 22610 22613 22615 22618 22620 22623 22626 22629 22631 22634 22637 22640 22643 22646 22649 22652 22655 22658 22660 22662 22665 22668 22671 22674 22676 22679 22682 22685 22688 22690 22692 22694 22697 22699 22702 22704 22707 22710 22713 22715 22717 22720 22723 22725 22727 22730 22733 22735 22738 22741 22744 22747 22750 22753 22756 22759 22761 22763 22766 22768 22771 22774 22777 22779 22782 22785 22788 22790 22793 22796 22799 22802 22805 22808 22811 22814 22817 22820 22823 22826 22829 22832 22835 22838 22841 22844 22847 22850 22852 22855 22858 22861 22864 22867 22870 22873 22876 22879 22882 22885 22888 22891 22894 22897 22900 22903 22906 22909 22912 22915 22918 22921 22924 22927 22929 22932 22935 22938 22941 22944 22946 22949 22952 22955 22958 22961 22964 22967 22970 22973 22976 22979 22982 22984 22986 22989 22992 22995 22998 23000 23003 23006 23009 23012 23015 23018 23021 23024 23026 23029 23032 23035 23038 23041 23044 23047 23050 23053 23056 23059 23062 23065 23068 23071 23074 23077 23080 23082 23084 23086 23089 23092 23095 23098 23101 23104 23107 23110 23112 23115 23118 23121 23124 23126 23129 23132 23134 23137 23140 23143 23146 23149 23152 23155 23158 23161 23163 23166 23168 23171 23173 23176 23178 23181 23184 23187 23190 23193 23196 23199 23202 23205 23208 23211 23214 23217 23220 23222 23225 23228 23231 23234 23237 23239 23242 23245 23248 23251 23254 23257 23260 23263 23266 23269 23272 23275 23278 23281 23284 23287 23290 23293 23296 23299 23301 23304 23307 23309 23312 23315 23318 23320 23323 23326 23329 23332 23335 23337 23340 23342 23345 23348 23351 23354 23357 23360 23363 23366 23369 23371 23374 23376 23379 23381 23383 23386 23389 23392 23395 23398 23401 23404 23407 23409 23412 23415 23418 23421 23424 23427 23430 23433 23436 23439 23442 23445 23447 23450 23453 23455 23458 23461 23464 23467 23470 23472 23475 23478 23481 23484 23487 23489 23492 23495 23497 23500 23503 23506 23509 23512 23515 23517 23520 23523 23526 23529 23532 23535 23538 23540 23543 23545 23548 23551 23554 23557 23559 23562 23565 23568 23571 23574 23577 23580 23583 23586 23589 23592 23595 23597 23600 23603 23605 23608 23611 23614 23617 23620 23623 23626 23628 23631 23634 23637 23640 23643 23646 23649 23652 23655 23658 23661 23664 23667 23669 23672 23675 23678 23681 23684 23687 23690 23693 23696 23698 23701 23704 23706 23709 23712 23715 23718 23721 23723 23726 23729 23732 23735 23738 23741 23743 23745 23748 23751 23754 23757 23759 23762 23764 23767 23770 23772 23775 23778 23781 23784 23787 23790 23793 23796 23799 23802 23805 23808 23811 23814 23817 23820 23823 23826 23829 23832 23835 23838 23841 23843 23846 23848 23851 23854 23857 23860 23863 23866 23869 23871 23874 23876 23879 23882 23885 23888 23890 23892 23895 23898 23901 23904 23907 23910 23912 23915 23918 23920 23923 23926 23929 23932 23935 23937 23940 23943 23946 23949 23952 23955 23958 23961 23964 23966 23968 23971 23973 23976 23979 23981 23984 23987 23990 23993 23996 23999 24002 24005 24008 24011 24014 24017 24019 24022 24025 24028 24031 24034 24037 24040 24043 24046 24049 24052 24055 24057 24060 24063 24066 24069 24071 24074 24077 24080 24083 24086 24089 24091 24094 24097 24100 24103 24105 24107 24110 24113 24116 24119 24121 24124 24126 24129 24131 24134 24137 24140 24143 24146 24149 24152 24155 24158 24161 24164 24167 24170 24173 24176 24179 24182 24185 24188 24191 24194 24197 24200 24203 24206 24209 24212 24215 24217 24219 24221 24224 24227 24230 24233 24236 24239 24241 24244 24247 24250 24252 24255 24257 24260 24263 24266 24269 24272 24275 24278 24281 24283 24286 24289 24291 24294 24297 24300 24303 24305 24308 24311 24314 24317 24320 24323 24326 24328 24331 24334 24336 24339 24342 24345 24347 24350 24353 24356 24359 24362 24365 24368 24371 24374 24376 24379 24382 24385 24388 24391 24393 24396 24398 24401 24403 24406 24409 24411 24414 24417 24419 24421 24424 24427 24430 24433 24436 24439 24442 24444 24447 24450 24453 24456 24459 24461 24464 24467 24470 24473 24476 24478 24481 24483 24486 24489 24492 24495 24498 24501 24504 24507 24510 24513 24516 24519 24522 24525 24528 24531 24534 24537 24540 24543 24546 24548 24551 24554 24557 24560 24563 24566 24569 24572 24575 24578 24581 24584 24587 24590 24593 24596 24598 24600 24603 24606 24609 24612 24615 24617 24620 24623 24626 24629 24632 24634 24637 24640 24643 24646 24649 24652 24655 24658 24661 24664 24667 24670 24673 24676 24679 24682 24685 24688 24691 24694 24697 24700 24703 24706 24709 24712 24715 24718 24721 24724 24727 24729 24732 24735 24737 24740 24743 24746 24749 24751 24754 24757 24760 24763 24766 24769 24772 24775 24778 24781 24784 24786 24789 24792 24794 24797 24800 24802 24805 24808 24810 24813 24816 24819 24822 24825 24828 24831 24834 24837 24839 24842 24845 24848 24851 24854 24857 24860 24863 24866 24869 24871 24874 24877 24880 24883 24886 24889 24892 24895 24898 24901 24903 24906 24909 24912 24914 24917 24920 24923 24925 24928 24931 24934 24937 24940 24943 24946 24949 24952 24955 24958 24961 24964 24967 24970 24973 24976 24979 24982 24984 24987 24990 24993 24996 24999 25002 25005 25008 25011 25014 25017 25020 25023 25026 25029 25032 25034 25037 25040 25043 25046 25049 25052 25055 25058 25061 25064 25067 25070 25072 25075 25078 25081 25083 25085 25088 25091 25093 25096 25099 25102 25105 25108 25111 25114 25117 25120 25123 25126 25128 25131 25134 25137 25140 25143 25146 25149 25151 25154 25157 25160 25163 25166 25169 25172 25175 25177 25180 25183 25186 25189 25192 25194 25197 25200 25203 25206 25209 25212 25215 25218 25221 25224 25227 25230 25233 25236 25239 25242 25245 25248 25251 25253 25256 25259 25262 25265 25267 25270 25273 25276 25279 25282 25285 25288 25290 25293 25296 25299 25302 25305 25307 25310 25313 25316 25319 25322 25325 25328 25331 25334 25337 25340 25343 25346 25349 25352 25355 25358 25361 25364 25367 25369 25372 25375 25378 25381 25384 25387 25390 25393 25395 25398 25401 25404 25407 25410 25413 25416 25419 25422 25424 25427 25430 25433 25436 25438 25440 25443 25445 25448 25451 25454 25457 25459 25462 25465 25467 25470 25473 25476 25479 25482 25485 25488 25491 25494 25497 25500 25503 25506 25509 25512 25515 25518 25521 25524 25527 25530 25533 25536 25539 25542 25545 25547 25550 25553 25556 25558 25561 25564 25567 25570 25573 25575 25578 25581 25583 25586 25589 25592 25595 25598 25601 25604 25607 25610 25613 25616 25619 25622 25625 25628 25631 25634 25637 25639 25642 25644 25647 25650 25652 25655 25657 25660 25662 25665 25668 25671 25673 25676 25679 25681 25684 25686 25689 25692 25695 25697 25699 25702 25705 25707 25710 25713 25716 25719 25722 25725 25728 25731 25733 25736 25738 25741 25744 25746 25749 25751 25754 25757 25760 25763 25766 25769 25772 25775 25777 25780 25783 25785 25788 25791 25794 25797 25800 25803 25806 25809 25812 25815 25818 25821 25824 25827 25830 25833 25836 25839 25841 25844 25847 25850 25853 25855 25858 25861 25864 25867 25870 25873 25876 25878 25881 25884 25887 25890 25893 25896 25899 25902 25905 25908 25911 25914 25917 25920 25923 25926 25929 25932 25934 25937 25940 25943 25946 25949 25952 25955 25958 25960 25963 25966 25969 25972 25975 25977 25980 25983 25986 25989 25992 25994 25997 26000 26003 26006 26009 26011 26014 26016 26019 26021 26024 26026 26028 26031 26033 26036 26039 26041 26044 26047 26049 26052 26055 26058 26060 26063 26065 26068 26071 26074 26076 26079 26081 26084 26087 26089 26091 26094 26096 26099 26102 26105 26108 26111 26114 26117 26120 26123 26126 26129 26132 26135 26138 26140 26143 26145 26148 26151 26154 26157 26160 26163 26166 26169 26172 26175 26178 26181 26184 26187 26190 26193 26196 26199 26201 26204 26207 26209 26211 26214 26217 26220 26222 26225 26228 26231 26234 26236 26239 26242 26245 26248 26251 26254 26257 26260 26263 26266 26269 26272 26275 26278 26281 26284 26287 26289 26292 26295 26298 26301 26304 26307 26310 26313 26316 26319 26321 26324 26327 26330 26333 26336 26339 26342 26345 26348 26350 26353 26356 26358 26361 26364 26366 26369 26372 26374 26377 26380 26383 26385 26388 26390 26393 26396 26399 26402 26404 26406 26409 26412 26415 26417 26420 26422 26424 26426 26429 26432 26435 26437 26440 26443 26446 26448 26451 26454 26457 26459 26462 26465 26467 26470 26473 26476 26479 26482 26485 26488 26490 26493 26496 26499 26502 26505 26508 26511 26514 26516 26519 26522 26525 26528 26531 26534 26537 26540 26543 26546 26549 26552 26555 26558 26561 26563 26566 26569 26572 26575 26578 26581 26584 26587 26590 26593 26596 26599 26602 26605 26607 26610 26612 26614 26617 26619 26622 26625 26628 26631 26634 26637 26640 26643 26646 26649 26652 26655 26658 26661 26664 26667 26670 26673 26676 26679 26682 26685 26688 26691 26693 26696 26699 26701 26704 26707 26710 26713 26716 26718 26720 26723 26725 26728 26731 26733 26736 26739 26742 26745 26748 26751 26754 26757 26760 26762 26765 26768 26771 26774 26777 26780 26783 26786 26789 26792 26795 26798 26801 26804 26807 26810 26813 26816 26819 26822 26825 26828 26831 26833 26836 26839 26842 26845 26847 26850 26853 26856 26859 26862 26865 26868 26871 26874 26877 26880 26883 26886 26889 26892 26895 26897 26900 26903 26906 26909 26912 26915 26918 26920 26923 26926 26929 26932 26935 26938 26941 26944 26947 26950 26953 26956 26959 26962 26964 26967 26970 26973 26976 26979 26982 26985 26988 26991 26994 26997 27000 27003 27005 27007 27010 27013 27015 27018 27021 27024 27027 27030 27033 27036 27039 27042 27045 27047 27050 27052 27055 27058 27061 27064 27067 27070 27073 27076 27079 27081 27084 27087 27090 27092 27095 27098 27101 27104 27107 27110 27113 27116 27119 27122 27124 27127 27130 27133 27135 27138 27141 27144 27147 27149 27152 27155 27158 27161 27164 27167 27170 27173 27176 27178 27181 27184 27187 27190 27193 27196 27198 27201 27204 27207 27210 27212 27215 27217 27220 27223 27226 27229 27232 27235 27238 27240 27243 27245 27248 27251 27253 27256 27259 27262 27265 27268 27271 27274 27277 27280 27283 27285 27288 27291 27293 27296 27299 27302 27305 27308 27310 27313 27316 27319 27322 27325 27328 27331 27334 27337 27340 27342 27345 27347 27350 27353 27355 27358 27361 27364 27366 27369 27371 27374 27376 27379 27382 27385 27388 27391 27394 27397 27400 27403 27406 27409 27411 27414 27416 27419 27421 27424 27426 27429 27432 27435 27437 27440 27443 27446 27449 27452 27455 27458 27460 27463 27466 27468 27471 27474 27476 27479 27482 27485 27488 27490 27493 27496 27499 27502 27504 27507 27510 27513 27515 27518 27521 27523 27526 27529 27532 27535 27538 27540 27543 27546 27549 27551 27554 27557 27560 27563 27566 27569 27572 27575 27578 27581 27584 27587 27590 27593 27596 27599 27602 27605 27608 27610 27613 27616 27619 27622 27625 27628 27631 27634 27637 27640 27643 27645 27648 27651 27654 27657 27660 27663 27666 27669 27672 27675 27677 27680 27683 27685 27688 27691 27694 27697 27699 27702 27705 27707 27710 27713 27716 27719 27721 27724 27726 27728 27731 27734 27737 27740 27743 27746 27749 27752 27754 27757 27760 27762 27765 27768 27771 27774 27777 27780 27783 27786 27789 27792 27795 27798 27800 27803 27806 27809 27812 27815 27818 27821 27824 27827 27830 27833 27836 27839 27842 27845 27848 27851 27854 27857 27860 27863 27866 27869 27872 27875 27878 27880 27883 27886 27889 27892 27895 27898 27901 27904 27907 27910 27913 27916 27919 27922 27925 27927 27930 27933 27936 27938 27941 27944 27947 27950 27953 27956 27959 27962 27965 27968 27970 27973 27975 27978 27981 27984 27987 27990 27993 27995 27998 28000 28003 28006 28009 28012 28015 28018 28021 28024 28027 28030 28033 28036 28039 28042 28045 28048 28051 28054 28057 28060 28063 28065 28068 28071 28074 28077 28079 28082 28085 28087 28090 28093 28096 28099 28102 28105 28108 28111 28114 28117 28119 28122 28125 28127 28130 28133 28136 28139 28142 28145 28148 28151 28154 28157 28160 28162 28164 28167 28170 28173 28176 28179 28181 28184 28187 28190 28193 28196 28199 28202 28205 28208 28211 28214 28217 28219 28222 28224 28227 28229 28232 28235 28238 28241 28244 28247 28249 28252 28255 28258 28260 28263 28266 28268 28271 28273 28276 28278 28281 28284 28287 28290 28293 28296 28298 28300 28303 28306 28309 28312 28314 28317 28320 28323 28325 28328 28331 28334 28337 28339 28342 28344 28347 28350 28353 28356 28359 28361 28364 28366 28368 28371 28373 28376 28379 28382 28385 28388 28391 28394 28396 28399 28402 28404 28407 28409 28412 28415 28417 28420 28423 28426 28429 28432 28435 28437 28440 28443 28446 28449 28452 28455 28458 28461 28464 28466 28469 28472 28475 28477 28480 28483 28486 28489 28492 28495 28498 28501 28504 28507 28510 28513 28516 28518 28521 28524 28526 28529 28532 28535 28537 28540 28543 28546 28549 28552 28555 28558 28561 28564 28567 28570 28573 28576 28579 28582 28585 28588 28591 28594 28596 28599 28601 28604 28606 28609 28612 28615 28618 28621 28624 28627 28630 28633 28636 28639 28642 28644 28647 28650 28653 28655 28657 28660 28663 28665 28668 28671 28673 28676 28679 28682 28685 28688 28691 28694 28696 28699 28702 28705 28708 28711 28714 28717 28719 28722 28725 28728 28731 28734 28737 28740 28742 28745 28747 28750 28753 28756 28759 28761 28764 28766 28769 28772 28775 28778 28781 28784 28786 28789 28791 28794 28797 28800 28803 28806 28809 28811 28814 28817 28820 28822 28825 28828 28831 28834 28837 28839 28842 28845 28848 28851 28854 28857 28860 28863 28866 28869 28872 28875 28878 28881 28884 28887 28890 28893 28896 28899 28902 28905 28908 28911 28914 28917 28920 28923 28926 28929 28932 28935 28938 28940 28943 28945 28948 28951 28954 28957 28959 28962 28965 28968 28971 28973 28976 28979 28981 28984 28987 28990 28993 28996 28999 29002 29005 29008 29011 29014 29017 29019 29022 29025 29028 29031 29034 29036 29039 29042 29045 29048 29051 29054 29057 29060 29063 29066 29069 29072 29075 29078 29081 29084 29087 29090 29093 29096 29099 29102 29105 29108 29111 29113 29116 29119 29122 29125 29128 29131 29134 29137 29140 29143 29146 29149 29152 29155 29158 29161 29164 29167 29170 29173 29176 29179 29182 29185 29188 29191 29193 29196 29199 29202 29205 29208 29211 29214 29217 29220 29223 29226 29229 29232 29235 29238 29241 29244 29247 29250 29253 29256 29259 29262 29265 29268 29271 29274 29277 29280 29283 29286 29289 29291 29294 29297 29300 29303 29306 29309 29312 29315 29318 29321 29324 29326 29329 29332 29335 29337 29340 29343 29346 29349 29351 29354 29357 29360 29363 29366 29369 29371 29374 29377 29380 29383 29386 29389 29392 29395 29398 29401 29404 29407 29410 29413 29416 29419 29422 29425 29428 29430 29433 29436 29439 29441 29444 29447 29450 29453 29455 29458 29461 29464 29467 29470 29473 29475 29477 29480 29483 29486 29489 29492 29495 29498 29500 29503 29506 29509 29512 29514 29517 29520 29523 29526 29528 29531 29534 29537 29539 29542 29545 29548 29551 29554 29557 29560 29563 29566 29569 29572 29575 29577 29579 29582 29585 29588 29591 29593 29596 29599 29602 29605 29608 29611 29613 29616 29619 29622 29625 29628 29631 29634 29637 29640 29643 29646 29649 29652 29655 29658 29661 29664 29667 29670 29673 29676 29679 29682 29685 29688 29691 29694 29697 29700 29702 29705 29708 29710 29713 29716 29719 29722 29724 29727 29730 29733 29736 29739 29742 29745 29748 29751 29754 29756 29758 29761 29763 29766 29769 29772 29775 29778 29781 29784 29787 29790 29792 29795 29798 29800 29803 29806 29808 29811 29813 29816 29819 29822 29825 29827 29830 29833 29836 29839 29842 29845 29848 29851 29854 29857 29859 29862 29865 29868 29870 29873 29876 29878 29881 29883 29886 29889 29892 29895 29898 29900 29903 29905 29908 29911 29914 29917 29920 29922 29925 29927 29930 29932 29935 29938 29941 29944 29947 29950 29952 29955 29958 29961 29964 29967 29970 29973 29976 29979 29982 29985 29988 29991 29994 29997 30000 30003 30006 30009 30012 30015 30018 30021 30024 30027 30030 30033 30036 30039 30042 30045 30048 30051 30053 30055 30058 30061 30064 30067 30070 30073 30076 30078 30081 30084 30087 30090 30093 30096 30099 30102 30105 30108 30111 30114 30117 30120 30123 30126 30129 30132 30135 30138 30141 30144 30147 30150 30153 30155 30158 30161 30163 30166 30169 30172 30175 30178 30181 30184 30187 30190 30193 30196 30199 30202 30204 30207 30210 30213 30216 30219 30222 30225 30228 30231 30234 30237 30240 30243 30246 30249 30252 30255 30258 30261 30264 30267 30269 30272 30275 30278 30281 30284 30286 30289 30292 30295 30298 30301 30304 30307 30310 30313 30316 30319 30322 30325 30328 30331 30334 30337 30340 30343 30346 30349 30352 30355 30358 30361 
</DataArray>
<DataArray type="UInt32" Name="types" format="ascii">
5 5 5 5 3 5 5 3 5 5 5 3 3 5 5 5 5 3 5 5 5 3 5 5 5 5 5 3 5 5 5 3 5 5 5 5 5 5 5 3 3 5 5 5 5 5 5 5 5 5 5 5 5 5 5 3 5 5 3 5 5 5 5 5 5 5 5 5 5 5 5 5 5 5 5 5 5 5 5 5 5 5 3 5 3 5 5 3 3 5 5 5 3 5 5 3 5 5 5 5 5 5 3 5 5 5 3 5 3 5 5 5 5 5 5 5 5 5 5 5 5 5 5 5 5 5 5 5 5 5 5 5 5 5 5 5 5 5 5 3 5 5 5 3 5 5 5 5 5 5 5 5 5 5 5 5 5 5 5 5 5 5 5 5 5 5 5 5 3 5 5 5 5 5 5 5 5 5 5 5 5 5 5 5 5 5 5 5 5 5 5 5 5 5 3 5 5 5 5 3 5 5 5 5 5 5 5 5 5 5 5 5 5 5 5 5 5 5 5 5 5 5 5 5 5 5 5 3 5 3 5 5 5 5 5 5 5 3 5 5 5 5 5 5 5 5 5 3 5 5 5 5 5 5 5 5 5 5 5 5 5 5 5 5 3 5 5 3 5 5 5 5 5 5 5 5 5 3 5 5 3 5 5 5 5 5 5 5 5 5 5 5 5 3 5 5 5 5 5 5 5 5 5 5 5 5 5 5 5 5 5 5 5 5 5 5 5 5 5 5 5 5 5 5 5 5 5 5 5 5 5 5 5 5 5 5 5 5 5 5 5 5 5 5 5 5 5 5 5 5 5 5 5 5 5 5 5 5 5 3 5 5 5 3 5 3 5 5 3 5 3 3 5 5 5 5 5 5 5 5 5 5 5 5 5 3 5 5 5 5 5 5 5 3 5 5 5 5 5 5 5 5 5 5 5 5 5 5 5 3 5 5 5 5 5 5 3 5 5 5 5 5 5 5 5 5 5 5 5 5 5 5 5 5 5 5 5 5 5 5 5 5 5 3 5 3 3 5 5 5 5 5 5 5 5 5 5 5 3 5 5 3 5 5 5 5 5 3 5 5 3 5 5 5 5 5 3 5 5 5 5 5 5 5 5 5 3 5 5 5 5 3 5 5 3 5 5 5 5 3 5 5 5 5 5 5 5 3 5 5 5 5 3 5 3 5 5 5 5 5 5 5 5 3 3 5 5 5 5 3 5 5 5 3 5 3 5 3 3 5 3 5 5 5 5 5 5 5 3 5 5 3 5 5 5 5 3 5 5 5 3 3 5 5 5 5 5 3 5 5 5 5 5 5 3 5 5 5 5 5 5 5 5 5 5 5 5 5 5 5 5 5 5 5 5 5 5 5 5 5 5 5 5 5 5 5 5 5 5 5 5 5 5 3 5 5 5 3 5 5 5 5 5 5 5 3 5 5 5 5 5 5 5 5 5 5 5 5 5 5 5 5 5 5 5 5 5 5 5 5 5 5 5 5 5 3 5 3 5 5 5 3 5 5 5 5 3 5 5 5 5 5 3 5 5 5 5 5 5 5 5 5 5 3 3 5 5 5 5 5 5 5 3 5 3 5 5 5 5 5 3 5 5 5 5 5 5 5 3 5 5 5 3 5 3 5 5 3 3 5 5 3 5 3 5 3 3 5 5 5 5 5 3 5 5 5 3 5 5 5 5 5 5 3 5 5 5 3 5 5 3 5 5 5 5 5 5 5 5 5 5 5 5 5 3 5 5 5 5 5 5 5 5 5 5 5 5 5 5 5 5 5 5 5 5 5 5 5 3 3 5 5 5 5 3 5 3 5 5 5 5 5 5 5 5 5 5 3 5 5 5 5 5 5 5 5 5 5 5 5 5 5 5 5 5 5 5 5 5 5 5 5 5 5 5 5 5 5 5 5 5 3 5 3 5 5 5 5 5 5 5 3 3 5 5 5 5 5 5 5 5 5 5 5 5 5 5 5 5 5 3 5 5 3 5 5 5 5 5 5 5 3 5 5 3 5 5 5 3 5 5 5 5 5 5 5 5 5 5 5 5 5 5 5 5 5 5 3 5 5 3 5 5 5 5 5 3 5 5 3 5 5 5 3 5 5 3 5 5 5 5 5 5 5 5 5 5 5 5 5 5 3 5 5 5 5 5 5 5 5 5 3 5 5 5 5 5 5 5 3 5 5 5 5 5 3 5 5 5 5 5 5 5 5 5 5 5 3 5 5 5 5 5 5 5 5 5 3 5 5 5 3 5 5 5 3 5 5 5 5 5 5 5 3 5 5 3 5 5 5 3 3 5 3 5 5 5 5 5 5 5 5 5 3 5 5 5 5 3 3 3 3 3 5 3 5 5 5 3 5 5 3 3 5 5 3 5 5 5 3 5 5 3 5 5 5 5 5 3 5 5 5 5 5 5 5 5 5 5 5 5 5 3 3 5 5 3 3 5 5 3 5 5 5 3 5 5 5 5 5 3 5 5 3 5 3 5 5 5 5 5 5 5 5 3 5 3 5 5 5 3 3 5 5 5 3 3 5 3 5 5 5 5 5 5 3 5 5 3 5 5 5 3 3 5 3 5 3 5 3 5 5 5 5 5 3 5 5 5 5 3 5 5 5 5 3 5 5 5 5 5 5 3 5 5 5 5 5 5 5 5 3 5 5 5 5 5 5 3 5 5 5 5 5 5 5 5 5 3 5 5 5 5 3 5 5 3 5 3 5 5 3 5 5 5 3 3 5 5 5 5 3 5 5 5 3 5 5 5 5 5 5 5 5 5 5 5 5 5 5 5 5 5 5 5 5 5 5 3 3 5 3 5 3 5 3 5 5 3 5 5 5 5 5 5 5 5 5 3 5 5 5 5 3 5 3 5 5 5 5 3 3 3 3 5 5 3 5 5 3 5 5 3 3 5 5 3 5 5 5 3 5 5 3 5 5 3 5 5 3 5 5 5 5 3 5 5 5 3 3 5 5 5 3 5 5 5 5 5 5 5 5 5 5 5 5 5 3 3 5 5 5 5 3 3 5 5 5 3 5 5 5 5 5 5 5 3 5 5 5 5 5 5 5 5 5 5 5 5 5 5 5 5 5 5 5 5 5 5 5 5 5 5 5 5 5 5 5 5 5 5 5 5 5 5 5 5 5 5 5 5 3 5 5 5 5 5 5 5 5 5 5 5 5 3 5 5 5 3 5 5 5 5 3 5 5 5 5 5 5 5 5 3 5 5 5 5 5 5 5 5 5 5 5 5 5 5 5 3 5 5 3 5 5 3 5 5 5 5 3 5 5 5 5 5 5 5 5 5 5 5 5 5 5 3 5 5 5 5 3 5 5 5 3 5 3 5 5 5 5 3 3 5 5 3 5 5 5 5 5 3 5 3 5 5 5 5 5 5 5 5 3 5 5 3 5 5 3 3 5 5 5 5 3 5 5 5 5 5 5 5 5 5 3 5 5 5 5 3 5 3 5 5 5 5 5 3 3 5 5 3 5 5 5 5 3 5 5 3 3 5 3 3 3 3 5 5 3 5 5 3 5 5 5 5 5 5 5 5 5 5 5 5 5 5 5 5 5 3 5 3 5 3 3 5 5 5 3 5 5 5 5 5 5 5 5 5 3 5 5 5 5 5 5 5 5 5 5 5 5 5 5 5 5 5 5 5 5 5 5 5 5 5 5 5 5 3 5 3 5 5 3 5 5 5 5 3 5 5 5 5 5 5 5 5 5 5 5 5 5 5 5 5 5 5 5 5 3 5 5 3 5 5 5 5 5 5 5 5 3 5 5 5 5 5 5 5 5 5 5 5 5 5 5 3 5 5 5 5 5 5 5 5 5 3 5 5 5 5 5 5 3 5 5 5 5 5 5 5 3 5 5 5 5 5 5 3 5 5 5 5 5 5 5 5 3 5 5 5 5 5 5 3 5 5 5 3 5 5 3 5 5 5 5 5 5 3 5 5 3 3 5 5 3 5 5 5 3 5 5 3 5 5 5 5 5 5 5 5 5 5 5 5 5 5 5 5 5 5 5 5 5 5 5 5 5 5 3 5 5 3 5 5 5 5 3 5 5 5 5 5 5 3 5 5 5 5 5 5 5 5 5 5 5 5 5 5 5 5 5 3 5 5 5 5 5 5 3 5 5 5 5 5 5 5 5 5 5 5 5 5 5 5 5 5 5 5 5 3 5 5 5 5 5 5 5 5 5 3 5 3 5 5 5 3 5 5 5 5 5 5 5 5 5 5 3 5 5 5 5 5 5 5 5 5 5 5 5 5 5 5 5 5 5 5 5 5 5 3 5 3 5 5 5 5 5 5 5 5 5 5 5 3 5 5 5 5 5 5 5 3 3 5 5 5 5 3 5 3 5 3 5 5 5 5 5 5 3 5 3 5 5 5 5 5 5 5 5 5 3 5 5 3 5 5 5 5 5 5 5 5 5 5 5 5 5 5 5 5 5 5 5 5 5 5 5 5 5 5 5 5 5 5 5 5 5 5 5 5 5 5 5 5 5 5 5 5 5 5 5 3 5 5 5 3 5 5 5 5 5 5 5 5 5 5 5 3 5 5 5 5 3 5 5 5 5 5 3 5 5 5 5 3 5 5 5 5 3 5 3 5 3 5 5 3 3 3 5 5 5 3 5 5 5 5 5 3 5 5 5 5 3 5 5 5 5 5 5 5 5 5 5 5 5 3 5 5 3 5 5 3 5 3 5 5 5 3 5 5 5 5 3 5 5 5 5 5 3 5 5 5 5 3 5 5 5 5 5 5 5 3 5 5 5 3 5 5 5 5 5 5 5 5 5 5 5 5 5 5 5 5 5 5 5 5 5 5 5 5 5 5 5 5 5 3 5 3 5 5 5 5 3 5 5 5 5 5 5 3 5 5 5 5 5 5 5 5 5 5 5 5 5 5 5 3 5 5 5 5 5 5 5 5 5 5 5 5 5 5 5 5 5 5 5 5 5 5 3 5 5 5 3 5 3 5 5 3 5 5 5 3 5 5 3 5 5 3 5 3 5 5 5 5 5 5 5 5 5 5 5 5 5 3 5 5 5 5 5 5 5 3 5 5 5 5 5 5 5 5 3 5 5 5 5 5 5 3 5 5 5 5 5 5 5 5 5 3 5 5 3 5 5 5 5 3 5 5 5 3 3 5 5 5 3 5 3 5 5 5 5 3 3 5 5 5 3 5 5 3 5 5 3 5 5 5 5 5 5 5 5 5 5 5 5 3 5 5 5 5 5 5 5 5 5 3 5 5 5 3 3 5 5 3 5 5 5 5 5 5 5 5 5 5 5 5 3 5 5 5 5 5 5 5 5 5 5 5 5 5 5 5 5 5 5 5 5 5 5 5 5 5 5 5 5 5 5 5 5 5 5 5 5 5 5 5 5 5 5 5 5 5 5 5 5 5 5 5 5 5 5 5 5 5 5 5 5 5 5 5 5 5 5 5 5 5 5 5 5 5 3 3 5 5 3 5 5 5 5 5 5 5 5 5 5 3 5 5 3 5 5 5 5 5 5 5 5 5 5 5 5 5 3 3 5 5 5 5 5 5 3 3 5 5 5 5 5 5 5 5 5 5 5 5 5 3 5 5 3 5 5 5 5 5 5 5 5 5 5 5 5 5 5 5 5 5 5 5 5 5 5 5 5 5 5 5 5 5 3 5 5 5 5 5 5 5 5 5 5 5 5 5 5 5 5 5 5 5 5 5 3 5 5 5 5 5 5 5 5 5 5 5 5 5 5 5 3 5 5 5 5 5 5 5 5 5 5 3 3 5 5 5 3 5 5 5 5 5 5 5 5 5 5 5 5 5 3 5 5 5 5 5 5 5 5 5 5 5 5 3 5 5 5 5 5 5 5 5 5 5 5 5 5 5 5 5 5 5 5 5 5 5 5 5 5 5 5 5 5 5 5 5 5 5 5 5 5 5 5 5 5 5 5 5 5 5 5 3 5 5 5 3 5 5 5 5 5 5 5 5 5 5 5 3 5 5 3 3 5 5 5 5 5 5 5 5 3 5 3 5 5 5 5 5 5 5 5 5 5 3 5 5 3 5 3 5 5 3 5 5 5 5 5 5 5 3 5 3 5 5 5 5 3 5 5 5 5 5 5 3 5 5 5 5 5 5 5 5 5 5 5 5 5 5 5 5 5 5 5 5 5 5 5 5 5 5 5 5 5 5 5 5 5 5 5 3 5 5 3 5 3 5 5 3 5 5 5 5 5 5 5 5 5 5 5 5 5 5 5 5 5 5 5 5 3 5 5 5 3 5 5 5 5 5 5 5 5 5 5 5 5 5 5 5 5 5 5 5 5 5 5 5 5 5 5 5 5 5 5 5 5 5 5 5 5 5 5 5 5 5 5 5 5 5 5 5 5 5 5 5 5 5 5 3 5 5 5 5 5 5 5 5 5 5 5 5 5 5 5 5 5 5 5 5 5 5 5 5 5 5 5 5 5 5 5 5 5 5 5 3 3 5 5 5 5 5 5 5 5 3 5 5 5 5 3 5 5 5 5 5 5 5 5 5 5 5 5 5 5 5 5 5 5 5 5 5 5 5 5 5 5 5 5 5 5 5 5 5 5 5 5 5 5 5 5 5 5 3 5 5 3 5 5 5 5 5 5 5 5 5 5 5 5 5 5 3 5 5 5 5 5 5 5 5 5 5 5 5 5 5 5 3 5 3 5 5 5 5 5 3 5 5 5 5 5 5 5 5 5 3 5 5 5 5 5 5 5 5 3 5 5 5 5 5 5 5 5 5 5 5 5 5 5 5 5 5 5 3 5 3 5 5 5 5 5 5 5 3 5 5 5 5 5 3 5 5 5 5 3 5 3 5 5 5 5 5 5 5 5 5 5 5 5 5 5 5 3 5 5 5 3 5 5 3 5 5 5 5 3 5 5 5 5 5 5 5 3 5 5 5 5 5 5 5 5 5 5 5 5 5 5 5 5 5 5 5 5 3 5 5 3 5 5 5 5 5 5 5 5 5 5 5 5 5 5 3 5 5 5 5 5 5 5 5 5 5 5 5 5 5 3 5 5 5 5 5 5 3 5 5 5 5 5 5 5 5 5 5 5 5 5 5 5 5 5 3 5 5 5 5 5 3 5 5 5 5 5 5 5 5 5 3 5 5 5 3 5 5 5 5 5 5 5 5 5 5 3 5 5 5 3 5 5 5 5 3 5 5 5 5 3 5 5 5 3 5 5 5 5 5 5 5 5 3 5 5 5 5 3 5 5 5 5 5 5 5 5 5 3 5 5 5 5 3 5 3 5 5 5 5 5 5 3 5 5 5 3 5 3 5 5 5 5 5 5 5 5 5 5 5 5 5 5 5 5 5 5 5 5 5 5 5 5 5 5 5 5 5 5 5 5 5 5 5 5 5 5 5 5 5 5 5 5 5 5 5 5 5 5 5 5 5 5 5 5 5 3 5 5 5 5 5 5 5 5 3 5 5 5 5 3 5 5 5 5 5 5 5 5 5 5 3 5 5 3 5 5 5 5 5 5 5 3 5 5 5 5 5 3 5 5 5 5 5 5 3 5 5 5 5 3 5 5 5 5 5 5 5 5 5 5 3 5 5 5 5 5 3 5 5 3 5 5 5 5 5 5 5 5 5 5 5 5 5 5 5 5 5 5 5 5 5 3 5 5 5 5 5 3 5 5 5 5 5 5 5 5 5 5 5 5 5 5 5 5 5 5 5 5 5 5 5 5 3 5 5 5 5 3 5 5 3 5 5 5 5 5 5 5 5 5 5 5 3 5 5 5 5 5 5 5 5 5 5 5 3 5 3 5 5 5 3 5 5 5 5 3 5 5 5 5 5 5 5 5 5 5 3 5 5 5 5 3 5 5 5 5 5 3 5 5 3 5 5 5 5 5 5 5 5 5 5 5 3 5 5 5 3 5 5 3 5 5 5 5 5 5 5 5 5 3 5 5 5 5 5 5 5 5 5 5 5 5 5 3 5 5 5 5 5 5 5 5 5 3 5 5 5 5 5 3 5 5 3 3 5 5 5 3 3 5 5 3 5 5 5 5 3 5 5 5 5 3 5 5 5 5 5 5 5 5 5 5 5 3 3 3 5 3 5 3 5 3 3 5 5 5 5 5 5 5 5 5 5 5 5 3 5 5 5 5 5 5 5 5 5 5 5 5 5 5 5 5 5 5 5 5 5 5 3 5 5 5 5 3 5 5 5 5 5 5 5 3 5 5 5 5 5 3 5 5 5 5 5 5 5 5 5 5 5 5 5 5 5 5 5 5 5 5 5 5 5 5 5 5 5 5 5 5 5 5 3 5 5 5 5 5 3 3 3 5 5 5 5 5 5 3 5 5 3 5 3 5 5 3 5 5 5 5 5 5 5 3 5 5 5 3 5 5 5 5 5 5 5 5 5 5 5 5 5 5 5 5 5 5 5 5 5 5 5 5 5 5 5 5 5 5 5 5 5 5 5 5 5 5 5 5 5 5 5 5 5 5 5 5 5 5 5 5 5 5 5 5 5 5 5 5 5 5 5 5 5 5 5 5 5 5 5 5 5 5 5 5 5 5 5 5 5 5 5 5 3 5 5 5 5 5 5 5 5 5 5 5 5 5 5 5 5 5 5 5 5 5 5 5 5 5 5 5 5 3 5 5 5 5 5 5 5 5 3 5 5 5 5 5 3 5 3 3 3 5 3 5 5 5 3 5 5 5 5 5 5 5 5 5 5 5 3 5 5 5 5 5 5 5 5 5 5 5 5 5 3 5 5 5 5 5 5 5 5 5 5 3 3 5 3 5 5 5 5 5 5 5 5 5 5 3 5 3 5 5 5 5 5 5 5 5 5 5 3 5 5 5 3 5 5 5 5 5 5 5 5 5 5 5 5 5 5 5 5 5 5 5 5 5 5 5 5 3 5 5 3 3 5 5 3 5 5 3 5 5 5 5 5 5 5 5 5 5 5 5 5 5 5 5 5 5 5 5 5 5 5 5 5 5 5 5 5 5 5 5 5 5 5 5 5 5 5 5 5 5 5 5 5 3 5 5 5 5 5 5 5 5 3 3 5 5 5 5 5 3 5 5 5 3 5 5 5 5 5 5 3 5 5 5 5 5 5 5 5 5 5 5 3 5 5 5 5 5 3 5 5 5 5 5 5 5 5 5 5 5 5 3 5 5 5 3 5 5 5 5 5 5 5 3 5 5 5 5 5 5 5 5 5 3 3 5 5 5 5 5 5 5 5 5 5 5 5 5 5 3 5 5 5 3 5 5 5 5 5 5 5 5 5 5 5 5 5 5 5 5 5 5 5 3 5 3 3 5 5 5 3 3 5 3 3 5 5 5 5 5 3 5 3 5 5 5 5 5 5 5 5 5 3 3 5 5 3 3 5 5 5 5 5 5 3 5 5 5 3 5 5 5 5 5 5 5 5 5 5 5 5 5 5 5 5 5 5 5 5 5 5 5 5 5 5 5 3 5 3 5 5 5 5 3 5 5 3 3 5 5 5 3 5 5 3 5 5 3 5 5 5 5 5 5 5 5 5 5 5 5 5 5 5 5 5 3 5 5 5 5 5 5 5 5 5 5 5 5 5 3 5 5 5 5 5 3 5 3 5 5 5 5 5 5 3 5 5 5 3 5 5 5 5 5 5 5 5 5 5 5 5 5 5 5 5 5 5 5 5 5 5 5 5 5 3 5 5 5 5 5 3 5 5 5 5 5 5 5 5 5 5 5 5 5 5 5 5 5 5 5 5 5 5 5 5 5 5 5 5 5 5 5 5 5 5 5 5 5 5 5 5 5 5 5 5 5 5 5 5 5 5 3 5 5 5 3 5 5 5 5 5 5 5 3 5 5 5 5 5 5 5 5 5 5 5 5 5 5 5 5 5 5 5 5 5 5 5 5 5 5 5 3 5 5 5 5 5 5 3 3 5 5 5 5 3 5 5 5 5 5 5 3 5 5 3 5 5 5 3 5 5 5 5 5 5 3 5 5 5 5 5 5 5 5 5 5 5 5 5 5 5 5 5 5 3 5 5 5 5 3 3 5 5 5 3 5 5 5 5 5 5 3 5 3 5 5 3 5 5 5 5 5 5 5 5 3 5 5 5 5 5 5 5 5 5 5 5 5 5 5 5 5 5 5 3 5 5 5 5 5 5 3 5 5 5 5 5 5 3 5 5 5 5 5 5 3 5 5 5 3 5 5 5 5 5 5 5 5 5 5 5 5 5 5 5 5 5 5 5 5 5 5 5 3 5 3 5 5 5 5 5 5 5 5 5 5 5 3 5 3 5 3 5 5 5 5 5 5 5 5 5 5 5 5 5 3 5 5 5 5 5 5 3 5 3 5 5 5 3 5 5 5 3 5 5 5 5 3 5 3 5 5 5 5 3 5 5 5 5 5 3 5 5 5 5 5 5 5 5 5 5 5 5 5 3 5 5 5 3 5 5 5 5 3 5 5 5 5 5 5 5 5 5 5 5 5 5 5 5 5 5 5 5 5 3 5 5 5 5 5 3 5 5 5 5 5 5 5 5 5 5 5 5 5 5 5 5 5 5 3 5 5 5 5 5 5 5 5 5 5 5 3 5 5 5 5 5 5 5 5 5 5 5 5 5 5 5 5 5 5 5 5 5 5 5 5 5 5 5 5 5 5 5 5 5 5 3 5 5 5 5 5 5 5 5 5 5 5 5 5 5 5 5 5 5 5 5 5 5 5 5 5 5 5 5 5 5 5 5 5 5 5 5 5 5 5 5 5 5 5 5 5 5 5 5 5 5 5 3 5 5 3 5 3 5 5 3 5 5 5 5 5 3 5 5 5 5 5 5 3 5 5 5 5 5 5 5 5 5 5 5 5 5 5 5 5 5 5 5 5 5 5 5 5 3 5 5 5 5 5 5 5 5 5 5 3 5 5 5 5 5 5 5 5 5 5 5 5 5 5 5 5 5 5 5 5 3 5 5 5 5 3 5 5 3 5 5 5 5 3 5 5 5 3 5 3 3 3 5 5 3 5 5 5 5 5 5 3 5 5 5 5 5 5 5 5 3 3 5 5 5 5 5 5 5 5 5 5 5 5 5 5 5 5 5 5 5 5 5 5 5 5 3 5 5 5 5 3 5 5 5 5 5 5 5 3 5 5 5 5 3 5 5 5 5 5 5 5 5 5 5 5 5 5 5 5 5 5 3 5 3 5 5 5 5 5 5 5 5 5 5 5 5 5 5 5 5 5 5 5 5 5 5 5 3 5 5 3 5 5 5 5 5 5 5 5 3 5 5 3 5 5 5 3 5 5 3 5 3 3 5 5 5 5 5 5 5 5 5 5 5 5 5 3 5 3 3 5 5 5 5 3 5 5 5 3 5 5 3 5 5 5 3 5 5 3 5 5 5 5 5 5 5 5 5 5 5 5 3 5 5 3 5 5 3 3 5 5 5 3 5 3 3 5 5 5 5 3 5 5 5 3 5 5 5 5 5 5 5 5 5 5 5 5 5 5 5 5 5 5 5 5 5 5 5 5 5 5 5 5 5 5 5 5 5 5 5 5 5 5 5 5 5 5 5 5 5 5 5 5 5 5 5 5 5 5 5 5 5 5 5 5 5 5 5 5 5 5 3 5 5 5 5 3 5 5 5 5 5 3 5 5 3 5 5 5 5 5 5 5 5 5 5 5 5 5 5 5 3 5 5 5 5 5 5 5 5 5 5 5 5 5 5 5 5 5 5 5 5 5 5 5 5 5 5 5 5 5 5 5 5 5 5 5 5 5 5 5 5 5 5 5 5 5 5 5 5 5 5 5 5 5 5 5 5 5 5 5 5 5 5 5 5 5 5 5 5 5 5 5 5 5 5 5 5 5 3 5 5 5 5 3 5 5 5 5 5 5 5 3 5 5 5 3 5 5 5 5 5 5 5 5 5 3 5 5 5 5 5 5 3 5 5 5 5 5 5 5 5 5 5 5 5 5 5 5 5 5 5 5 5 5 5 5 5 5 5 5 5 5 5 5 5 5 5 5 5 5 5 5 5 5 5 5 5 5 5 5 5 5 5 5 5 5 5 5 5 5 5 5 5 5 5 5 5 5 5 5 5 5 5 5 5 5 5 5 5 5 5 5 5 5 5 5 5 5 5 5 3 3 5 5 3 3 5 3 3 5 3 3 5 5 3 5 3 5 3 5 3 5 5 5 5 5 5 5 5 5 5 5 5 5 5 5 5 5 5 5 5 5 3 5 3 3 5 5 5 3 3 5 5 5 5 5 3 3 5 5 5 5 5 5 5 3 3 5 5 5 5 5 5 5 5 5 3 5 5 5 5 5 5 5 5 5 5 5 5 5 5 5 5 5 5 5 5 5 5 5 5 3 5 5 5 5 5 5 3 5 5 3 5 5 5 5 5 5 5 5 5 5 5 5 5 5 5 5 5 5 5 5 5 5 5 5 5 3 5 5 5 5 5 5 5 5 3 5 5 5 5 3 5 5 5 5 5 5 5 5 5 3 5 5 5 3 5 5 5 5 3 5 5 5 3 5 3 5 3 5 5 5 5 5 5 5 5 5 5 5 5 5 5 3 5 5 3 5 5 3 3 3 5 5 5 5 5 3 5 5 5 5 5 5 5 5 5 5 5 5 5 5 5 5 5 5 5 5 5 3 5 5 5 5 5 5 3 5 5 3 5 5 5 5 5 5 5 5 5 3 5 5 5 5 5 5 5 5 5 5 5 5 5 5 5 5 5 5 5 3 5 5 5 5 5 3 5 5 5 5 5 3 3 5 5 3 5 5 5 5 5 5 5 3 5 5 5 5 5 5 5 5 5 5 5 5 3 5 5 5 5 5 5 5 3 5 3 5 5 3 5 5 5 5 5 5 3 5 5 5 5 5 5 5 5 5 5 5 5 5 5 5 5 5 5 5 3 5 5 5 5 5 5 3 3 5 5 5 5 5 5 5 3 5 5 5 5 3 5 5 5 5 5 5 5 5 5 5 5 3 5 5 5 5 5 5 5 5 3 5 5 5 5 5 3 5 5 5 5 5 5 5 3 5 5 3 5 5 5 5 5 5 5 5 3 5 5 5 5 5 5 5 3 5 5 5 5 5 5 5 5 5 5 5 5 3 5 5 5 5 3 5 5 5 5 5 5 5 5 5 5 5 5 5 5 5 5 3 5 5 5 5 5 5 5 5 5 5 5 3 5 5 5 5 3 5 5 5 5 5 5 5 5 5 5 5 5 5 5 5 5 5 3 5 5 3 3 5 5 5 5 5 5 5 5 5 5 5 5 5 5 3 5 5 5 5 5 5 3 5 5 5 5 5 5 5 5 5 5 5 5 5 5 5 5 5 5 5 5 5 5 5 5 5 5 5 5 5 5 5 5 5 5 5 5 5 5 5 5 5 5 5 5 5 5 5 5 5 5 5 5 5 5 5 5 5 5 5 5 5 5 5 5 5 5 5 5 5 5 3 5 5 5 5 3 5 5 5 5 5 5 5 5 5 5 5 5 5 5 5 5 5 5 5 5 5 5 5 5 5 5 5 3 5 3 3 5 5 5 5 5 5 5 5 5 5 5 3 5 5 5 5 3 3 5 5 5 5 5 5 3 5 5 5 5 5 5 5 5 5 3 5 5 5 3 5 5 5 5 5 3 5 5 3 5 5 5 5 5 5 5 5 5 5 5 5 5 5 5 5 5 5 5 5 5 5 5 5 5 5 5 5 3 5 5 3 5 5 3 5 3 5 3 5 5 5 3 3 5 5 3 3 5 5 5 5 5 5 5 5 5 5 5 5 5 5 5 5 5 5 5 3 5 5 5 5 5 5 5 5 5 5 5 5 5 5 5 5 5 5 5 5 5 5 3 5 5 5 5 5 5 5 5 5 5 5 3 5 5 5 5 3 5 5 3 5 5 5 3 5 5 5 3 5 3 5 3 5 5 5 5 5 5 5 5 3 5 3 5 5 5 5 5 5 3 5 5 3 5 5 3 5 5 3 5 5 5 3 5 5 5 5 5 3 5 5 3 5 5 5 5 5 5 3 5 5 5 5 3 5 5 5 5 5 5 5 5 5 5 5 5 5 5 5 5 5 5 5 5 5 5 3 5 5 5 5 5 5 3 5 5 5 5 5 5 3 5 5 5 5 5 5 5 5 3 5 3 5 3 3 3 5 5 5 5 5 5 5 5 5 5 5 5 3 5 5 3 5 5 3 5 5 5 5 5 3 5 5 3 5 5 3 5 5 5 5 5 5 5 3 5 3 5 5 5 5 5 5 5 5 5 5 5 5 5 3 5 5 5 5 3 5 5 5 5 5 5 5 5 5 5 5 5 5 5 5 5 3 5 5 5 5 3 3 5 5 5 5 3 5 5 5 3 5 5 3 5 3 5 5 3 5 3 5 5 5 3 3 5 5 5 5 5 5 5 5 3 5 5 5 5 5 3 3 5 5 5 5 5 5 5 5 5 3 5 3 3 5 3 3 5 5 3 5 5 3 5 5 5 5 5 5 3 3 5 5 5 3 5 5 5 3 5 5 5 5 5 3 5 5 5 3 5 5 5 5 3 5 5 3 5 5 3 5 5 5 5 5 5 3 5 3 5 5 5 3 5 5 3 5 5 3 5 3 5 5 5 5 5 5 5 5 5 5 5 3 5 3 5 5 5 5 5 5 5 5 5 5 5 3 5 3 5 5 5 5 5 5 5 5 5 5 5 5 5 5 5 5 5 5 5 5 3 3 5 5 5 5 5 5 5 3 5 3 5 5 5 5 5 5 5 5 5 5 5 5 5 5 5 5 5 5 5 5 5 5 5 5 5 5 5 5 5 5 5 5 5 5 5 5 5 5 5 5 5 5 5 5 5 5 5 5 5 5 3 5 5 5 5 5 5 5 5 5 5 3 5 3 5 5 5 5 5 5 5 5 5 5 5 5 5 3 5 5 5 3 5 5 5 5 5 3 5 3 5 5 5 5 5 5 3 5 5 5 5 5 5 5 5 5 5 5 5 5 5 5 5 5 5 5 5 5 5 5 3 5 3 5 5 3 5 5 3 5 5 3 5 5 5 5 5 5 5 5 5 5 5 5 5 3 3 5 5 5 5 5 5 5 5 5 5 3 5 5 5 5 5 5 5 5 5 5 5 5 5 5 5 5 5 5 5 5 5 5 5 5 5 3 5 3 5 5 5 5 3 5 5 5 5 5 5 3 5 5 5 5 5 5 5 5 5 5 3 5 5 5 5 5 5 5 5 5 5 5 5 5 3 5 5 5 5 5 3 5 3 5 5 3 5 5 5 5 5 5 5 5 5 3 5 5 5 3 5 5 5 5 5 5 5 5 3 5 5 5 3 5 5 5 5 5 5 5 5 5 5 5 5 5 5 5 5 5 5 5 5 5 5 5 5 3 5 5 5 5 5 5 5 5 5 3 5 5 3 5 5 5 5 5 5 5 5 5 5 5 5 5 5 5 5 5 5 5 5 5 5 5 5 5 5 5 5 5 5 5 5 5 5 5 5 3 5 5 5 5 5 5 3 5 5 3 5 5 3 5 3 5 3 5 5 5 3 5 3 5 5 5 5 5 5 5 5 5 5 5 5 5 5 5 5 5 5 5 5 5 5 5 3 5 5 5 5 5 5 5 5 3 5 5 5 5 5 5 5 3 5 5 5 3 5 5 3 5 5 3 5 5 5 5 5 5 5 5 5 5 3 5 5 5 5 5 5 5 5 5 5 5 5 5 5 5 5 5 5 5 5 5 5 3 5 5 5 5 3 3 5 5 3 5 3 5 3 5 5 5 3 5 5 5 5 3 5 3 5 5 5 5 5 5 3 5 5 5 5 5 5 5 5 3 5 5 5 5 5 5 5 5 3 3 5 5 5 5 5 5 5 5 3 5 5 5 3 5 5 5 5 5 3 5 5 5 5 5 5 3 3 5 5 5 5 3 3 5 3 5 3 5 5 5 5 5 5 5 5 5 5 5 5 5 5 5 5 5 5 5 5 3 5 5 3 5 5 5 3 3 5 3 5 5 5 5 5 5 5 5 5 5 5 5 5 3 5 5 5 5 5 5 5 5 5 3 5 3 5 5 5 5 5 5 5 5 5 5 5 5 5 5 5 5 5 5 5 5 5 5 5 3 5 3 5 5 3 5 3 5 5 5 5 5 3 5 5 5 3 5 5 5 5 5 5 5 5 5 5 5 5 5 5 5 5 5 5 5 5 5 5 5 5 5 5 5 5 5 5 5 5 5 5 5 5 5 5 5 5 5 5 5 3 3 5 5 5 3 5 3 5 5 3 5 5 5 3 5 3 5 5 3 5 3 5 3 5 5 5 3 3 5 5 5 5 5 5 3 5 5 3 5 5 3 5 5 5 5 5 3 3 5 5 3 5 5 5 5 5 5 5 5 3 5 5 5 5 5 5 5 5 5 5 5 5 5 5 5 5 5 5 5 5 5 5 5 5 5 5 5 5 5 3 5 5 5 5 3 5 3 5 5 3 5 5 5 5 3 5 5 5 5 3 5 5 5 5 5 5 5 5 5 5 5 5 5 5 3 5 5 5 5 5 3 5 5 5 5 5 5 5 3 5 3 5 5 5 5 5 5 5 5 3 5 3 5 5 3 5 5 5 5 3 3 5 5 5 5 3 5 5 5 5 5 3 5 5 5 5 3 5 5 5 5 5 5 5 5 5 5 5 5 5 3 5 5 5 5 5 5 5 5 5 5 5 3 5 5 3 5 5 5 5 5 5 5 5 5 5 5 5 5 5 5 5 5 5 5 5 5 5 3 5 5 5 5 5 5 5 5 5 5 5 5 5 3 5 5 5 5 5 5 5 5 5 5 5 5 5 5 5 5 5 5 5 5 5 5 5 3 3 5 5 5 5 5 5 5 5 5 3 5 5 5 5 5 5 3 3 5 5 3 5 3 5 5 5 5 5 5 5 5 5 5 5 5 3 5 5 3 5 5 5 3 5 5 3 5 5 5 3 5 3 5 5 5 5 5 5 5 5 5 5 5 5 5 5 5 3 5 5 5 5 5 5 5 5 5 5 3 5 5 3 5 5 5 5 5 5 3 5 5 5 3 5 5 5 5 5 5 5 5 5 5 3 5 3 5 5 5 3 5 5 5 5 5 3 5 5 5 5 5 5 5 3 5 5 5 5 5 3 5 5 5 5 5 3 5 5 5 5 5 5 5 5 5 5 5 5 3 5 5 5 3 5 3 5 3 5 5 5 5 5 5 5 5 5 5 3 5 5 5 5 3 5 3 5 5 5 5 5 5 5 5 5 5 5 5 5 3 5 5 3 5 5 5 3 5 3 5 5 3 5 5 5 5 3 5 5 5 5 5 5 5 5 5 5 5 5 5 5 5 5 5 5 5 5 5 5 5 5 5 3 5 5 5 5 5 5 5 5 5 5 5 5 5 5 5 3 5 5 5 3 5 5 5 5 5 5 5 5 5 5 5 5 5 5 5 5 3 5 5 3 3 5 5 5 5 5 5 5 5 3 5 5 5 5 5 3 5 5 5 3 5 5 3 5 5 3 5 5 3 5 5 5 5 5 5 5 3 5 5 5 3 5 3 5 5 5 5 5 5 5 5 5 5 3 5 5 3 5 5 5 3 5 5 5 3 5 3 5 5 5 5 5 5 3 5 5 5 5 3 5 5 5 5 5 3 5 5 3 5 3 5 3 3 5 5 5 3 5 5 5 5 5 5 3 5 3 5 3 5 5 3 5 5 5 3 5 5 5 5 5 5 5 5 5 5 5 5 5 3 5 5 5 5 5 5 5 5 5 5 5 3 5 3 5 5 5 3 5 5 5 5 5 5 5 5 5 3 3 5 5 5 5 3 5 5 5 5 3 3 3 5 3 5 3 5 5 5 3 3 5 5 3 3 5 5 3 5 5 5 5 5 5 5 5 3 3 5 3 5 5 5 3 5 5 5 3 5 5 5 5 5 5 5 5 5 5 5 5 5 5 5 5 5 5 5 5 3 5 5 5 5 5 5 5 5 5 5 5 5 5 5 5 5 5 5 5 5 5 5 5 5 5 3 5 5 5 5 5 3 5 5 5 5 5 5 5 5 5 5 5 5 3 3 5 5 5 5 3 5 5 5 5 5 5 5 5 3 5 5 5 5 5 5 5 5 5 5 5 5 5 5 5 5 5 5 3 3 3 5 5 5 5 5 5 5 5 3 5 5 5 5 3 5 5 3 5 5 5 5 5 5 5 5 5 3 5 3 5 3 5 3 5 5 5 5 5 5 5 5 5 5 5 5 5 5 3 5 5 5 5 5 3 5 5 5 5 5 5 5 5 5 5 5 5 5 5 5 5 5 5 5 5 3 5 5 3 5 5 5 3 5 5 5 5 5 3 5 3 5 5 5 5 5 5 5 5 5 3 5 3 5 3 3 5 5 5 5 5 5 5 5 3 5 5 5 5 5 5 5 5 5 5 5 5 3 5 5 3 5 5 5 5 5 3 5 5 5 5 5 3 5 5 3 5 5 5 5 5 5 3 5 5 5 5 5 5 5 3 5 3 5 5 5 5 3 5 5 5 5 5 5 5 5 5 5 5 5 3 5 5 3 5 5 5 5 5 5 5 3 5 5 5 5 5 5 5 5 5 5 5 5 5 3 5 5 5 5 5 5 5 5 5 3 5 5 3 5 5 5 5 5 3 5 5 5 5 5 5 3 3 5 5 5 5 3 5 3 5 5 3 5 5 5 5 5 5 5 5 5 5 5 5 5 5 5 5 5 5 5 5 5 5 5 3 5 3 5 5 5 5 5 5 5 3 5 3 5 5 5 5 3 3 5 5 5 5 5 5 3 5 5 3 5 5 5 5 5 3 5 5 5 5 5 5 5 5 5 3 3 5 3 5 5 3 5 5 5 5 5 5 5 5 5 5 5 5 3 5 5 5 5 5 5 5 5 5 5 5 5 3 5 5 5 5 3 5 5 5 5 5 5 3 5 5 5 5 3 3 5 5 5 5 3 5 3 5 3 5 5 5 5 5 5 5 5 5 5 5 5 5 5 5 5 5 5 5 5 5 5 5 5 5 5 5 5 3 3 3 5 5 5 5 5 5 3 5 5 5 3 5 3 5 5 5 5 5 5 5 5 3 5 5 3 5 5 5 5 3 5 5 5 5 5 5 5 3 5 5 3 5 5 5 3 5 5 5 5 5 5 5 5 5 3 5 5 5 5 5 3 5 3 5 3 5 5 3 5 5 3 3 5 5 5 5 5 5 5 3 5 5 5 5 5 3 5 5 5 5 5 3 5 3 5 5 5 5 5 5 5 5 5 5 5 5 5 5 5 5 5 5 5 5 5 3 5 5 5 5 5 5 5 5 5 5 5 5 5 5 5 5 3 3 5 5 5 5 5 3 5 5 5 5 5 3 5 5 5 5 5 5 5 5 5 5 5 5 5 5 5 5 5 5 5 5 5 5 5 5 5 5 5 5 5 5 5 3 5 5 3 5 5 5 5 3 5 5 5 5 5 5 5 5 5 5 5 3 5 5 3 5 5 3 5 5 3 5 5 5 5 5 5 5 5 5 3 5 5 5 5 5 5 5 5 5 5 3 5 5 5 5 5 5 5 5 5 5 3 5 5 5 3 5 5 5 3 5 5 5 5 5 5 5 5 5 5 5 5 5 5 5 5 5 5 5 3 5 5 5 5 5 5 5 5 5 5 5 5 5 5 5 5 3 5 5 5 5 5 5 5 5 5 5 5 5 3 5 5 5 3 3 5 5 3 5 5 5 5 5 5 5 5 5 5 5 3 5 5 5 5 5 5 5 3 5 5 5 5 5 5 5 5 3 5 5 5 5 5 3 5 5 5 5 5 5 5 5 5 5 5 5 5 5 5 5 5 5 5 3 5 5 5 5 3 5 5 5 5 5 5 5 3 5 5 5 5 5 3 5 5 5 5 5 5 5 5 5 5 5 5 5 5 5 5 5 5 5 5 3 5 5 5 5 5 5 5 5 3 5 5 5 5 5 5 5 5 5 3 5 5 5 5 3 3 5 3 5 5 5 5 3 5 5 3 5 5 5 5 5 5 5 5 5 5 5 5 5 5 5 5 5 5 5 5 5 5 5 5 5 5 3 5 5 5 3 5 5 5 5 5 3 5 5 3 5 5 5 5 5 5 5 5 5 5 5 5 5 5 5 5 5 5 3 5 3 5 5 3 5 3 5 3 5 5 5 3 5 5 3 5 3 5 5 5 3 3 5 5 3 5 5 5 5 5 5 5 5 3 5 3 5 5 3 5 3 5 5 5 5 5 5 5 5 3 5 5 3 5 5 5 5 5 5 5 5 5 5 5 5 5 5 5 5 5 5 3 5 5 5 5 3 5 5 5 5 5 5 5 3 5 5 5 5 5 5 5 5 5 5 5 5 5 5 5 5 5 5 3 5 5 5 5 5 5 5 5 3 5 5 5 5 5 3 5 5 5 5 5 3 5 5 5 5 5 3 5 3 5 3 5 3 3 5 3 5 5 3 5 5 3 5 5 5 3 5 3 5 5 5 3 5 3 5 5 3 3 5 3 5 5 5 5 5 5 5 5 5 5 5 5 5 5 3 5 3 5 5 5 5 5 5 5 5 5 5 5 5 5 5 5 5 5 5 3 5 5 3 3 5 5 5 3 5 5 5 5 3 5 5 5 5 5 5 5 5 5 5 5 5 5 5 5 5 5 3 5 5 5 5 5 5 5 5 5 5 3 5 5 5 5 5 5 5 5 5 3 5 5 3 5 5 3 5 5 3 5 5 5 3 5 3 5 5 5 5 3 3 5 5 5 3 5 3 3 3 5 5 5 3 5 5 5 3 5 5 5 3 5 5 3 5 5 5 5 5 5 5 3 5 5 5 5 5 5 5 5 3 5 5 5 5 5 5 5 5 5 5 5 5 5 5 5 3 5 5 5 5 5 5 5 5 5 5 5 5 5 5 3 5 3 3 5 3 5 5 5 5 5 5 5 5 5 5 5 5 5 5 5 5 5 5 5 5 5 5 5 5 3 5 5 3 5 5 5 5 5 3 3 5 3 5 5 3 5 5 5 5 5 5 5 5 5 3 5 5 5 5 5 5 5 5 5 5 5 5 5 5 5 5 5 5 5 5 5 5 5 3 5 5 5 5 3 5 5 5 5 5 5 5 5 5 5 5 5 5 5 5 5 3 5 5 5 5 5 5 5 3 5 5 5 5 5 5 5 5 5 5 5 5 5 5 3 5 5 5 5 5 5 5 5 5 5 5 5 5 3 3 5 5 3 5 5 5 5 5 5 5 5 5 5 3 5 3 5 5 5 5 5 5 5 5 5 3 5 5 5 3 5 5 5 5 5 5 5 5 5 5 3 5 5 5 3 5 5 5 5 3 5 5 5 5 5 5 5 5 5 3 5 5 5 5 5 5 3 5 5 5 5 3 5 3 5 5 5 5 5 5 5 3 5 3 5 5 3 5 5 5 5 5 5 5 5 5 5 3 5 5 3 5 5 5 5 5 3 5 5 5 5 5 5 5 5 5 5 3 5 3 5 5 3 5 5 5 3 5 3 5 3 5 5 5 5 5 5 5 5 5 5 5 3 5 3 5 3 5 3 5 5 5 3 5 5 5 5 5 5 5 3 5 5 3 5 5 3 5 5 5 5 3 5 5 5 5 3 5 5 5 3 5 5 3 5 5 5 5 5 3 5 5 5 3 5 5 5 5 5 5 5 5 5 5 5 5 5 5 5 5 5 5 5 3 5 5 5 5 5 5 5 5 5 5 5 3 5 5 5 5 5 5 5 5 5 5 3 5 5 3 5 5 5 5 3 5 5 3 5 5 5 5 3 5 3 3 5 5 5 5 5 5 5 5 3 5 5 3 5 5 5 5 5 5 5 5 5 5 5 5 3 5 5 5 5 5 5 5 5 5 5 5 5 5 5 5 5 5 5 5 5 5 5 5 5 5 5 3 5 5 5 5 5 5 5 5 5 5 5 5 5 5 5 3 5 5 5 3 5 5 5 5 5 5 5 5 5 5 3 5 3 5 5 5 5 5 5 3 5 3 5 5 5 5 5 5 5 5 5 5 5 5 5 5 5 5 5 5 5 5 5 3 5 5 5 5 3 5 5 3 5 5 5 5 5 5 5 5 5 5 3 5 5 3 5 5 5 5 5 5 5 5 5 5 5 3 3 5 5 5 5 5 3 5 5 5 5 5 5 5 5 5 5 5 5 3 5 3 5 3 5 5 5 5 5 5 3 5 5 5 3 5 5 3 5 3 5 3 5 5 5 5 5 5 3 3 5 5 5 5 3 5 5 5 3 5 5 5 5 3 5 3 5 5 5 5 5 3 5 3 3 5 3 5 5 5 5 5 5 5 3 5 5 3 5 3 5 5 3 5 5 5 5 5 5 3 5 5 5 5 5 5 5 5 5 3 5 5 5 3 5 5 5 5 5 5 5 5 5 5 5 5 5 3 5 5 3 5 5 5 3 5 5 5 5 5 5 5 5 5 5 5 5 5 5 5 5 5 5 5 3 5 3 5 3 5 5 5 5 5 5 5 5 5 5 5 5 3 5 5 5 3 3 5 5 3 5 5 3 5 5 5 5 5 5 5 3 5 5 5 5 5 5 5 3 5 5 5 5 5 5 5 3 5 3 5 5 5 5 3 5 3 5 5 5 5 5 5 3 5 3 5 5 5 5 5 5 3 5 5 5 3 5 5 5 5 5 3 5 5 5 5 5 5 5 5 5 5 5 5 5 5 5 5 5 5 5 5 5 5 5 5 5 5 5 5 5 5 5 5 5 3 5 3 5 5 5 5 3 5 5 5 5 3 5 5 3 5 5 5 5 5 5 5 5 5 5 5 5 3 5 5 5 5 5 3 5 5 5 5 5 5 5 5 5 5 5 5 5 5 5 5 5 5 5 5 5 5 5 5 5 3 5 5 5 5 5 5 5 5 5 5 5 5 5 5 5 5 5 5 5 5 5 5 5 5 5 5 3 5 5 5 5 5 5 5 5 5 5 5 5 5 5 5 5 5 5 5 5 5 5 5 5 5 5 5 5 5 5 5 5 3 5 5 5 5 5 5 5 5 5 5 5 3 5 5 5 3 5 5 5 5 3 5 5 5 5 5 5 3 5 5 5 5 5 5 5 5 5 5 5 5 5 5 5 5 5 5 5 3 5 5 5 3 5 5 5 5 3 5 5 5 5 5 5 3 3 5 5 5 5 5 5 5 3 5 5 5 5 3 5 5 5 5 3 5 5 5 3 5 5 5 5 5 5 5 5 5 5 5 5 3 3 5 5 5 5 3 5 5 5 5 5 5 3 5 5 5 5 5 5 5 5 5 5 5 5 5 5 5 5 5 5 5 5 5 5 5 5 5 5 5 5 5 3 5 5 3 5 5 5 5 3 5 5 5 5 5 5 5 5 5 5 3 3 5 3 5 5 5 5 5 5 5 5 5 3 5 5 3 5 5 3 5 3 5 5 5 5 3 5 5 5 5 5 5 5 5 5 5 3 5 5 5 3 5 5 3 5 3 5 5 5 5 5 3 5 3 5 5 5 5 5 3 5 3 5 3 5 5 5 5 5 5 3 5 5 5 5 5 5 5 5 5 5 5 5 5 5 5 5 5 5 5 5 5 5 5 5 5 5 5 5 5 5 5 5 5 3 3 5 5 5 5 5 5 5 3 5 5 5 5 5 5 5 5 5 5 5 5 5 5 5 5 5 5 5 5 5 5 5 5 5 3 5 5 3 5 5 5 5 5 5 5 5 5 5 5 5 5 3 5 5 5 5 5 5 5 5 5 5 5 5 5 5 5 5 5 5 5 5 5 3 5 5 5 5 5 3 5 5 5 5 5 5 5 5 5 5 5 5 5 5 5 5 5 5 5 5 5 5 5 5 5 
</DataArray>
</Cells>
<PointData Scalars="" Vectors="displacement," Tensors="">
<DataArray type="Float64" Name="displacement" NumberOfComponents="3" format="ascii">
6.8807641024929821e-07 0.014998272590122 0 -2.1205556123979962e-06 0.014708678676201004 0 -1.2250563147427959e-07 0.014999951718112111 0 6.8807641024929821e-07 0.014998272590122 0 -2.1205556123979962e-06 0.014708678676201004 0 -1.7852705386946578e-05 0.014326441852619724 0 -9.0028164848754275e-05 0.014702893888273385 0 -0.00012554366660070065 0.014743306045970385 0 -7.7006316247746267e-05 0.014797625347799746 0 -2.1205556123979962e-06 0.014708678676201004 0 -9.0028164848754275e-05 0.014702893888273385 0 -7.7006316247746267e-05 0.014797625347799746 0 -1.7272989212026487e-05 0.014633068785842515 0 2.8091512024840718e-05 0.014649392442053837 0 -2.1205556123979962e-06 0.014708678676201004 0 -9.0028164848754275e-05 0.014702893888273385 0 -7.3371462426696381e-05 0.014620928644914931 0 -9.0028164848754275e-05 0.014702893888273385 0 -7.3371462426696381e-05 0.014620928644914931 0 -0.00012891409873895117 0.014619450646654123 0 2.8091512024840718e-05 0.014649392442053837 0 -0.00035016526580864608 0.013044298985251546 0 6.8807641024929821e-07 0.014998272590122 0 -1.7852705386946578e-05 0.014326441852619724 0 -1.1685430540656004e-06 0.013307167745435102 0 -7.3371462426696381e-05 0.014620928644914931 0 -0.00014215301079228875 0.01454061201774387 0 -0.00012891409873895117 0.014619450646654123 0 -1.7852705386946578e-05 0.014326441852619724 0 -1.1685430540656004e-06 0.013307167745435102 0 -0.0004903502213081997 0.013810675979490332 0 -0.00035016526580864608 0.013044298985251546 0 -7.4350873236664422e-07 0.012405637023814088 0 -1.4990143292235458e-07 0.013303927478860505 0 -0.00035016526580864608 0.013044298985251546 0 -1.7135520663746596e-09 0.013302459003955394 0 -1.4327288192705003e-06 0.012923865141967351 0 -2.5401455752143916e-09 0.012407686914217531 0 -0.0012083115409687822 0.011475396909597068 0 -1.4395609441311327e-06 0.012404933616701063 0 -0.00030448744303232311 0.011804321556900685 0 -1.4395609441311327e-06 0.012404933616701063 0 -0.00030448744303232311 0.011804321556900685 0 -4.5778947279402652e-05 0.011742164599727024 0 -0.00030448744303232311 0.011804321556900685 0 -0.00056550325659256119 0.010799518349445213 0 -1.4435022913815149e-05 0.010133102984694763 0 -0.0001391360121621617 0.011115650434952447 0 -0.00064613084971682693 0.011894416142034091 0 -0.00030448744303232311 0.011804321556900685 0 -9.4594668839367214e-05 0.011260684186783615 0 -0.00038226425935020917 0.010858499524244962 0 -0.00014215301079228875 0.01454061201774387 0 -0.00017989513030864992 0.014596555858925709 0 -0.00012891409873895117 0.014619450646654123 0 -0.0012083115409687822 0.011475396909597068 0 -0.00030448744303232311 0.011804321556900685 0 -0.00056550325659256119 0.010799518349445213 0 -0.00035016526580864608 0.013044298985251546 0 -0.00041187020442294173 0.012711144190239596 0 4.0337569135819693e-07 0.011574645405832773 0 -7.0548585739506719e-05 0.010756229542963363 0 5.1468047703873088e-05 0.010609394646042153 0 4.0337569135819693e-07 0.011574645405832773 0 -9.4594668839367214e-05 0.011260684186783615 0 -7.0548585739506719e-05 0.010756229542963363 0 -0.00030448744303232311 0.011804321556900685 0 -4.5778947279402652e-05 0.011742164599727024 0 -9.4594668839367214e-05 0.011260684186783615 0 -1.4395609441311327e-06 0.012404933616701063 0 4.0337569135819693e-07 0.011574645405832773 0 -4.5778947279402652e-05 0.011742164599727024 0 4.0337569135819693e-07 0.011574645405832773 0 -4.5778947279402652e-05 0.011742164599727024 0 -9.4594668839367214e-05 0.011260684186783615 0 -9.3146435422536601e-05 0.010715335221757973 0 -0.00015429689250558875 0.010374506393329838 0 -9.4594668839367214e-05 0.011260684186783615 0 -7.0548585739506719e-05 0.010756229542963363 0 -0.00013801592361344773 0.010763444612613032 0 -7.0548585739506719e-05 0.010756229542963363 0 -0.00013801592361344773 0.010763444612613032 0 -8.5192786172208192e-05 0.010627806019359627 0 -9.4594668839367214e-05 0.011260684186783615 0 -0.00013801592361344773 0.010763444612613032 0 -0.00038226425935020917 0.010858499524244962 0 -0.00058751714060800708 0.010849698342996799 0 -0.00064613084971682693 0.011894416142034091 0 -0.00013801592361344773 0.010763444612613032 0 -0.00017455173582965326 0.010594874873480726 0 -0.00038226425935020917 0.010858499524244962 0 -0.0014293765835933689 0.011251369566954952 0 -0.00091315116388137371 0.011263824247391828 0 -0.0015906537759074373 0.012081151685114847 0 -0.00013801592361344773 0.010763444612613032 0 -0.00017455173582965326 0.010594874873480726 0 -8.5192786172208192e-05 0.010627806019359627 0 -9.0028164848754275e-05 0.014702893888273385 0 -0.00012891409873895117 0.014619450646654123 0 -0.00015108989813545772 0.01467238882703476 0 -0.00017989513030864992 0.014596555858925709 0 -0.00012891409873895117 0.014619450646654123 0 -0.00015108989813545772 0.01467238882703476 0 -0.00017989513030864992 0.014596555858925709 0 -0.00015108989813545772 0.01467238882703476 0 -0.0002074089495419816 0.014643855803422166 0 -0.00015108989813545772 0.01467238882703476 0 -0.0002074089495419816 0.014643855803422166 0 -0.0001677059037197348 0.014711163260845254 0 -0.00041187020442294173 0.012711144190239596 0 -0.00064613084971682693 0.011894416142034091 0 -0.0008668624608464009 0.013283929360374843 0 -0.00064613084971682693 0.011894416142034091 0 -0.00019625723840534468 0.014726259443407948 0 -0.0002074089495419816 0.014643855803422166 0 -0.0001677059037197348 0.014711163260845254 0 -0.00019625723840534468 0.014726259443407948 0 -0.0001677059037197348 0.014711163260845254 0 -0.00015878387655552122 0.014756611492417422 0 -0.00015108989813545772 0.01467238882703476 0 -0.0001677059037197348 0.014711163260845254 0 -0.00012554366660070065 0.014743306045970385 0 -0.0001677059037197348 0.014711163260845254 0 -0.00012554366660070065 0.014743306045970385 0 -0.00015878387655552122 0.014756611492417422 0 -9.0028164848754275e-05 0.014702893888273385 0 -0.00015108989813545772 0.01467238882703476 0 -0.00012554366660070065 0.014743306045970385 0 -0.00012554366660070065 0.014743306045970385 0 -0.00015878387655552122 0.014756611492417422 0 -0.00012266350002118747 0.014797514455516714 0 -0.00015878387655552122 0.014756611492417422 0 -0.0001385343098920312 0.014784556422979692 0 -0.00012266350002118747 0.014797514455516714 0 -0.00019625723840534468 0.014726259443407948 0 -0.00015878387655552122 0.014756611492417422 0 -0.000175531269866132 0.014756864633899252 0 -0.0001385343098920312 0.014784556422979692 0 -0.000175531269866132 0.014756864633899252 0 -0.00014245452192639314 0.014787723836345154 0 -0.00015878387655552122 0.014756611492417422 0 -0.0001385343098920312 0.014784556422979692 0 -0.000175531269866132 0.014756864633899252 0 -0.00011924396589252823 0.014799344532292919 0 -0.0001385343098920312 0.014784556422979692 0 -0.00014245452192639314 0.014787723836345154 0 -0.00011924396589252823 0.014799344532292919 0 -0.0001385343098920312 0.014784556422979692 0 -0.00012266350002118747 0.014797514455516714 0 -0.00017455173582965326 0.010594874873480726 0 -8.5192786172208192e-05 0.010627806019359627 0 -0.00019826148211838968 0.010392067548052565 0 -0.00091315116388137371 0.011263824247391828 0 -0.00062565273119819128 0.010559445609863083 0 -0.00019826148211838968 0.010392067548052565 0 -0.00058751714060800708 0.010849698342996799 0 -0.00019181364506609843 0.010440106250563979 0 -0.00091315116388137371 0.011263824247391828 0 -0.00097255791187952814 0.010761813876605433 0 -0.00062565273119819128 0.010559445609863083 0 -0.0014293765835933689 0.011251369566954952 0 -0.00097255791187952814 0.010761813876605433 0 -0.0012503652272286886 0.010391175292558414 0 -0.0008668624608464009 0.013283929360374843 0 -0.00073635540614138642 0.012553778878665515 0 -0.0014293765835933689 0.011251369566954952 0 -0.00091315116388137371 0.011263824247391828 0 -0.00097255791187952814 0.010761813876605433 0 -0.0012503652272286886 0.010391175292558414 0 -0.00075103124152500864 0.010337188920175523 0 -0.0007724967103734363 0.0099704768037268757 0 -0.00097255791187952814 0.010761813876605433 0 -0.0012503652272286886 0.010391175292558414 0 -0.00075103124152500864 0.010337188920175523 0 -0.00097255791187952814 0.010761813876605433 0 -0.00062565273119819128 0.010559445609863083 0 -0.00075103124152500864 0.010337188920175523 0 -0.00062565273119819128 0.010559445609863083 0 -0.00075103124152500864 0.010337188920175523 0 -0.00054702077933602839 0.010322024837813094 0 -0.00075103124152500864 0.010337188920175523 0 -0.00049946500927514363 0.010087527321017446 0 -0.0007724967103734363 0.0099704768037268757 0 -0.00075103124152500864 0.010337188920175523 0 -0.00054702077933602839 0.010322024837813094 0 -0.00049946500927514363 0.010087527321017446 0 -0.00049946500927514363 0.010087527321017446 0 -0.00037605147947851507 0.010297167863618331 0 -0.00029005030367327032 0.01010924322929282 0 -0.00054702077933602839 0.010322024837813094 0 -0.00049946500927514363 0.010087527321017446 0 -0.00037605147947851507 0.010297167863618331 0 -0.00062565273119819128 0.010559445609863083 0 -0.00037605147947851507 0.010297167863618331 0 -0.00019826148211838968 0.010392067548052565 0 -0.00062565273119819128 0.010559445609863083 0 -0.00054702077933602839 0.010322024837813094 0 -0.00037605147947851507 0.010297167863618331 0 -0.00064478868791242004 0.0097201943300962105 0 -0.0010589794868902365 0.0096105793355687041 0 -0.00035607813856155574 0.0094829368528328104 0 -0.00046834300622928523 0.0097257559056350886 0 -0.00064478868791242004 0.0097201943300962105 0 -0.00035607813856155574 0.0094829368528328104 0 -0.00046834300622928523 0.0097257559056350886 0 -0.00055829206933798734 0.0098770921536111677 0 -0.00064478868791242004 0.0097201943300962105 0 -0.00046834300622928523 0.0097257559056350886 0 -0.00041582129516563106 0.0098914384157439538 0 -0.00036631700748186789 0.0097179783991970126 0 -0.00049946500927514363 0.010087527321017446 0 -0.00055829206933798734 0.0098770921536111677 0 -0.0007724967103734363 0.0099704768037268757 0 -0.00046834300622928523 0.0097257559056350886 0 -0.00041582129516563106 0.0098914384157439538 0 -0.00055829206933798734 0.0098770921536111677 0 -0.00049946500927514363 0.010087527321017446 0 -0.00041582129516563106 0.0098914384157439538 0 -0.00029005030367327032 0.01010924322929282 0 -0.00049946500927514363 0.010087527321017446 0 -0.00041582129516563106 0.0098914384157439538 0 -0.00055829206933798734 0.0098770921536111677 0 -0.00055829206933798734 0.0098770921536111677 0 -0.0007724967103734363 0.0099704768037268757 0 -0.00064478868791242004 0.0097201943300962105 0 -0.0007724967103734363 0.0099704768037268757 0 -0.00064478868791242004 0.0097201943300962105 0 -0.0010589794868902365 0.0096105793355687041 0 -0.000175531269866132 0.014756864633899252 0 -0.00016885266435368365 0.01475628432732985 0 -0.00014245452192639314 0.014787723836345154 0 -0.0012503652272286886 0.010391175292558414 0 -0.0007724967103734363 0.0099704768037268757 0 -0.0010589794868902365 0.0096105793355687041 0 -0.00073635540614138642 0.012553778878665515 0 -0.00027359778553305884 0.012026654314673159 0 0.00096463880002605623 0.014467851296536691 0 0.00058117478960826089 0.014112806372008504 0 0.0010902912947638134 0.013897044092741792 0 -0.00027359778553305884 0.012026654314673159 0 0.00017787204045723387 0.011825667656815793 0 -0.00089861932408952087 0.0093785337944527689 0 -0.00082350817852182713 0.0093246687441831209 0 -0.00080962697499795708 0.0093513543331088834 0 -0.00089861932408952087 0.0093785337944527689 0 -0.00082350817852182713 0.0093246687441831209 0 -0.0006774363353754117 0.0093672593332695571 0 -0.00083163188647398124 0.0093716208792901188 0 -0.00086293072747691837 0.0089611876879456681 0 -0.00027359778553305884 0.012026654314673159 0 -0.00059742754864967526 0.0092063929592473802 0 -0.00082350817852182713 0.0093246687441831209 0 -0.00064717599647319936 0.0092068920655755965 0 -0.00073664090183276731 0.0091045610961884727 0 -0.00082350817852182713 0.0093246687441831209 0 -0.0006774363353754117 0.0093672593332695571 0 -0.00064717599647319936 0.0092068920655755965 0 0.00032867077510198079 0.014620788067455086 0 0.00015053270279275969 0.014414570148500396 0 -8.6668425616537393e-05 0.014717520695448136 0 0.0001860272196605955 0.014994998262610925 0 -0.00013428505845156089 0.014710430110544931 0 0.00032867077510198079 0.014620788067455086 0 -8.6668425616537393e-05 0.014717520695448136 0 -0.00011241283312176107 0.014781113853818535 0 -0.00011924396589252823 0.014799344532292919 0 -0.00014245452192639314 0.014787723836345154 0 -0.00011241283312176107 0.014781113853818535 0 -0.00027359778553305884 0.012026654314673159 0 0.0001860272196605955 0.014994998262610925 0 0.00096463880002605623 0.014467851296536691 0 0.00032867077510198079 0.014620788067455086 0 0.00058117478960826089 0.014112806372008504 0 0.00032867077510198079 0.014620788067455086 0 0.00058117478960826089 0.014112806372008504 0 0.00029162887506609342 0.014277248642003184 0 0.00058117478960826089 0.014112806372008504 0 0.00029162887506609342 0.014277248642003184 0 5.4794191328912868e-05 0.014046557720575815 0 0.00015053270279275969 0.014414570148500396 0 -8.6668425616537393e-05 0.014717520695448136 0 5.4794191328912868e-05 0.014046557720575815 0 0.00029162887506609342 0.014277248642003184 0 0.00015053270279275969 0.014414570148500396 0 5.4794191328912868e-05 0.014046557720575815 0 0.00032867077510198079 0.014620788067455086 0 0.00029162887506609342 0.014277248642003184 0 0.00015053270279275969 0.014414570148500396 0 -8.9242823696636042e-05 0.01468811747098869 0 -7.4380163567710907e-06 0.014400498432506754 0 -9.4073578777139732e-05 0.014711963321468733 0 -8.6668425616537393e-05 0.014717520695448136 0 -8.9710774694049043e-05 0.014759130042809312 0 -7.0863683989273317e-05 0.014971328019487503 0 -4.2309182845169999e-05 0.01498001772111731 0 -3.3439311510713183e-05 0.014978901317000375 0 -9.4073578777139732e-05 0.014711963321468733 0 -3.5884977685058892e-05 0.014809295423010656 0 -8.9710774694049043e-05 0.014759130042809312 0 -8.0208790621723934e-05 0.014843422424631962 0 -3.9678043387060433e-05 0.01489516520249682 0 -9.4073578777139732e-05 0.014711963321468733 0 -0.00011241283312176107 0.014781113853818535 0 -0.00011072962434931647 0.014850378649690205 0 -8.0208790621723934e-05 0.014843422424631962 0 -0.00010579221724268748 0.014846121513479868 0 -7.0863683989273317e-05 0.014971328019487503 0 -4.9128819231075116e-05 0.014926654936642641 0 -0.00011072962434931647 0.014850378649690205 0 -9.4073578777139732e-05 0.014711963321468733 0 -8.6668425616537393e-05 0.014717520695448136 0 -0.00011241283312176107 0.014781113853818535 0 -4.9128819231075116e-05 0.014926654936642641 0 -4.0348508116741059e-05 0.01496711541209075 0 -1.4449688595337641e-05 0.014955721383512569 0 -7.0863683989273317e-05 0.014971328019487503 0 -4.9128819231075116e-05 0.014926654936642641 0 -4.0348508116741059e-05 0.01496711541209075 0 -4.0348508116741059e-05 0.01496711541209075 0 -2.5694708876012657e-05 0.014983371599890431 0 -4.2309182845169999e-05 0.01498001772111731 0 -7.0863683989273317e-05 0.014971328019487503 0 -4.0348508116741059e-05 0.01496711541209075 0 -4.2309182845169999e-05 0.01498001772111731 0 2.4210062417594912e-08 0.014999915940523127 0 -1.4449688595337641e-05 0.014955721383512569 0 -2.5694708876012657e-05 0.014983371599890431 0 -4.0348508116741059e-05 0.01496711541209075 0 -1.4449688595337641e-05 0.014955721383512569 0 -2.5694708876012657e-05 0.014983371599890431 0 -1.4449688595337641e-05 0.014955721383512569 0 -1.2250563147427959e-07 0.014999951718112111 0 -3.0090633005349572e-05 0.014890350826613203 0 -2.1205556123979962e-06 0.014708678676201004 0 -1.2250563147427959e-07 0.014999951718112111 0 -3.0090633005349572e-05 0.014890350826613203 0 2.4210062417594912e-08 0.014999915940523127 0 -1.4449688595337641e-05 0.014955721383512569 0 -1.2250563147427959e-07 0.014999951718112111 0 -2.1205556123979962e-06 0.014708678676201004 0 -3.0090633005349572e-05 0.014890350826613203 0 -7.7006316247746267e-05 0.014797625347799746 0 -3.0090633005349572e-05 0.014890350826613203 0 -7.7006316247746267e-05 0.014797625347799746 0 -0.00011072962434931647 0.014850378649690205 0 -7.7006316247746267e-05 0.014797625347799746 0 -0.00012266350002118747 0.014797514455516714 0 -0.00011072962434931647 0.014850378649690205 0 -0.00012554366660070065 0.014743306045970385 0 -7.7006316247746267e-05 0.014797625347799746 0 -0.00012266350002118747 0.014797514455516714 0 -0.00011924396589252823 0.014799344532292919 0 -0.00012266350002118747 0.014797514455516714 0 -0.00011072962434931647 0.014850378649690205 0 -0.00011924396589252823 0.014799344532292919 0 -0.00011241283312176107 0.014781113853818535 0 -0.00011072962434931647 0.014850378649690205 0 -4.9128819231075116e-05 0.014926654936642641 0 -3.0090633005349572e-05 0.014890350826613203 0 -0.00011072962434931647 0.014850378649690205 0 -4.9128819231075116e-05 0.014926654936642641 0 -1.4449688595337641e-05 0.014955721383512569 0 -3.0090633005349572e-05 0.014890350826613203 0 9.8717992084950646e-05 0.0071118886406264853 0 9.9120171720904491e-05 0.0067809019112100048 0 2.1844371111880294e-05 0.0067434674950760283 0 9.8717992084950646e-05 0.0071118886406264853 0 -5.6939800143376867e-05 0.0070636861941410318 0 6.1512078072379904e-05 0.0068534623765025256 0 9.8717992084950646e-05 0.0071118886406264853 0 6.3393010215326558e-05 0.0073697809851619948 0 3.8905409139386197e-05 0.0079044818048823757 0 9.8717992084950646e-05 0.0071118886406264853 0 6.3393010215326558e-05 0.0073697809851619948 0 2.1844371111880294e-05 0.0067434674950760283 0 6.3393010215326558e-05 0.0073697809851619948 0 1.6850895774394334e-07 0.0082487333328663381 0 8.1819429034537485e-08 0.0074172743993440602 0 6.3393010215326558e-05 0.0073697809851619948 0 1.6850895774394334e-07 0.0082487333328663381 0 3.8905409139386197e-05 0.0079044818048823757 0 1.6850895774394334e-07 0.0082487333328663381 0 -4.2436106782064986e-05 0.0086103187843946435 0 -4.4973318099137772e-07 0.0090802974815749546 0 1.6850895774394334e-07 0.0082487333328663381 0 3.8905409139386197e-05 0.0079044818048823757 0 -4.2436106782064986e-05 0.0086103187843946435 0 -4.2436106782064986e-05 0.0086103187843946435 0 -4.4973318099137772e-07 0.0090802974815749546 0 -0.00020992653884071183 0.0091383430375154024 0 3.8905409139386197e-05 0.0079044818048823757 0 -4.2436106782064986e-05 0.0086103187843946435 0 -0.00020992653884071183 0.0091383430375154024 0 3.8905409139386197e-05 0.0079044818048823757 0 -0.00020992653884071183 0.0091383430375154024 0 -0.00045828982630066929 0.0074814540903039781 0 -0.00022290945360654149 0.0090884807793365999 0 -0.00021312027675210584 0.0087577725531232838 0 9.8717992084950646e-05 0.0071118886406264853 0 3.8905409139386197e-05 0.0079044818048823757 0 -5.6939800143376867e-05 0.0070636861941410318 0 3.8905409139386197e-05 0.0079044818048823757 0 -0.00045828982630066929 0.0074814540903039781 0 -5.6939800143376867e-05 0.0070636861941410318 0 -0.00045828982630066929 0.0074814540903039781 0 -5.6939800143376867e-05 0.0070636861941410318 0 -0.00018256548996284909 0.0068691749824683424 0 -0.00021312027675210584 0.0087577725531232838 0 6.4147629793460988e-05 0.0083828570200051716 0 -2.6576473519286828e-05 0.010058838238821682 0 0.00012131382965000734 0.010056499561158363 0 0.00012688966945648288 0.010006355642715924 0 -2.6576473519286828e-05 0.010058838238821682 0 0.00012688966945648288 0.010006355642715924 0 0.00032379383952823378 0.0098892821109413578 0 9.411248913426076e-05 0.010108566735972048 0 0.00012131382965000734 0.010056499561158363 0 0.00012688966945648288 0.010006355642715924 0 9.411248913426076e-05 0.010108566735972048 0 4.9708521957069308e-06 0.0099987364968447193 0 0.00012688966945648288 0.010006355642715924 0 0.00012059702692861343 0.010187857284839051 0 0.00012131382965000734 0.010056499561158363 0 7.0188102463796196e-05 0.0098801626468333487 0 9.411248913426076e-05 0.010108566735972048 0 0.00012059702692861343 0.010187857284839051 0 0.00012131382965000734 0.010056499561158363 0 -0.00020992653884071183 0.0091383430375154024 0 -2.6576473519286828e-05 0.010058838238821682 0 0.00012131382965000734 0.010056499561158363 0 -0.00020992653884071183 0.0091383430375154024 0 0.00012131382965000734 0.010056499561158363 0 7.0188102463796196e-05 0.0098801626468333487 0 -4.4973318099137772e-07 0.0090802974815749546 0 -0.00020992653884071183 0.0091383430375154024 0 9.8620109761676303e-08 0.0099117197930195435 0 -0.00020992653884071183 0.0091383430375154024 0 9.8620109761676303e-08 0.0099117197930195435 0 7.0188102463796196e-05 0.0098801626468333487 0 9.8620109761676303e-08 0.0099117197930195435 0 7.0188102463796196e-05 0.0098801626468333487 0 6.4140309623164299e-05 0.010272380788167799 0 0.00012059702692861343 0.010187857284839051 0 7.0188102463796196e-05 0.0098801626468333487 0 6.4140309623164299e-05 0.010272380788167799 0 0.00012059702692861343 0.010187857284839051 0 6.4140309623164299e-05 0.010272380788167799 0 5.1468047703873088e-05 0.010609394646042153 0 3.7995796312055685e-08 0.010743320550738632 0 6.4140309623164299e-05 0.010272380788167799 0 5.1468047703873088e-05 0.010609394646042153 0 9.8620109761676303e-08 0.0099117197930195435 0 3.7995796312055685e-08 0.010743320550738632 0 6.4140309623164299e-05 0.010272380788167799 0 4.0337569135819693e-07 0.011574645405832773 0 3.7995796312055685e-08 0.010743320550738632 0 5.1468047703873088e-05 0.010609394646042153 0 -7.0548585739506719e-05 0.010756229542963363 0 5.1468047703873088e-05 0.010609394646042153 0 2.1417807709376306e-05 0.010255915755240815 0 -7.0548585739506719e-05 0.010756229542963363 0 2.1417807709376306e-05 0.010255915755240815 0 -0.00023838884669712809 0.010109675789727678 0 0.00012059702692861343 0.010187857284839051 0 5.1468047703873088e-05 0.010609394646042153 0 2.1417807709376306e-05 0.010255915755240815 0 9.411248913426076e-05 0.010108566735972048 0 0.00012059702692861343 0.010187857284839051 0 2.1417807709376306e-05 0.010255915755240815 0 2.1417807709376306e-05 0.010255915755240815 0 -8.594588456050723e-05 0.010098877112563909 0 4.9708521957069308e-06 0.0099987364968447193 0 9.411248913426076e-05 0.010108566735972048 0 2.1417807709376306e-05 0.010255915755240815 0 4.9708521957069308e-06 0.0099987364968447193 0 -8.594588456050723e-05 0.010098877112563909 0 -0.00023838884669712809 0.010109675789727678 0 -0.00012500939296957903 0.009971849852110205 0 2.1417807709376306e-05 0.010255915755240815 0 -8.594588456050723e-05 0.010098877112563909 0 -0.00023838884669712809 0.010109675789727678 0 -0.00015429689250558875 0.010374506393329838 0 -0.0002277225738365626 0.010054305723532504 0 -0.00023838884669712809 0.010109675789727678 0 -0.00019559514113008945 0.0098604058773337847 0 -0.00012500939296957903 0.009971849852110205 0 -0.00023838884669712809 0.010109675789727678 0 -0.00019559514113008945 0.0098604058773337847 0 -0.00028170266102577496 0.0097505254991278462 0 -8.5192786172208192e-05 0.010627806019359627 0 -0.00016282839439870435 0.01038250640492362 0 -0.00019826148211838968 0.010392067548052565 0 -0.00019559514113008945 0.0098604058773337847 0 -0.00012500939296957903 0.009971849852110205 0 -0.00011387319616322077 0.0098143590027413071 0 -8.594588456050723e-05 0.010098877112563909 0 -0.00012500939296957903 0.009971849852110205 0 4.9708521957069308e-06 0.0099987364968447193 0 4.9708521957069308e-06 0.0099987364968447193 0 -0.00011387319616322077 0.0098143590027413071 0 3.0454313919549487e-05 0.0098121997206162166 0 -0.00012500939296957903 0.009971849852110205 0 4.9708521957069308e-06 0.0099987364968447193 0 -0.00011387319616322077 0.0098143590027413071 0 -0.00011387319616322077 0.0098143590027413071 0 -0.00016845247697890714 0.0096948264674373182 0 -0.00019230267138272864 0.0097702332120586186 0 -0.00011387319616322077 0.0098143590027413071 0 -9.3053001391218986e-05 0.0096466347362225372 0 3.0454313919549487e-05 0.0098121997206162166 0 -0.00011387319616322077 0.0098143590027413071 0 -9.3053001391218986e-05 0.0096466347362225372 0 -0.00016845247697890714 0.0096948264674373182 0 -0.00022678182683589181 0.00965690682584649 0 -0.00023210058539195299 0.0097566007151903052 0 -0.00028170266102577496 0.0097505254991278462 0 -0.00016845247697890714 0.0096948264674373182 0 -0.00022678182683589181 0.00965690682584649 0 -0.00019230267138272864 0.0097702332120586186 0 -0.00022678182683589181 0.00965690682584649 0 -0.00023210058539195299 0.0097566007151903052 0 -0.00019230267138272864 0.0097702332120586186 0 -0.00019559514113008945 0.0098604058773337847 0 -0.00011387319616322077 0.0098143590027413071 0 -0.00019230267138272864 0.0097702332120586186 0 -0.00019559514113008945 0.0098604058773337847 0 -0.00023210058539195299 0.0097566007151903052 0 -0.00019230267138272864 0.0097702332120586186 0 -0.00019559514113008945 0.0098604058773337847 0 -0.00023210058539195299 0.0097566007151903052 0 -0.00028170266102577496 0.0097505254991278462 0 -0.00037605147947851507 0.010297167863618331 0 -0.00019826148211838968 0.010392067548052565 0 -0.000245218425574615 0.010299880363907629 0 -0.00016282839439870435 0.01038250640492362 0 -0.00019826148211838968 0.010392067548052565 0 -0.000245218425574615 0.010299880363907629 0 -0.00016282839439870435 0.01038250640492362 0 -0.000245218425574615 0.010299880363907629 0 -0.00029005030367327032 0.01010924322929282 0 -0.00037605147947851507 0.010297167863618331 0 -0.000245218425574615 0.010299880363907629 0 -0.00029005030367327032 0.01010924322929282 0 -0.00016282839439870435 0.01038250640492362 0 -0.00029005030367327032 0.01010924322929282 0 -0.00026367990782777368 0.0094539108510609936 0 -0.00022678182683589181 0.00965690682584649 0 -0.00028170266102577496 0.0097505254991278462 0 -0.00026367990782777368 0.0094539108510609936 0 -0.00029005030367327032 0.01010924322929282 0 -0.00036631700748186789 0.0097179783991970126 0 -0.00026367990782777368 0.0094539108510609936 0 -0.00022678182683589181 0.00965690682584649 0 -0.00026367990782777368 0.0094539108510609936 0 -0.00019841403697557042 0.0095419365328810232 0 -0.00041582129516563106 0.0098914384157439538 0 -0.00029005030367327032 0.01010924322929282 0 -0.00036631700748186789 0.0097179783991970126 0 -0.0002277225738365626 0.010054305723532504 0 -0.00024515581375425533 0.0095076946516804775 0 -0.00016845247697890714 0.0096948264674373182 0 -0.00022678182683589181 0.00965690682584649 0 -0.00019841403697557042 0.0095419365328810232 0 -0.00046834300622928523 0.0097257559056350886 0 -0.00036631700748186789 0.0097179783991970126 0 -0.00035607813856155574 0.0094829368528328104 0 -0.00036631700748186789 0.0097179783991970126 0 -0.00035607813856155574 0.0094829368528328104 0 -0.00026367990782777368 0.0094539108510609936 0 -0.0006774363353754117 0.0093672593332695571 0 -0.00046382762024642718 0.0091758841287388968 0 -0.00018283739639001615 0.0092865881884891498 0 -0.00059742754864967526 0.0092063929592473802 0 -0.00016822958472353439 0.0093383830563698988 0 -0.00035607813856155574 0.0094829368528328104 0 -0.00026367990782777368 0.0094539108510609936 0 -0.00018283739639001615 0.0092865881884891498 0 -0.00064717599647319936 0.0092068920655755965 0 -0.00057631880004489538 0.0090520314924354209 0 -0.00073664090183276731 0.0091045610961884727 0 -0.0006774363353754117 0.0093672593332695571 0 -0.00046382762024642718 0.0091758841287388968 0 -0.00064717599647319936 0.0092068920655755965 0 -0.00046382762024642718 0.0091758841287388968 0 -0.00064717599647319936 0.0092068920655755965 0 -0.00057631880004489538 0.0090520314924354209 0 -0.00018283739639001615 0.0092865881884891498 0 -1.4483680956776987e-05 0.0091555751216207387 0 -0.0001747032264017544 0.0089271734548564876 0 -0.00046382762024642718 0.0091758841287388968 0 -0.00018283739639001615 0.0092865881884891498 0 -0.0003472631429264774 0.0090073133652712016 0 -0.00026367990782777368 0.0094539108510609936 0 -0.00018283739639001615 0.0092865881884891498 0 -0.00019841403697557042 0.0095419365328810232 0 -0.00018283739639001615 0.0092865881884891498 0 -6.4051642324852175e-05 0.0094411767739129137 0 -1.4483680956776987e-05 0.0091555751216207387 0 -0.00018283739639001615 0.0092865881884891498 0 -0.00019841403697557042 0.0095419365328810232 0 -6.4051642324852175e-05 0.0094411767739129137 0 -9.3053001391218986e-05 0.0096466347362225372 0 -0.00016845247697890714 0.0096948264674373182 0 -0.00019841403697557042 0.0095419365328810232 0 -9.3053001391218986e-05 0.0096466347362225372 0 -0.00019841403697557042 0.0095419365328810232 0 -6.4051642324852175e-05 0.0094411767739129137 0 -9.3053001391218986e-05 0.0096466347362225372 0 3.542946424396295e-05 0.0096091213107243351 0 -6.4051642324852175e-05 0.0094411767739129137 0 3.542946424396295e-05 0.0096091213107243351 0 0.00013553318639052773 0.0094011772206997052 0 0.00018398886974901784 0.0097121130722353319 0 3.542946424396295e-05 0.0096091213107243351 0 -6.4051642324852175e-05 0.0094411767739129137 0 0.00013553318639052773 0.0094011772206997052 0 -6.4051642324852175e-05 0.0094411767739129137 0 -1.4483680956776987e-05 0.0091555751216207387 0 0.00013553318639052773 0.0094011772206997052 0 -1.4483680956776987e-05 0.0091555751216207387 0 0.00023867855807843747 0.0090545713234575654 0 0.00013553318639052773 0.0094011772206997052 0 0.00023867855807843747 0.0090545713234575654 0 0.00013553318639052773 0.0094011772206997052 0 0.00053300756973777806 0.009431454324641644 0 0.00013553318639052773 0.0094011772206997052 0 0.00018398886974901784 0.0097121130722353319 0 0.00053300756973777806 0.009431454324641644 0 3.542946424396295e-05 0.0096091213107243351 0 0.00018398886974901784 0.0097121130722353319 0 3.0454313919549487e-05 0.0098121997206162166 0 -9.3053001391218986e-05 0.0096466347362225372 0 3.542946424396295e-05 0.0096091213107243351 0 3.0454313919549487e-05 0.0098121997206162166 0 4.9708521957069308e-06 0.0099987364968447193 0 3.0454313919549487e-05 0.0098121997206162166 0 0.00012688966945648288 0.010006355642715924 0 0.00018398886974901784 0.0097121130722353319 0 3.0454313919549487e-05 0.0098121997206162166 0 0.00012688966945648288 0.010006355642715924 0 0.00018398886974901784 0.0097121130722353319 0 0.00012688966945648288 0.010006355642715924 0 0.00032379383952823378 0.0098892821109413578 0 -5.6939800143376867e-05 0.0070636861941410318 0 1.7378108840704355e-05 0.0068042496681384856 0 6.1512078072379904e-05 0.0068534623765025256 0 -5.6939800143376867e-05 0.0070636861941410318 0 -0.00018256548996284909 0.0068691749824683424 0 1.7378108840704355e-05 0.0068042496681384856 0 1.7378108840704355e-05 0.0068042496681384856 0 8.9078901340874852e-05 0.0067893577709093027 0 7.0085324657587656e-05 0.0068013065938939731 0 0.00018398886974901784 0.0097121130722353319 0 0.00032379383952823378 0.0098892821109413578 0 0.00053300756973777806 0.009431454324641644 0 6.4147629793460988e-05 0.0083828570200051716 0 0.00033944853891071581 0.0081102824028696369 0 -0.00018256548996284909 0.0068691749824683424 0 1.7378108840704355e-05 0.0068042496681384856 0 0.00015027453407562332 0.0067655974145443771 0 0.00033944853891071581 0.0081102824028696369 0 0.00051232733826829199 0.0079794944469506711 0 0.00023867855807843747 0.0090545713234575654 0 0.00053300756973777806 0.009431454324641644 0 0.00062609013906344115 0.0088033593055495112 0 0.00015027453407562332 0.0067655974145443771 0 0.00011643520445354046 0.0068321156775086834 0 0.00044050981999859301 0.0071260436720759672 0 0.00015027453407562332 0.0067655974145443771 0 8.9078901340874852e-05 0.0067893577709093027 0 0.00011643520445354046 0.0068321156775086834 0 1.7378108840704355e-05 0.0068042496681384856 0 0.00015027453407562332 0.0067655974145443771 0 8.9078901340874852e-05 0.0067893577709093027 0 8.9078901340874852e-05 0.0067893577709093027 0 0.00011643520445354046 0.0068321156775086834 0 7.2827670384170362e-05 0.0068015719752541701 0 8.9078901340874852e-05 0.0067893577709093027 0 7.2827670384170362e-05 0.0068015719752541701 0 7.0085324657587656e-05 0.0068013065938939731 0 -0.00026434341343337038 0.0067202116619214311 0 0.00011643520445354046 0.0068321156775086834 0 -0.00041577883371153492 0.0058177891037972966 0 0.00010246894711572402 0.0067816865383903014 0 -0.00017888342446926295 0.0063214614489424149 0 -0.00026434341343337038 0.0067202116619214311 0 -0.00062307346763985937 0.006447067761962081 0 -0.00041577883371153492 0.0058177891037972966 0 -0.00062307346763985937 0.006447067761962081 0 -0.00039717245655106692 0.007022507982226694 0 -0.001001667224820791 0.0068825265803360942 0 -0.00062307346763985937 0.006447067761962081 0 -0.001001667224820791 0.0068825265803360942 0 -0.00099447598792594839 0.0064847183195637275 0 -0.00026434341343337038 0.0067202116619214311 0 -0.00062307346763985937 0.006447067761962081 0 -0.00039717245655106692 0.007022507982226694 0 -0.00062307346763985937 0.006447067761962081 0 -0.00074154981577218828 0.0060147800946165801 0 -0.00099447598792594839 0.0064847183195637275 0 -0.00074154981577218828 0.0060147800946165801 0 -0.00061626469072407445 0.0055647638736613225 0 -0.001149736918566727 0.006105576070506301 0 -0.00062307346763985937 0.006447067761962081 0 -0.00074154981577218828 0.0060147800946165801 0 -0.00041577883371153492 0.0058177891037972966 0 -0.00074154981577218828 0.0060147800946165801 0 -0.00041577883371153492 0.0058177891037972966 0 -0.00061626469072407445 0.0055647638736613225 0 -0.00041577883371153492 0.0058177891037972966 0 -0.00061626469072407445 0.0055647638736613225 0 -0.00072174175559961611 0.0053900017037462767 0 -0.00017888342446926295 0.0063214614489424149 0 -0.00032022824295078778 0.0061231545371600834 0 7.2827670384170362e-05 0.0068015719752541701 0 7.748536334199784e-05 0.0068212468328255867 0 3.8424238390677258e-05 0.0068343312639907285 0 7.2827670384170362e-05 0.0068015719752541701 0 7.748536334199784e-05 0.0068212468328255867 0 7.0085324657587656e-05 0.0068013065938939731 0 7.748536334199784e-05 0.0068212468328255867 0 7.0085324657587656e-05 0.0068013065938939731 0 6.1512078072379904e-05 0.0068534623765025256 0 1.7378108840704355e-05 0.0068042496681384856 0 7.0085324657587656e-05 0.0068013065938939731 0 6.1512078072379904e-05 0.0068534623765025256 0 7.748536334199784e-05 0.0068212468328255867 0 6.1512078072379904e-05 0.0068534623765025256 0 9.9120171720904491e-05 0.0067809019112100048 0 9.8717992084950646e-05 0.0071118886406264853 0 6.1512078072379904e-05 0.0068534623765025256 0 9.9120171720904491e-05 0.0067809019112100048 0 7.748536334199784e-05 0.0068212468328255867 0 9.9120171720904491e-05 0.0067809019112100048 0 3.8424238390677258e-05 0.0068343312639907285 0 6.4035518681563621e-05 0.0075966232803146762 0 -5.9037423496357663e-05 0.0077199315755326981 0 0.00022523060569135201 0.0076576226390178337 0 -1.4043487924694167e-05 0.0076531546114898923 0 -1.2898940860689794e-05 0.0077243246838716957 0 -5.9037423496357663e-05 0.0077199315755326981 0 -1.4043487924694167e-05 0.0076531546114898923 0 -5.9085587547649132e-05 0.0076138894076511797 0 -1.2898940860689794e-05 0.0077243246838716957 0 -1.4043487924694167e-05 0.0076531546114898923 0 6.4035518681563621e-05 0.0075966232803146762 0 -5.9037423496357663e-05 0.0077199315755326981 0 -1.4043487924694167e-05 0.0076531546114898923 0 6.4035518681563621e-05 0.0075966232803146762 0 1.3174458872967435e-05 0.0075344441435695186 0 6.4035518681563621e-05 0.0075966232803146762 0 8.6626090413250922e-05 0.007490232281210916 0 1.3174458872967435e-05 0.0075344441435695186 0 -5.9085587547649132e-05 0.0076138894076511797 0 -7.2496827147457683e-05 0.0076312610761471306 0 -1.2898940860689794e-05 0.0077243246838716957 0 1.3174458872967435e-05 0.0075344441435695186 0 -5.9085587547649132e-05 0.0076138894076511797 0 -0.00010550849761826347 0.0075772119839645716 0 -1.4043487924694167e-05 0.0076531546114898923 0 1.3174458872967435e-05 0.0075344441435695186 0 -5.9085587547649132e-05 0.0076138894076511797 0 0.00033173693441707736 0.0075833377385910615 0 0.00046183249675695775 0.0076325044073711629 0 0.00017072365771628035 0.0079555137314461632 0 0.00015710191806608717 0.0078286855875829443 0 0.00028372018905000227 0.0079418642558667946 0 -7.2496827147457683e-05 0.0076312610761471306 0 -1.2898940860689794e-05 0.0077243246838716957 0 0.00015710191806608717 0.0078286855875829443 0 0.00046183249675695775 0.0076325044073711629 0 5.4102414884140075e-05 0.0078851080013071229 0 -1.2898940860689794e-05 0.0077243246838716957 0 0.00015710191806608717 0.0078286855875829443 0 6.043724146727982e-06 0.0076658285425232984 0 0.00015710191806608717 0.0078286855875829443 0 6.043724146727982e-06 0.0076658285425232984 0 0.00014138328391221009 0.0076451907830848943 0 6.043724146727982e-06 0.0076658285425232984 0 -5.9037423496357663e-05 0.0077199315755326981 0 -0.00012665383314442572 0.0074687869955262203 0 -1.2898940860689794e-05 0.0077243246838716957 0 6.043724146727982e-06 0.0076658285425232984 0 -5.9037423496357663e-05 0.0077199315755326981 0 -5.9037423496357663e-05 0.0077199315755326981 0 -0.00012665383314442572 0.0074687869955262203 0 -0.00026085435477468904 0.007453569052970033 0 -0.00012665383314442572 0.0074687869955262203 0 -0.00014658097023716719 0.0073754248231090638 0 -2.5106765978434214e-05 0.0074270723267089271 0 -0.00012665383314442572 0.0074687869955262203 0 -0.00014658097023716719 0.0073754248231090638 0 -0.00026085435477468904 0.007453569052970033 0 -0.00014658097023716719 0.0073754248231090638 0 -0.00028535619059322757 0.0072967285909925012 0 -0.00026085435477468904 0.007453569052970033 0 -0.00014658097023716719 0.0073754248231090638 0 -1.9880580139866423e-05 0.0072309921170646994 0 -0.00028535619059322757 0.0072967285909925012 0 -3.8262027949418503e-06 0.0072046188395337614 0 -0.00064052072756596006 0.0073643948326904728 0 -0.00039717245655106692 0.007022507982226694 0 -1.9880580139866423e-05 0.0072309921170646994 0 -0.00081868797212879523 0.0071768200845627201 0 -0.00039717245655106692 0.007022507982226694 0 -0.00085051038332084334 0.0069440717552260106 0 -0.00081868797212879523 0.0071768200845627201 0 -0.00044520655521770836 0.0070089560814035551 0 -0.00096949496001401132 0.0068705086077324546 0 0.00011643520445354046 0.0068321156775086834 0 -1.9880580139866423e-05 0.0072309921170646994 0 0.00018109814034962345 0.0073477769984898371 0 -0.00026434341343337038 0.0067202116619214311 0 0.00011643520445354046 0.0068321156775086834 0 -1.9880580139866423e-05 0.0072309921170646994 0 -0.00026434341343337038 0.0067202116619214311 0 -0.00039717245655106692 0.007022507982226694 0 -1.9880580139866423e-05 0.0072309921170646994 0 -1.9880580139866423e-05 0.0072309921170646994 0 -2.5106765978434214e-05 0.0074270723267089271 0 0.00018109814034962345 0.0073477769984898371 0 -2.5106765978434214e-05 0.0074270723267089271 0 0.00014138328391221009 0.0076451907830848943 0 0.00018109814034962345 0.0073477769984898371 0 -0.00014658097023716719 0.0073754248231090638 0 -1.9880580139866423e-05 0.0072309921170646994 0 -2.5106765978434214e-05 0.0074270723267089271 0 6.043724146727982e-06 0.0076658285425232984 0 -0.00012665383314442572 0.0074687869955262203 0 -2.5106765978434214e-05 0.0074270723267089271 0 6.043724146727982e-06 0.0076658285425232984 0 -2.5106765978434214e-05 0.0074270723267089271 0 0.00014138328391221009 0.0076451907830848943 0 0.00018109814034962345 0.0073477769984898371 0 0.00044050981999859301 0.0071260436720759672 0 0.00046823953423893235 0.0079650794571800437 0 0.00014138328391221009 0.0076451907830848943 0 0.00018109814034962345 0.0073477769984898371 0 0.00046823953423893235 0.0079650794571800437 0 0.00011643520445354046 0.0068321156775086834 0 0.00018109814034962345 0.0073477769984898371 0 0.00044050981999859301 0.0071260436720759672 0 0.00062609013906344115 0.0088033593055495112 0 0.00046823953423893235 0.0079650794571800437 0 0.00024583915177780276 0.008663092942080208 0 0.00051232733826829199 0.0079794944469506711 0 0.00048186010118489951 0.0079793330088081763 0 0.00046823953423893235 0.0079650794571800437 0 0.00021735032295945854 0.008247015011544798 0 0.00024583915177780276 0.008663092942080208 0 0.00046823953423893235 0.0079650794571800437 0 0.00029424840905366777 0.0080259907732089329 0 0.00021735032295945854 0.008247015011544798 0 0.00015710191806608717 0.0078286855875829443 0 0.00014138328391221009 0.0076451907830848943 0 0.00046823953423893235 0.0079650794571800437 0 0.00046823953423893235 0.0079650794571800437 0 0.00028372018905000227 0.0079418642558667946 0 0.00036693631866666472 0.0079552850174702209 0 0.00015710191806608717 0.0078286855875829443 0 0.00046823953423893235 0.0079650794571800437 0 0.00028372018905000227 0.0079418642558667946 0 0.00036693631866666472 0.0079552850174702209 0 0.00029424840905366777 0.0080259907732089329 0 0.00030157967864197986 0.0079031408027986343 0 0.00046823953423893235 0.0079650794571800437 0 0.00036693631866666472 0.0079552850174702209 0 0.00029424840905366777 0.0080259907732089329 0 0.00029424840905366777 0.0080259907732089329 0 0.00019371607563879219 0.0079773740500456471 0 0.00030157967864197986 0.0079031408027986343 0 0.00029424840905366777 0.0080259907732089329 0 0.00019371607563879219 0.0079773740500456471 0 0.00010254312352608512 0.0081494654214419732 0 0.00019371607563879219 0.0079773740500456471 0 3.5998055132830731e-05 0.0079923415940233982 0 0.00010254312352608512 0.0081494654214419732 0 3.5998055132830731e-05 0.0079923415940233982 0 -7.8085777301031505e-05 0.0081518753916951341 0 -0.00017977428960618425 0.0080142984437648387 0 3.5998055132830731e-05 0.0079923415940233982 0 -7.8085777301031505e-05 0.0081518753916951341 0 0.00010254312352608512 0.0081494654214419732 0 -7.8085777301031505e-05 0.0081518753916951341 0 -8.4950983901902082e-05 0.0083698842288551269 0 0.00010254312352608512 0.0081494654214419732 0 -8.4950983901902082e-05 0.0083698842288551269 0 7.3299790497387306e-05 0.0083182397788594594 0 4.8396994882882263e-05 0.0085255457319771012 0 -8.4950983901902082e-05 0.0083698842288551269 0 7.3299790497387306e-05 0.0083182397788594594 0 0.00010254312352608512 0.0081494654214419732 0 7.3299790497387306e-05 0.0083182397788594594 0 0.00021735032295945854 0.008247015011544798 0 4.8396994882882263e-05 0.0085255457319771012 0 7.3299790497387306e-05 0.0083182397788594594 0 0.00010254312352608512 0.0081494654214419732 0 0.00021735032295945854 0.008247015011544798 0 0.00029424840905366777 0.0080259907732089329 0 0.00010254312352608512 0.0081494654214419732 0 0.00021735032295945854 0.008247015011544798 0 0.00021735032295945854 0.008247015011544798 0 0.00024583915177780276 0.008663092942080208 0 4.8396994882882263e-05 0.0085255457319771012 0 0.00023867855807843747 0.0090545713234575654 0 0.00024583915177780276 0.008663092942080208 0 -1.8351655336888509e-05 0.0088367374295472336 0 0.00023867855807843747 0.0090545713234575654 0 0.00062609013906344115 0.0088033593055495112 0 0.00024583915177780276 0.008663092942080208 0 -1.4483680956776987e-05 0.0091555751216207387 0 0.00023867855807843747 0.0090545713234575654 0 -1.8351655336888509e-05 0.0088367374295472336 0 -1.4483680956776987e-05 0.0091555751216207387 0 -1.8351655336888509e-05 0.0088367374295472336 0 -0.0001747032264017544 0.0089271734548564876 0 -1.8351655336888509e-05 0.0088367374295472336 0 -0.00015021360068002615 0.0086578758307404372 0 -0.0001747032264017544 0.0089271734548564876 0 0.00024583915177780276 0.008663092942080208 0 -1.8351655336888509e-05 0.0088367374295472336 0 4.8396994882882263e-05 0.0085255457319771012 0 -1.8351655336888509e-05 0.0088367374295472336 0 4.8396994882882263e-05 0.0085255457319771012 0 -0.00015021360068002615 0.0086578758307404372 0 -8.4950983901902082e-05 0.0083698842288551269 0 4.8396994882882263e-05 0.0085255457319771012 0 -0.00015021360068002615 0.0086578758307404372 0 -8.4950983901902082e-05 0.0083698842288551269 0 -0.00032381374228941217 0.0085182755288933498 0 -0.00015021360068002615 0.0086578758307404372 0 -0.00032381374228941217 0.0085182755288933498 0 -0.0003638028173232259 0.0087624734651832025 0 -0.00015021360068002615 0.0086578758307404372 0 -0.0003638028173232259 0.0087624734651832025 0 -0.00015021360068002615 0.0086578758307404372 0 -0.0001747032264017544 0.0089271734548564876 0 -0.00018283739639001615 0.0092865881884891498 0 -0.0003472631429264774 0.0090073133652712016 0 -0.0001747032264017544 0.0089271734548564876 0 -0.0003638028173232259 0.0087624734651832025 0 -0.0003472631429264774 0.0090073133652712016 0 -0.0001747032264017544 0.0089271734548564876 0 -0.00046382762024642718 0.0091758841287388968 0 -0.0003472631429264774 0.0090073133652712016 0 -0.00057631880004489538 0.0090520314924354209 0 -0.0003472631429264774 0.0090073133652712016 0 -0.00057631880004489538 0.0090520314924354209 0 -0.00052902837580485595 0.0088523098312300319 0 -0.0003638028173232259 0.0087624734651832025 0 -0.0003472631429264774 0.0090073133652712016 0 -0.00052902837580485595 0.0088523098312300319 0 -0.00057631880004489538 0.0090520314924354209 0 -0.00052902837580485595 0.0088523098312300319 0 -0.0006983050811345963 0.0089284329763914885 0 -0.00052902837580485595 0.0088523098312300319 0 -0.00065363794219400033 0.0087651528645088621 0 -0.0006983050811345963 0.0089284329763914885 0 -0.00065363794219400033 0.0087651528645088621 0 -0.00053091353811197885 0.0086195600008711661 0 -0.00069232523517781368 0.0086282129328531937 0 -0.00052902837580485595 0.0088523098312300319 0 -0.00065363794219400033 0.0087651528645088621 0 -0.00053091353811197885 0.0086195600008711661 0 -0.00032381374228941217 0.0085182755288933498 0 -0.0003638028173232259 0.0087624734651832025 0 -0.00053091353811197885 0.0086195600008711661 0 -0.0003638028173232259 0.0087624734651832025 0 -0.00052902837580485595 0.0088523098312300319 0 -0.00053091353811197885 0.0086195600008711661 0 -0.00032381374228941217 0.0085182755288933498 0 -0.00053091353811197885 0.0086195600008711661 0 -0.00048201974985527144 0.0084039821167954214 0 -0.00053091353811197885 0.0086195600008711661 0 -0.00069232523517781368 0.0086282129328531937 0 -0.00067157477291495348 0.0084546566205976389 0 -0.00053091353811197885 0.0086195600008711661 0 -0.00048201974985527144 0.0084039821167954214 0 -0.00067157477291495348 0.0084546566205976389 0 -0.00048201974985527144 0.0084039821167954214 0 -0.00057681283736368306 0.0082393339800271945 0 -0.00067157477291495348 0.0084546566205976389 0 -0.00042190242193589891 0.0082555824986416462 0 -0.00048201974985527144 0.0084039821167954214 0 -0.00057681283736368306 0.0082393339800271945 0 -0.00042190242193589891 0.0082555824986416462 0 -0.00048201974985527144 0.0084039821167954214 0 -0.00027779916283064351 0.0082733504573509371 0 -0.00032381374228941217 0.0085182755288933498 0 -0.00048201974985527144 0.0084039821167954214 0 -0.00027779916283064351 0.0082733504573509371 0 -8.4950983901902082e-05 0.0083698842288551269 0 -0.00032381374228941217 0.0085182755288933498 0 -0.00027779916283064351 0.0082733504573509371 0 -7.8085777301031505e-05 0.0081518753916951341 0 -8.4950983901902082e-05 0.0083698842288551269 0 -0.00027779916283064351 0.0082733504573509371 0 -0.00027779916283064351 0.0082733504573509371 0 -0.00017977428960618425 0.0080142984437648387 0 -0.00036907765898284962 0.0080892544603764077 0 -0.00042190242193589891 0.0082555824986416462 0 -0.00027779916283064351 0.0082733504573509371 0 -0.00036907765898284962 0.0080892544603764077 0 -7.8085777301031505e-05 0.0081518753916951341 0 -0.00027779916283064351 0.0082733504573509371 0 -0.00017977428960618425 0.0080142984437648387 0 -0.00017977428960618425 0.0080142984437648387 0 -0.00036907765898284962 0.0080892544603764077 0 -0.00028546530769591973 0.0078692108391181775 0 -0.00036907765898284962 0.0080892544603764077 0 -0.00060158918769623695 0.0080392091188188596 0 -0.00048129830936210777 0.0079040045898241765 0 -0.00036907765898284962 0.0080892544603764077 0 -0.00060158918769623695 0.0080392091188188596 0 -0.00057681283736368306 0.0082393339800271945 0 -0.00060158918769623695 0.0080392091188188596 0 -0.00057681283736368306 0.0082393339800271945 0 -0.00070967085132394019 0.0081460527599150137 0 -0.00042190242193589891 0.0082555824986416462 0 -0.00036907765898284962 0.0080892544603764077 0 -0.00057681283736368306 0.0082393339800271945 0 -0.00048129830936210777 0.0079040045898241765 0 -0.00028546530769591973 0.0078692108391181775 0 -0.00051455728329222693 0.0077147594562838387 0 -0.00048129830936210777 0.0079040045898241765 0 -0.00051455728329222693 0.0077147594562838387 0 -0.00064265913473884558 0.0078876184357365639 0 -0.00060158918769623695 0.0080392091188188596 0 -0.00048129830936210777 0.0079040045898241765 0 -0.00064265913473884558 0.0078876184357365639 0 -0.00036907765898284962 0.0080892544603764077 0 -0.00048129830936210777 0.0079040045898241765 0 -0.00028546530769591973 0.0078692108391181775 0 -0.00017977428960618425 0.0080142984437648387 0 -0.00028546530769591973 0.0078692108391181775 0 -3.5403610687183378e-05 0.0078616618230350575 0 -0.00028546530769591973 0.0078692108391181775 0 -0.00017047142160622164 0.0076541240669506334 0 -0.00051455728329222693 0.0077147594562838387 0 -0.00028546530769591973 0.0078692108391181775 0 -0.00017047142160622164 0.0076541240669506334 0 -3.5403610687183378e-05 0.0078616618230350575 0 -0.00015529742797456625 0.0076918083678685434 0 -0.00069354079074761526 0.0076185446106090439 0 -0.00018043093287635646 0.0077049877667185558 0 -0.00063103571647541606 0.0078359671208104789 0 -0.00045771856437480527 0.0074909427696247324 0 -0.00063103571647541606 0.0078359671208104789 0 -0.00077498722703454523 0.0074912549290560536 0 -0.00045771856437480527 0.0074909427696247324 0 0.00081322021131279649 0.010788562756622487 0 0.001078114185508927 0.010346966185763614 0 0.0013334559107406698 0.01022489438643974 0 9.9885025107647579e-05 0.0088713682359343893 0 0.00037917933580328567 0.0087898338212479728 0 -0.00077498722703454523 0.0074912549290560536 0 -0.00045771856437480527 0.0074909427696247324 0 -0.00044975560267249614 0.0071297216238778152 0 0.0011323709732256415 0.010131597031016844 0 0.0015446665082142058 0.010491556293394128 0 0.001078114185508927 0.010346966185763614 0 0.00091518857941997494 0.0099859068534949597 0 0.0013334559107406698 0.01022489438643974 0 -0.00044975560267249614 0.0071297216238778152 0 -0.00016028688524600103 0.0070549247093611529 0 -0.00012729446982399014 0.0067951214757902625 0 0.00037917933580328567 0.0087898338212479728 0 0.00090266097956985785 0.0076871494075154848 0 0.00091518857941997494 0.0099859068534949597 0 0.0013334559107406698 0.01022489438643974 0 0.0018850972013098285 0.0096026080211848441 0 0.0015446665082142058 0.010491556293394128 0 0.00090266097956985785 0.0076871494075154848 0 9.6195015476982593e-05 0.0068416428889099042 0 0.00090266097956985785 0.0076871494075154848 0 -0.00044975560267249614 0.0071297216238778152 0 -0.00016028688524600103 0.0070549247093611529 0 -0.00025648764597704314 0.007322073153296629 0 -0.00045771856437480527 0.0074909427696247324 0 -0.00044975560267249614 0.0071297216238778152 0 -0.00025648764597704314 0.007322073153296629 0 -0.00018043093287635646 0.0077049877667185558 0 -0.00025648764597704314 0.007322073153296629 0 5.1179435704940557e-06 0.0073571278900203567 0 -0.00018043093287635646 0.0077049877667185558 0 -0.00045771856437480527 0.0074909427696247324 0 -0.00025648764597704314 0.007322073153296629 0 -0.00016028688524600103 0.0070549247093611529 0 -0.00025648764597704314 0.007322073153296629 0 5.1179435704940557e-06 0.0073571278900203567 0 5.1179435704940557e-06 0.0073571278900203567 0 0.00014952640921945019 0.0070718151834243135 0 0.00035652600627546574 0.0072589280879767218 0 -0.00016028688524600103 0.0070549247093611529 0 5.1179435704940557e-06 0.0073571278900203567 0 0.00014952640921945019 0.0070718151834243135 0 9.106831410781747e-06 0.0068805922854934644 0 0.00026394917972093684 0.006817324541690482 0 -8.812037666596543e-05 0.0067080802396793206 0 -0.00016028688524600103 0.0070549247093611529 0 0.00014952640921945019 0.0070718151834243135 0 9.106831410781747e-06 0.0068805922854934644 0 0.00014952640921945019 0.0070718151834243135 0 9.106831410781747e-06 0.0068805922854934644 0 0.00026394917972093684 0.006817324541690482 0 -0.00016028688524600103 0.0070549247093611529 0 9.106831410781747e-06 0.0068805922854934644 0 -0.00012881694949274739 0.0067487880524677466 0 0.00051511598811296484 0.0068321309306058993 0 0.00026394917972093684 0.006817324541690482 0 0.0004570129850605678 0.0070840284623305003 0 0.00014952640921945019 0.0070718151834243135 0 0.00026394917972093684 0.006817324541690482 0 0.0004570129850605678 0.0070840284623305003 0 2.4909766596049377e-05 0.0073696982636152313 0 0.00037776624524361836 0.0075820177756481767 0 5.1179435704940557e-06 0.0073571278900203567 0 0.00035652600627546574 0.0072589280879767218 0 0.00054361406335401647 0.0075132686669463974 0 0.0004570129850605678 0.0070840284623305003 0 0.00035652600627546574 0.0072589280879767218 0 0.00060242962831233643 0.0072475586989198659 0 0.00014952640921945019 0.0070718151834243135 0 0.0004570129850605678 0.0070840284623305003 0 0.00035652600627546574 0.0072589280879767218 0 0.00035652600627546574 0.0072589280879767218 0 0.00054361406335401647 0.0075132686669463974 0 0.00060242962831233643 0.0072475586989198659 0 5.1179435704940557e-06 0.0073571278900203567 0 0.00028965894862333324 0.0076899560233198525 0 0.00015333642451046648 0.0076260799202159208 0 0.00028965894862333324 0.0076899560233198525 0 0.00015333642451046648 0.0076260799202159208 0 0.00017629162635170552 0.00782795252154239 0 0.00015333642451046648 0.0076260799202159208 0 3.3456938282960543e-05 0.0077439443308776352 0 0.00017629162635170552 0.00782795252154239 0 -0.00015529742797456625 0.0076918083678685434 0 0.000117825526960499 0.0076283041373643003 0 -0.00017047142160622164 0.0076541240669506334 0 0.00015333642451046648 0.0076260799202159208 0 3.3456938282960543e-05 0.0077439443308776352 0 -0.00018043093287635646 0.0077049877667185558 0 5.1179435704940557e-06 0.0073571278900203567 0 0.00015333642451046648 0.0076260799202159208 0 3.3456938282960543e-05 0.0077439443308776352 0 -3.5403610687183378e-05 0.0078616618230350575 0 0.00017629162635170552 0.00782795252154239 0 -0.00017047142160622164 0.0076541240669506334 0 3.3456938282960543e-05 0.0077439443308776352 0 -3.5403610687183378e-05 0.0078616618230350575 0 3.5998055132830731e-05 0.0079923415940233982 0 -0.00017977428960618425 0.0080142984437648387 0 -3.5403610687183378e-05 0.0078616618230350575 0 3.5998055132830731e-05 0.0079923415940233982 0 -3.5403610687183378e-05 0.0078616618230350575 0 0.00017629162635170552 0.00782795252154239 0 0.00028965894862333324 0.0076899560233198525 0 0.00017629162635170552 0.00782795252154239 0 0.00030157967864197986 0.0079031408027986343 0 0.00019371607563879219 0.0079773740500456471 0 3.5998055132830731e-05 0.0079923415940233982 0 0.00017629162635170552 0.00782795252154239 0 0.00019371607563879219 0.0079773740500456471 0 0.00017629162635170552 0.00782795252154239 0 0.00030157967864197986 0.0079031408027986343 0 0.00036693631866666472 0.0079552850174702209 0 0.00030157967864197986 0.0079031408027986343 0 0.00036296390750911224 0.0079291175676838577 0 0.00028965894862333324 0.0076899560233198525 0 0.00030157967864197986 0.0079031408027986343 0 0.00036296390750911224 0.0079291175676838577 0 0.00028372018905000227 0.0079418642558667946 0 0.00036693631866666472 0.0079552850174702209 0 0.00036296390750911224 0.0079291175676838577 0 0.00096861567908773638 0.0076845355292873728 0 0.0010695693576831245 0.007406856930022597 0 0.00081683022576166495 0.0074144735726856545 0 0.00096861567908773638 0.0076845355292873728 0 0.0010695693576831245 0.007406856930022597 0 0.001236071671409646 0.0075608337388524353 0 0.00054361406335401647 0.0075132686669463974 0 0.00096861567908773638 0.0076845355292873728 0 0.00081683022576166495 0.0074144735726856545 0 0.00037776624524361836 0.0075820177756481767 0 0.00073175913062196248 0.0078593628775828293 0 0.00054361406335401647 0.0075132686669463974 0 0.00081683022576166495 0.0074144735726856545 0 0.00060242962831233643 0.0072475586989198659 0 0.00081683022576166495 0.0074144735726856545 0 0.00060242962831233643 0.0072475586989198659 0 0.00088343809873238225 0.0071992481162905476 0 0.00060242962831233643 0.0072475586989198659 0 0.00070952256963861132 0.0069746400314367159 0 0.00088343809873238225 0.0071992481162905476 0 0.0004570129850605678 0.0070840284623305003 0 0.00060242962831233643 0.0072475586989198659 0 0.00070952256963861132 0.0069746400314367159 0 0.00070952256963861132 0.0069746400314367159 0 0.00099401937380888409 0.0068623734123610374 0 0.00088343809873238225 0.0071992481162905476 0 0.00051511598811296484 0.0068321309306058993 0 0.0004570129850605678 0.0070840284623305003 0 0.00070952256963861132 0.0069746400314367159 0 0.00098395187781357232 0.0068408774714289996 0 0.00080854252439006185 0.0066959001806474417 0 0.00070952256963861132 0.0069746400314367159 0 0.00099401937380888409 0.0068623734123610374 0 0.00071369945225859151 0.0066881064165183555 0 0.00051511598811296484 0.0068321309306058993 0 0.00070952256963861132 0.0069746400314367159 0 0.00071369945225859151 0.0066881064165183555 0 0.00099401937380888409 0.0068623734123610374 0 0.0011683664340299826 0.0069480849589478467 0 0.0010961137516818345 0.0066724226973380136 0 0.00099401937380888409 0.0068623734123610374 0 0.0011124079042655291 0.0071851969624983428 0 0.0011683664340299826 0.0069480849589478467 0 0.00099401937380888409 0.0068623734123610374 0 0.0011124079042655291 0.0071851969624983428 0 0.00088343809873238225 0.0071992481162905476 0 0.0010695693576831245 0.007406856930022597 0 0.00081683022576166495 0.0074144735726856545 0 0.00088343809873238225 0.0071992481162905476 0 0.0010695693576831245 0.007406856930022597 0 0.0011124079042655291 0.0071851969624983428 0 0.00088343809873238225 0.0071992481162905476 0 0.0010695693576831245 0.007406856930022597 0 0.0011124079042655291 0.0071851969624983428 0 0.0013326969816398703 0.0073213419715380604 0 0.0011124079042655291 0.0071851969624983428 0 0.0013326969816398703 0.0073213419715380604 0 0.0013443880660978143 0.007019454973169692 0 0.0011124079042655291 0.0071851969624983428 0 0.0011683664340299826 0.0069480849589478467 0 0.0013443880660978143 0.007019454973169692 0 0.0011683664340299826 0.0069480849589478467 0 0.0013443880660978143 0.007019454973169692 0 0.0012548085320725185 0.0067217054822004407 0 0.0013443880660978143 0.007019454973169692 0 0.0014936118899307449 0.0068095802987364479 0 0.0012548085320725185 0.0067217054822004407 0 0.0013443880660978143 0.007019454973169692 0 0.0014936118899307449 0.0068095802987364479 0 0.001517086655881337 0.0069923126596829694 0 0.0014936118899307449 0.0068095802987364479 0 0.001517086655881337 0.0069923126596829694 0 0.0017346931819994269 0.0069627536786745371 0 0.001517086655881337 0.0069923126596829694 0 0.0015009234287759203 0.0071782759679281036 0 0.0017346931819994269 0.0069627536786745371 0 0.0015009234287759203 0.0071782759679281036 0 0.0015632496958150606 0.0074310437586928456 0 0.0017346931819994269 0.0069627536786745371 0 0.0013326969816398703 0.0073213419715380604 0 0.0013443880660978143 0.007019454973169692 0 0.0015009234287759203 0.0071782759679281036 0 0.0013443880660978143 0.007019454973169692 0 0.001517086655881337 0.0069923126596829694 0 0.0015009234287759203 0.0071782759679281036 0 0.0013326969816398703 0.0073213419715380604 0 0.0015009234287759203 0.0071782759679281036 0 0.0014469650825714771 0.0073592121001973048 0 0.0015009234287759203 0.0071782759679281036 0 0.0015632496958150606 0.0074310437586928456 0 0.0014469650825714771 0.0073592121001973048 0 0.0015632496958150606 0.0074310437586928456 0 0.0013915721566793776 0.0075071797042124645 0 0.0014469650825714771 0.0073592121001973048 0 0.0013326969816398703 0.0073213419715380604 0 0.0013915721566793776 0.0075071797042124645 0 0.0014469650825714771 0.0073592121001973048 0 0.0010695693576831245 0.007406856930022597 0 0.0013326969816398703 0.0073213419715380604 0 0.001236071671409646 0.0075608337388524353 0 0.0013326969816398703 0.0073213419715380604 0 0.0013915721566793776 0.0075071797042124645 0 0.001236071671409646 0.0075608337388524353 0 0.0013659007511353225 0.0078990496656649364 0 0.0013915721566793776 0.0075071797042124645 0 0.001236071671409646 0.0075608337388524353 0 0.00017072365771628035 0.0079555137314461632 0 0.00028372018905000227 0.0079418642558667946 0 0.00036296390750911224 0.0079291175676838577 0 0.00046183249675695775 0.0076325044073711629 0 0.00073175913062196248 0.0078593628775828293 0 0.0013659007511353225 0.0078990496656649364 0 0.00096861567908773638 0.0076845355292873728 0 0.001236071671409646 0.0075608337388524353 0 0.00046183249675695775 0.0076325044073711629 0 0.00094246109628289313 0.007159706713194481 0 0.00046183249675695775 0.0076325044073711629 0 0.00010851780905594915 0.0070834669987443113 0 0.0001110745095109149 0.0072352468179618509 0 0.00022088550527302449 0.0069302501690764254 0 0.0002613656846476437 0.007010703188812719 0 0.0013659007511353225 0.0078990496656649364 0 0.0015632496958150606 0.0074310437586928456 0 0.0013915721566793776 0.0075071797042124645 0 1.3174458872967435e-05 0.0075344441435695186 0 -0.00010550849761826347 0.0075772119839645716 0 4.4873290342400677e-05 0.0074197566740670058 0 -0.00010550849761826347 0.0075772119839645716 0 5.6721611804381998e-05 0.0071856157929377027 0 4.4873290342400677e-05 0.0074197566740670058 0 8.6626090413250922e-05 0.007490232281210916 0 1.3174458872967435e-05 0.0075344441435695186 0 4.4873290342400677e-05 0.0074197566740670058 0 5.6721611804381998e-05 0.0071856157929377027 0 4.4873290342400677e-05 0.0074197566740670058 0 0.00013233985596761963 0.0073024796597022422 0 2.4210062417594912e-08 0.014999915940523127 0 -5.7847756937771204e-08 0.014999981716308571 0 -1.7604713484395225e-05 0.014986167527385874 0 -2.9503626481471746e-05 0.014963541019443829 0 -3.5484598432344715e-05 0.014935968005984098 0 -3.4250966046152733e-05 0.014973057125811127 0 -2.9503626481471746e-05 0.014963541019443829 0 -3.5484598432344715e-05 0.014935968005984098 0 -3.9471859605525184e-05 0.014959661445130126 0 -3.5484598432344715e-05 0.014935968005984098 0 -6.3564749461836602e-05 0.014935977680092964 0 -3.9471859605525184e-05 0.014959661445130126 0 -2.9503626481471746e-05 0.014963541019443829 0 -2.0114913769554191e-05 0.014979782795825977 0 -3.9471859605525184e-05 0.014959661445130126 0 -2.8286722559641646e-05 0.014965671663281449 0 -4.2075547007091796e-05 0.014909218713695343 0 -2.9503626481471746e-05 0.014963541019443829 0 -2.0114913769554191e-05 0.014979782795825977 0 -1.7604713484395225e-05 0.014986167527385874 0 -2.0114913769554191e-05 0.014979782795825977 0 -5.7847756937771204e-08 0.014999981716308571 0 -1.7604713484395225e-05 0.014986167527385874 0 -2.8286722559641646e-05 0.014965671663281449 0 -6.2387554475006774e-09 0.014999983447248002 0 2.4210062417594912e-08 0.014999915940523127 0 -1.7604713484395225e-05 0.014986167527385874 0 -2.5694708876012657e-05 0.014983371599890431 0 -1.7604713484395225e-05 0.014986167527385874 0 -2.5694708876012657e-05 0.014983371599890431 0 -3.4250966046152733e-05 0.014973057125811127 0 -2.5694708876012657e-05 0.014983371599890431 0 -4.2309182845169999e-05 0.01498001772111731 0 -3.4250966046152733e-05 0.014973057125811127 0 -2.9503626481471746e-05 0.014963541019443829 0 -1.7604713484395225e-05 0.014986167527385874 0 -3.4250966046152733e-05 0.014973057125811127 0 -3.5484598432344715e-05 0.014935968005984098 0 -3.4250966046152733e-05 0.014973057125811127 0 -3.3439311510713183e-05 0.014978901317000375 0 -3.4909889483590333e-05 0.014934537968904133 0 -3.9678043387060433e-05 0.01489516520249682 0 -4.2309182845169999e-05 0.01498001772111731 0 -3.4250966046152733e-05 0.014973057125811127 0 -3.3439311510713183e-05 0.014978901317000375 0 -3.5884977685058892e-05 0.014809295423010656 0 -8.9710774694049043e-05 0.014759130042809312 0 -0.00010147746970510111 0.014877774450866313 0 -7.4380163567710907e-06 0.014400498432506754 0 0.00010479494320740548 0.014125832566922417 0 0.00058117478960826089 0.014112806372008504 0 5.4794191328912868e-05 0.014046557720575815 0 0.00069966101091707396 0.013648477473775032 0 5.4794191328912868e-05 0.014046557720575815 0 0.00032442656935343289 0.013358445934310395 0 0.00069966101091707396 0.013648477473775032 0 0.00032442656935343289 0.013358445934310395 0 0.00069966101091707396 0.013648477473775032 0 0.00075369590494960036 0.01315223292442025 0 -3.5484598432344715e-05 0.014935968005984098 0 -3.5884977685058892e-05 0.014809295423010656 0 -0.00010147746970510111 0.014877774450866313 0 -0.00083912578442292009 0.0093818570965634677 0 -0.00080962697499795708 0.0093513543331088834 0 -0.00079953326060837077 0.0095467456508176642 0 0.00017787204045723387 0.011825667656815793 0 -0.00035318312121287797 0.010196132584685489 0 -0.00082350817852182713 0.0093246687441831209 0 -0.00073664090183276731 0.0091045610961884727 0 -0.00088524429444097311 0.0089375642606056398 0 -0.00082350817852182713 0.0093246687441831209 0 -0.00083912578442292009 0.0093818570965634677 0 -0.00080962697499795708 0.0093513543331088834 0 -0.00065363794219400033 0.0087651528645088621 0 -0.0006983050811345963 0.0089284329763914885 0 -0.0007579258529649091 0.0087635335352377886 0 -0.0006983050811345963 0.0089284329763914885 0 -0.00088524429444097311 0.0089375642606056398 0 -0.0007579258529649091 0.0087635335352377886 0 -0.0006983050811345963 0.0089284329763914885 0 -0.00073664090183276731 0.0091045610961884727 0 -0.00088524429444097311 0.0089375642606056398 0 -0.00057631880004489538 0.0090520314924354209 0 -0.0006983050811345963 0.0089284329763914885 0 -0.00073664090183276731 0.0091045610961884727 0 0.00058117478960826089 0.014112806372008504 0 0.0010902912947638134 0.013897044092741792 0 0.00069966101091707396 0.013648477473775032 0 0.0010902912947638134 0.013897044092741792 0 0.00069966101091707396 0.013648477473775032 0 0.0012080998723519273 0.013288715512711416 0 0.00069966101091707396 0.013648477473775032 0 0.0012080998723519273 0.013288715512711416 0 0.00075369590494960036 0.01315223292442025 0 -0.00086293072747691837 0.0089611876879456681 0 -0.00035318312121287797 0.010196132584685489 0 -0.00088524429444097311 0.0089375642606056398 0 -0.00086773962535868765 0.0085946472540787324 0 -0.0007579258529649091 0.0087635335352377886 0 -0.00086773962535868765 0.0085946472540787324 0 -0.00069232523517781368 0.0086282129328531937 0 -0.00067157477291495348 0.0084546566205976389 0 -0.00086773962535868765 0.0085946472540787324 0 -0.00069232523517781368 0.0086282129328531937 0 -0.0007579258529649091 0.0087635335352377886 0 -0.00065363794219400033 0.0087651528645088621 0 -0.00069232523517781368 0.0086282129328531937 0 -0.0007579258529649091 0.0087635335352377886 0 -0.00035318312121287797 0.010196132584685489 0 0.00022885527647060024 0.010469604427555904 0 -0.00086773962535868765 0.0085946472540787324 0 -0.00067157477291495348 0.0084546566205976389 0 -0.0007615487251293149 0.0082913633113116218 0 -0.00086291570484750861 0.0087395078779621601 0 -0.0007615487251293149 0.0082913633113116218 0 -0.00085824105077395691 0.0081801173111459551 0 -0.00035318312121287797 0.010196132584685489 0 -0.0007369163048730746 0.0078107807729387744 0 -0.00057681283736368306 0.0082393339800271945 0 -0.00067157477291495348 0.0084546566205976389 0 -0.0007615487251293149 0.0082913633113116218 0 0.0012080998723519273 0.013288715512711416 0 0.00075369590494960036 0.01315223292442025 0 0.0011612386924452934 0.012603186752993066 0 0.00075369590494960036 0.01315223292442025 0 0.0011612386924452934 0.012603186752993066 0 0.00062291906131694316 0.012679206218163338 0 0.0011612386924452934 0.012603186752993066 0 0.00062291906131694316 0.012679206218163338 0 0.00092934037816585016 0.012016269292855125 0 0.0003279600551247158 0.013745531265912251 0 0.00012198574495841935 0.013652796725558559 0 -0.0007615487251293149 0.0082913633113116218 0 -0.00085824105077395691 0.0081801173111459551 0 -0.00070967085132394019 0.0081460527599150137 0 -0.00085824105077395691 0.0081801173111459551 0 -0.00073298200661212282 0.0080087886272979421 0 -0.00070967085132394019 0.0081460527599150137 0 -0.00060158918769623695 0.0080392091188188596 0 -0.00073298200661212282 0.0080087886272979421 0 -0.00070967085132394019 0.0081460527599150137 0 -0.00057681283736368306 0.0082393339800271945 0 -0.0007615487251293149 0.0082913633113116218 0 -0.00070967085132394019 0.0081460527599150137 0 -3.5484598432344715e-05 0.014935968005984098 0 -0.00010147746970510111 0.014877774450866313 0 -6.3564749461836602e-05 0.014935977680092964 0 0.00032442656935343289 0.013358445934310395 0 0.00075369590494960036 0.01315223292442025 0 0.00062291906131694316 0.012679206218163338 0 -0.00010147746970510111 0.014877774450866313 0 -7.5909224944219428e-05 0.014922981041319909 0 -6.3564749461836602e-05 0.014935977680092964 0 0.00010479494320740548 0.014125832566922417 0 0.0003279600551247158 0.013745531265912251 0 -7.5909224944219428e-05 0.014922981041319909 0 -6.7375058194554167e-05 0.014923975413801794 0 -6.3564749461836602e-05 0.014935977680092964 0 -6.7375058194554167e-05 0.014923975413801794 0 -6.3564749461836602e-05 0.014935977680092964 0 -6.8158023886030056e-05 0.014931413692260474 0 -7.5909224944219428e-05 0.014922981041319909 0 -6.7375058194554167e-05 0.014923975413801794 0 -5.4722833678659624e-05 0.014906593624800913 0 -6.3564749461836602e-05 0.014935977680092964 0 -6.8158023886030056e-05 0.014931413692260474 0 -3.9471859605525184e-05 0.014959661445130126 0 -7.5710784338633828e-05 0.015116951686047896 0 -4.2075547007091796e-05 0.014909218713695343 0 -2.589555643665553e-05 0.014912263796986311 0 -6.0268144071337264e-05 0.014848143760477986 0 -6.9982145881788795e-05 0.014905318184389379 0 -7.5710784338633828e-05 0.015116951686047896 0 0.00010124607363223426 0.013315296648937831 0 -6.7375058194554167e-05 0.014923975413801794 0 -6.8158023886030056e-05 0.014931413692260474 0 -5.4722833678659624e-05 0.014906593624800913 0 -2.589555643665553e-05 0.014912263796986311 0 8.3324637251613285e-05 0.014820433102304064 0 0.0002086776573676596 0.014878429161174576 0 8.3324637251613285e-05 0.014820433102304064 0 7.0342308551131109e-05 0.014744118113071225 0 -6.0268144071337264e-05 0.014848143760477986 0 -2.589555643665553e-05 0.014912263796986311 0 8.3324637251613285e-05 0.014820433102304064 0 -6.0268144071337264e-05 0.014848143760477986 0 8.3324637251613285e-05 0.014820433102304064 0 7.0342308551131109e-05 0.014744118113071225 0 0.00013138395623326534 0.014746708361555491 0 7.0342308551131109e-05 0.014744118113071225 0 -6.0268144071337264e-05 0.014848143760477986 0 1.6578631813896001e-05 0.014718833861534471 0 -6.0268144071337264e-05 0.014848143760477986 0 -8.594329197087509e-05 0.014845192766716359 0 -6.9982145881788795e-05 0.014905318184389379 0 -6.0268144071337264e-05 0.014848143760477986 0 -0.00018633643194698301 0.01476208260198621 0 -8.594329197087509e-05 0.014845192766716359 0 0.00022885527647060024 0.010469604427555904 0 -6.971331832225495e-05 0.010349885773362214 0 -0.00069354079074761526 0.0076185446106090439 0 -6.971331832225495e-05 0.010349885773362214 0 -0.00051455728329222693 0.0077147594562838387 0 -0.00064265913473884558 0.0078876184357365639 0 -0.00084896470823758296 0.0077993633625590498 0 -0.00085824105077395691 0.0081801173111459551 0 -0.00073298200661212282 0.0080087886272979421 0 -0.00084896470823758296 0.0077993633625590498 0 -0.00073298200661212282 0.0080087886272979421 0 -0.00064265913473884558 0.0078876184357365639 0 -0.00084896470823758296 0.0077993633625590498 0 -0.00060158918769623695 0.0080392091188188596 0 -0.00073298200661212282 0.0080087886272979421 0 -0.00064265913473884558 0.0078876184357365639 0 -6.971331832225495e-05 0.010349885773362214 0 9.8198753598566007e-05 0.011669794524703635 0 0.0011612386924452934 0.012603186752993066 0 0.0011120857360981137 0.011927361351652873 0 0.00092934037816585016 0.012016269292855125 0 -6.8158023886030056e-05 0.014931413692260474 0 -5.0060158092740971e-05 0.014890524044627951 0 -5.4722833678659624e-05 0.014906593624800913 0 -7.5909224944219428e-05 0.014922981041319909 0 -4.5109399422658032e-05 0.014901058214108311 0 -5.4722833678659624e-05 0.014906593624800913 0 0.00010124607363223426 0.013315296648937831 0 9.8198753598566007e-05 0.011669794524703635 0 0.00069832638127434183 0.012121438283545193 0 -0.00012005005034913658 0.012282626975165118 0 0.000673797803440664 0.011575366873412696 0 0.00010124607363223426 0.013315296648937831 0 -0.0001278763147120312 0.014454781719222933 0 0.0011120857360981137 0.011927361351652873 0 0.00095460737079277561 0.011962988489282112 0 0.00092934037816585016 0.012016269292855125 0 -6.971331832225495e-05 0.010349885773362214 0 0.00010124607363223426 0.013315296648937831 0 0.00012198574495841935 0.013652796725558559 0 -0.00026972093587186317 0.014425994353859531 0 -5.0060158092740971e-05 0.014890524044627951 0 -5.0621089472877697e-05 0.014894696576967853 0 -5.4722833678659624e-05 0.014906593624800913 0 0.00010124607363223426 0.013315296648937831 0 0.00012198574495841935 0.013652796725558559 0 8.3324637251613285e-05 0.014820433102304064 0 0.0002086776573676596 0.014878429161174576 0 0.00017458193903991114 0.014798869017704207 0 8.3324637251613285e-05 0.014820433102304064 0 0.00017458193903991114 0.014798869017704207 0 0.00013138395623326534 0.014746708361555491 0 0.00017458193903991114 0.014798869017704207 0 0.00013138395623326534 0.014746708361555491 0 0.00020152691816047725 0.014732003300872609 0 0.0002086776573676596 0.014878429161174576 0 0.00017458193903991114 0.014798869017704207 0 0.00024130156145359274 0.014814182211668621 0 0.00017458193903991114 0.014798869017704207 0 0.00020152691816047725 0.014732003300872609 0 0.00024130156145359274 0.014814182211668621 0 0.00020152691816047725 0.014732003300872609 0 0.00024130156145359274 0.014814182211668621 0 0.00025903050614392462 0.014822113311345935 0 0.00022783963813506248 0.014819788538082683 0 0.00024130156145359274 0.014814182211668621 0 0.00025903050614392462 0.014822113311345935 0 9.9885025107647579e-05 0.0088713682359343893 0 9.8198753598566007e-05 0.011669794524703635 0 -0.00063103571647541606 0.0078359671208104789 0 -0.00077498722703454523 0.0074912549290560536 0 -0.0011097771567801168 0.0078765785400284581 0 -0.00063103571647541606 0.0078359671208104789 0 -0.0011049953852053465 0.0079683727526382708 0 -0.0011097771567801168 0.0078765785400284581 0 9.8198753598566007e-05 0.011669794524703635 0 0.0014156171601188621 0.013151158909511318 0 0.00081322021131279649 0.010788562756622487 0 0.001078114185508927 0.010346966185763614 0 0.0002696581740913102 0.010316586382795699 0 0.00081322021131279649 0.010788562756622487 0 0.00030832266262038823 0.011327975307904688 0 0.0002696581740913102 0.010316586382795699 0 0.00020152691816047725 0.014732003300872609 0 0.00025903050614392462 0.014822113311345935 0 0.00026536327283809398 0.014568382843089148 0 0.00020152691816047725 0.014732003300872609 0 0.00012851316939335987 0.014634110354265801 0 0.00026536327283809398 0.014568382843089148 0 0.00044741324576982899 0.014507285923687181 0 0.0014156171601188621 0.013151158909511318 0 0.00013138395623326534 0.014746708361555491 0 0.00020152691816047725 0.014732003300872609 0 0.00012851316939335987 0.014634110354265801 0 0.0021073589927574988 0.013903410972412754 0 0.0008243835873779921 0.012878839099699502 0 0.0020573247528671095 0.012591230209396214 0 0.00097294533305122962 0.014354692775829656 0 0.0021073589927574988 0.013903410972412754 0 0.0008243835873779921 0.012878839099699502 0 0.0014156171601188621 0.013151158909511318 0 0.0020516765692115521 0.012989586886987991 0 0.0015446665082142058 0.010491556293394128 0 0.0014156171601188621 0.013151158909511318 0 0.0036817950761600712 0.013238620765626622 0 0.0021132035543380639 0.013858556605446546 0 0.0020573247528671095 0.012591230209396214 0 0.001078114185508927 0.010346966185763614 0 0.00094336617926835229 0.01003287733230741 0 0.0002696581740913102 0.010316586382795699 0 -0.00018633643194698301 0.01476208260198621 0 -2.6014781238648563e-05 0.014914287766926134 0 -7.7358117769802577e-05 0.014847736864741553 0 -0.00018633643194698301 0.01476208260198621 0 -7.7358117769802577e-05 0.014847736864741553 0 -8.594329197087509e-05 0.014845192766716359 0 -6.0268144071337264e-05 0.014848143760477986 0 -0.00018633643194698301 0.01476208260198621 0 1.6578631813896001e-05 0.014718833861534471 0 0.00044741324576982899 0.014507285923687181 0 0.00011726252487142726 0.01467237746495299 0 7.0342308551131109e-05 0.014744118113071225 0 0.00012851316939335987 0.014634110354265801 0 1.6578631813896001e-05 0.014718833861534471 0 7.0342308551131109e-05 0.014744118113071225 0 0.00013138395623326534 0.014746708361555491 0 0.00012851316939335987 0.014634110354265801 0 -0.00018633643194698301 0.01476208260198621 0 1.6578631813896001e-05 0.014718833861534471 0 0.00017886705181529569 0.013987292105578659 0 0.00097294533305122962 0.014354692775829656 0 1.6578631813896001e-05 0.014718833861534471 0 0.00017886705181529569 0.013987292105578659 0 0.0008243835873779921 0.012878839099699502 0 0.00017886705181529569 0.013987292105578659 0 -0.00048899577302893122 0.013001033366336805 0 0.00097294533305122962 0.014354692775829656 0 0.0008243835873779921 0.012878839099699502 0 0.00017886705181529569 0.013987292105578659 0 -0.00021464996358274688 0.014666763021124263 0 -0.00022783213978198663 0.013933436898355554 0 -0.00018633643194698301 0.01476208260198621 0 -1.4968004307149845e-05 0.014933035562354943 0 -2.6014781238648563e-05 0.014914287766926134 0 -0.00018633643194698301 0.01476208260198621 0 0.00017886705181529569 0.013987292105578659 0 -0.00048899577302893122 0.013001033366336805 0 -1.4968004307149845e-05 0.014933035562354943 0 -2.6014781238648563e-05 0.014914287766926134 0 1.5228439768665948e-05 0.014942648451983431 0 -2.6014781238648563e-05 0.014914287766926134 0 -1.272731472312834e-05 0.014947794517051277 0 1.5228439768665948e-05 0.014942648451983431 0 -2.6014781238648563e-05 0.014914287766926134 0 -1.272731472312834e-05 0.014947794517051277 0 -4.6589207060925518e-05 0.014890935700731635 0 -1.272731472312834e-05 0.014947794517051277 0 -4.6589207060925518e-05 0.014890935700731635 0 -1.4328210947037294e-05 0.014957964526524559 0 -2.6014781238648563e-05 0.014914287766926134 0 -7.7358117769802577e-05 0.014847736864741553 0 -4.6589207060925518e-05 0.014890935700731635 0 -7.7358117769802577e-05 0.014847736864741553 0 -8.594329197087509e-05 0.014845192766716359 0 -4.6589207060925518e-05 0.014890935700731635 0 -8.594329197087509e-05 0.014845192766716359 0 -4.6589207060925518e-05 0.014890935700731635 0 -6.9982145881788795e-05 0.014905318184389379 0 -4.6589207060925518e-05 0.014890935700731635 0 -3.0706271908231445e-05 0.014939439655064989 0 -1.4328210947037294e-05 0.014957964526524559 0 -4.6589207060925518e-05 0.014890935700731635 0 -6.9982145881788795e-05 0.014905318184389379 0 -3.0706271908231445e-05 0.014939439655064989 0 -2.6239522632204174e-05 0.014943251810973434 0 -6.9982145881788795e-05 0.014905318184389379 0 -3.0706271908231445e-05 0.014939439655064989 0 -2.6239522632204174e-05 0.014943251810973434 0 -9.4813632525874257e-09 0.014999940377865182 0 -1.0720490383803759e-08 0.014999951891926412 0 -2.6239522632204174e-05 0.014943251810973434 0 -3.0706271908231445e-05 0.014939439655064989 0 -1.0720490383803759e-08 0.014999951891926412 0 -3.0706271908231445e-05 0.014939439655064989 0 -1.0720490383803759e-08 0.014999951891926412 0 -1.4328210947037294e-05 0.014957964526524559 0 -1.0720490383803759e-08 0.014999951891926412 0 8.6362932616288053e-10 0.014999961523302284 0 -1.4328210947037294e-05 0.014957964526524559 0 8.6362932616288053e-10 0.014999961523302284 0 -1.4328210947037294e-05 0.014957964526524559 0 -8.9688123429796754e-06 0.014975144380264253 0 -1.272731472312834e-05 0.014947794517051277 0 -1.4328210947037294e-05 0.014957964526524559 0 -8.9688123429796754e-06 0.014975144380264253 0 -1.272731472312834e-05 0.014947794517051277 0 -8.9688123429796754e-06 0.014975144380264253 0 -1.3927602905242551e-05 0.014963342056172838 0 8.6362932616288053e-10 0.014999961523302284 0 -8.9688123429796754e-06 0.014975144380264253 0 -2.6839654042881327e-08 0.014999947075296151 0 -2.6839654042881327e-08 0.014999947075296151 0 -1.3927602905242551e-05 0.014963342056172838 0 6.1264175747251736e-08 0.015000012594340912 0 -8.9688123429796754e-06 0.014975144380264253 0 -2.6839654042881327e-08 0.014999947075296151 0 -1.3927602905242551e-05 0.014963342056172838 0 -1.3927602905242551e-05 0.014963342056172838 0 -2.730069523778494e-06 0.014923400172946039 0 -2.4841633849591386e-05 0.014939711881729675 0 -1.3927602905242551e-05 0.014963342056172838 0 6.1264175747251736e-08 0.015000012594340912 0 -2.4841633849591386e-05 0.014939711881729675 0 -1.272731472312834e-05 0.014947794517051277 0 -1.3927602905242551e-05 0.014963342056172838 0 1.5228439768665948e-05 0.014942648451983431 0 -1.3927602905242551e-05 0.014963342056172838 0 1.5228439768665948e-05 0.014942648451983431 0 -2.730069523778494e-06 0.014923400172946039 0 1.5228439768665948e-05 0.014942648451983431 0 -2.730069523778494e-06 0.014923400172946039 0 9.4453929964520998e-05 0.014855445583825859 0 9.4453929964520998e-05 0.014855445583825859 0 2.5239310940909238e-05 0.014835672297339699 0 7.2300423933198031e-05 0.014694296422657393 0 -2.730069523778494e-06 0.014923400172946039 0 2.5239310940909238e-05 0.014835672297339699 0 -4.2649683458688032e-05 0.014837833316826312 0 -2.730069523778494e-06 0.014923400172946039 0 9.4453929964520998e-05 0.014855445583825859 0 2.5239310940909238e-05 0.014835672297339699 0 2.5239310940909238e-05 0.014835672297339699 0 7.2300423933198031e-05 0.014694296422657393 0 -4.2649683458688032e-05 0.014837833316826312 0 7.2300423933198031e-05 0.014694296422657393 0 -4.2649683458688032e-05 0.014837833316826312 0 -2.6003742973271009e-05 0.014584416702820062 0 9.4453929964520998e-05 0.014855445583825859 0 7.2300423933198031e-05 0.014694296422657393 0 0.00020980844886072232 0.014670634441384701 0 -2.4841633849591386e-05 0.014939711881729675 0 -4.2649683458688032e-05 0.014837833316826312 0 -3.7884532501490541e-07 0.014999521239937981 0 6.1264175747251736e-08 0.015000012594340912 0 -2.4841633849591386e-05 0.014939711881729675 0 -3.7884532501490541e-07 0.014999521239937981 0 -2.730069523778494e-06 0.014923400172946039 0 -2.4841633849591386e-05 0.014939711881729675 0 -4.2649683458688032e-05 0.014837833316826312 0 -4.2649683458688032e-05 0.014837833316826312 0 -3.7884532501490541e-07 0.014999521239937981 0 -0.00013584195866900739 0.014640185977040409 0 -2.2810670765854539e-09 0.014999996086976644 0 5.5980946336266566e-09 0.015000013659882624 0 2.4732552203968204e-06 0.015004162442245427 0 8.0262713608583214e-10 0.014999905252431641 0 -5.0810153004877414e-05 0.014810315194991062 0 2.1153096941031361e-06 0.015004673081015309 0 5.5980946336266566e-09 0.015000013659882624 0 -7.3797951287767853e-09 0.014999989238646467 0 2.1153096941031361e-06 0.015004673081015309 0 5.5980946336266566e-09 0.015000013659882624 0 2.4732552203968204e-06 0.015004162442245427 0 2.1153096941031361e-06 0.015004673081015309 0 2.4732552203968204e-06 0.015004162442245427 0 2.1740542343333195e-05 0.01502081080387271 0 -5.0810153004877414e-05 0.014810315194991062 0 -2.39795802160952e-05 0.014611142619705735 0 -4.2649683458688032e-05 0.014837833316826312 0 -0.00013584195866900739 0.014640185977040409 0 -2.6003742973271009e-05 0.014584416702820062 0 7.2300423933198031e-05 0.014694296422657393 0 0.00014197308347391817 0.01446881117248951 0 0.00020980844886072232 0.014670634441384701 0 7.2300423933198031e-05 0.014694296422657393 0 -2.6003742973271009e-05 0.014584416702820062 0 0.00014197308347391817 0.01446881117248951 0 0.00014197308347391817 0.01446881117248951 0 0.00017748190075115951 0.014145860003616699 0 -9.5483559640990133e-05 0.014214485028543323 0 -0.00013584195866900739 0.014640185977040409 0 -2.6003742973271009e-05 0.014584416702820062 0 -9.5483559640990133e-05 0.014214485028543323 0 -2.6003742973271009e-05 0.014584416702820062 0 0.00014197308347391817 0.01446881117248951 0 -9.5483559640990133e-05 0.014214485028543323 0 2.1740542343333195e-05 0.01502081080387271 0 1.5178733034133357e-05 0.014954200655637679 0 1.1826673792878729e-06 0.014986442866445215 0 -2.39795802160952e-05 0.014611142619705735 0 0.0001422932200260948 0.01435921281674752 0 0.00017748190075115951 0.014145860003616699 0 -9.5483559640990133e-05 0.014214485028543323 0 0.00010196945686733271 0.013760063354602427 0 0.00016613518939389337 0.014969684646120994 0 1.5178733034133357e-05 0.014954200655637679 0 0.00018917521693634701 0.01477234721204294 0 2.1740542343333195e-05 0.01502081080387271 0 0.00016613518939389337 0.014969684646120994 0 1.5178733034133357e-05 0.014954200655637679 0 1.5178733034133357e-05 0.014954200655637679 0 1.1826673792878729e-06 0.014986442866445215 0 6.6384709810857449e-06 0.014982799778938996 0 1.1826673792878729e-06 0.014986442866445215 0 -7.3797951287767853e-09 0.014999989238646467 0 6.9015849398699512e-09 0.014999977632407673 0 2.1153096941031361e-06 0.015004673081015309 0 1.1826673792878729e-06 0.014986442866445215 0 -7.3797951287767853e-09 0.014999989238646467 0 2.1153096941031361e-06 0.015004673081015309 0 2.1740542343333195e-05 0.01502081080387271 0 1.1826673792878729e-06 0.014986442866445215 0 0.00072650066317786878 0.013935377348677194 0 0.00091114212850040496 0.013746946536024467 0 0.00075164738630685416 0.013668022566254953 0 0.00072650066317786878 0.013935377348677194 0 0.00091114212850040496 0.013746946536024467 0 0.00085568571764125471 0.014128249999576417 0 0.00091114212850040496 0.013746946536024467 0 0.00085568571764125471 0.014128249999576417 0 0.0011678398993625622 0.01380570971520753 0 0.00091114212850040496 0.013746946536024467 0 0.0010795581314301077 0.013493584666858927 0 0.0011678398993625622 0.01380570971520753 0 0.00091114212850040496 0.013746946536024467 0 0.0010795581314301077 0.013493584666858927 0 0.00088703338313123547 0.013468665467540509 0 0.00075164738630685416 0.013668022566254953 0 0.00055745448715010366 0.013593340198437959 0 0.00071874078073611491 0.013353848571178216 0 0.00075164738630685416 0.013668022566254953 0 0.00088703338313123547 0.013468665467540509 0 0.00071874078073611491 0.013353848571178216 0 0.00091114212850040496 0.013746946536024467 0 0.00075164738630685416 0.013668022566254953 0 0.00088703338313123547 0.013468665467540509 0 0.00075164738630685416 0.013668022566254953 0 0.00055745448715010366 0.013593340198437959 0 0.00048025785637503398 0.01394139400352197 0 0.00010196945686733271 0.013760063354602427 0 0.00055745448715010366 0.013593340198437959 0 0.00048025785637503398 0.01394139400352197 0 0.00010196945686733271 0.013760063354602427 0 0.00055745448715010366 0.013593340198437959 0 0.0003831275326392878 0.013353414982082278 0 0.00017748190075115951 0.014145860003616699 0 0.00010196945686733271 0.013760063354602427 0 0.00048025785637503398 0.01394139400352197 0 0.00072650066317786878 0.013935377348677194 0 0.00075164738630685416 0.013668022566254953 0 0.00048025785637503398 0.01394139400352197 0 0.00072650066317786878 0.013935377348677194 0 0.00048025785637503398 0.01394139400352197 0 0.00059981346500030382 0.014154742988692669 0 0.00048025785637503398 0.01394139400352197 0 0.00059981346500030382 0.014154742988692669 0 0.00038483776290439863 0.014332992324720635 0 0.00017748190075115951 0.014145860003616699 0 0.00048025785637503398 0.01394139400352197 0 0.00038483776290439863 0.014332992324720635 0 0.00014197308347391817 0.01446881117248951 0 0.00017748190075115951 0.014145860003616699 0 0.00038483776290439863 0.014332992324720635 0 0.00014197308347391817 0.01446881117248951 0 0.00029846471692761316 0.014523150671579403 0 0.00020980844886072232 0.014670634441384701 0 0.00014197308347391817 0.01446881117248951 0 0.00038483776290439863 0.014332992324720635 0 0.00029846471692761316 0.014523150671579403 0 0.00038483776290439863 0.014332992324720635 0 0.00029846471692761316 0.014523150671579403 0 0.00046477675198735945 0.014524593458492219 0 0.00029846471692761316 0.014523150671579403 0 0.00046477675198735945 0.014524593458492219 0 0.00032159011313009358 0.014625874990049357 0 0.00059981346500030382 0.014154742988692669 0 0.00038483776290439863 0.014332992324720635 0 0.00050916035012384055 0.014497810346544671 0 0.00046779756503729738 0.015014679565728611 0 0.00077475011155608213 0.011948180418938486 0 0.00038483776290439863 0.014332992324720635 0 0.00046477675198735945 0.014524593458492219 0 0.00050916035012384055 0.014497810346544671 0 0.00053709761795798659 0.012268165613509675 0 0.00077475011155608213 0.011948180418938486 0 0.00021796559630986675 0.0070546562885628276 0 0.00083083239019562894 0.0071296882793365074 0 0.00046260705428023203 0.0079979979459312185 0 0.00083083239019562894 0.0071296882793365074 0 0.00095210563667226923 0.0066912648005659475 0 0.00098085137245078162 0.0069167672936188878 0 0.00021796559630986675 0.0070546562885628276 0 0.00083083239019562894 0.0071296882793365074 0 0.00095210563667226923 0.0066912648005659475 0 0.00077475011155608213 0.011948180418938486 0 0.0008789209027412955 0.010230125892338193 0 0.00083083239019562894 0.0071296882793365074 0 0.00098085137245078162 0.0069167672936188878 0 0.00095473859429338448 0.0070647062004550254 0 0.00059981346500030382 0.014154742988692669 0 0.00057235325704318269 0.014336088126867978 0 0.00085568571764125471 0.014128249999576417 0 0.00072650066317786878 0.013935377348677194 0 0.00059981346500030382 0.014154742988692669 0 0.00085568571764125471 0.014128249999576417 0 0.00095210563667226923 0.0066912648005659475 0 0.0010834839557356541 0.0067454211666945702 0 0.0010976194453383749 0.0065120813131904617 0 0.0008789209027412955 0.010230125892338193 0 0.0011275646057135782 0.01018659450698446 0 0.0010834839557356541 0.0067454211666945702 0 0.00098085137245078162 0.0069167672936188878 0 0.001065138319437751 0.0069171320654962216 0 0.00095210563667226923 0.0066912648005659475 0 0.0010834839557356541 0.0067454211666945702 0 0.00098085137245078162 0.0069167672936188878 0 0.00098085137245078162 0.0069167672936188878 0 0.001065138319437751 0.0069171320654962216 0 0.00095473859429338448 0.0070647062004550254 0 0.00095473859429338448 0.0070647062004550254 0 0.00087902769835515886 0.0072297475276210084 0 0.001151010007188976 0.0070818151188417637 0 0.001065138319437751 0.0069171320654962216 0 0.00095473859429338448 0.0070647062004550254 0 0.001151010007188976 0.0070818151188417637 0 0.00090120833674176037 0.0072045147220747615 0 0.0014120189508147057 0.0081869120422480395 0 0.0020263884959700624 0.0091713496605123693 0 0.00046260705428023203 0.0079979979459312185 0 -0.00023753899005296285 0.0089076960499482934 0 0.00083083239019562894 0.0071296882793365074 0 0.0020263884959700624 0.0091713496605123693 0 0.00046260705428023203 0.0079979979459312185 0 0.00083083239019562894 0.0071296882793365074 0 0.00095473859429338448 0.0070647062004550254 0 0.00087902769835515886 0.0072297475276210084 0 0.0020263884959700624 0.0091713496605123693 0 -0.00023753899005296285 0.0089076960499482934 0 0.0012645896203458881 0.011118872591492695 0 0.00087902769835515886 0.0072297475276210084 0 0.001079842588366415 0.0073576312635435627 0 0.001151010007188976 0.0070818151188417637 0 0.00020980844886072232 0.014670634441384701 0 0.00032159011313009358 0.014625874990049357 0 0.00031084155111870456 0.014762008494792209 0 0.00029846471692761316 0.014523150671579403 0 0.00020980844886072232 0.014670634441384701 0 0.00032159011313009358 0.014625874990049357 0 0.00046477675198735945 0.014524593458492219 0 0.00032159011313009358 0.014625874990049357 0 0.00031084155111870456 0.014762008494792209 0 0.00021796559630986675 0.0070546562885628276 0 0.00046260705428023203 0.0079979979459312185 0 -0.00023753899005296285 0.0089076960499482934 0 0.00046477675198735945 0.014524593458492219 0 0.00049804241649457882 0.014505943028239933 0 0.00031084155111870456 0.014762008494792209 0 0.00077475011155608213 0.011948180418938486 0 3.4677266172400168e-05 0.011596441766371576 0 3.4677266172400168e-05 0.011596441766371576 0 -0.00013365411984071193 0.01297899171331212 0 9.4453929964520998e-05 0.014855445583825859 0 0.00020980844886072232 0.014670634441384701 0 0.00031084155111870456 0.014762008494792209 0 9.4453929964520998e-05 0.014855445583825859 0 0.00031084155111870456 0.014762008494792209 0 0.00014117115254821413 0.014899831804237757 0 1.5228439768665948e-05 0.014942648451983431 0 9.4453929964520998e-05 0.014855445583825859 0 0.00014117115254821413 0.014899831804237757 0 -0.00023753899005296285 0.0089076960499482934 0 -0.00041205309649041316 0.011001794925436015 0 0.0012645896203458881 0.011118872591492695 0 0.0008243835873779921 0.012878839099699502 0 -0.00048899577302893122 0.013001033366336805 0 -0.00041205309649041316 0.011001794925436015 0 0.0008243835873779921 0.012878839099699502 0 -0.00041205309649041316 0.011001794925436015 0 0.0012645896203458881 0.011118872591492695 0 -1.4968004307149845e-05 0.014933035562354943 0 1.5228439768665948e-05 0.014942648451983431 0 0.00014117115254821413 0.014899831804237757 0 -0.00022783213978198663 0.013933436898355554 0 -0.00013365411984071193 0.01297899171331212 0 0.001079842588366415 0.0073576312635435627 0 0.00097674556670743358 0.0076840772945788441 0 0.0011862770026586545 0.0075528546711543035 0 0.0014120189508147057 0.0081869120422480395 0 0.0020771533675505638 0.0095670645054742633 0 0.00087902769835515886 0.0072297475276210084 0 0.001079842588366415 0.0073576312635435627 0 0.00097674556670743358 0.0076840772945788441 0 0.0020263884959700624 0.0091713496605123693 0 0.0029223016880134513 0.011296471487534166 0 0.0012645896203458881 0.011118872591492695 0 0.0029223016880134513 0.011296471487534166 0 0.0012645896203458881 0.011118872591492695 0 0.0020573247528671095 0.012591230209396214 0 0.0008243835873779921 0.012878839099699502 0 0.0012645896203458881 0.011118872591492695 0 0.0020573247528671095 0.012591230209396214 0 0.0036817950761600712 0.013238620765626622 0 0.0029223016880134513 0.011296471487534166 0 0.0020573247528671095 0.012591230209396214 0 0.0015446665082142058 0.010491556293394128 0 0.0020771533675505638 0.0095670645054742633 0 0.0011612741429836207 0.0081801540923907897 0 0.00097674556670743358 0.0076840772945788441 0 0.0013296392788320727 0.0077770762732795873 0 0.0013296392788320727 0.0077770762732795873 0 0.0011862770026586545 0.0075528546711543035 0 0.0013710161782000765 0.0074404153788976439 0 0.00097674556670743358 0.0076840772945788441 0 0.0013296392788320727 0.0077770762732795873 0 0.0011862770026586545 0.0075528546711543035 0 0.0011862770026586545 0.0075528546711543035 0 0.0013710161782000765 0.0074404153788976439 0 0.0012393910249667624 0.007290345021585219 0 0.0013296392788320727 0.0077770762732795873 0 0.0013710161782000765 0.0074404153788976439 0 0.0017108913820427932 0.0074322506505671293 0 0.0013296392788320727 0.0077770762732795873 0 0.0016671641401619281 0.007980811075172338 0 0.0017108913820427932 0.0074322506505671293 0 0.0011612741429836207 0.0081801540923907897 0 0.0013296392788320727 0.0077770762732795873 0 0.0016671641401619281 0.007980811075172338 0 0.00067548569686426809 0.0073447787334419354 0 0.00062465358728510073 0.006630995602378508 0 0.00056765392985518883 0.0070116450220731328 0 0.00085794775833195915 0.0068913736462689473 0 0.0007500213269330424 0.0068146355872156427 0 9.106831410781747e-06 0.0068805922854934644 0 -0.00012881694949274739 0.0067487880524677466 0 -8.812037666596543e-05 0.0067080802396793206 0 0.00085263534757588466 0.0073429336933886523 0 0.00088164773135608989 0.0073122293964983662 0 0.00089909177250772573 0.0068694742891530422 0 0.00067548569686426809 0.0073447787334419354 0 0.00087700283425813544 0.0066459006639414606 0 0.00026394917972093684 0.006817324541690482 0 -8.812037666596543e-05 0.0067080802396793206 0 0.00044127624495660106 0.0064956558606340357 0 0.00090266097956985785 0.0076871494075154848 0 0.00067548569686426809 0.0073447787334419354 0 0.00051511598811296484 0.0068321309306058993 0 0.00044127624495660106 0.0064956558606340357 0 0.00071369945225859151 0.0066881064165183555 0 0.00051511598811296484 0.0068321309306058993 0 0.00026394917972093684 0.006817324541690482 0 0.00044127624495660106 0.0064956558606340357 0 0.00062465358728510073 0.006630995602378508 0 0.0008408889571439556 0.0065528936584154764 0 0.00087700283425813544 0.0066459006639414606 0 0.00099825468466950671 0.0061468072527216455 0 0.00067406645430777301 0.0065017319261690722 0 0.00087971825798971058 0.0065457076679867462 0 0.0010031624790418729 0.0063976560776319814 0 0.00078479003702122132 0.0065824746551959978 0 0.00067406645430777301 0.0065017319261690722 0 0.00087971825798971058 0.0065457076679867462 0 0.00062465358728510073 0.006630995602378508 0 0.00087700283425813544 0.0066459006639414606 0 0.00098036332922392258 0.0062677496290085141 0 0.00093980152382273983 0.0062488926484238604 0 0.00098201675764077742 0.0062149369407331267 0 0.00090266097956985785 0.0076871494075154848 0 0.0012003948800539121 0.0069160131508425949 0 0.00088164773135608989 0.0073122293964983662 0 0.0011376472746712485 0.0070401116895578639 0 0.00089909177250772573 0.0068694742891530422 0 0.00087700283425813544 0.0066459006639414606 0 0.0012003948800539121 0.0069160131508425949 0 0.0012003948800539121 0.0069160131508425949 0 0.0011187116578881069 0.0063772384387155183 0 0.00093980152382273983 0.0062488926484238604 0 0.00098201675764077742 0.0062149369407331267 0 0.0009345014188414612 0.0061930269425800235 0 0.00098201675764077742 0.0062149369407331267 0 0.001029489860883633 0.0061357898593013107 0 0.0010076114173161791 0.0062317660358244247 0 0.00098036332922392258 0.0062677496290085141 0 0.00098201675764077742 0.0062149369407331267 0 0.0010076114173161791 0.0062317660358244247 0 0.00098201675764077742 0.0062149369407331267 0 0.001029489860883633 0.0061357898593013107 0 0.00098207959986803877 0.0061474555255241099 0 0.001029489860883633 0.0061357898593013107 0 0.00098207959986803877 0.0061474555255241099 0 0.001035314684823757 0.0060714742555813116 0 0.0011187116578881069 0.0063772384387155183 0 0.0012380228788202417 0.0065486940177180613 0 0.0009345014188414612 0.0061930269425800235 0 0.00098207959986803877 0.0061474555255241099 0 0.00093301039622511756 0.0060873296136191562 0 0.00098201675764077742 0.0062149369407331267 0 0.0009345014188414612 0.0061930269425800235 0 0.00098207959986803877 0.0061474555255241099 0 0.00098207959986803877 0.0061474555255241099 0 0.00093301039622511756 0.0060873296136191562 0 0.001035314684823757 0.0060714742555813116 0 0.0013501329044888054 0.0071280852873279671 0 0.0012380228788202417 0.0065486940177180613 0 0.0012797224545631838 0.006737686522428908 0 0.0011397816826193444 0.0068217734786466273 0 0.0012956740312394912 0.0065655985929436471 0 0.0012554517514919645 0.0069299041682054181 0 0.0012724156671224086 0.0071453805003701253 0 0.001387930125391095 0.0068359186907999735 0 0.0012554517514919645 0.0069299041682054181 0 0.001151010007188976 0.0070818151188417637 0 0.0012724156671224086 0.0071453805003701253 0 0.001065138319437751 0.0069171320654962216 0 0.001151010007188976 0.0070818151188417637 0 0.001183858498746226 0.0068340796667930807 0 0.0012554517514919645 0.0069299041682054181 0 0.001151010007188976 0.0070818151188417637 0 0.001183858498746226 0.0068340796667930807 0 0.001151010007188976 0.0070818151188417637 0 0.0012393910249667624 0.007290345021585219 0 0.0014708976516918429 0.0072705489827911939 0 0.0011941415079361932 0.0071054973257880689 0 0.0013501329044888054 0.0071280852873279671 0 0.001079842588366415 0.0073576312635435627 0 0.001151010007188976 0.0070818151188417637 0 0.0012393910249667624 0.007290345021585219 0 0.001079842588366415 0.0073576312635435627 0 0.0011862770026586545 0.0075528546711543035 0 0.0012393910249667624 0.007290345021585219 0 0.0013710161782000765 0.0074404153788976439 0 0.0012393910249667624 0.007290345021585219 0 0.0014708976516918429 0.0072705489827911939 0 0.0013371978725334763 0.0073674191804635365 0 0.0013501329044888054 0.0071280852873279671 0 0.0012633651859288366 0.006909759259141641 0 0.0012797224545631838 0.006737686522428908 0 0.0011397816826193444 0.0068217734786466273 0 0.0013710161782000765 0.0074404153788976439 0 0.0017108913820427932 0.0074322506505671293 0 0.0014767492225138529 0.0072653385666690195 0 0.0012003948800539121 0.0069160131508425949 0 0.0013501329044888054 0.0071280852873279671 0 0.0014936118899307449 0.0068095802987364479 0 0.0014360104489139279 0.0063795760361967458 0 0.0016663105516964412 0.0066752528430758995 0 0.0014936118899307449 0.0068095802987364479 0 0.0014360104489139279 0.0063795760361967458 0 0.0012548085320725185 0.0067217054822004407 0 0.0011683664340299826 0.0069480849589478467 0 0.0012548085320725185 0.0067217054822004407 0 0.0010961137516818345 0.0066724226973380136 0 0.0014360104489139279 0.0063795760361967458 0 0.0012548085320725185 0.0067217054822004407 0 0.0011668849476983143 0.0064772804587675094 0 0.0014360104489139279 0.0063795760361967458 0 0.0011668849476983143 0.0064772804587675094 0 0.0012748729443726055 0.006320227593244172 0 0.0011668849476983143 0.0064772804587675094 0 0.0010031624790418729 0.0063976560776319814 0 0.0011351336097505836 0.0062962397920585042 0 0.0011668849476983143 0.0064772804587675094 0 0.0010179162260100013 0.0065583959009740747 0 0.0010031624790418729 0.0063976560776319814 0 0.0011668849476983143 0.0064772804587675094 0 0.0010961137516818345 0.0066724226973380136 0 0.0010179162260100013 0.0065583959009740747 0 0.0012548085320725185 0.0067217054822004407 0 0.0011668849476983143 0.0064772804587675094 0 0.0010961137516818345 0.0066724226973380136 0 0.0010961137516818345 0.0066724226973380136 0 0.0010179162260100013 0.0065583959009740747 0 0.00090716866111503541 0.0066945162716738425 0 0.00099401937380888409 0.0068623734123610374 0 0.0010961137516818345 0.0066724226973380136 0 0.00090716866111503541 0.0066945162716738425 0 0.0010179162260100013 0.0065583959009740747 0 0.00090716866111503541 0.0066945162716738425 0 0.00087971825798971058 0.0065457076679867462 0 0.00079553406622938068 0.0065787361729132887 0 0.00090716866111503541 0.0066945162716738425 0 0.00087971825798971058 0.0065457076679867462 0 0.00062465358728510073 0.006630995602378508 0 0.00080854252439006185 0.0066959001806474417 0 0.00067406645430777301 0.0065017319261690722 0 0.0010031624790418729 0.0063976560776319814 0 0.0010076114173161791 0.0062317660358244247 0 0.0010179162260100013 0.0065583959009740747 0 0.00087971825798971058 0.0065457076679867462 0 0.0010031624790418729 0.0063976560776319814 0 0.0010031624790418729 0.0063976560776319814 0 0.0010076114173161791 0.0062317660358244247 0 0.0011351336097505836 0.0062962397920585042 0 0.001029489860883633 0.0061357898593013107 0 0.0010076114173161791 0.0062317660358244247 0 0.0010694198536741282 0.0061324455745500423 0 0.0010076114173161791 0.0062317660358244247 0 0.0010694198536741282 0.0061324455745500423 0 0.0011176190418106925 0.0061721770831643331 0 0.0010694198536741282 0.0061324455745500423 0 0.0011176190418106925 0.0061721770831643331 0 0.0011202028972881596 0.0061038169363798267 0 0.0011176190418106925 0.0061721770831643331 0 0.0011351336097505836 0.0062962397920585042 0 0.0012390047355702821 0.0062087024575158342 0 0.0011176190418106925 0.0061721770831643331 0 0.0012390047355702821 0.0062087024575158342 0 0.0011671614645275851 0.0061207222931900646 0 0.0011176190418106925 0.0061721770831643331 0 0.0011671614645275851 0.0061207222931900646 0 0.0011202028972881596 0.0061038169363798267 0 0.0010076114173161791 0.0062317660358244247 0 0.0011176190418106925 0.0061721770831643331 0 0.0011351336097505836 0.0062962397920585042 0 0.0011668849476983143 0.0064772804587675094 0 0.0011351336097505836 0.0062962397920585042 0 0.0012748729443726055 0.006320227593244172 0 0.0011351336097505836 0.0062962397920585042 0 0.0012748729443726055 0.006320227593244172 0 0.0012390047355702821 0.0062087024575158342 0 0.0012748729443726055 0.006320227593244172 0 0.0012390047355702821 0.0062087024575158342 0 0.0013800176066962539 0.0062784157793750253 0 0.0012390047355702821 0.0062087024575158342 0 0.0013444713260002835 0.006192411945161921 0 0.0013800176066962539 0.0062784157793750253 0 0.0012390047355702821 0.0062087024575158342 0 0.0012431296397122848 0.0061325079976730446 0 0.0011671614645275851 0.0061207222931900646 0 0.0012390047355702821 0.0062087024575158342 0 0.0013444713260002835 0.006192411945161921 0 0.0012431296397122848 0.0061325079976730446 0 0.0013444713260002835 0.006192411945161921 0 0.0014194572650217631 0.0062547635025783288 0 0.0014155305153058773 0.0061838815911133332 0 0.0013444713260002835 0.006192411945161921 0 0.0013800176066962539 0.0062784157793750253 0 0.0014194572650217631 0.0062547635025783288 0 0.0014360104489139279 0.0063795760361967458 0 0.0012748729443726055 0.006320227593244172 0 0.0013800176066962539 0.0062784157793750253 0 0.0014360104489139279 0.0063795760361967458 0 0.0013800176066962539 0.0062784157793750253 0 0.0014365626497385659 0.0062986497208753862 0 0.00035321588284257144 0.0055297064450251128 0 0.0004629962568251946 0.0052272939490003792 0 0.00013988803633262711 0.0053216909804800414 0 0.00035321588284257144 0.0055297064450251128 0 0.00029887078003526703 0.0057322081779143672 0 0.00012548147800243387 0.0054996461505825217 0 0.00035321588284257144 0.0055297064450251128 0 0.00013988803633262711 0.0053216909804800414 0 0.00012548147800243387 0.0054996461505825217 0 0.00084678354003972511 0.0057610901542150192 0 0.0012948072812193161 0.0062021234316648769 0 0.00084678354003972511 0.0057610901542150192 0 0.00047121697873610079 0.0055520878434861471 0 0.00090481562293602893 0.0060403546088994573 0 0.001149734815968596 0.0060724830657629247 0 0.0010626960403706735 0.0061381976673680391 0 0.0013444713260002835 0.006192411945161921 0 0.0013151643959773579 0.0060819356182811478 0 0.0014155305153058773 0.0061838815911133332 0 0.0004629962568251946 0.0052272939490003792 0 -9.9177422266174029e-05 0.0050628431240237843 0 0.00013988803633262711 0.0053216909804800414 0 0.00075514644950180822 0.0056300150830093298 0 0.00081529908404455128 0.0056673262352158593 0 0.00082713119286266978 0.0056327022065662657 0 0.00084678354003972511 0.0057610901542150192 0 0.0010378373904342492 0.0058627935005401552 0 0.0013151643959773579 0.0060819356182811478 0 0.0012431296397122848 0.0061325079976730446 0 0.0011721253521018338 0.0060594863586773337 0 0.00084678354003972511 0.0057610901542150192 0 0.00068103882561708145 0.0055329699842456897 0 0.0013444713260002835 0.006192411945161921 0 0.0013151643959773579 0.0060819356182811478 0 0.0012431296397122848 0.0061325079976730446 0 0.0004629962568251946 0.0052272939490003792 0 0.00058877302394649822 0.005598396455048958 0 0.00081529908404455128 0.0056673262352158593 0 0.00035321588284257144 0.0055297064450251128 0 0.0004629962568251946 0.0052272939490003792 0 0.00058877302394649822 0.005598396455048958 0 0.00035321588284257144 0.0055297064450251128 0 0.00058877302394649822 0.005598396455048958 0 0.00051778611397877282 0.0057437760933374852 0 0.00058877302394649822 0.005598396455048958 0 0.00077163330421144106 0.0058478869623187785 0 0.00051778611397877282 0.0057437760933374852 0 0.00058877302394649822 0.005598396455048958 0 0.00081529908404455128 0.0056673262352158593 0 0.00077163330421144106 0.0058478869623187785 0 0.00093781120302519711 0.0057968969116870429 0 0.00099723394582727255 0.0060109272740576881 0 0.00077163330421144106 0.0058478869623187785 0 0.00093781120302519711 0.0057968969116870429 0 0.00081529908404455128 0.0056673262352158593 0 0.00077163330421144106 0.0058478869623187785 0 0.00093781120302519711 0.0057968969116870429 0 0.00081529908404455128 0.0056673262352158593 0 0.00082713119286266978 0.0056327022065662657 0 0.00093781120302519711 0.0057968969116870429 0 0.00082713119286266978 0.0056327022065662657 0 0.0010480162397822758 0.0057843238667039882 0 0.0010378373904342492 0.0058627935005401552 0 0.0010410988680332532 0.0059127259795694496 0 0.0011721253521018338 0.0060594863586773337 0 0.0011202028972881596 0.0061038169363798267 0 0.0010814569246645185 0.0060476231107458303 0 0.0012431296397122848 0.0061325079976730446 0 0.0011721253521018338 0.0060594863586773337 0 0.0011671614645275851 0.0061207222931900646 0 0.0011721253521018338 0.0060594863586773337 0 0.0011671614645275851 0.0061207222931900646 0 0.0011202028972881596 0.0061038169363798267 0 0.0010694198536741282 0.0061324455745500423 0 0.0011202028972881596 0.0061038169363798267 0 0.0010814569246645185 0.0060476231107458303 0 0.001029489860883633 0.0061357898593013107 0 0.0010694198536741282 0.0061324455745500423 0 0.0010814569246645185 0.0060476231107458303 0 0.00093781120302519711 0.0057968969116870429 0 0.00099723394582727255 0.0060109272740576881 0 0.0011105182046636363 0.0059219980385298351 0 0.00093781120302519711 0.0057968969116870429 0 0.0010480162397822758 0.0057843238667039882 0 0.0011105182046636363 0.0059219980385298351 0 0.00099723394582727255 0.0060109272740576881 0 0.0011105182046636363 0.0059219980385298351 0 0.0012173017817708469 0.0061390460887537409 0 0.00099723394582727255 0.0060109272740576881 0 0.0011306312433226945 0.006290314134084091 0 0.0012173017817708469 0.0061390460887537409 0 0.00099723394582727255 0.0060109272740576881 0 0.0011306312433226945 0.006290314134084091 0 0.00083775712612941741 0.0061393105344266603 0 0.0011306312433226945 0.006290314134084091 0 0.00083775712612941741 0.0061393105344266603 0 0.00084570212152455522 0.0064531996214231323 0 0.00099723394582727255 0.0060109272740576881 0 0.00083775712612941741 0.0061393105344266603 0 0.00077163330421144106 0.0058478869623187785 0 0.00083775712612941741 0.0061393105344266603 0 0.00077163330421144106 0.0058478869623187785 0 0.00053931949316419927 0.0059785297636741593 0 0.00077163330421144106 0.0058478869623187785 0 0.00051778611397877282 0.0057437760933374852 0 0.00053931949316419927 0.0059785297636741593 0 0.00083775712612941741 0.0061393105344266603 0 0.00053931949316419927 0.0059785297636741593 0 0.00064855647413174949 0.0062499341562922963 0 0.00053931949316419927 0.0059785297636741593 0 0.00040080717123196658 0.0062288986033512831 0 0.00064855647413174949 0.0062499341562922963 0 0.00022763579892069394 0.0059543773965601825 0 0.00040080717123196658 0.0062288986033512831 0 8.7477747048562689e-05 0.0062742665221209174 0 0.00053931949316419927 0.0059785297636741593 0 0.00022763579892069394 0.0059543773965601825 0 0.00040080717123196658 0.0062288986033512831 0 0.00022763579892069394 0.0059543773965601825 0 0.00029887078003526703 0.0057322081779143672 0 9.8106936846795012e-06 0.0056729015905102216 0 0.00053931949316419927 0.0059785297636741593 0 0.00022763579892069394 0.0059543773965601825 0 0.00029887078003526703 0.0057322081779143672 0 0.00051778611397877282 0.0057437760933374852 0 0.00053931949316419927 0.0059785297636741593 0 0.00029887078003526703 0.0057322081779143672 0 0.00035321588284257144 0.0055297064450251128 0 0.00051778611397877282 0.0057437760933374852 0 0.00029887078003526703 0.0057322081779143672 0 0.0012678039621343592 0.0065232067354532531 0 0.0012871452201702247 0.0067255126710784674 0 0.0013121817871035097 0.0065847475985195717 0 0.0012678039621343592 0.0065232067354532531 0 0.0011813037245292513 0.0066624226871894125 0 0.0012871452201702247 0.0067255126710784674 0 0.0010834839557356541 0.0067454211666945702 0 0.0011813037245292513 0.0066624226871894125 0 0.0010976194453383749 0.0065120813131904617 0 0.0012678039621343592 0.0065232067354532531 0 0.0011813037245292513 0.0066624226871894125 0 0.0010976194453383749 0.0065120813131904617 0 0.0010834839557356541 0.0067454211666945702 0 0.0011813037245292513 0.0066624226871894125 0 0.001183858498746226 0.0068340796667930807 0 0.0010834839557356541 0.0067454211666945702 0 0.001065138319437751 0.0069171320654962216 0 0.001183858498746226 0.0068340796667930807 0 0.0012554517514919645 0.0069299041682054181 0 0.001183858498746226 0.0068340796667930807 0 0.0012871452201702247 0.0067255126710784674 0 0.0011813037245292513 0.0066624226871894125 0 0.001183858498746226 0.0068340796667930807 0 0.0012871452201702247 0.0067255126710784674 0 0.0012554517514919645 0.0069299041682054181 0 0.0012871452201702247 0.0067255126710784674 0 0.001387930125391095 0.0068359186907999735 0 0.0012871452201702247 0.0067255126710784674 0 0.001378927309827932 0.0067606890382204314 0 0.001387930125391095 0.0068359186907999735 0 0.00093301039622511756 0.0060873296136191562 0 0.0010755721339314084 0.0059708196037518311 0 0.0010882828737952448 0.005929513829910478 0 0.0012380228788202417 0.0065486940177180613 0 0.0012227632254906678 0.0062424397605947528 0 0.001378927309827932 0.0067606890382204314 0 0.0013976380347827274 0.006833650478879647 0 0.0013974597088975769 0.0065215984530042244 0 0.0012575673143596141 0.0066690928671536351 0 0.0012380228788202417 0.0065486940177180613 0 0.00093301039622511756 0.0060873296136191562 0 0.001035314684823757 0.0060714742555813116 0 0.0010755721339314084 0.0059708196037518311 0 0.001378927309827932 0.0067606890382204314 0 0.0013974597088975769 0.0065215984530042244 0 0.0013507814358021191 0.0065778182529715127 0 0.001378927309827932 0.0067606890382204314 0 0.0013338412482294761 0.0066520081309193553 0 0.0013507814358021191 0.0065778182529715127 0 0.0012871452201702247 0.0067255126710784674 0 0.001378927309827932 0.0067606890382204314 0 0.0013338412482294761 0.0066520081309193553 0 0.0012871452201702247 0.0067255126710784674 0 0.0013338412482294761 0.0066520081309193553 0 0.0013121817871035097 0.0065847475985195717 0 0.0010814569246645185 0.0060476231107458303 0 0.001035314684823757 0.0060714742555813116 0 0.0010755721339314084 0.0059708196037518311 0 0.001029489860883633 0.0061357898593013107 0 0.0010814569246645185 0.0060476231107458303 0 0.001035314684823757 0.0060714742555813116 0 0.0010410988680332532 0.0059127259795694496 0 0.0010625326075438726 0.0059556649128999373 0 0.0012227632254906678 0.0062424397605947528 0 0.0012101958469619934 0.0061855340942812533 0 0.0010480162397822758 0.0057843238667039882 0 0.0010755721339314084 0.0059708196037518311 0 0.0011105182046636363 0.0059219980385298351 0 0.0013974597088975769 0.0065215984530042244 0 0.001328712723947547 0.0064486887741789876 0 0.0012173017817708469 0.0061390460887537409 0 0.0011105182046636363 0.0059219980385298351 0 0.0010882828737952448 0.005929513829910478 0 0.0012173017817708469 0.0061390460887537409 0 0.0010755721339314084 0.0059708196037518311 0 0.0011105182046636363 0.0059219980385298351 0 0.0010882828737952448 0.005929513829910478 0 0.0012678039621343592 0.0065232067354532531 0 0.0013121817871035097 0.0065847475985195717 0 0.001328712723947547 0.0064486887741789876 0 0.0013121817871035097 0.0065847475985195717 0 0.0013507814358021191 0.0065778182529715127 0 0.001328712723947547 0.0064486887741789876 0 0.0013338412482294761 0.0066520081309193553 0 0.0013121817871035097 0.0065847475985195717 0 0.0013507814358021191 0.0065778182529715127 0 0.0013974597088975769 0.0065215984530042244 0 0.0013507814358021191 0.0065778182529715127 0 0.001328712723947547 0.0064486887741789876 0 0.0012678039621343592 0.0065232067354532531 0 0.001328712723947547 0.0064486887741789876 0 0.0013024196450372851 0.0063517903040411182 0 0.001328712723947547 0.0064486887741789876 0 0.0013024196450372851 0.0063517903040411182 0 0.0012173017817708469 0.0061390460887537409 0 0.0012678039621343592 0.0065232067354532531 0 0.0013024196450372851 0.0063517903040411182 0 0.0012682376706967123 0.0064061918399209291 0 0.0013024196450372851 0.0063517903040411182 0 0.0012937890650469865 0.0063150255077268061 0 0.0012682376706967123 0.0064061918399209291 0 0.0013024196450372851 0.0063517903040411182 0 0.0012173017817708469 0.0061390460887537409 0 0.0012937890650469865 0.0063150255077268061 0 0.0011306312433226945 0.006290314134084091 0 0.0012937890650469865 0.0063150255077268061 0 0.0012906311537854585 0.0064113906316634571 0 0.0011306312433226945 0.006290314134084091 0 0.0012173017817708469 0.0061390460887537409 0 0.0012937890650469865 0.0063150255077268061 0 0.0012937890650469865 0.0063150255077268061 0 0.00126512575143138 0.0063499326905466199 0 0.0012906311537854585 0.0064113906316634571 0 0.0012937890650469865 0.0063150255077268061 0 0.00126512575143138 0.0063499326905466199 0 0.0012682376706967123 0.0064061918399209291 0 0.0013576935616848346 0.0099243211503227506 0 0.0015447372210984334 0.0097692197569452192 0 0.0012678039621343592 0.0065232067354532531 0 0.0012682376706967123 0.0064061918399209291 0 0.0010976194453383749 0.0065120813131904617 0 0.00126512575143138 0.0063499326905466199 0 0.0012682376706967123 0.0064061918399209291 0 0.0010976194453383749 0.0065120813131904617 0 0.0013576935616848346 0.0099243211503227506 0 0.0011275646057135782 0.01018659450698446 0 0.0010795581314301077 0.013493584666858927 0 0.001450145863948215 0.013492973819867511 0 0.0011678398993625622 0.01380570971520753 0 0.0010795581314301077 0.013493584666858927 0 0.001450145863948215 0.013492973819867511 0 0.0012534982567146344 0.013221684129716124 0 0.0010795581314301077 0.013493584666858927 0 0.0012534982567146344 0.013221684129716124 0 0.00097608755274771538 0.013235334883435562 0 0.0012534982567146344 0.013221684129716124 0 0.0012082224525205674 0.013120181766351168 0 0.00097608755274771538 0.013235334883435562 0 0.0012534982567146344 0.013221684129716124 0 0.0012082224525205674 0.013120181766351168 0 0.0012896137726482516 0.01304019557529112 0 0.0012082224525205674 0.013120181766351168 0 0.0012896137726482516 0.01304019557529112 0 0.0011604189335154506 0.013008815170951163 0 0.0012082224525205674 0.013120181766351168 0 0.0011604189335154506 0.013008815170951163 0 0.001080724882331208 0.013088628523288591 0 0.0012570017361017926 0.013178715777738638 0 0.0013077670365002835 0.012948102119667307 0 0.0012534982567146344 0.013221684129716124 0 0.0013343231725371357 0.012772994237753132 0 0.0015190497937175478 0.012993348248680328 0 0.0013343231725371357 0.012772994237753132 0 0.0015190497937175478 0.012993348248680328 0 0.0014732121902676174 0.012711848778178011 0 0.001506228527115869 0.012954922501814658 0 0.0014487392348992154 0.012616800907523377 0 0.001450145863948215 0.013492973819867511 0 0.0012534982567146344 0.013221684129716124 0 0.0015190497937175478 0.012993348248680328 0 0.001450145863948215 0.013492973819867511 0 0.0015190497937175478 0.012993348248680328 0 0.0018187553962432526 0.013118529674613171 0 0.0011306312433226945 0.006290314134084091 0 0.0012906311537854585 0.0064113906316634571 0 0.001112617168735153 0.006607880326963733 0 0.0015447372210984334 0.0097692197569452192 0 0.0016453508815673992 0.0096552466442636729 0 0.0018538803894613887 0.012664432757862588 0 0.0021942192441798112 0.012691020619687587 0 0.0021146393430299141 0.012376447541382724 0 0.0018187553962432526 0.013118529674613171 0 0.0018538803894613887 0.012664432757862588 0 0.0021942192441798112 0.012691020619687587 0 0.0015190497937175478 0.012993348248680328 0 0.0018538803894613887 0.012664432757862588 0 0.0016391493714564584 0.012545861440490006 0 0.0015190497937175478 0.012993348248680328 0 0.0018187553962432526 0.013118529674613171 0 0.0018538803894613887 0.012664432757862588 0 0.0015190497937175478 0.012993348248680328 0 0.0016391493714564584 0.012545861440490006 0 0.0014183778295097495 0.012551335298792717 0 0.0016391493714564584 0.012545861440490006 0 0.0015756556325720542 0.012326582105675743 0 0.0014183778295097495 0.012551335298792717 0 0.0018538803894613887 0.012664432757862588 0 0.0016391493714564584 0.012545861440490006 0 0.001787095863453241 0.012289497056615322 0 0.0016391493714564584 0.012545861440490006 0 0.001787095863453241 0.012289497056615322 0 0.0015756556325720542 0.012326582105675743 0 0.001787095863453241 0.012289497056615322 0 0.0020001291083454075 0.012130947868612357 0 0.0021146393430299141 0.012376447541382724 0 0.0018538803894613887 0.012664432757862588 0 0.001787095863453241 0.012289497056615322 0 0.0021146393430299141 0.012376447541382724 0 0.001787095863453241 0.012289497056615322 0 0.0020001291083454075 0.012130947868612357 0 0.0017856661445013722 0.01199556166173721 0 0.0020001291083454075 0.012130947868612357 0 0.0017856661445013722 0.01199556166173721 0 0.0020372061378693311 0.011860926633477018 0 0.0015756556325720542 0.012326582105675743 0 0.0015870457625441765 0.012078307487797554 0 0.0013844060678903224 0.012190096013498873 0 0.001787095863453241 0.012289497056615322 0 0.0015756556325720542 0.012326582105675743 0 0.0015870457625441765 0.012078307487797554 0 0.001787095863453241 0.012289497056615322 0 0.0017856661445013722 0.01199556166173721 0 0.0015870457625441765 0.012078307487797554 0 0.0017856661445013722 0.01199556166173721 0 0.0015870457625441765 0.012078307487797554 0 0.001635658980820979 0.011927379152349076 0 0.0015870457625441765 0.012078307487797554 0 0.0014933139373989185 0.011874474741942191 0 0.001635658980820979 0.011927379152349076 0 0.0015870457625441765 0.012078307487797554 0 0.0013844060678903224 0.012190096013498873 0 0.0014933139373989185 0.011874474741942191 0 0.0013926363425624496 0.012450905282839906 0 0.0015022851079380844 0.011866498621652552 0 0.0013928248570490615 0.012288876648232779 0 0.0013412857273654548 0.011904571455731773 0 0.0014933985388217812 0.011934641913579893 0 0.0013495879110950277 0.012823821895687667 0 0.0012829284612111422 0.012707648965620226 0 0.0013218639226438571 0.012630103730429708 0 0.0013926363425624496 0.012450905282839906 0 0.0013300995726054517 0.012237523434982101 0 0.0013495879110950277 0.012823821895687667 0 0.0012294874287688393 0.012736610535247333 0 0.001235113011169599 0.012833779552397973 0 0.0013495879110950277 0.012823821895687667 0 0.0012829284612111422 0.012707648965620226 0 0.0012294874287688393 0.012736610535247333 0 0.0012829284612111422 0.012707648965620226 0 0.0012294874287688393 0.012736610535247333 0 0.0012304825509345438 0.012639767727077793 0 0.001123994127758169 0.01276812019957572 0 0.0011408836150349562 0.01266617681467932 0 0.0010323283902566329 0.012724610655858882 0 0.0012294874287688393 0.012736610535247333 0 0.001123994127758169 0.01276812019957572 0 0.0011408836150349562 0.01266617681467932 0 0.001186266723612198 0.012736953378869273 0 0.0009904337832636887 0.013077888584126944 0 0.001123994127758169 0.01276812019957572 0 0.001235113011169599 0.012833779552397973 0 0.0011216869178155751 0.0128657697173716 0 0.0012294874287688393 0.012736610535247333 0 0.001123994127758169 0.01276812019957572 0 0.001235113011169599 0.012833779552397973 0 0.0011041632175067709 0.01286606151985736 0 0.001261419113309006 0.012930955996171237 0 0.001235113011169599 0.012833779552397973 0 0.0011216869178155751 0.0128657697173716 0 0.0012772465540550092 0.012938064739823308 0 0.0012896137726482516 0.01304019557529112 0 0.0011604189335154506 0.013008815170951163 0 0.0012772465540550092 0.012938064739823308 0 0.0011293703078762824 0.012858671588510511 0 0.0011604189335154506 0.013008815170951163 0 0.0012772465540550092 0.012938064739823308 0 0.0013926363425624496 0.012450905282839906 0 0.0014487392348992154 0.012616800907523377 0 0.0012896137726482516 0.01304019557529112 0 0.0013495879110950277 0.012823821895687667 0 0.0012772465540550092 0.012938064739823308 0 0.0013343231725371357 0.012772994237753132 0 0.0014333351665235113 0.012430610136826446 0 0.0014732121902676174 0.012711848778178011 0 0.0013077670365002835 0.012948102119667307 0 0.0013926363425624496 0.012450905282839906 0 0.0015756556325720542 0.012326582105675743 0 0.0013844060678903224 0.012190096013498873 0 0.0014183778295097495 0.012551335298792717 0 0.0013495879110950277 0.012823821895687667 0 0.001235113011169599 0.012833779552397973 0 0.0012772465540550092 0.012938064739823308 0 0.00029902972799657684 0.0064992054085007836 0 0.00045636110246193701 0.0067869374523377799 0 7.2581761207381133e-05 0.0066672112925699797 0 0.00029902972799657684 0.0064992054085007836 0 0.00053966991563339267 0.0064351081228584206 0 0.00045636110246193701 0.0067869374523377799 0 0.00029902972799657684 0.0064992054085007836 0 0.00040080717123196658 0.0062288986033512831 0 0.00053966991563339267 0.0064351081228584206 0 0.00029902972799657684 0.0064992054085007836 0 0.00040080717123196658 0.0062288986033512831 0 8.7477747048562689e-05 0.0062742665221209174 0 0.00053966991563339267 0.0064351081228584206 0 0.00064855647413174949 0.0062499341562922963 0 0.00084570212152455522 0.0064531996214231323 0 0.00040080717123196658 0.0062288986033512831 0 0.00053966991563339267 0.0064351081228584206 0 0.00064855647413174949 0.0062499341562922963 0 0.00053966991563339267 0.0064351081228584206 0 0.00067370835995092982 0.0066367154118348905 0 0.00084570212152455522 0.0064531996214231323 0 0.00053966991563339267 0.0064351081228584206 0 0.00067370835995092982 0.0066367154118348905 0 0.00045636110246193701 0.0067869374523377799 0 0.00084570212152455522 0.0064531996214231323 0 0.001112617168735153 0.006607880326963733 0 0.00083916788963931939 0.0068745941153815762 0 0.00067370835995092982 0.0066367154118348905 0 0.00084570212152455522 0.0064531996214231323 0 0.00083916788963931939 0.0068745941153815762 0 0.00083775712612941741 0.0061393105344266603 0 0.00064855647413174949 0.0062499341562922963 0 0.00084570212152455522 0.0064531996214231323 0 0.0011306312433226945 0.006290314134084091 0 0.00084570212152455522 0.0064531996214231323 0 0.001112617168735153 0.006607880326963733 0 0.0016453508815673992 0.0096552466442636729 0 0.0016744037987793006 0.0096064602006493815 0 0.0021146393430299141 0.012376447541382724 0 0.0022518143952005958 0.012129414290679531 0 0.0025096993381685364 0.012319806354618728 0 0.0021942192441798112 0.012691020619687587 0 0.0021146393430299141 0.012376447541382724 0 0.0025096993381685364 0.012319806354618728 0 0.0020001291083454075 0.012130947868612357 0 0.0021146393430299141 0.012376447541382724 0 0.0022518143952005958 0.012129414290679531 0 0.0022518143952005958 0.012129414290679531 0 0.0023087405516724782 0.011844451878732305 0 0.0020372061378693311 0.011860926633477018 0 0.0022518143952005958 0.012129414290679531 0 0.0023983383865405577 0.011988574796088169 0 0.0023087405516724782 0.011844451878732305 0 0.0020001291083454075 0.012130947868612357 0 0.0022518143952005958 0.012129414290679531 0 0.0020372061378693311 0.011860926633477018 0 0.0022518143952005958 0.012129414290679531 0 0.0023983383865405577 0.011988574796088169 0 0.0025096993381685364 0.012319806354618728 0 0.0023983383865405577 0.011988574796088169 0 0.0025096993381685364 0.012319806354618728 0 0.0025907040157100961 0.011951489142528039 0 0.0023983383865405577 0.011988574796088169 0 0.0025907040157100961 0.011951489142528039 0 0.0025050348868578161 0.011821080900175619 0 0.0016744037987793006 0.0096064602006493815 0 0.001600358400350374 0.0095628279450046139 0 0.00067370835995092982 0.0066367154118348905 0 0.00083916788963931939 0.0068745941153815762 0 0.00045636110246193701 0.0067869374523377799 0 0.00083916788963931939 0.0068745941153815762 0 0.00049248638666538752 0.0071916016891977906 0 0.00045636110246193701 0.0067869374523377799 0 0.0025096993381685364 0.012319806354618728 0 0.0025907040157100961 0.011951489142528039 0 0.0027999957128802574 0.012000780015304744 0 0.0025907040157100961 0.011951489142528039 0 0.0027444712345016842 0.011881025863402339 0 0.0026333587132054141 0.01182522319822988 0 0.0025907040157100961 0.011951489142528039 0 0.0027444712345016842 0.011881025863402339 0 0.0027999957128802574 0.012000780015304744 0 0.00049248638666538752 0.0071916016891977906 0 0.00019057281276896578 0.0069891950565558894 0 9.8912565041052241e-05 0.0072218825585731554 0 0.0027444712345016842 0.011881025863402339 0 0.0027999957128802574 0.012000780015304744 0 0.0031240356382772985 0.011714886051295363 0 0.001600358400350374 0.0095628279450046139 0 0.0019314570842846272 0.0099608857900317736 0 0.00049248638666538752 0.0071916016891977906 0 9.3516584966941833e-05 0.0075239447666566933 0 9.8912565041052241e-05 0.0072218825585731554 0 0.00019057281276896578 0.0069891950565558894 0 0.00045636110246193701 0.0067869374523377799 0 7.2581761207381133e-05 0.0066672112925699797 0 0.00049248638666538752 0.0071916016891977906 0 0.00019057281276896578 0.0069891950565558894 0 0.00045636110246193701 0.0067869374523377799 0 0.0029305601623776652 0.011342840576206889 0 0.002845443130200439 0.011465715659024964 0 0.0029253531524197829 0.011170256181789875 0 0.002845443130200439 0.011465715659024964 0 0.0026837428139131684 0.011540425717197005 0 0.0029253531524197829 0.011170256181789875 0 0.0023772516576981754 0.011573344598771546 0 0.0023165001549799499 0.010877298951530985 0 0.0029305601623776652 0.011342840576206889 0 0.002918965902199761 0.011151023987860373 0 0.0030720299362978678 0.011296083157856145 0 0.0029305601623776652 0.011342840576206889 0 0.0030311334562038621 0.011456131569174825 0 0.0030720299362978678 0.011296083157856145 0 0.0029305601623776652 0.011342840576206889 0 0.002845443130200439 0.011465715659024964 0 0.0029359350680916922 0.011459781296799452 0 0.002845443130200439 0.011465715659024964 0 0.002815158006099969 0.011576189380713937 0 0.0027774682878859581 0.011532996968476511 0 0.002845443130200439 0.011465715659024964 0 0.0029375670649063592 0.011572677142758106 0 0.002815158006099969 0.011576189380713937 0 0.002845443130200439 0.011465715659024964 0 0.0029359350680916922 0.011459781296799452 0 0.0029375670649063592 0.011572677142758106 0 0.0029359350680916922 0.011459781296799452 0 0.0030311334562038621 0.011456131569174825 0 0.0029375670649063592 0.011572677142758106 0 0.0029305601623776652 0.011342840576206889 0 0.0029359350680916922 0.011459781296799452 0 0.0030311334562038621 0.011456131569174825 0 0.0029375670649063592 0.011572677142758106 0 0.0027198355872816715 0.011739213997436729 0 0.0031036457782497233 0.011658341961319612 0 0.0027444712345016842 0.011881025863402339 0 0.0027198355872816715 0.011739213997436729 0 0.0031240356382772985 0.011714886051295363 0 0.0030311334562038621 0.011456131569174825 0 0.0029375670649063592 0.011572677142758106 0 0.0031036457782497233 0.011658341961319612 0 0.0032293201613181107 0.012105439422917875 0 0.0019314570842846272 0.0099608857900317736 0 0.0029375670649063592 0.011572677142758106 0 0.002815158006099969 0.011576189380713937 0 0.0027198355872816715 0.011739213997436729 0 0.0027198355872816715 0.011739213997436729 0 0.0026196456558585093 0.011704971760751011 0 0.0026921150431169112 0.011553599286030674 0 0.0026196456558585093 0.011704971760751011 0 0.0027013901994415485 0.011612545787754631 0 0.0024685490036216663 0.011660107104924803 0 0.002815158006099969 0.011576189380713937 0 0.0027198355872816715 0.011739213997436729 0 0.0027341004671849875 0.011564781493497329 0 0.0027198355872816715 0.011739213997436729 0 0.0026921150431169112 0.011553599286030674 0 0.0027341004671849875 0.011564781493497329 0 0.0027444712345016842 0.011881025863402339 0 0.0027198355872816715 0.011739213997436729 0 0.0026333587132054141 0.01182522319822988 0 0.0026333587132054141 0.01182522319822988 0 0.0026196456558585093 0.011704971760751011 0 0.0025050348868578161 0.011821080900175619 0 0.0025907040157100961 0.011951489142528039 0 0.0026333587132054141 0.01182522319822988 0 0.0025050348868578161 0.011821080900175619 0 0.0027198355872816715 0.011739213997436729 0 0.0026333587132054141 0.01182522319822988 0 0.0026196456558585093 0.011704971760751011 0 0.0025536095923207186 0.011577711874405481 0 0.0023772516576981754 0.011573344598771546 0 0.0018702710807139964 0.011405798582429509 0 0.0015621481470853445 0.011272012306473147 0 0.001782626692699054 0.011198351611869764 0 0.0018702710807139964 0.011405798582429509 0 0.001782626692699054 0.011198351611869764 0 0.0021075065941869872 0.011116354219127286 0 0.002845443130200439 0.011465715659024964 0 0.0026837428139131684 0.011540425717197005 0 0.0027774682878859581 0.011532996968476511 0 0.0023772516576981754 0.011573344598771546 0 0.0024663148923439317 0.011595948445699141 0 0.0026837428139131684 0.011540425717197005 0 0.0027774682878859581 0.011532996968476511 0 0.0027341004671849875 0.011564781493497329 0 0.002815158006099969 0.011576189380713937 0 0.0027774682878859581 0.011532996968476511 0 0.0027341004671849875 0.011564781493497329 0 0.0023886655407598686 0.011489319657736882 0 0.0024685490036216663 0.011660107104924803 0 0.0021941002840511741 0.011631740181559942 0 0.0023772516576981754 0.011573344598771546 0 0.0019574223757592604 0.011377048277874531 0 0.0027013901994415485 0.011612545787754631 0 0.0023886655407598686 0.011489319657736882 0 0.0024685490036216663 0.011660107104924803 0 0.0026196456558585093 0.011704971760751011 0 0.0024685490036216663 0.011660107104924803 0 0.0025050348868578161 0.011821080900175619 0 0.0024685490036216663 0.011660107104924803 0 0.0025050348868578161 0.011821080900175619 0 0.0023087405516724782 0.011844451878732305 0 0.0023983383865405577 0.011988574796088169 0 0.0025050348868578161 0.011821080900175619 0 0.0023087405516724782 0.011844451878732305 0 0.0024685490036216663 0.011660107104924803 0 0.0023087405516724782 0.011844451878732305 0 0.0021941002840511741 0.011631740181559942 0 0.0023087405516724782 0.011844451878732305 0 0.0021941002840511741 0.011631740181559942 0 0.0020372061378693311 0.011860926633477018 0 0.0023886655407598686 0.011489319657736882 0 0.0021941002840511741 0.011631740181559942 0 0.0020294263351973941 0.011344568455266525 0 0.0019574223757592604 0.011377048277874531 0 0.0016803732766760286 0.011197478820640613 0 0.0015621481470853445 0.011272012306473147 0 0.0014441891090262913 0.011015821664357496 0 0.0013154848054864356 0.011172805208963608 0 0.0014441891090262913 0.011015821664357496 0 0.0013154848054864356 0.011172805208963608 0 0.0013159037256513378 0.010949355674515618 0 0.00097782612303758381 0.011593584927062795 0 0.0011851644147521543 0.011057671060661927 0 0.00077953636983121453 0.011922863305658131 0 0.00073094579517285366 0.011981380373849142 0 0.00085483408099664576 0.011911712164299107 0 0.0014441891090262913 0.011015821664357496 0 0.0013186274981597168 0.010947862892934999 0 0.0014924771873306951 0.010853492589569464 0 0.0014441891090262913 0.011015821664357496 0 0.0016106934926566204 0.011103509366745656 0 0.0014924771873306951 0.010853492589569464 0 0.0013397698742917419 0.011128877776219239 0 0.00097782612303758381 0.011593584927062795 0 0.0017638370941586354 0.010195960241189664 0 0.0013389209771476024 0.010467932352302426 0 0.0016341618617573674 0.010881725300266007 0 0.0016106934926566204 0.011103509366745656 0 0.0014527446252335379 0.010726719311516955 0 0.0016544614832312036 0.011002572795642063 0 0.0011851644147521543 0.011057671060661927 0 0.0016341618617573674 0.010881725300266007 0 0.0018308412124051331 0.010794111038332178 0 0.0015415144906722996 0.01068025216170105 0 0.0016341618617573674 0.010881725300266007 0 0.0014527446252335379 0.010726719311516955 0 0.0015415144906722996 0.01068025216170105 0 0.0015621481470853445 0.011272012306473147 0 0.0016106934926566204 0.011103509366745656 0 0.001782626692699054 0.011198351611869764 0 0.0015621481470853445 0.011272012306473147 0 0.0014441891090262913 0.011015821664357496 0 0.0016106934926566204 0.011103509366745656 0 0.0016341618617573674 0.010881725300266007 0 0.0016106934926566204 0.011103509366745656 0 0.0018412112732053034 0.011006330179759142 0 0.001782626692699054 0.011198351611869764 0 0.0018412112732053034 0.011006330179759142 0 0.0021075065941869872 0.011116354219127286 0 0.0016106934926566204 0.011103509366745656 0 0.001782626692699054 0.011198351611869764 0 0.0018412112732053034 0.011006330179759142 0 0.0018412112732053034 0.011006330179759142 0 0.0018308412124051331 0.010794111038332178 0 0.0021097088964879608 0.010897941823376091 0 0.0016341618617573674 0.010881725300266007 0 0.0018412112732053034 0.011006330179759142 0 0.0018308412124051331 0.010794111038332178 0 0.0017638370941586354 0.010195960241189664 0 0.0020711241487237613 0.0091147936050186024 0 0.001619873894031685 0.0095041830222737291 0 0.0015762995975172743 0.0094866590282345446 0 0.0015768995562768276 0.0094759533567201522 0 0.0022705907485911728 0.0054723681305822889 0 0.0019999205711321404 0.0054839979702527349 0 0.0022731654558450719 0.0060758889295705774 0 0.0022705907485911728 0.0054723681305822889 0 0.0021311898234248131 0.0052555025092233462 0 0.0019999205711321404 0.0054839979702527349 0 0.0022297983313027052 0.0083398222782341234 0 0.0022295605535895464 0.0082774433438772277 0 0.0021738319414964517 0.0082559689565880525 0 0.0019623566263364334 0.0078827435184100122 0 0.0019678768441154996 0.0079307115394231069 0 0.0019623566263364334 0.0078827435184100122 0 0.0020711241487237613 0.0091147936050186024 0 0.0020711241487237613 0.0091147936050186024 0 0.0019678768441154996 0.0079307115394231069 0 0.0019678768441154996 0.0079307115394231069 0 0.0023325873415303892 0.0086372359131193892 0 0.0020711241487237613 0.0091147936050186024 0 0.0023165001549799499 0.010877298951530985 0 0.0019220221510476108 0.0087529069733386245 0 0.0022626148660089026 0.008886639812842146 0 0.0019103345597570182 0.010125691046124869 0 0.0023165001549799499 0.010877298951530985 0 0.0023325873415303892 0.0086372359131193892 0 0.0022626148660089026 0.008886639812842146 0 0.0019103345597570182 0.010125691046124869 0 0.0025501559379437645 0.0093399845646189618 0 0.0018412112732053034 0.011006330179759142 0 0.0021097088964879608 0.010897941823376091 0 0.0021075065941869872 0.011116354219127286 0 0.002918965902199761 0.011151023987860373 0 0.0030408081464847786 0.010990645222687346 0 0.0030720299362978678 0.011296083157856145 0 0.0026639466893180774 0.011305387694498207 0 0.0023165001549799499 0.010877298951530985 0 0.0013006617981303648 0.011545878591102352 0 0.0015800346399895528 0.011594294016832936 0 0.0016170133802248447 0.011215070540342277 0 0.0013006617981303648 0.011545878591102352 0 0.0014123315665185189 0.011708775116036303 0 0.0015800346399895528 0.011594294016832936 0 0.0011940549843634898 0.012284446895079779 0 0.00077284722340661114 0.013266562420520944 0 0.00074418826154794586 0.013317366413701164 0 0.00077284722340661114 0.013266562420520944 0 0.001105882845928054 0.013075643082587941 0 0.00088515896902718037 0.013078102668173858 0 0.0010895474191343353 0.012967456659062147 0 0.001105882845928054 0.013075643082587941 0 0.00088515896902718037 0.013078102668173858 0 0.00095338300082048108 0.013244103442364877 0 0.0011940549843634898 0.012284446895079779 0 0.0010143334938205201 0.0129635435395891 0 0.0012937532669328343 0.012432797087861797 0 0.001161334360584781 0.012578353839566367 0 0.0012304825509345438 0.012639767727077793 0 0.00088515896902718037 0.013078102668173858 0 0.00095338300082048108 0.013244103442364877 0 0.00080411320546381021 0.013269075471024632 0 0.001161334360584781 0.012578353839566367 0 0.0011408836150349562 0.01266617681467932 0 0.0010235584899776287 0.012729215369973309 0 0.0010143334938205201 0.0129635435395891 0 0.0009904337832636887 0.013077888584126944 0 0.0012294874287688393 0.012736610535247333 0 0.0011408836150349562 0.01266617681467932 0 0.0012304825509345438 0.012639767727077793 0 0.001161334360584781 0.012578353839566367 0 0.0011408836150349562 0.01266617681467932 0 0.0012304825509345438 0.012639767727077793 0 0.0011940549843634898 0.012284446895079779 0 0.0013300995726054517 0.012237523434982101 0 0.0013006617981303648 0.011545878591102352 0 0.0013412857273654548 0.011904571455731773 0 0.0014123315665185189 0.011708775116036303 0 0.0012829284612111422 0.012707648965620226 0 0.0012304825509345438 0.012639767727077793 0 0.0013218639226438571 0.012630103730429708 0 0.0014123315665185189 0.011708775116036303 0 0.0014933985388217812 0.011934641913579893 0 0.0015800346399895528 0.011594294016832936 0 0.0012937532669328343 0.012432797087861797 0 0.0012304825509345438 0.012639767727077793 0 0.0013218639226438571 0.012630103730429708 0 0.0013412857273654548 0.011904571455731773 0 0.0014123315665185189 0.011708775116036303 0 0.0014933985388217812 0.011934641913579893 0 0.0015022851079380844 0.011866498621652552 0 0.0015669534857678568 0.011642562090638256 0 0.0014933139373989185 0.011874474741942191 0 0.001635658980820979 0.011927379152349076 0 0.0016944261440944978 0.011774684427067002 0 0.0014933139373989185 0.011874474741942191 0 0.0016944261440944978 0.011774684427067002 0 0.0015800346399895528 0.011594294016832936 0 0.0017856661445013722 0.01199556166173721 0 0.001635658980820979 0.011927379152349076 0 0.0016944261440944978 0.011774684427067002 0 0.0016944261440944978 0.011774684427067002 0 0.0020372061378693311 0.011860926633477018 0 0.0018905686399101744 0.011608968350766947 0 0.0017856661445013722 0.01199556166173721 0 0.0016944261440944978 0.011774684427067002 0 0.0020372061378693311 0.011860926633477018 0 0.0021941002840511741 0.011631740181559942 0 0.0020372061378693311 0.011860926633477018 0 0.0018905686399101744 0.011608968350766947 0 0.0021941002840511741 0.011631740181559942 0 0.0018905686399101744 0.011608968350766947 0 0.0020294263351973941 0.011344568455266525 0 0.0018905686399101744 0.011608968350766947 0 0.0017602650746121635 0.011395531610758566 0 0.0020294263351973941 0.011344568455266525 0 0.0018905686399101744 0.011608968350766947 0 0.0015800346399895528 0.011594294016832936 0 0.0017602650746121635 0.011395531610758566 0 0.0016944261440944978 0.011774684427067002 0 0.0018905686399101744 0.011608968350766947 0 0.0015800346399895528 0.011594294016832936 0 0.0015800346399895528 0.011594294016832936 0 0.0017602650746121635 0.011395531610758566 0 0.0016170133802248447 0.011215070540342277 0 0.0017602650746121635 0.011395531610758566 0 0.0016501504793393238 0.011197870744438614 0 0.0016170133802248447 0.011215070540342277 0 0.00051156182600920418 0.013515606686825931 0 0.00051084828208282091 0.0135433850351996 0 0.00052450436334037771 0.013529287482672646 0 0.00091289097412001834 0.01239123719049985 0 0.00085789971615726074 0.012975126068991589 0 0.0011886858287778379 0.011833024393118575 0 0.00091289097412001834 0.01239123719049985 0 0.0017602650746121635 0.011395531610758566 0 0.0016501504793393238 0.011197870744438614 0 0.0020294263351973941 0.011344568455266525 0 0.0010760242699389994 0.011085355762104256 0 0.0013154848054864356 0.011172805208963608 0 0.0013159037256513378 0.010949355674515618 0 0.0011886858287778379 0.011833024393118575 0 0.0016803732766760286 0.011197478820640613 0 0.0011886858287778379 0.011833024393118575 0 0.00097782612303758381 0.011593584927062795 0 0.00090624646064833901 0.01207003189818243 0 0.00075831430878745714 0.012147539776654301 0 0.00081079771853094062 0.012180492522571808 0 0.00077953636983121453 0.011922863305658131 0 0.00073094579517285366 0.011981380373849142 0 0.0006694086188571524 0.011948527254609787 0 0.00097782612303758381 0.011593584927062795 0 0.00045261571096952144 0.012795545852526609 0 0.000473277674318166 0.013555487328279903 0 0.00051084828208282091 0.0135433850351996 0 0.00051057554872311641 0.013561291519137901 0 0.00051156182600920418 0.013515606686825931 0 0.000473277674318166 0.013555487328279903 0 0.00051084828208282091 0.0135433850351996 0 0.00090624646064833901 0.01207003189818243 0 0.0009190155990027901 0.012063305322118833 0 0.00081079771853094062 0.012180492522571808 0 0.00091289097412001834 0.01239123719049985 0 0.00045261571096952144 0.012795545852526609 0 0.00051084828208282091 0.0135433850351996 0 0.00053103181524459585 0.013565112811468716 0 0.00052450436334037771 0.013529287482672646 0 0.00051057554872311641 0.013561291519137901 0 0.00053103181524459585 0.013565112811468716 0 0.00052191533354866706 0.013587013044655791 0 0.00051084828208282091 0.0135433850351996 0 0.00051057554872311641 0.013561291519137901 0 0.00053103181524459585 0.013565112811468716 0 0.00053103181524459585 0.013565112811468716 0 0.0005524945096043322 0.0135812096494283 0 0.00054460536477422426 0.013584809804607838 0 0.00053103181524459585 0.013565112811468716 0 0.00052450436334037771 0.013529287482672646 0 0.0005524945096043322 0.0135812096494283 0 0.00077284722340661114 0.013266562420520944 0 0.00050570827177999261 0.013688822798981164 0 0.00052450436334037771 0.013529287482672646 0 0.00056222469597108887 0.013483288049008349 0 0.0005524945096043322 0.0135812096494283 0 0.00050423778384867959 0.013511710560054754 0 0.00052450436334037771 0.013529287482672646 0 0.00056222469597108887 0.013483288049008349 0 0.0011940549843634898 0.012284446895079779 0 0.00091289097412001834 0.01239123719049985 0 0.00092745783835144482 0.012656124096812276 0 0.00097710230751197279 0.012602374606544543 0 0.00092344696753895615 0.012631747018318431 0 0.00091289097412001834 0.01239123719049985 0 0.00077284722340661114 0.013266562420520944 0 0.0005479335970774926 0.013597176329698632 0 0.0005540899452828017 0.013597305573529606 0 0.00054495506689974319 0.013595677172894879 0 0.0005540899452828017 0.013597305573529606 0 0.00054495506689974319 0.013595677172894879 0 0.0005524945096043322 0.0135812096494283 0 0.0005524945096043322 0.0135812096494283 0 0.00053974061070533345 0.01360193174071618 0 0.00054612472319345612 0.013592367770951873 0 0.00054495506689974319 0.013595677172894879 0 0.0005524945096043322 0.0135812096494283 0 0.00053974061070533345 0.01360193174071618 0 0.00054495506689974319 0.013595677172894879 0 0.00053974061070533345 0.01360193174071618 0 0.00054658794700095993 0.013595620137982718 0 0.00053974061070533345 0.01360193174071618 0 0.00054658794700095993 0.013595620137982718 0 0.00053509947177667386 0.013630359436129504 0 0.00054148035228238024 0.013757589576943148 0 0.00057946550580742669 0.013940864459363999 0 0.00053509947177667386 0.013630359436129504 0 0.00054148035228238024 0.013757589576943148 0 0.00039489354230281816 0.014176583155700268 0 0.00036317384635891091 0.01380499379691167 0 0.00055793420076350343 0.013811402273295963 0 0.00053911747066265629 0.013618439325876208 0 0.00054148035228238024 0.013757589576943148 0 0.00036317384635891091 0.01380499379691167 0 0.00053509947177667386 0.013630359436129504 0 0.00053961315185352041 0.01378145833008132 0 0.00041522674598060285 0.0140851260009827 0 0.00054148035228238024 0.013757589576943148 0 0.00057946550580742669 0.013940864459363999 0 0.00044442138544868964 0.014015127123542592 0 0.0005479335970774926 0.013597176329698632 0 0.00054495506689974319 0.013595677172894879 0 0.00054658794700095993 0.013595620137982718 0 0.0005479335970774926 0.013597176329698632 0 0.00054658794700095993 0.013595620137982718 0 0.00054710095992721195 0.013598604079153281 0 0.00074418826154794586 0.013317366413701164 0 0.00060184248379717973 0.013699485966802545 0 0.00055793420076350343 0.013811402273295963 0 0.00060184248379717973 0.013699485966802545 0 0.00057946550580742669 0.013940864459363999 0 0.00044442138544868964 0.014015127123542592 0 0.00059089770477011841 0.014183394532218955 0 0.00044442138544868964 0.014015127123542592 0 0.00045445283284021828 0.014170567771546677 0 0.00059089770477011841 0.014183394532218955 0 0.00061624085170409548 0.013789012752298935 0 0.00055975406564706242 0.013820180047469429 0 0.00062107317996789419 0.013847094914968014 0 0.00050552133485378173 0.014074324737673364 0 0.000699394000673401 0.013683191960880853 0 0.00060184248379717973 0.013699485966802545 0 0.00050552133485378173 0.014074324737673364 0 0.00045445283284021828 0.014170567771546677 0 0.00059089770477011841 0.014183394532218955 0 0.00043671722286370843 0.014262686927206102 0 0.00060184248379717973 0.013699485966802545 0 0.000699394000673401 0.013683191960880853 0 0.00068081713021811495 0.013189890317847211 0 0.00080411320546381021 0.013269075471024632 0 0.00070016626093528326 0.013420858051185518 0 0.00088515896902718037 0.013078102668173858 0 0.00068081713021811495 0.013189890317847211 0 0.00080411320546381021 0.013269075471024632 0 0.00095338300082048108 0.013244103442364877 0 0.00080411320546381021 0.013269075471024632 0 0.00080116818477412915 0.013412138124657981 0 0.00080411320546381021 0.013269075471024632 0 0.00070016626093528326 0.013420858051185518 0 0.00080116818477412915 0.013412138124657981 0 0.00023593108717883418 0.014378329580418549 0 0.0003112317710030055 0.01439517262882813 0 0.0001809782404091425 0.014337622277506738 0 0.00023593108717883418 0.014378329580418549 0 0.00030386035197403779 0.014410128069539285 0 0.0003112317710030055 0.01439517262882813 0 0.00025405665408862669 0.014375618310684454 0 0.00034471133426266929 0.014294403339848504 0 0.00023593108717883418 0.014378329580418549 0 0.00026317802717728986 0.01442774844255781 0 0.00030493162219710274 0.014411631762809853 0 0.00023593108717883418 0.014378329580418549 0 0.00026317802717728986 0.01442774844255781 0 0.00022568411457592649 0.014449849557013221 0 0.00034471133426266929 0.014294403339848504 0 0.0003105173954945559 0.01438611332124028 0 0.00026317802717728986 0.01442774844255781 0 0.00030493162219710274 0.014411631762809853 0 0.00027726567492642953 0.014468676226780948 0 0.00036990482638030224 0.014227898973523622 0 0.00044743712606408291 0.014266281579125272 0 0.00031690614221547105 0.014335734132855372 0 0.00041822338866377587 0.014182766173934691 0 0.00044598712411118933 0.014196002964341488 0 0.000423290416686698 0.014172407340771062 0 0.00034471133426266929 0.014294403339848504 0 0.00049680221027537943 0.014163530161694372 0 0.00050552133485378173 0.014074324737673364 0 0.0003616465501941148 0.01423884809124934 0 0.00044598712411118933 0.014196002964341488 0 0.00045958253219615975 0.014188659395717028 0 0.000423290416686698 0.014172407340771062 0 0.00049680221027537943 0.014163530161694372 0 0.00050552133485378173 0.014074324737673364 0 0.00045445283284021828 0.014170567771546677 0 0.00043671722286370843 0.014262686927206102 0 0.00034746926994713939 0.014220757270145086 0 0.00034471133426266929 0.014294403339848504 0 0.0003616465501941148 0.01423884809124934 0 0.00039489354230281816 0.014176583155700268 0 0.000322653763162587 0.014251980975388483 0 0.00032788614347848766 0.014213763686312764 0 0.00041522674598060285 0.0140851260009827 0 0.0003616465501941148 0.01423884809124934 0 0.00044442138544868964 0.014015127123542592 0 0.00045445283284021828 0.014170567771546677 0 0.00034746926994713939 0.014220757270145086 0 0.000322653763162587 0.014251980975388483 0 0.00032788614347848766 0.014213763686312764 0 0.00032862365398643017 0.014224311035028435 0 0.00039489354230281816 0.014176583155700268 0 0.00032788614347848766 0.014213763686312764 0 0.00030972528798242253 0.014194749887239302 0 0.00032788614347848766 0.014213763686312764 0 0.0003316320398231708 0.014215724052616546 0 0.00030972528798242253 0.014194749887239302 0 0.00032788614347848766 0.014213763686312764 0 0.0003316320398231708 0.014215724052616546 0 0.00032862365398643017 0.014224311035028435 0 0.0003616465501941148 0.01423884809124934 0 0.00019643140442211836 0.014554857360610024 0 0.000322653763162587 0.014251980975388483 0 0.00033215517908467129 0.014220177194500689 0 0.00033150112422218603 0.014219092952242347 0 0.0003316320398231708 0.014215724052616546 0 0.00032862365398643017 0.014224311035028435 0 0.00033215517908467129 0.014220177194500689 0 0.000322653763162587 0.014251980975388483 0 0.00032862365398643017 0.014224311035028435 0 0.00033215517908467129 0.014220177194500689 0 0.00035399862218552609 0.014243660723338202 0 0.00046443734736608761 0.014319227620502235 0 0.00049263879645028387 0.01416671521612467 0 0.00041474080831175713 0.014188762185804256 0 0.00033916901858527498 0.014483938267016985 0 0.00033215517908467129 0.014220177194500689 0 0.00035399862218552609 0.014243660723338202 0 0.00033490458788804431 0.014222832931020923 0 0.0003316320398231708 0.014215724052616546 0 0.00033215517908467129 0.014220177194500689 0 0.00035399862218552609 0.014243660723338202 0 0.00035399862218552609 0.014243660723338202 0 0.0003138523548293213 0.014310111544843566 0 0.00035592986956668981 0.014340211227889818 0 0.00039489354230281816 0.014176583155700268 0 0.00030972528798242253 0.014194749887239302 0 0.00036317384635891091 0.01380499379691167 0 0.00030455999243290732 0.01418016366910956 0 0.00030964315752509531 0.014096548133757629 0 0.00030972528798242253 0.014194749887239302 0 0.0003138523548293213 0.014310111544843566 0 0.00024334100568148401 0.014375911921121587 0 0.0003316320398231708 0.014215724052616546 0 0.00035399862218552609 0.014243660723338202 0 0.00030972528798242253 0.014194749887239302 0 0.00035399862218552609 0.014243660723338202 0 0.00030972528798242253 0.014194749887239302 0 0.0003138523548293213 0.014310111544843566 0 0.0003138523548293213 0.014310111544843566 0 0.00031379093901725766 0.014389051040834747 0 0.00024334100568148401 0.014375911921121587 0 0.0003138523548293213 0.014310111544843566 0 0.00031379093901725766 0.014389051040834747 0 0.00035592986956668981 0.014340211227889818 0 0.00031379093901725766 0.014389051040834747 0 0.00024334100568148401 0.014375911921121587 0 0.00031496297907031886 0.01445388998919513 0 0.0004269162493520549 0.014530203426506473 0 0.00042087644967794472 0.014499544403258581 0 0.00036432758552691912 0.014422573469256059 0 0.00046443734736608761 0.014319227620502235 0 0.00041512130100324215 0.014497717352653665 0 0.00035592986956668981 0.014340211227889818 0 0.00036432758552691912 0.014422573469256059 0 0.00046443734736608761 0.014319227620502235 0 0.00035399862218552609 0.014243660723338202 0 0.00035592986956668981 0.014340211227889818 0 0.00046443734736608761 0.014319227620502235 0 0.00031379093901725766 0.014389051040834747 0 0.00035592986956668981 0.014340211227889818 0 0.00036432758552691912 0.014422573469256059 0 0.00032766819032348292 0.014602894470037162 0 0.00021161585540326259 0.014627506345634655 0 0.00026600571617400111 0.014793233642242878 0 0.00032766819032348292 0.014602894470037162 0 0.00039547929577521217 0.014727095543062578 0 0.00026600571617400111 0.014793233642242878 0 0.00032766819032348292 0.014602894470037162 0 0.00039547929577521217 0.014727095543062578 0 0.00041512130100324215 0.014497717352653665 0 0.00021161585540326259 0.014627506345634655 0 0.00013985963699811554 0.014858590096062232 0 4.4253273873940295e-05 0.014833297817386048 0 0.00014655350354998906 0.014793776122332847 0 3.4253850157262059e-05 0.014913470189675549 0 0.00021161585540326259 0.014627506345634655 0 0.00013985963699811554 0.014858590096062232 0 0.00026600571617400111 0.014793233642242878 0 0.00013985963699811554 0.014858590096062232 0 0.00020101840597066604 0.014874493388124715 0 0.00026600571617400111 0.014793233642242878 0 0.00013985963699811554 0.014858590096062232 0 0.00020101840597066604 0.014874493388124715 0 0.00010868739741829241 0.014959644227192577 0 0.00020101840597066604 0.014874493388124715 0 0.00025829394429272408 0.014898759353574672 0 0.00026600571617400111 0.014793233642242878 0 0.00020101840597066604 0.014874493388124715 0 0.00025829394429272408 0.014898759353574672 0 0.00021437602930527957 0.014939634687548211 0 0.00039547929577521217 0.014727095543062578 0 0.00026600571617400111 0.014793233642242878 0 0.0003516124300622271 0.014918388448739476 0 0.0004269162493520549 0.014530203426506473 0 0.00033916901858527498 0.014483938267016985 0 0.00025829394429272408 0.014898759353574672 0 0.00026600571617400111 0.014793233642242878 0 0.0003516124300622271 0.014918388448739476 0 -3.6258873957467948e-08 0.014999928730057838 0 -3.3330194871384486e-06 0.014994913467398114 0 -1.6209284855989006e-05 0.014981506881968107 0 -3.3330194871384486e-06 0.014994913467398114 0 9.845675439272914e-06 0.014968577383560725 0 -1.6209284855989006e-05 0.014981506881968107 0 7.7288129394437408e-05 0.01495683882688578 0 9.845675439272914e-06 0.014968577383560725 0 7.709769299516065e-06 0.01500204088443409 0 -3.3330194871384486e-06 0.014994913467398114 0 9.845675439272914e-06 0.014968577383560725 0 7.709769299516065e-06 0.01500204088443409 0 0.00013985963699811554 0.014858590096062232 0 4.4253273873940295e-05 0.014833297817386048 0 0.00010868739741829241 0.014959644227192577 0 -3.6258873957467948e-08 0.014999928730057838 0 -3.3330194871384486e-06 0.014994913467398114 0 9.8604374696485322e-09 0.015000034377248379 0 4.4253273873940295e-05 0.014833297817386048 0 -5.400356242063427e-08 0.014999847634964173 0 3.122844971198865e-05 0.014974872698020251 0 -3.3330194871384486e-06 0.014994913467398114 0 7.709769299516065e-06 0.01500204088443409 0 9.8604374696485322e-09 0.015000034377248379 0 3.4253850157262059e-05 0.014913470189675549 0 1.1875034601727338e-08 0.014999966392358311 0 3.122844971198865e-05 0.014974872698020251 0 6.1725671368756361e-05 0.015023340073791212 0 2.5833104745514835e-08 0.015000026206155082 0 -5.400356242063427e-08 0.014999847634964173 0 3.122844971198865e-05 0.014974872698020251 0 2.5833104745514835e-08 0.015000026206155082 0 4.4253273873940295e-05 0.014833297817386048 0 3.122844971198865e-05 0.014974872698020251 0 0.00010868739741829241 0.014959644227192577 0 3.122844971198865e-05 0.014974872698020251 0 0.00010868739741829241 0.014959644227192577 0 6.1725671368756361e-05 0.015023340073791212 0 2.7021891241974618e-05 0.015024607547874215 0 3.9576689920879828e-08 0.014999974256012389 0 6.1725671368756361e-05 0.015023340073791212 0 2.5833104745514835e-08 0.015000026206155082 0 -9.2116856193969262e-09 0.015000036074652442 0 2.299860363106832e-05 0.014969234229059504 0 1.8299368434912281e-05 0.014968088316552094 0 1.7019990991948171e-05 0.014985274347599645 0 0.00019643140442211836 0.014554857360610024 0 0.00033916901858527498 0.014483938267016985 0 0.00033215517908467129 0.014220177194500689 0 0.00033150112422218603 0.014219092952242347 0 0.00033490458788804431 0.014222832931020923 0 0.00033916901858527498 0.014483938267016985 0 0.00015596932066184281 0.01481337040855964 0 0.00025829394429272408 0.014898759353574672 0 0.0003516124300622271 0.014918388448739476 0 0.00026448894768270147 0.014965535339694363 0 0.00025801891177399137 0.014682385783275111 0 0.00027598362376611395 0.014594243373435021 0 0.00018478840431546145 0.014648359059767784 0 0.00019643140442211836 0.014554857360610024 0 0.00015596932066184281 0.01481337040855964 0 0.00025829394429272408 0.014898759353574672 0 0.00026448894768270147 0.014965535339694363 0 0.00021437602930527957 0.014939634687548211 0 0.00010868739741829241 0.014959644227192577 0 6.1725671368756361e-05 0.015023340073791212 0 0.00024716687623620843 0.014958521838979532 0 0.00010868739741829241 0.014959644227192577 0 0.00024716687623620843 0.014958521838979532 0 0.00021437602930527957 0.014939634687548211 0 2.7021891241974618e-05 0.015024607547874215 0 0.00015596932066184281 0.01481337040855964 0 0.00015596932066184281 0.01481337040855964 0 0.000218006169496433 0.014866307691953559 0 0.00020101840597066604 0.014874493388124715 0 0.00010868739741829241 0.014959644227192577 0 0.00021437602930527957 0.014939634687548211 0 3.8123482371575099e-06 0.014983726831310096 0 1.7019990991948171e-05 0.014985274347599645 0 8.5576283688952939e-06 0.014990862438262731 0 3.8123482371575099e-06 0.014983726831310096 0 1.8299368434912281e-05 0.014968088316552094 0 1.7019990991948171e-05 0.014985274347599645 0 0.00023593108717883418 0.014378329580418549 0 0.0001809782404091425 0.014337622277506738 0 0.00015665778723463443 0.014445627790221292 0 0.00019643140442211836 0.014554857360610024 0 7.57873243708519e-05 0.014736842982301232 0 0.00023593108717883418 0.014378329580418549 0 0.00015665778723463443 0.014445627790221292 0 0.00022568411457592649 0.014449849557013221 0 0.00015665778723463443 0.014445627790221292 0 0.00018651027237045096 0.014492175762487474 0 0.00022568411457592649 0.014449849557013221 0 0.00015665778723463443 0.014445627790221292 0 0.00018651027237045096 0.014492175762487474 0 0.00012275217167363414 0.014560975703132294 0 7.57873243708519e-05 0.014736842982301232 0 6.6912209020785651e-05 0.014777228892252317 0 0.00018651027237045096 0.014492175762487474 0 0.00019818637942542501 0.014529975207789609 0 0.0002308535796309928 0.014494241691971502 0 0.00018651027237045096 0.014492175762487474 0 0.00012275217167363414 0.014560975703132294 0 0.00019818637942542501 0.014529975207789609 0 1.7019990991948171e-05 0.014985274347599645 0 8.5576283688952939e-06 0.014990862438262731 0 8.7916916824121172e-06 0.014993480368920058 0 8.5576283688952939e-06 0.014990862438262731 0 8.7916916824121172e-06 0.014993480368920058 0 3.8562984122904057e-06 0.014995246334985892 0 0.00012275217167363414 0.014560975703132294 0 0.00018952268067185215 0.014569093529009194 0 0.00021171095784550234 0.014630750852871459 0 0.00018952268067185215 0.014569093529009194 0 0.00021171095784550234 0.014630750852871459 0 0.00024488871378248583 0.01454623386837705 0 0.00019818637942542501 0.014529975207789609 0 0.00018952268067185215 0.014569093529009194 0 0.00024488871378248583 0.01454623386837705 0 0.00012275217167363414 0.014560975703132294 0 0.00019818637942542501 0.014529975207789609 0 0.00018952268067185215 0.014569093529009194 0 3.8123482371575099e-06 0.014983726831310096 0 -5.6641790991650301e-09 0.014999976336670551 0 3.8562984122904057e-06 0.014995246334985892 0 3.8123482371575099e-06 0.014983726831310096 0 8.5576283688952939e-06 0.014990862438262731 0 3.8562984122904057e-06 0.014995246334985892 0 8.7916916824121172e-06 0.014993480368920058 0 3.8562984122904057e-06 0.014995246334985892 0 4.3531981266235072e-06 0.014995300743661863 0 3.8562984122904057e-06 0.014995246334985892 0 6.2122295212478959e-09 0.014999999551221771 0 4.3531981266235072e-06 0.014995300743661863 0 -5.6641790991650301e-09 0.014999976336670551 0 3.8562984122904057e-06 0.014995246334985892 0 6.2122295212478959e-09 0.014999999551221771 0 6.2122295212478959e-09 0.014999999551221771 0 4.0461091746400551e-06 0.014994679665092464 0 6.9015849398699512e-09 0.014999977632407673 0 6.2122295212478959e-09 0.014999999551221771 0 4.0461091746400551e-06 0.014994679665092464 0 4.3531981266235072e-06 0.014995300743661863 0 4.3531981266235072e-06 0.014995300743661863 0 6.6384709810857449e-06 0.014982799778938996 0 3.0870138820878826e-06 0.014991728447770542 0 4.0461091746400551e-06 0.014994679665092464 0 4.3531981266235072e-06 0.014995300743661863 0 6.6384709810857449e-06 0.014982799778938996 0 1.1826673792878729e-06 0.014986442866445215 0 6.6384709810857449e-06 0.014982799778938996 0 6.9015849398699512e-09 0.014999977632407673 0 4.0461091746400551e-06 0.014994679665092464 0 6.6384709810857449e-06 0.014982799778938996 0 6.9015849398699512e-09 0.014999977632407673 0 0.00021171095784550234 0.014630750852871459 0 8.1433169324616588e-05 0.014712732184046033 0 0.00024558585664117438 0.014617975674208434 0 0.00012275217167363414 0.014560975703132294 0 0.00021171095784550234 0.014630750852871459 0 8.1433169324616588e-05 0.014712732184046033 0 2.5760810891403436e-05 0.014651796165465867 0 0.00018917521693634701 0.01477234721204294 0 0.00029598845852176484 0.014472699265977652 0 3.8925268329446205e-05 0.014833201876483694 0 0.0002872168917320276 0.014514552425626109 0 6.6912209020785651e-05 0.014777228892252317 0 3.8925268329446205e-05 0.014833201876483694 0 8.7916916824121172e-06 0.014993480368920058 0 4.3531981266235072e-06 0.014995300743661863 0 3.0870138820878826e-06 0.014991728447770542 0 -1.8354976242318542e-05 0.015022607407194962 0 3.8925268329446205e-05 0.014833201876483694 0 1.5178733034133357e-05 0.014954200655637679 0 2.5760810891403436e-05 0.014651796165465867 0 0.00018917521693634701 0.01477234721204294 0 7.8297079539473413e-06 0.014935374737430427 0 3.8925268329446205e-05 0.014833201876483694 0 1.5178733034133357e-05 0.014954200655637679 0 6.6384709810857449e-06 0.014982799778938996 0 5.3012265543753725e-06 0.014975180661232025 0 0.0001422932200260948 0.01435921281674752 0 0.00040839138344586607 0.014043494113351993 0 0.00016613518939389337 0.014969684646120994 0 0.00018917521693634701 0.01477234721204294 0 0.00042958875270199595 0.014744337243430385 0 0.00018917521693634701 0.01477234721204294 0 0.00042958875270199595 0.014744337243430385 0 0.00029598845852176484 0.014472699265977652 0 0.00040839138344586607 0.014043494113351993 0 0.00069758565010392157 0.013772167370363809 0 0.0003831275326392878 0.013353414982082278 0 0.00071874078073611491 0.013353848571178216 0 0.00067605731780057555 0.013033404553663622 0 0.00042958875270199595 0.014744337243430385 0 0.00029598845852176484 0.014472699265977652 0 0.00070563980050978366 0.014452330273348087 0 0.00055745448715010366 0.013593340198437959 0 0.0003831275326392878 0.013353414982082278 0 0.00071874078073611491 0.013353848571178216 0 0.00088703338313123547 0.013468665467540509 0 0.00071874078073611491 0.013353848571178216 0 0.00097608755274771538 0.013235334883435562 0 0.00071874078073611491 0.013353848571178216 0 0.00097608755274771538 0.013235334883435562 0 0.00083302521236897835 0.01315620610588788 0 0.0010795581314301077 0.013493584666858927 0 0.00088703338313123547 0.013468665467540509 0 0.00097608755274771538 0.013235334883435562 0 0.0012082224525205674 0.013120181766351168 0 0.00097608755274771538 0.013235334883435562 0 0.001080724882331208 0.013088628523288591 0 0.0011604189335154506 0.013008815170951163 0 0.001080724882331208 0.013088628523288591 0 0.00096848475867870529 0.012997066406044634 0 0.00097608755274771538 0.013235334883435562 0 0.00083302521236897835 0.01315620610588788 0 0.00094408880436252368 0.01301539841145804 0 0.00097614196265753662 0.013245058828571609 0 0.00095276390597841211 0.012922243968833975 0 0.00097608755274771538 0.013235334883435562 0 0.001080724882331208 0.013088628523288591 0 0.00096848475867870529 0.012997066406044634 0 0.00071874078073611491 0.013353848571178216 0 0.00067605731780057555 0.013033404553663622 0 0.00083302521236897835 0.01315620610588788 0 0.00067605731780057555 0.013033404553663622 0 0.00083302521236897835 0.01315620610588788 0 0.00094408880436252368 0.01301539841145804 0 0.00070563980050978366 0.014452330273348087 0 0.00099611964340359988 0.01413127852584359 0 0.00062047302011516395 0.014277208241632802 0 0.00069758565010392157 0.013772167370363809 0 0.0008668467388860525 0.013276908736967885 0 0.00067605731780057555 0.013033404553663622 0 0.00094408880436252368 0.01301539841145804 0 0.0009243447145063817 0.012783361196643948 0 0.00095276390597841211 0.012922243968833975 0 0.0008668467388860525 0.013276908736967885 0 0.0011293703078762824 0.012858671588510511 0 0.00096848475867870529 0.012997066406044634 0 0.00095593856482588271 0.01280215341806273 0 0.0011293703078762824 0.012858671588510511 0 0.0011604189335154506 0.013008815170951163 0 0.00096848475867870529 0.012997066406044634 0 0.0011293703078762824 0.012858671588510511 0 0.00097327107421928951 0.012783590620117554 0 0.00095593856482588271 0.01280215341806273 0 0.001123994127758169 0.01276812019957572 0 0.0011216869178155751 0.0128657697173716 0 0.00096979343027988739 0.012793173025727616 0 0.0011041632175067709 0.01286606151985736 0 0.00088047481585251197 0.013252939226804454 0 0.00088047481585251197 0.013252939226804454 0 0.00087868789247266376 0.013516228296313182 0 0.00088047481585251197 0.013252939226804454 0 0.0008668467388860525 0.013276908736967885 0 0.0008668467388860525 0.013276908736967885 0 0.00087868789247266376 0.013516228296313182 0 0.00084501936581631249 0.013287613464736638 0 0.00076308086826796921 0.013376160145178452 0 0.00075263313580513434 0.013241577313087543 0 0.00099611964340359988 0.01413127852584359 0 0.00099300873481072429 0.014090068898688255 0 0.0009704577114682607 0.014079148750455886 0 0.00087868789247266376 0.013516228296313182 0 0.00079742396910204201 0.01372127294602497 0 0.00070016626093528326 0.013420858051185518 0 0.00071881581735019331 0.013429476518828441 0 0.00080116818477412915 0.013412138124657981 0 0.00082183622159762452 0.013461224852968816 0 0.00077484564784245777 0.013437945998549868 0 0.001072702726744939 0.013281153630719703 0 0.00079742396910204201 0.01372127294602497 0 0.0009904337832636887 0.013077888584126944 0 0.00068708193530767731 0.013473140644326234 0 0.00071881581735019331 0.013429476518828441 0 0.00080116818477412915 0.013412138124657981 0 0.00068708193530767731 0.013473140644326234 0 0.00070023471019027409 0.013420939109175148 0 0.00071881581735019331 0.013429476518828441 0 0.00079742396910204201 0.01372127294602497 0 0.000699394000673401 0.013683191960880853 0 0.000699394000673401 0.013683191960880853 0 0.00069316107318617736 0.013673229904777609 0 0.00088057465754533455 0.013490363163213163 0 0.00082183622159762452 0.013461224852968816 0 0.001072702726744939 0.013281153630719703 0 0.001123994127758169 0.01276812019957572 0 0.00096979343027988739 0.012793173025727616 0 0.0010323283902566329 0.012724610655858882 0 0.00088047481585251197 0.013252939226804454 0 0.0009904337832636887 0.013077888584126944 0 0.00099611964340359988 0.01413127852584359 0 0.0009704577114682607 0.014079148750455886 0 0.00062047302011516395 0.014277208241632802 0 0.00052035534462949726 0.014197585392383047 0 0.000789470153333504 0.014326719666874243 0 0.00050321661182514145 0.014335278738736709 0 0.000789470153333504 0.014326719666874243 0 0.00050321661182514145 0.014335278738736709 0 0.00051287220209039969 0.014476263962919832 0 0.00049680221027537943 0.014163530161694372 0 0.00079742396910204201 0.01372127294602497 0 0.00059984184866379933 0.013899599948131811 0 0.00060753669552983218 0.013895110793511625 0 0.00064357052508817346 0.013915972484065843 0 0.00060753669552983218 0.013895110793511625 0 0.00064357052508817346 0.013915972484065843 0 0.0006454008865913372 0.013908351023474347 0 0.00079742396910204201 0.01372127294602497 0 0.00056017724164919406 0.014441996030262879 0 0.00050321661182514145 0.014335278738736709 0 0.00038954948726114706 0.014421424054210338 0 0.00051287220209039969 0.014476263962919832 0 0.00050321661182514145 0.014335278738736709 0 0.00035552675629374101 0.014287516703972854 0 0.00038954948726114706 0.014421424054210338 0 0.00049680221027537943 0.014163530161694372 0 0.0003105173954945559 0.01438611332124028 0 0.00052035534462949726 0.014197585392383047 0 0.00050321661182514145 0.014335278738736709 0 0.00035552675629374101 0.014287516703972854 0 0.00026317802717728986 0.01442774844255781 0 0.00027726567492642953 0.014468676226780948 0 0.00022568411457592649 0.014449849557013221 0 0.0003105173954945559 0.01438611332124028 0 0.00022591966882339312 0.014473540786141034 0 0.00018651027237045096 0.014492175762487474 0 0.00022568411457592649 0.014449849557013221 0 0.0002308535796309928 0.014494241691971502 0 0.00027726567492642953 0.014468676226780948 0 0.00022568411457592649 0.014449849557013221 0 0.0002308535796309928 0.014494241691971502 0 0.00019818637942542501 0.014529975207789609 0 0.0002308535796309928 0.014494241691971502 0 0.00024488871378248583 0.01454623386837705 0 0.00028272780282041245 0.01446631095546539 0 0.0002308535796309928 0.014494241691971502 0 0.00024488871378248583 0.01454623386837705 0 0.0003105173954945559 0.01438611332124028 0 0.00026032750541056239 0.014506367283019841 0 0.00035552675629374101 0.014287516703972854 0 0.00038954948726114706 0.014421424054210338 0 0.00027235167991971699 0.014465831578373039 0 0.00024558585664117438 0.014617975674208434 0 0.00038954948726114706 0.014421424054210338 0 0.00051287220209039969 0.014476263962919832 0 0.00024558585664117438 0.014617975674208434 0 0.00038954948726114706 0.014421424054210338 0 0.00027235167991971699 0.014465831578373039 0 0.0002872168917320276 0.014514552425626109 0 0.00056017724164919406 0.014441996030262879 0 0.00021528622244246381 0.014613057802366528 0 0.00026032750541056239 0.014506367283019841 0 0.00021171095784550234 0.014630750852871459 0 0.00024558585664117438 0.014617975674208434 0 0.00027235167991971699 0.014465831578373039 0 0.00029598845852176484 0.014472699265977652 0 0.00070563980050978366 0.014452330273348087 0 0.00062047302011516395 0.014277208241632802 0 -0.000472943068752506 0.0043377987814222346 0 -0.00054903228754900194 0.0043859297517024557 0 -0.00043872460090877606 0.0044763314738107129 0 -0.00027418469177207589 0.003823582295031411 0 -0.00021942267755535683 0.003760461552516174 0 -0.00038956070134557331 0.0042514425009491028 0 -0.000472943068752506 0.0043377987814222346 0 -0.00043872460090877606 0.0044763314738107129 0 -0.00017248005407199854 0.0029769527794131926 0 -0.00013233478701096498 0.0034085931262210697 0 6.9485384798651851e-07 0.0029256699263793965 0 -0.00017248005407199854 0.0029769527794131926 0 -0.00037713087396789056 0.0028589369625122161 0 -0.00034106477823300947 0.0031576632792087397 0 -0.00017248005407199854 0.0029769527794131926 0 -0.00013233478701096498 0.0034085931262210697 0 -0.00034106477823300947 0.0031576632792087397 0 -0.00038956070134557331 0.0042514425009491028 0 -0.000472943068752506 0.0043377987814222346 0 -0.00050239451750804659 0.0041592789138961027 0 -0.000472943068752506 0.0043377987814222346 0 -0.00054903228754900194 0.0043859297517024557 0 -0.00050239451750804659 0.0041592789138961027 0 -0.00054903228754900194 0.0043859297517024557 0 -0.00050239451750804659 0.0041592789138961027 0 -0.00060649205065515925 0.0041696403428332172 0 -0.00054903228754900194 0.0043859297517024557 0 -0.00060649205065515925 0.0041696403428332172 0 -0.00062848183190598395 0.0044472952873300759 0 -0.00054903228754900194 0.0043859297517024557 0 -0.00055198079905172267 0.004580616868097403 0 -0.00062848183190598395 0.0044472952873300759 0 -0.00054903228754900194 0.0043859297517024557 0 -0.00051362863665334573 0.0045365527376670985 0 -0.00055198079905172267 0.004580616868097403 0 -0.00054903228754900194 0.0043859297517024557 0 -0.00051362863665334573 0.0045365527376670985 0 -0.00043872460090877606 0.0044763314738107129 0 -0.00051362863665334573 0.0045365527376670985 0 -0.00050207633653934517 0.0046036696477205529 0 -0.00043872460090877606 0.0044763314738107129 0 -0.00051362863665334573 0.0045365527376670985 0 -0.00055198079905172267 0.004580616868097403 0 -0.00053823558174461036 0.0045815719538439201 0 -0.00073458151634063962 0.0045335342780520836 0 -0.00047959310491970834 0.0034823812384994534 0 -0.00052952304761599356 0.0046499180273866167 0 -0.00073458151634063962 0.0045335342780520836 0 -0.00056528613239563701 0.004600433463936726 0 -0.00053823558174461036 0.0045815719538439201 0 -0.00050207633653934517 0.0046036696477205529 0 -0.00055198079905172267 0.004580616868097403 0 -0.00056528613239563701 0.004600433463936726 0 -0.00053823558174461036 0.0045815719538439201 0 -0.00051362863665334573 0.0045365527376670985 0 -0.00053823558174461036 0.0045815719538439201 0 -0.00050207633653934517 0.0046036696477205529 0 -0.00099570868495780498 0.0033063254212246148 0 -0.00048017357249434335 0.0032054346664464662 0 -0.00061000747203339325 0.0034338832744516823 0 -0.00047959310491970834 0.0034823812384994534 0 -0.00019541349665294985 0.0032435859472548768 0 -0.00047959310491970834 0.0034823812384994534 0 -0.00051332716948863878 0.0033002136862158938 0 -0.00040981977230286458 0.00294707942471471 0 -0.00025412534264850702 0.003108925272280801 0 -0.00061000747203339325 0.0034338832744516823 0 -0.00040981977230286458 0.00294707942471471 0 -0.00025412534264850702 0.003108925272280801 0 -0.00014269090337482913 0.0029011296995822737 0 -0.00025412534264850702 0.003108925272280801 0 -2.4699926513710393e-05 0.0028367665458031615 0 -0.00014269090337482913 0.0029011296995822737 0 1.8076198136147e-05 0.0029311087437656779 0 -0.0001043338422159018 0.0026268217371112458 0 -0.00025412534264850702 0.003108925272280801 0 -2.4699926513710393e-05 0.0028367665458031615 0 -0.00022029147016821305 0.0033091781056021636 0 -2.4699926513710393e-05 0.0028367665458031615 0 9.4935786862201601e-05 0.002210943724493574 0 -1.5137363027646863e-05 0.0024861455056392322 0 -0.00016568688097386985 0.0028989744072311749 0 -0.00014269090337482913 0.0029011296995822737 0 6.9485384798651851e-07 0.0029256699263793965 0 -2.4699926513710393e-05 0.0028367665458031615 0 -0.00011608707531363512 0.0026705066377051561 0 -1.5137363027646863e-05 0.0024861455056392322 0 -2.4699926513710393e-05 0.0028367665458031615 0 -3.9835416228221561e-05 0.0028612306283823871 0 -9.0899079410381901e-05 0.0027916450778093941 0 -2.4699926513710393e-05 0.0028367665458031615 0 -0.00014269090337482913 0.0029011296995822737 0 -3.9835416228221561e-05 0.0028612306283823871 0 -2.4699926513710393e-05 0.0028367665458031615 0 -9.0899079410381901e-05 0.0027916450778093941 0 -0.00011608707531363512 0.0026705066377051561 0 -0.00047959310491970834 0.0034823812384994534 0 -0.00021942267755535683 0.003760461552516174 0 -0.00014269090337482913 0.0029011296995822737 0 -3.9835416228221561e-05 0.0028612306283823871 0 6.9485384798651851e-07 0.0029256699263793965 0 -0.00017248005407199854 0.0029769527794131926 0 -3.9835416228221561e-05 0.0028612306283823871 0 6.9485384798651851e-07 0.0029256699263793965 0 -0.00017248005407199854 0.0029769527794131926 0 -0.00018959568014584834 0.0027807590176268382 0 -0.00037713087396789056 0.0028589369625122161 0 -3.9835416228221561e-05 0.0028612306283823871 0 -0.00018959568014584834 0.0027807590176268382 0 -9.0899079410381901e-05 0.0027916450778093941 0 -0.00017248005407199854 0.0029769527794131926 0 -3.9835416228221561e-05 0.0028612306283823871 0 -0.00018959568014584834 0.0027807590176268382 0 -0.00018959568014584834 0.0027807590176268382 0 -0.00033343903337445645 0.00265145142697928 0 -0.00037713087396789056 0.0028589369625122161 0 -0.00018959568014584834 0.0027807590176268382 0 -0.00024504151502367474 0.002533964580112809 0 -0.00033343903337445645 0.00265145142697928 0 -0.00018959568014584834 0.0027807590176268382 0 -9.0899079410381901e-05 0.0027916450778093941 0 -0.00011608707531363512 0.0026705066377051561 0 -0.00018959568014584834 0.0027807590176268382 0 -0.00011608707531363512 0.0026705066377051561 0 -0.00024504151502367474 0.002533964580112809 0 -0.00011608707531363512 0.0026705066377051561 0 -0.00024504151502367474 0.002533964580112809 0 -1.5137363027646863e-05 0.0024861455056392322 0 -0.00033343903337445645 0.00265145142697928 0 -0.00048601338494574724 0.0026352608030241155 0 -0.00047583967354793036 0.0024310293368916785 0 -0.00024504151502367474 0.002533964580112809 0 -0.00033343903337445645 0.00265145142697928 0 -0.00047583967354793036 0.0024310293368916785 0 -0.00033343903337445645 0.00265145142697928 0 -0.00048601338494574724 0.0026352608030241155 0 -0.00037713087396789056 0.0028589369625122161 0 -0.00048601338494574724 0.0026352608030241155 0 -0.00047583967354793036 0.0024310293368916785 0 -0.00067629827903156953 0.002546898876867279 0 -0.00067629827903156953 0.002546898876867279 0 -0.00093948317820129364 0.0024152709934230315 0 -0.00071664112886465165 0.0022262472612261538 0 -0.00047583967354793036 0.0024310293368916785 0 -0.00067629827903156953 0.002546898876867279 0 -0.00071664112886465165 0.0022262472612261538 0 -0.00067629827903156953 0.002546898876867279 0 -0.00083627611421094078 0.0026916868894216188 0 -0.00093948317820129364 0.0024152709934230315 0 -0.00048601338494574724 0.0026352608030241155 0 -0.00067629827903156953 0.002546898876867279 0 -0.00061388963243901387 0.0027920726304221655 0 -0.00067629827903156953 0.002546898876867279 0 -0.00061388963243901387 0.0027920726304221655 0 -0.00083627611421094078 0.0026916868894216188 0 -0.00061388963243901387 0.0027920726304221655 0 -0.00083627611421094078 0.0026916868894216188 0 -0.00081854981495253223 0.0029930325113224289 0 -0.00061388963243901387 0.0027920726304221655 0 -0.00054538485392876699 0.0030346946823835274 0 -0.00081854981495253223 0.0029930325113224289 0 -0.00061388963243901387 0.0027920726304221655 0 -0.00037713087396789056 0.0028589369625122161 0 -0.00054538485392876699 0.0030346946823835274 0 -0.00048601338494574724 0.0026352608030241155 0 -0.00061388963243901387 0.0027920726304221655 0 -0.00037713087396789056 0.0028589369625122161 0 -0.001089653648674921 0.0026278586017808928 0 -0.001303271404777543 0.0026711907544499044 0 -0.0012864669491108292 0.0023200338512949525 0 -0.001303271404777543 0.0026711907544499044 0 -0.0012864669491108292 0.0023200338512949525 0 -0.0015312388658521357 0.0024666927919137758 0 -0.001089653648674921 0.0026278586017808928 0 -0.00093948317820129364 0.0024152709934230315 0 -0.0012864669491108292 0.0023200338512949525 0 -0.00083627611421094078 0.0026916868894216188 0 -0.001089653648674921 0.0026278586017808928 0 -0.00093948317820129364 0.0024152709934230315 0 -0.00083627611421094078 0.0026916868894216188 0 -0.0011189759482985598 0.0028946964843976223 0 -0.00081854981495253223 0.0029930325113224289 0 -0.00083627611421094078 0.0026916868894216188 0 -0.001089653648674921 0.0026278586017808928 0 -0.0011189759482985598 0.0028946964843976223 0 -0.001089653648674921 0.0026278586017808928 0 -0.0011189759482985598 0.0028946964843976223 0 -0.001303271404777543 0.0026711907544499044 0 -0.0011189759482985598 0.0028946964843976223 0 -0.001303271404777543 0.0026711907544499044 0 -0.0013289263428580258 0.002924401917470711 0 -0.001303271404777543 0.0026711907544499044 0 -0.0013289263428580258 0.002924401917470711 0 -0.0014685878229027543 0.0027529606446589755 0 -0.0012675711075578111 0.0031337044510371245 0 -0.0013289263428580258 0.002924401917470711 0 -0.0015075679524709591 0.0030135105914793868 0 -0.0011189759482985598 0.0028946964843976223 0 -0.0012675711075578111 0.0031337044510371245 0 -0.0013289263428580258 0.002924401917470711 0 -0.0011189759482985598 0.0028946964843976223 0 -0.0012675711075578111 0.0031337044510371245 0 -0.00099524393770625296 0.0032356151694659277 0 -0.0011189759482985598 0.0028946964843976223 0 -0.00099524393770625296 0.0032356151694659277 0 -0.00081854981495253223 0.0029930325113224289 0 -0.00099524393770625296 0.0032356151694659277 0 -0.001213237858829675 0.0034202095534612295 0 -0.00091344268937714639 0.0035134629733286548 0 -0.0012675711075578111 0.0031337044510371245 0 -0.001213237858829675 0.0034202095534612295 0 -0.0014096049379331557 0.0032768509207771767 0 -0.0012675711075578111 0.0031337044510371245 0 -0.00099524393770625296 0.0032356151694659277 0 -0.001213237858829675 0.0034202095534612295 0 -0.00037713087396789056 0.0028589369625122161 0 -0.00034106477823300947 0.0031576632792087397 0 -0.00054538485392876699 0.0030346946823835274 0 -0.00034106477823300947 0.0031576632792087397 0 -0.00054538485392876699 0.0030346946823835274 0 -0.00060419158677921898 0.0033946946180326253 0 -0.00054538485392876699 0.0030346946823835274 0 -0.00081854981495253223 0.0029930325113224289 0 -0.00060419158677921898 0.0033946946180326253 0 -0.00099524393770625296 0.0032356151694659277 0 -0.00081854981495253223 0.0029930325113224289 0 -0.00060419158677921898 0.0033946946180326253 0 -0.00099524393770625296 0.0032356151694659277 0 -0.00060419158677921898 0.0033946946180326253 0 -0.00091344268937714639 0.0035134629733286548 0 -0.00061004550330465862 0.0034141779269226905 0 -0.00073023150147733299 0.0035860845924997014 0 -0.00013233478701096498 0.0034085931262210697 0 -0.00060419158677921898 0.0033946946180326253 0 -0.00040458781338349563 0.0039236248300970524 0 -0.00013233478701096498 0.0034085931262210697 0 -0.00034106477823300947 0.0031576632792087397 0 -0.00060419158677921898 0.0033946946180326253 0 -0.00040458781338349563 0.0039236248300970524 0 -0.00055291634533518046 0.0038494747469562372 0 -0.00064345959509997254 0.0037433264834572113 0 -0.00060419158677921898 0.0033946946180326253 0 -0.00040458781338349563 0.0039236248300970524 0 -0.00064345959509997254 0.0037433264834572113 0 -0.00040458781338349563 0.0039236248300970524 0 -0.00055291634533518046 0.0038494747469562372 0 -0.00049676794790688293 0.0038421168629035004 0 -0.00055291634533518046 0.0038494747469562372 0 -0.00050679696877822355 0.0037786321054025696 0 -0.00049676794790688293 0.0038421168629035004 0 -0.00040458781338349563 0.0039236248300970524 0 -0.00048544134565643287 0.0038675381361731268 0 -0.00049676794790688293 0.0038421168629035004 0 -0.001213237858829675 0.0034202095534612295 0 -0.0011514772370001655 0.0036574272877296704 0 -0.0013056032438927387 0.003598591602728342 0 -0.001213237858829675 0.0034202095534612295 0 -0.0013056032438927387 0.003598591602728342 0 -0.0014361427860526482 0.003462231225484468 0 -0.001213237858829675 0.0034202095534612295 0 -0.0014096049379331557 0.0032768509207771767 0 -0.0014361427860526482 0.003462231225484468 0 -0.001213237858829675 0.0034202095534612295 0 -0.00091344268937714639 0.0035134629733286548 0 -0.0011514772370001655 0.0036574272877296704 0 -0.00055291634533518046 0.0038494747469562372 0 -0.00064345959509997254 0.0037433264834572113 0 -0.00045548770636307575 0.0039578213567227792 0 -0.00073023150147733299 0.0035860845924997014 0 -0.00086251539514140853 0.0039416140424036244 0 -0.00055291634533518046 0.0038494747469562372 0 -0.00050679696877822355 0.0037786321054025696 0 -0.00045548770636307575 0.0039578213567227792 0 -0.00050679696877822355 0.0037786321054025696 0 -0.00045548770636307575 0.0039578213567227792 0 -0.00043840487812098683 0.0035563929347189427 0 -0.0011514772370001655 0.0036574272877296704 0 -0.0013056032438927387 0.003598591602728342 0 -0.0013441995582886637 0.0038193192639914509 0 -0.00086251539514140853 0.0039416140424036244 0 -0.00036458331304582969 0.0026090575490073393 0 -0.00045548770636307575 0.0039578213567227792 0 -0.00043840487812098683 0.0035563929347189427 0 0.00036880694655293467 0.0036471604740915312 0 0.00048709775351395569 0.0029098092589925511 0 0.00036853578661753871 0.0034337393229520331 0 -0.00043840487812098683 0.0035563929347189427 0 0.00048709775351395569 0.0029098092589925511 0 -0.00043840487812098683 0.0035563929347189427 0 0.00047470338955083217 0.0020787356753579752 0 0.00036853578661753871 0.0034337393229520331 0 -0.00043840487812098683 0.0035563929347189427 0 0.00036880694655293467 0.0036471604740915312 0 -0.00014011622549867653 0.0030169424131845173 0 -0.00036458331304582969 0.0026090575490073393 0 -0.00043840487812098683 0.0035563929347189427 0 -0.00045530404493124293 0.0037268066410676543 0 -0.00038085604602234251 0.0037273039125706479 0 -0.00050679696877822355 0.0037786321054025696 0 -0.00043840487812098683 0.0035563929347189427 0 -0.00045530404493124293 0.0037268066410676543 0 -0.00050679696877822355 0.0037786321054025696 0 -0.00045530404493124293 0.0037268066410676543 0 -0.00049676794790688293 0.0038421168629035004 0 -0.00038085604602234251 0.0037273039125706479 0 -0.00031920620484451027 0.0037433976516578382 0 -0.00034117656066462307 0.0037309158650743455 0 -0.00045530404493124293 0.0037268066410676543 0 -0.00038085604602234251 0.0037273039125706479 0 -0.00045776944051655641 0.0037889160684401154 0 -0.00043840487812098683 0.0035563929347189427 0 0.00047470338955083217 0.0020787356753579752 0 -0.00026101367767917557 0.00071673047386094555 0 0.00047470338955083217 0.0020787356753579752 0 0.0014554540924185116 0.00011491381685595278 0 -0.00026101367767917557 0.00071673047386094555 0 -0.00043840487812098683 0.0035563929347189427 0 -0.00038085604602234251 0.0037273039125706479 0 -0.00031920620484451027 0.0037433976516578382 0 -0.00044958089194824507 0.0034397447381126155 0 -0.00025499717107108549 0.0022230042425188347 0 -0.00048544134565643287 0.0038675381361731268 0 -0.00049676794790688293 0.0038421168629035004 0 -0.00045776944051655641 0.0037889160684401154 0 -0.00045530404493124293 0.0037268066410676543 0 -0.00049676794790688293 0.0038421168629035004 0 -0.00045776944051655641 0.0037889160684401154 0 -0.00048544134565643287 0.0038675381361731268 0 -0.00045776944051655641 0.0037889160684401154 0 -0.00045119750337852834 0.0037865335988584246 0 -0.00038085604602234251 0.0037273039125706479 0 -0.00045776944051655641 0.0037889160684401154 0 -0.00045119750337852834 0.0037865335988584246 0 -0.00038085604602234251 0.0037273039125706479 0 -0.00045119750337852834 0.0037865335988584246 0 -0.00037689229414831029 0.003737703498314105 0 -0.00048544134565643287 0.0038675381361731268 0 -0.00045119750337852834 0.0037865335988584246 0 -0.0005283622242641758 0.0038083725242380045 0 -0.00048544134565643287 0.0038675381361731268 0 -0.00057042689825304027 0.0038792106235491773 0 -0.0005283622242641758 0.0038083725242380045 0 -0.00057042689825304027 0.0038792106235491773 0 -0.0006151065186832716 0.0039419881083923554 0 -0.00069037302413059475 0.0038288502753937416 0 -0.0006151065186832716 0.0039419881083923554 0 -0.00053815739841877339 0.0039947583982051895 0 -0.0006717797895471764 0.004046236311538551 0 -0.00057042689825304027 0.0038792106235491773 0 -0.0006151065186832716 0.0039419881083923554 0 -0.00053815739841877339 0.0039947583982051895 0 -0.00048544134565643287 0.0038675381361731268 0 -0.00057042689825304027 0.0038792106235491773 0 -0.00053815739841877339 0.0039947583982051895 0 -0.00040458781338349563 0.0039236248300970524 0 -0.00048544134565643287 0.0038675381361731268 0 -0.00053815739841877339 0.0039947583982051895 0 -0.00040458781338349563 0.0039236248300970524 0 -0.00053815739841877339 0.0039947583982051895 0 -0.00050239451750804659 0.0041592789138961027 0 -0.00053815739841877339 0.0039947583982051895 0 -0.00050239451750804659 0.0041592789138961027 0 -0.00060649205065515925 0.0041696403428332172 0 -0.00038956070134557331 0.0042514425009491028 0 -0.00040458781338349563 0.0039236248300970524 0 -0.00050239451750804659 0.0041592789138961027 0 -0.00027418469177207589 0.003823582295031411 0 -0.00039175321687768454 0.0039360568188398764 0 -0.00060649205065515925 0.0041696403428332172 0 -0.00065710317269168704 0.0043091822608840357 0 -0.00062848183190598395 0.0044472952873300759 0 -0.00060649205065515925 0.0041696403428332172 0 -0.00054170541551130024 0.0040633042877563337 0 -0.00059439973356588285 0.004156965633831119 0 -0.00059886363995777887 0.0041720851613722748 0 -0.00057649584280905519 0.0041885891185956987 0 -0.00053815739841877339 0.0039947583982051895 0 -0.00060649205065515925 0.0041696403428332172 0 -0.0006717797895471764 0.004046236311538551 0 -0.00060649205065515925 0.0041696403428332172 0 -0.0006717797895471764 0.004046236311538551 0 -0.00059439973356588285 0.004156965633831119 0 -0.00066303273417689824 0.0040706124582505308 0 -0.00066330043760851867 0.0041172474866351082 0 -0.0006717797895471764 0.004046236311538551 0 -0.00062185214559385294 0.0044028295882969359 0 -0.00059439973356588285 0.004156965633831119 0 -0.0006151065186832716 0.0039419881083923554 0 -0.0006717797895471764 0.004046236311538551 0 -0.00069037302413059475 0.0038288502753937416 0 -0.0006717797895471764 0.004046236311538551 0 -0.00074180124734861614 0.0038012207855336023 0 -0.00069037302413059475 0.0038288502753937416 0 -0.0006717797895471764 0.004046236311538551 0 -0.00075037667382907823 0.0038223174977013376 0 -0.00074180124734861614 0.0038012207855336023 0 -0.00066330043760851867 0.0041172474866351082 0 -0.00048843877425755022 0.0042508594306534617 0 -0.00062185214559385294 0.0044028295882969359 0 -0.00045166469312661383 0.0043733693206819309 0 -0.00042678140853916451 0.0047373644154367518 0 -0.00062185214559385294 0.0044028295882969359 0 -0.00045166469312661383 0.0043733693206819309 0 -0.00059439973356588285 0.004156965633831119 0 -0.00045166469312661383 0.0043733693206819309 0 -0.00059439973356588285 0.004156965633831119 0 -0.0003819908555245405 0.0041963160404066349 0 -0.00045166469312661383 0.0043733693206819309 0 -0.00021767358146632262 0.0044798200717296914 0 -0.0003819908555245405 0.0041963160404066349 0 -0.00021767358146632262 0.0044798200717296914 0 -0.00016481550926728471 0.0047762944098389149 0 -0.00042678140853916451 0.0047373644154367518 0 -0.00045166469312661383 0.0043733693206819309 0 -0.00021767358146632262 0.0044798200717296914 0 -0.00042678140853916451 0.0047373644154367518 0 -0.00021767358146632262 0.0044798200717296914 0 -1.0914970530088129e-05 0.0046652018875093237 0 -0.00016481550926728471 0.0047762944098389149 0 -0.00021767358146632262 0.0044798200717296914 0 -1.0914970530088129e-05 0.0046652018875093237 0 7.2473856037763186e-05 0.0045043447394706405 0 -1.0914970530088129e-05 0.0046652018875093237 0 0.00012314669329488423 0.0046088007903505321 0 0.00019404423606414118 0.0047178979563698813 0 0.00012314669329488423 0.0046088007903505321 0 7.2473856037763186e-05 0.0045043447394706405 0 0.00020704816067094607 0.0045544473020891572 0 -1.0914970530088129e-05 0.0046652018875093237 0 0.00012314669329488423 0.0046088007903505321 0 7.2473856037763186e-05 0.0045043447394706405 0 -0.00021767358146632262 0.0044798200717296914 0 7.2473856037763186e-05 0.0045043447394706405 0 2.5290563056679613e-05 0.004400717450487604 0 7.2473856037763186e-05 0.0045043447394706405 0 0.00011852322933139657 0.0043824616207735678 0 0.00019350176456949309 0.004461807754781358 0 7.2473856037763186e-05 0.0045043447394706405 0 2.5290563056679613e-05 0.004400717450487604 0 0.00011852322933139657 0.0043824616207735678 0 -0.00023333979344596043 0.004514173334598583 0 -1.4437646682186852e-05 0.0041824831316745643 0 -0.00021767358146632262 0.0044798200717296914 0 2.5290563056679613e-05 0.004400717450487604 0 -1.5443002938968389e-05 0.0043289150506943498 0 -0.00021767358146632262 0.0044798200717296914 0 -0.00012051900120526965 0.004213457084227914 0 -0.0003819908555245405 0.0041963160404066349 0 -0.00012051900120526965 0.004213457084227914 0 -0.00028072210115529081 0.0040120029017845548 0 -0.0003819908555245405 0.0041963160404066349 0 -1.5443002938968389e-05 0.0043289150506943498 0 6.9509538122338669e-05 0.0042970911707313946 0 8.7305267943085612e-05 0.0042191951090914904 0 -1.4437646682186852e-05 0.0041824831316745643 0 -0.00023784857432824612 0.0045482678069926133 0 2.5290563056679613e-05 0.004400717450487604 0 0.00011852322933139657 0.0043824616207735678 0 6.9509538122338669e-05 0.0042970911707313946 0 2.5290563056679613e-05 0.004400717450487604 0 -1.5443002938968389e-05 0.0043289150506943498 0 6.9509538122338669e-05 0.0042970911707313946 0 6.9509538122338669e-05 0.0042970911707313946 0 8.7305267943085612e-05 0.0042191951090914904 0 0.00014126098717812301 0.0042795319642962249 0 -0.00023784857432824612 0.0045482678069926133 0 -0.00057695968939203092 0.0041427127707482055 0 -0.00012051900120526965 0.004213457084227914 0 -6.5650241355864905e-06 0.0040111950072304406 0 -0.00028072210115529081 0.0040120029017845548 0 -0.00057695968939203092 0.0041427127707482055 0 -0.00057649584280905519 0.0041885891185956987 0 -0.00076763826810663017 0.0043540734962161784 0 -0.00065710317269168704 0.0043091822608840357 0 -0.00070816659963361152 0.0044402004522013016 0 -0.00028072210115529081 0.0040120029017845548 0 -0.00054170541551130024 0.0040633042877563337 0 -0.0003819908555245405 0.0041963160404066349 0 -0.00054170541551130024 0.0040633042877563337 0 -0.00059439973356588285 0.004156965633831119 0 -0.0003819908555245405 0.0041963160404066349 0 0.002057333882289695 0.0077637746790393198 0 0.0017702891098874225 0.0076436751139149 0 0.0019470475159980918 0.0075259936805939101 0 0.0023325873415303892 0.0086372359131193892 0 0.0023713959701605189 0.0092385973166232947 0 0.0021549240216743354 0.0067934056332417721 0 0.0011047386504655576 0.005836787831726426 0 0.0030408081464847786 0.010990645222687346 0 0.003245380416979882 0.011341699457653365 0 0.0030720299362978678 0.011296083157856145 0 0.0020825848469137945 0.0077352390454799658 0 0.002057333882289695 0.0077637746790393198 0 0.0019470475159980918 0.0075259936805939101 0 0.0023325873415303892 0.0086372359131193892 0 0.0021549240216743354 0.0067934056332417721 0 0.0019309058235160712 0.0051731592577019926 0 0.0019999205711321404 0.0054839979702527349 0 0.0018215982068255406 0.0056839781723390832 0 0.0017850622499488229 0.0049318194673001929 0 0.001082638996766029 0.0051828694098071679 0 0.0010614795507418767 0.0049241448095991569 0 0.0017850622499488229 0.0049318194673001929 0 0.001082638996766029 0.0051828694098071679 0 0.0011967829083223663 0.0056437952329383969 0 0.002345929107491354 0.0076826612165079057 0 0.0020804385298361957 0.0072657017155489381 0 0.001886145070182792 0.0075011658406943828 0 0.0019309058235160712 0.0051731592577019926 0 0.0018215982068255406 0.0056839781723390832 0 0.0013246696477775563 0.0058339773830304231 0 0.0021549240216743354 0.0067934056332417721 0 0.0013212063386243559 0.0055004372049062503 0 0.0021311898234248131 0.0052555025092233462 0 0.0019309058235160712 0.0051731592577019926 0 0.0019999205711321404 0.0054839979702527349 0 0.0019678768441154996 0.0079307115394231069 0 0.0021549240216743354 0.0067934056332417721 0 0.0019999205711321404 0.0054839979702527349 0 0.0018215982068255406 0.0056839781723390832 0 0.0022731654558450719 0.0060758889295705774 0 0.001082638996766029 0.0051828694098071679 0 0.0010614795507418767 0.0049241448095991569 0 0.00063736893135352655 0.0050872470382678546 0 0.001082638996766029 0.0051828694098071679 0 0.00083290979592320175 0.0054153725610264292 0 0.0011967829083223663 0.0056437952329383969 0 0.001082638996766029 0.0051828694098071679 0 0.00083290979592320175 0.0054153725610264292 0 0.00063736893135352655 0.0050872470382678546 0 0.00083290979592320175 0.0054153725610264292 0 0.00063736893135352655 0.0050872470382678546 0 0.00036567457225955829 0.0053563828362322126 0 0.00083290979592320175 0.0054153725610264292 0 0.00036567457225955829 0.0053563828362322126 0 0.00058176248601164845 0.0057432966312780205 0 0.0017850622499488229 0.0049318194673001929 0 0.0010614795507418767 0.0049241448095991569 0 0.00072360173822562357 0.0045028051793044328 0 0.0010614795507418767 0.0049241448095991569 0 0.00063736893135352655 0.0050872470382678546 0 0.00072360173822562357 0.0045028051793044328 0 0.0011047386504655576 0.005836787831726426 0 0.0023713959701605189 0.0092385973166232947 0 0.0013054292910343974 0.0068436597534008584 0 0.0014760503941759924 0.0069048539584825701 0 0.0012681587020705559 0.007080523979072972 0 0.00052007716644146876 0.0044567168885108876 0 0.00040071055646100654 0.0044047692759956753 0 0.00034803094944284893 0.0045724930790751496 0 0.0011047386504655576 0.005836787831726426 0 0.00022483032333286146 0.0047165335867046009 0 0.00040071055646100654 0.0044047692759956753 0 0.00034803094944284893 0.0045724930790751496 0 0.00029939410739163131 0.0044690871110218654 0 0.00063736893135352655 0.0050872470382678546 0 0.00072360173822562357 0.0045028051793044328 0 8.6369724924551576e-06 0.0050872133219213647 0 0.0011047386504655576 0.005836787831726426 0 0.00057634453095670602 0.0052099832517536818 0 0.00057634453095670602 0.0052099832517536818 0 0.00050467115572478403 0.0045998903666909412 0 0.00063736893135352655 0.0050872470382678546 0 0.00036567457225955829 0.0053563828362322126 0 8.6369724924551576e-06 0.0050872133219213647 0 0.00036567457225955829 0.0053563828362322126 0 -1.5712829912995756e-05 0.0052944669530666233 0 0.00020982610827268301 0.0056073905762660291 0 0.00036567457225955829 0.0053563828362322126 0 -1.5712829912995756e-05 0.0052944669530666233 0 8.6369724924551576e-06 0.0050872133219213647 0 0.00034803094944284893 0.0045724930790751496 0 0.00019404423606414118 0.0047178979563698813 0 0.00020704816067094607 0.0045544473020891572 0 0.00022483032333286146 0.0047165335867046009 0 3.8504276965063381e-05 0.0049721443993022809 0 -1.5712829912995756e-05 0.0052944669530666233 0 8.6369724924551576e-06 0.0050872133219213647 0 -6.7390966331814199e-05 0.0052161552775649486 0 0.00012314669329488423 0.0046088007903505321 0 0.00019404423606414118 0.0047178979563698813 0 0.00020704816067094607 0.0045544473020891572 0 7.2473856037763186e-05 0.0045043447394706405 0 0.00020704816067094607 0.0045544473020891572 0 0.00019350176456949309 0.004461807754781358 0 0.00034803094944284893 0.0045724930790751496 0 0.00020704816067094607 0.0045544473020891572 0 0.00029939410739163131 0.0044690871110218654 0 0.00020704816067094607 0.0045544473020891572 0 0.00019350176456949309 0.004461807754781358 0 0.00029939410739163131 0.0044690871110218654 0 0.00040385280881981587 0.0043938116105213237 0 0.00029939410739163131 0.0044690871110218654 0 0.00023304631873065677 0.0043276029559138644 0 0.00019350176456949309 0.004461807754781358 0 0.00029939410739163131 0.0044690871110218654 0 0.00023304631873065677 0.0043276029559138644 0 0.00011852322933139657 0.0043824616207735678 0 0.00019350176456949309 0.004461807754781358 0 0.00023304631873065677 0.0043276029559138644 0 0.00011852322933139657 0.0043824616207735678 0 6.9509538122338669e-05 0.0042970911707313946 0 0.00023304631873065677 0.0043276029559138644 0 0.0001136527659297412 0.0043159560584923179 0 0.00011184975309640249 0.0043431477870158643 0 0.00016095523101420604 0.0043598512687644331 0 0.00014126098717812301 0.0042795319642962249 0 0.00023476101332972762 0.0043174325115298623 0 6.9509538122338669e-05 0.0042970911707313946 0 0.00016095523101420604 0.0043598512687644331 0 0.00014126098717812301 0.0042795319642962249 0 -2.0507348780367813e-05 0.0053657573844390002 0 -0.00023804218927885769 0.0053744441436228488 0 -0.00017717380934567187 0.0056303114890005838 0 8.7305267943085612e-05 0.0042191951090914904 0 0.00014126098717812301 0.0042795319642962249 0 0.00019802883194856952 0.0042333908445680371 0 -0.00023784857432824612 0.0045482678069926133 0 3.4580163970813704e-05 0.0047915049278373064 0 0.00014126098717812301 0.0042795319642962249 0 0.00019802883194856952 0.0042333908445680371 0 0.00023476101332972762 0.0043174325115298623 0 3.4580163970813704e-05 0.0047915049278373064 0 -0.00010703327407753527 0.005853811614741705 0 0.00019802883194856952 0.0042333908445680371 0 0.00023476101332972762 0.0043174325115298623 0 0.00031830180753614765 0.0042467109201847026 0 -0.00023804218927885769 0.0053744441436228488 0 -0.00045093367689405219 0.0053828105310197421 0 -0.00041688034042970581 0.0055264169374008038 0 0.00025616474918716009 0.0044092729806524825 0 0.00023476101332972762 0.0043174325115298623 0 0.00034703206613853751 0.0043487798100000519 0 0.00023476101332972762 0.0043174325115298623 0 0.00034703206613853751 0.0043487798100000519 0 0.00031830180753614765 0.0042467109201847026 0 0.00025616474918716009 0.0044092729806524825 0 0.00016095523101420604 0.0043598512687644331 0 0.00023476101332972762 0.0043174325115298623 0 0.00057634453095670602 0.0052099832517536818 0 0.00011184975309640249 0.0043431477870158643 0 0.00057634453095670602 0.0052099832517536818 0 0.0010106391019133463 0.0060923010965841552 0 0.0013054292910343974 0.0068436597534008584 0 0.0011779554859786502 0.0070383275941728893 0 0.0012681587020705559 0.007080523979072972 0 0.0013054292910343974 0.0068436597534008584 0 0.0011779554859786502 0.0070383275941728893 0 0.0010745566612094424 0.0070406682447184486 0 0.0013012717060098616 0.0086828161183761885 0 0.0010106391019133463 0.0060923010965841552 0 0.0011779554859786502 0.0070383275941728893 0 0.0011582891884410213 0.0071751903364610263 0 0.0012681587020705559 0.007080523979072972 0 0.0011779554859786502 0.0070383275941728893 0 0.0011582891884410213 0.0071751903364610263 0 0.0010745566612094424 0.0070406682447184486 0 0.00082680910146445204 0.0070627348513891408 0 0.00053492365491611654 0.0072838443965155663 0 0.00055937195322993403 0.006645049623704785 0 0.00053492365491611654 0.0072838443965155663 0 0.00036829106819002587 0.0066445116227398333 0 0.00055937195322993403 0.006645049623704785 0 0.0010106391019133463 0.0060923010965841552 0 -0.00010703327407753527 0.005853811614741705 0 0.00096892616509966652 0.0089210054650881686 0 0.00066865280288549045 0.0084484201514687194 0 0.0016003910199109256 0.0084560438263152158 0 -0.00031678968160472198 0.0075226317682762873 0 9.3516584966941833e-05 0.0075239447666566933 0 -0.00018245168514797853 0.0072800996167959433 0 -0.00010703327407753527 0.005853811614741705 0 -0.00036755346672628756 0.0061641627580520031 0 1.8954294979949156e-06 0.0070306444827694129 0 -0.00036755346672628756 0.0061641627580520031 0 -0.0002932701448483881 0.0065379847730127234 0 -0.00015740489164204791 0.0065378085066442647 0 -0.00038458266431722017 0.006182521710812878 0 -0.00010703327407753527 0.005853811614741705 0 1.8954294979949156e-06 0.0070306444827694129 0 0.0013012717060098616 0.0086828161183761885 0 1.8954294979949156e-06 0.0070306444827694129 0 0.0013012717060098616 0.0086828161183761885 0 0.0019314570842846272 0.0099608857900317736 0 1.8954294979949156e-06 0.0070306444827694129 0 0.0019314570842846272 0.0099608857900317736 0 0.0033152594626967681 0.011475678174063697 0 0.0031036457782497233 0.011658341961319612 0 0.0031875093644186873 0.011385660865552139 0 0.0030311334562038621 0.011456131569174825 0 0.0031036457782497233 0.011658341961319612 0 0.0031875093644186873 0.011385660865552139 0 0.0013012717060098616 0.0086828161183761885 0 0.0023713959701605189 0.0092385973166232947 0 0.0033152594626967681 0.011475678174063697 0 0.0031875093644186873 0.011385660865552139 0 0.0032331380993570846 0.01134476993861148 0 0.0031875093644186873 0.011385660865552139 0 0.003245380416979882 0.011341699457653365 0 0.0030720299362978678 0.011296083157856145 0 0.0023402268148991854 0.0096492654975578653 0 0.0023713959701605189 0.0092385973166232947 0 0.0030311334562038621 0.011456131569174825 0 0.0031875093644186873 0.011385660865552139 0 0.0030720299362978678 0.011296083157856145 0 0.00019057281276896578 0.0069891950565558894 0 -8.0369646876886721e-05 0.0068925061835583791 0 7.2581761207381133e-05 0.0066672112925699797 0 -8.0369646876886721e-05 0.0068925061835583791 0 -0.00026689538374518164 0.0067334125772309369 0 7.2581761207381133e-05 0.0066672112925699797 0 0.00019057281276896578 0.0069891950565558894 0 -8.0369646876886721e-05 0.0068925061835583791 0 -6.3807795923670512e-05 0.0071088067143608756 0 0.00019057281276896578 0.0069891950565558894 0 9.8912565041052241e-05 0.0072218825585731554 0 -6.3807795923670512e-05 0.0071088067143608756 0 9.3516584966941833e-05 0.0075239447666566933 0 9.8912565041052241e-05 0.0072218825585731554 0 -0.00018245168514797853 0.0072800996167959433 0 9.8912565041052241e-05 0.0072218825585731554 0 -6.3807795923670512e-05 0.0071088067143608756 0 -0.00018245168514797853 0.0072800996167959433 0 -6.3807795923670512e-05 0.0071088067143608756 0 -0.00018245168514797853 0.0072800996167959433 0 -0.0003010284421616272 0.0069963298030349891 0 -0.00031678968160472198 0.0075226317682762873 0 -0.00018245168514797853 0.0072800996167959433 0 -0.00047841347098208527 0.0072733550486304803 0 -0.0003010284421616272 0.0069963298030349891 0 -0.00056332881967309089 0.0069686508248059317 0 -0.00047841347098208527 0.0072733550486304803 0 -0.00018245168514797853 0.0072800996167959433 0 -0.0003010284421616272 0.0069963298030349891 0 -0.00047841347098208527 0.0072733550486304803 0 -0.0003010284421616272 0.0069963298030349891 0 -0.00056332881967309089 0.0069686508248059317 0 -0.00047531436622970472 0.0067299475729605202 0 -8.0369646876886721e-05 0.0068925061835583791 0 -6.3807795923670512e-05 0.0071088067143608756 0 -0.0003010284421616272 0.0069963298030349891 0 -8.0369646876886721e-05 0.0068925061835583791 0 -0.0003010284421616272 0.0069963298030349891 0 -0.00026689538374518164 0.0067334125772309369 0 -0.0003010284421616272 0.0069963298030349891 0 -0.00047531436622970472 0.0067299475729605202 0 -0.00026689538374518164 0.0067334125772309369 0 -0.00032898345234331946 0.0056660519102851963 0 -0.00036687928686870085 0.0057030478691825117 0 -0.00032956368178461976 0.0058729284891383153 0 -0.00032898345234331946 0.0056660519102851963 0 -0.00017717380934567187 0.0056303114890005838 0 -0.00032956368178461976 0.0058729284891383153 0 -0.00067272179314021435 0.0050982554199639494 0 -0.00061453201419034648 0.0056762636126590675 0 -0.00056332881967309089 0.0069686508248059317 0 -0.00066396303837600197 0.0066545279944593 0 -0.00047531436622970472 0.0067299475729605202 0 -0.00043022035183224594 0.0064545709370093353 0 -0.00061453201419034648 0.0056762636126590675 0 -0.00032898345234331946 0.0056660519102851963 0 -0.00036687928686870085 0.0057030478691825117 0 -0.00039472999805027233 0.0055654661623127369 0 -0.00043022035183224594 0.0064545709370093353 0 -0.00036755346672628756 0.0061641627580520031 0 -0.0004558071272715856 0.0055562753196625571 0 -0.00036755346672628756 0.0061641627580520031 0 -0.00032898345234331946 0.0056660519102851963 0 -0.00041688034042970581 0.0055264169374008038 0 -0.00029020672309026512 0.0055494761813433095 0 -0.00023804218927885769 0.0053744441436228488 0 -0.00041688034042970581 0.0055264169374008038 0 -0.00029020672309026512 0.0055494761813433095 0 -0.00032898345234331946 0.0056660519102851963 0 -0.00029020672309026512 0.0055494761813433095 0 -0.00017717380934567187 0.0056303114890005838 0 -0.00023784857432824612 0.0045482678069926133 0 -0.00067272179314021435 0.0050982554199639494 0 -0.00023804218927885769 0.0053744441436228488 0 -0.00029020672309026512 0.0055494761813433095 0 -0.00017717380934567187 0.0056303114890005838 0 -0.0010637344905153449 0.0045405101309146448 0 -0.0010530590376905038 0.0048316529005931657 0 -0.00090725319519559472 0.0048011229991926779 0 -0.0010637344905153449 0.0045405101309146448 0 -0.0010530590376905038 0.0048316529005931657 0 -0.0012135047332297159 0.0047818787239399174 0 -0.0010530590376905038 0.0048316529005931657 0 -0.00095554020796376324 0.0050604894290372723 0 -0.00090725319519559472 0.0048011229991926779 0 -0.00095554020796376324 0.0050604894290372723 0 -0.0011485266035426468 0.0050577724933155476 0 -0.00089474217994242643 0.0054615322662665711 0 -0.0010530590376905038 0.0048316529005931657 0 -0.00095554020796376324 0.0050604894290372723 0 -0.0011485266035426468 0.0050577724933155476 0 -0.00080962536409344096 0.0061792945831429429 0 -0.00047554092040007846 0.0059888773262043501 0 -0.00043398028780867613 0.0064478186380892526 0 -0.0010530590376905038 0.0048316529005931657 0 -0.0011485266035426468 0.0050577724933155476 0 -0.0012135047332297159 0.0047818787239399174 0 -0.00080962536409344096 0.0061792945831429429 0 -0.00066396303837600197 0.0066545279944593 0 -0.00043398028780867613 0.0064478186380892526 0 -0.00097933323071268679 0.0056045695685548484 0 -0.00061453201419034648 0.0056762636126590675 0 -0.00066396303837600197 0.0066545279944593 0 -0.00047531436622970472 0.0067299475729605202 0 -0.00043398028780867613 0.0064478186380892526 0 -0.00047531436622970472 0.0067299475729605202 0 -0.00026689538374518164 0.0067334125772309369 0 -0.00043398028780867613 0.0064478186380892526 0 -0.00026689538374518164 0.0067334125772309369 0 -0.00018229419093913345 0.0065113365497766942 0 -0.00043398028780867613 0.0064478186380892526 0 -0.00018229419093913345 0.0065113365497766942 0 -0.00043398028780867613 0.0064478186380892526 0 -0.0002156529228485776 0.0062430766430748626 0 -0.00047554092040007846 0.0059888773262043501 0 -0.0002156529228485776 0.0062430766430748626 0 -0.00015639082082404538 0.0059001384376321537 0 -0.00047554092040007846 0.0059888773262043501 0 -0.00043398028780867613 0.0064478186380892526 0 -0.0002156529228485776 0.0062430766430748626 0 -0.00018229419093913345 0.0065113365497766942 0 -0.0002156529228485776 0.0062430766430748626 0 8.7477747048562689e-05 0.0062742665221209174 0 -0.0002156529228485776 0.0062430766430748626 0 8.7477747048562689e-05 0.0062742665221209174 0 -0.00015639082082404538 0.0059001384376321537 0 0.00029902972799657684 0.0064992054085007836 0 8.7477747048562689e-05 0.0062742665221209174 0 7.2581761207381133e-05 0.0066672112925699797 0 -0.00018229419093913345 0.0065113365497766942 0 8.7477747048562689e-05 0.0062742665221209174 0 7.2581761207381133e-05 0.0066672112925699797 0 -0.00026689538374518164 0.0067334125772309369 0 -0.00018229419093913345 0.0065113365497766942 0 7.2581761207381133e-05 0.0066672112925699797 0 -0.00070858489946865218 0.0045874436887785724 0 -0.00070816659963361152 0.0044402004522013016 0 -0.00082280985104259846 0.0045421953269003537 0 -0.00070858489946865218 0.0045874436887785724 0 -0.00062848183190598395 0.0044472952873300759 0 -0.00070816659963361152 0.0044402004522013016 0 -0.00070858489946865218 0.0045874436887785724 0 -0.00062848183190598395 0.0044472952873300759 0 -0.00063990788239257339 0.0047075408312049873 0 -0.00065710317269168704 0.0043091822608840357 0 -0.00062848183190598395 0.0044472952873300759 0 -0.00070816659963361152 0.0044402004522013016 0 -0.00095221114491122517 0.0043593628520654289 0 -0.00076763826810663017 0.0043540734962161784 0 -0.00082280985104259846 0.0045421953269003537 0 -0.00076763826810663017 0.0043540734962161784 0 -0.00070816659963361152 0.0044402004522013016 0 -0.00082280985104259846 0.0045421953269003537 0 -0.00095221114491122517 0.0043593628520654289 0 -0.0010637344905153449 0.0045405101309146448 0 -0.00082280985104259846 0.0045421953269003537 0 -0.0010637344905153449 0.0045405101309146448 0 -0.00082280985104259846 0.0045421953269003537 0 -0.00090725319519559472 0.0048011229991926779 0 -0.00070858489946865218 0.0045874436887785724 0 -0.00082280985104259846 0.0045421953269003537 0 -0.00075220398383756839 0.0047920544025406749 0 -0.00082280985104259846 0.0045421953269003537 0 -0.00075220398383756839 0.0047920544025406749 0 -0.00090725319519559472 0.0048011229991926779 0 -0.00075220398383756839 0.0047920544025406749 0 -0.00090725319519559472 0.0048011229991926779 0 -0.00084761681307833744 0.005194148444975428 0 -0.00095554020796376324 0.0050604894290372723 0 -0.00090725319519559472 0.0048011229991926779 0 -0.00084761681307833744 0.005194148444975428 0 -0.00075220398383756839 0.0047920544025406749 0 -0.00069513774674134223 0.0049354212501495406 0 -0.00084761681307833744 0.005194148444975428 0 -0.00075220398383756839 0.0047920544025406749 0 -0.00063990788239257339 0.0047075408312049873 0 -0.00069513774674134223 0.0049354212501495406 0 -0.00070858489946865218 0.0045874436887785724 0 -0.00075220398383756839 0.0047920544025406749 0 -0.00063990788239257339 0.0047075408312049873 0 -0.00055198079905172267 0.004580616868097403 0 -0.00062848183190598395 0.0044472952873300759 0 -0.00063990788239257339 0.0047075408312049873 0 -0.00055198079905172267 0.004580616868097403 0 -0.00054073345916383407 0.0048084514702014646 0 -0.00063990788239257339 0.0047075408312049873 0 -0.00073458151634063962 0.0045335342780520836 0 -0.0008684581863948631 0.0051754257098878152 0 -0.00054073345916383407 0.0048084514702014646 0 -0.00063990788239257339 0.0047075408312049873 0 -0.00069513774674134223 0.0049354212501495406 0 -0.00073458151634063962 0.0045335342780520836 0 -0.0011108457480370328 0.0044296848570778806 0 -0.0011421243127879687 0.0052746756048457607 0 -0.0011164004232203644 0.0051581510495569589 0 -0.00095784078874114136 0.005255351386897064 0 -0.0010942255855776431 0.0037759420317815769 0 -0.0011036899939049665 0.0042366238525221919 0 -0.00089867094073305706 0.0041833302778423878 0 -0.0011108457480370328 0.0044296848570778806 0 -0.0010924113037438445 0.0046173046418833373 0 -0.0011164004232203644 0.0051581510495569589 0 -0.00097613973654094347 0.005120615707303375 0 -0.0011043224702572212 0.0050083792536248723 0 -0.00097613973654094347 0.005120615707303375 0 -0.00095784078874114136 0.005255351386897064 0 -0.0008945403370598132 0.0051899544262559152 0 -0.0011164004232203644 0.0051581510495569589 0 -0.00097613973654094347 0.005120615707303375 0 -0.00095784078874114136 0.005255351386897064 0 -0.00095784078874114136 0.005255351386897064 0 -0.0008945403370598132 0.0051899544262559152 0 -0.00084761681307833744 0.005194148444975428 0 -0.0008684581863948631 0.0051754257098878152 0 -0.00084545823531743198 0.0051592063616898295 0 -0.0008945403370598132 0.0051899544262559152 0 -0.00084761681307833744 0.005194148444975428 0 -0.00085339023821917842 0.0052451977256450727 0 -0.00084761681307833744 0.005194148444975428 0 -0.00085339023821917842 0.0052451977256450727 0 -0.00089474217994242643 0.0054615322662665711 0 -0.00085339023821917842 0.0052451977256450727 0 -0.00088789504221695626 0.0050979813231295671 0 -0.0008441135929495205 0.0051354095166269735 0 -0.0008945403370598132 0.0051899544262559152 0 -0.00085339023821917842 0.0052451977256450727 0 -0.00088789504221695626 0.0050979813231295671 0 -0.00097613973654094347 0.005120615707303375 0 -0.0008945403370598132 0.0051899544262559152 0 -0.00088789504221695626 0.0050979813231295671 0 -0.00097613973654094347 0.005120615707303375 0 -0.00088789504221695626 0.0050979813231295671 0 -0.00093350597576023319 0.004937869216685496 0 -0.00088789504221695626 0.0050979813231295671 0 -0.00088918675240202017 0.0049962716958427446 0 -0.00085623539069169861 0.0050339071454975296 0 -0.00088789504221695626 0.0050979813231295671 0 -0.00088918675240202017 0.0049962716958427446 0 -0.00093350597576023319 0.004937869216685496 0 -0.00085339023821917842 0.0052451977256450727 0 -0.0008441135929495205 0.0051354095166269735 0 -0.00080009706754367101 0.0051868179352041474 0 -0.0008441135929495205 0.0051354095166269735 0 -0.00081837048427999036 0.005097876960249801 0 -0.00080009706754367101 0.0051868179352041474 0 -0.00088789504221695626 0.0050979813231295671 0 -0.0008441135929495205 0.0051354095166269735 0 -0.00085623539069169861 0.0050339071454975296 0 -0.0008441135929495205 0.0051354095166269735 0 -0.00085623539069169861 0.0050339071454975296 0 -0.00081837048427999036 0.005097876960249801 0 -0.00085623539069169861 0.0050339071454975296 0 -0.00081837048427999036 0.005097876960249801 0 -0.0008239573022411304 0.0050204828277239993 0 -0.0008239573022411304 0.0050204828277239993 0 -0.00082319094398482511 0.0049556776371174407 0 -0.00076370205503667335 0.0050645616074294414 0 -0.00081837048427999036 0.005097876960249801 0 -0.0008239573022411304 0.0050204828277239993 0 -0.00076370205503667335 0.0050645616074294414 0 -0.0008239573022411304 0.0050204828277239993 0 -0.00084511997132781123 0.0049809490590903543 0 -0.00082319094398482511 0.0049556776371174407 0 -0.00085623539069169861 0.0050339071454975296 0 -0.00084511997132781123 0.0049809490590903543 0 -0.00087947725197598178 0.0049188131946881755 0 -0.00085623539069169861 0.0050339071454975296 0 -0.0008239573022411304 0.0050204828277239993 0 -0.00084511997132781123 0.0049809490590903543 0 -0.00084511997132781123 0.0049809490590903543 0 -0.00082319094398482511 0.0049556776371174407 0 -0.00087947725197598178 0.0049188131946881755 0 -0.00082319094398482511 0.0049556776371174407 0 -0.00080128188124876519 0.0049642947159420454 0 -0.00076370205503667335 0.0050645616074294414 0 -0.00065960657944503479 0.0051797531936868448 0 9.0797004704577729e-05 0.0055458047505948793 0 -0.00078987856551292364 0.0048525887265607574 0 -0.00077196787722007547 0.0048503060042895665 0 -0.00078525863177782054 0.0048342005539253174 0 -0.00082319094398482511 0.0049556776371174407 0 -0.00087947725197598178 0.0049188131946881755 0 -0.0009317991657500944 0.004804485012857981 0 -0.00065960657944503479 0.0051797531936868448 0 -0.0010004520920252463 0.0047456448951340392 0 -0.00087947725197598178 0.0049188131946881755 0 -0.0009317991657500944 0.004804485012857981 0 -0.00093350597576023319 0.004937869216685496 0 -0.00088918675240202017 0.0049962716958427446 0 -0.00087947725197598178 0.0049188131946881755 0 -0.00093350597576023319 0.004937869216685496 0 -0.00088918675240202017 0.0049962716958427446 0 -0.00085623539069169861 0.0050339071454975296 0 -0.00087947725197598178 0.0049188131946881755 0 -0.0009317991657500944 0.004804485012857981 0 -0.0010233266566046317 0.0047055473253278775 0 -0.00093350597576023319 0.004937869216685496 0 -0.0009317991657500944 0.004804485012857981 0 -0.0010233266566046317 0.0047055473253278775 0 -0.00096716813077766541 0.0047452023030028828 0 -0.0010233266566046317 0.0047055473253278775 0 -0.00096716813077766541 0.0047452023030028828 0 -0.00080633714944458959 0.0046385327217802414 0 -0.0010233266566046317 0.0047055473253278775 0 -0.00080633714944458959 0.0046385327217802414 0 -0.00086920025772238996 0.0044603714951245909 0 -0.0010233266566046317 0.0047055473253278775 0 -0.0011036899939049665 0.0042366238525221919 0 -0.00086920025772238996 0.0044603714951245909 0 -0.0010452087188866273 0.0046802266152708265 0 -0.0010924113037438445 0.0046173046418833373 0 -0.0011036899939049665 0.0042366238525221919 0 -0.00086920025772238996 0.0044603714951245909 0 -0.00089867094073305706 0.0041833302778423878 0 -0.0010233266566046317 0.0047055473253278775 0 -0.0011043224702572212 0.0050083792536248723 0 -0.00093350597576023319 0.004937869216685496 0 -0.00097613973654094347 0.005120615707303375 0 -0.0011043224702572212 0.0050083792536248723 0 -0.00093350597576023319 0.004937869216685496 0 0.00029887078003526703 0.0057322081779143672 0 9.8106936846795012e-06 0.0056729015905102216 0 0.00012548147800243387 0.0054996461505825217 0 9.8106936846795012e-06 0.0056729015905102216 0 -0.00029379484816176841 0.0055031239643388513 0 -9.8581764699378713e-05 0.0053718241076522602 0 0.00022763579892069394 0.0059543773965601825 0 8.7477747048562689e-05 0.0062742665221209174 0 -0.00015639082082404538 0.0059001384376321537 0 0.00022763579892069394 0.0059543773965601825 0 9.8106936846795012e-06 0.0056729015905102216 0 -0.00015639082082404538 0.0059001384376321537 0 -0.00047554092040007846 0.0059888773262043501 0 -0.00015639082082404538 0.0059001384376321537 0 -0.00048902901937413151 0.0056254950795582024 0 -0.00015639082082404538 0.0059001384376321537 0 -0.00029379484816176841 0.0055031239643388513 0 -0.00048902901937413151 0.0056254950795582024 0 9.8106936846795012e-06 0.0056729015905102216 0 -0.00015639082082404538 0.0059001384376321537 0 -0.00029379484816176841 0.0055031239643388513 0 -0.00064073696120165661 0.0053476968105931342 0 -0.00048902901937413151 0.0056254950795582024 0 -0.00089474217994242643 0.0054615322662665711 0 -0.00029379484816176841 0.0055031239643388513 0 -0.00064073696120165661 0.0053476968105931342 0 -0.00048902901937413151 0.0056254950795582024 0 -0.00047554092040007846 0.0059888773262043501 0 -0.00048902901937413151 0.0056254950795582024 0 -0.00089474217994242643 0.0054615322662665711 0 -0.00080962536409344096 0.0061792945831429429 0 -0.00047554092040007846 0.0059888773262043501 0 -0.00089474217994242643 0.0054615322662665711 0 -0.00097933323071268679 0.0056045695685548484 0 -0.00092324102867728927 0.0054805434852637069 0 -0.00095554020796376324 0.0050604894290372723 0 -0.00084761681307833744 0.005194148444975428 0 -0.00089474217994242643 0.0054615322662665711 0 -0.00064073696120165661 0.0053476968105931342 0 -0.00089474217994242643 0.0054615322662665711 0 -0.00081517553324367698 0.0053180912421324474 0 -0.00064073696120165661 0.0053476968105931342 0 -0.00081517553324367698 0.0053180912421324474 0 -0.00080009706754367101 0.0051868179352041474 0 -0.00085339023821917842 0.0052451977256450727 0 -0.00089474217994242643 0.0054615322662665711 0 -0.00081517553324367698 0.0053180912421324474 0 -0.00085339023821917842 0.0052451977256450727 0 -0.00081517553324367698 0.0053180912421324474 0 -0.00080009706754367101 0.0051868179352041474 0 -0.00064073696120165661 0.0053476968105931342 0 -0.00080009706754367101 0.0051868179352041474 0 -0.00065074544043168916 0.0051613994999647776 0 -0.00080009706754367101 0.0051868179352041474 0 -0.00076370205503667335 0.0050645616074294414 0 -0.00065074544043168916 0.0051613994999647776 0 -0.00081837048427999036 0.005097876960249801 0 -0.00080009706754367101 0.0051868179352041474 0 -0.00076370205503667335 0.0050645616074294414 0 -0.00080128188124876519 0.0049642947159420454 0 -0.00076370205503667335 0.0050645616074294414 0 -0.00057841598056171135 0.0049804431421045523 0 9.0797004704577729e-05 0.0055458047505948793 0 0.00043925168776833424 0.0055541842289507587 0 -0.00076370205503667335 0.0050645616074294414 0 -0.00057841598056171135 0.0049804431421045523 0 -0.00065074544043168916 0.0051613994999647776 0 -0.00057841598056171135 0.0049804431421045523 0 -0.00065074544043168916 0.0051613994999647776 0 -0.00040004943946829425 0.0052191431084977107 0 -0.00064073696120165661 0.0053476968105931342 0 -0.00065074544043168916 0.0051613994999647776 0 -0.00040004943946829425 0.0052191431084977107 0 -0.00029379484816176841 0.0055031239643388513 0 -0.00064073696120165661 0.0053476968105931342 0 -0.00040004943946829425 0.0052191431084977107 0 -0.00029379484816176841 0.0055031239643388513 0 -0.00040004943946829425 0.0052191431084977107 0 -9.8581764699378713e-05 0.0053718241076522602 0 -0.00040004943946829425 0.0052191431084977107 0 -9.9177422266174029e-05 0.0050628431240237843 0 -9.8581764699378713e-05 0.0053718241076522602 0 0.00043925168776833424 0.0055541842289507587 0 0.00047121697873610079 0.0055520878434861471 0 0.0013473614965238724 0.0061154298062978448 0 0.001149734815968596 0.0060724830657629247 0 0.0013151295686733833 0.0061907443531952055 0 -0.00057841598056171135 0.0049804431421045523 0 -0.00040004943946829425 0.0052191431084977107 0 -9.9177422266174029e-05 0.0050628431240237843 0 -9.9177422266174029e-05 0.0050628431240237843 0 0.00013988803633262711 0.0053216909804800414 0 -9.8581764699378713e-05 0.0053718241076522602 0 0.00013988803633262711 0.0053216909804800414 0 -9.8581764699378713e-05 0.0053718241076522602 0 0.00012548147800243387 0.0054996461505825217 0 9.8106936846795012e-06 0.0056729015905102216 0 -9.8581764699378713e-05 0.0053718241076522602 0 0.00012548147800243387 0.0054996461505825217 0 0.0013800176066962539 0.0062784157793750253 0 0.0014365626497385659 0.0062986497208753862 0 0.0014194572650217631 0.0062547635025783288 0 0.0014365626497385659 0.0062986497208753862 0 0.0014194572650217631 0.0062547635025783288 0 0.0014404234518688975 0.0062734822620603226 0 0.0012948072812193161 0.0062021234316648769 0 0.0013096429454818237 0.0062310867293493563 0 0.0014194572650217631 0.0062547635025783288 0 0.0014155305153058773 0.0061838815911133332 0 0.0014404234518688975 0.0062734822620603226 0 0.001149734815968596 0.0060724830657629247 0 0.0010626960403706735 0.0061381976673680391 0 0.0012114121430596286 0.0062171362664137598 0 0.001149734815968596 0.0060724830657629247 0 0.0012114121430596286 0.0062171362664137598 0 0.0013151295686733833 0.0061907443531952055 0 0.0012114121430596286 0.0062171362664137598 0 0.0013679372733691759 0.0062708148156787116 0 0.0013151295686733833 0.0061907443531952055 0 0.0014365626497385659 0.0062986497208753862 0 0.0014404234518688975 0.0062734822620603226 0 0.0014169330236704061 0.0062790366690635476 0 0.0014404234518688975 0.0062734822620603226 0 0.0014169330236704061 0.0062790366690635476 0 0.0013679372733691759 0.0062708148156787116 0 0.0013096429454818237 0.0062310867293493563 0 0.0013664457138545026 0.0062701101559525241 0 0.0014365626497385659 0.0062986497208753862 0 0.0014169330236704061 0.0062790366690635476 0 0.0014145109671724696 0.0062780300353521331 0 0.0013976554464126499 0.0062730128199538528 0 0.0014169330236704061 0.0062790366690635476 0 0.0013679372733691759 0.0062708148156787116 0 0.0013976554464126499 0.0062730128199538528 0 0.0014169330236704061 0.0062790366690635476 0 0.0014145109671724696 0.0062780300353521331 0 0.0013679372733691759 0.0062708148156787116 0 0.0013934117839299064 0.0062666374369901518 0 0.0013869659744275978 0.0062698001567667895 0 0.0013976554464126499 0.0062730128199538528 0 0.0013679372733691759 0.0062708148156787116 0 0.0013869659744275978 0.0062698001567667895 0 0.0013679372733691759 0.0062708148156787116 0 0.0013766180246244956 0.006200832914749166 0 0.0013934117839299064 0.0062666374369901518 0 0.0013679372733691759 0.0062708148156787116 0 0.0013151295686733833 0.0061907443531952055 0 0.0013766180246244956 0.006200832914749166 0 0.0013473614965238724 0.0061154298062978448 0 0.0013151295686733833 0.0061907443531952055 0 0.0013766180246244956 0.006200832914749166 0 9.0797004704577729e-05 0.0055458047505948793 0 0.00036106043216802805 0.0054283842001941387 0 -0.00077196787722007547 0.0048503060042895665 0 -0.00072936934273452772 0.0047513246785947979 0 -0.00078024758020204762 0.0048141117304846878 0 0.0014460764591896888 0.0061381108699733854 0 0.0013766180246244956 0.006200832914749166 0 0.0013934117839299064 0.0062666374369901518 0 0.0014460764591896888 0.0061381108699733854 0 0.0013473614965238724 0.0061154298062978448 0 0.0013766180246244956 0.006200832914749166 0 -0.00072936934273452772 0.0047513246785947979 0 -0.00078024758020204762 0.0048141117304846878 0 -0.00078740453537366729 0.0047677251317386786 0 -0.00072936934273452772 0.0047513246785947979 0 -0.00078740453537366729 0.0047677251317386786 0 -0.00077740801883603012 0.0047262183194892822 0 -0.00072936934273452772 0.0047513246785947979 0 -0.00074103302703130871 0.0047077393418958145 0 -0.00068716410626203886 0.0046750849389968754 0 0.00036106043216802805 0.0054283842001941387 0 0.00046393235899727951 0.0057716667153668681 0 -0.00074103302703130871 0.0047077393418958145 0 -0.00068716410626203886 0.0046750849389968754 0 -0.00077156814133307885 0.0046805706215103876 0 -0.00072936934273452772 0.0047513246785947979 0 -0.00074103302703130871 0.0047077393418958145 0 -0.00077740801883603012 0.0047262183194892822 0 -0.00068716410626203886 0.0046750849389968754 0 -0.00077156814133307885 0.0046805706215103876 0 -0.00077877852746333109 0.0046472066315130685 0 0.00046393235899727951 0.0057716667153668681 0 -0.0002043155051423644 0.0053341988805293899 0 0.00063515010831371121 0.0063572050264867185 0 0.001026093530488678 0.0064718913545562173 0 0.00084460535887040844 0.0065426679379762282 0 0.00063515010831371121 0.0063572050264867185 0 0.00084460535887040844 0.0065426679379762282 0 0.00071479631373680852 0.0065577337476618348 0 0.00046393235899727951 0.0057716667153668681 0 0.0005312068344128383 0.0067207250882175109 0 0.00063626703744244426 0.0064656518603318546 0 0.00050795006396863341 0.0065124102854613704 0 0.00057666037225637275 0.0066343297227986937 0 0.0013934117839299064 0.0062666374369901518 0 0.0013757590299212212 0.0062548118624449669 0 0.0013869659744275978 0.0062698001567667895 0 0.0013757590299212212 0.0062548118624449669 0 0.0013869659744275978 0.0062698001567667895 0 0.0014155134640223676 0.0062627193246759787 0 0.0014365626497385659 0.0062986497208753862 0 0.0014145109671724696 0.0062780300353521331 0 0.0014241159937393385 0.0062831583358641165 0 0.0013869659744275978 0.0062698001567667895 0 0.0014145109671724696 0.0062780300353521331 0 0.0014155134640223676 0.0062627193246759787 0 0.0013976554464126499 0.0062730128199538528 0 0.0013869659744275978 0.0062698001567667895 0 0.0014145109671724696 0.0062780300353521331 0 0.0014084820990759256 0.0062850412564720536 0 0.0013093002843239888 0.006500282511255449 0 0.00043264380149998365 0.0064097828983241444 0 0.00050795006396863341 0.0065124102854613704 0 0.00032907180941178337 0.006659639208245572 0 0.00063626703744244426 0.0064656518603318546 0 0.00043264380149998365 0.0064097828983241444 0 0.00050795006396863341 0.0065124102854613704 0 0.00046393235899727951 0.0057716667153668681 0 0.0013093002843239888 0.006500282511255449 0 0.0013093002843239888 0.006500282511255449 0 0.0010046798884411508 0.006814315131552731 0 0.0019200533560252574 0.0065125485656257831 0 0.0016663105516964412 0.0066752528430758995 0 0.0017346931819994269 0.0069627536786745371 0 0.0014360104489139279 0.0063795760361967458 0 0.0014365626497385659 0.0062986497208753862 0 0.0014241159937393385 0.0062831583358641165 0 0.0015905930303486851 0.0063622296411152681 0 0.0013093002843239888 0.006500282511255449 0 0.0014360104489139279 0.0063795760361967458 0 0.0019200533560252574 0.0065125485656257831 0 0.0016663105516964412 0.0066752528430758995 0 -0.00091115248082354052 0.0047501092367901272 0 -0.00094057831772394792 0.0047771404622344964 0 -0.00091065619422040314 0.0046972923520627145 0 -0.00091115248082354052 0.0047501092367901272 0 -0.00094057831772394792 0.0047771404622344964 0 -0.00096716813077766541 0.0047452023030028828 0 -0.00067748946040995048 0.0045208253353715431 0 -0.00053315678173147373 0.0043193793526358952 0 -0.00041844033972597387 0.0043037398691220356 0 -0.00063803601751092102 0.0038602862698129043 0 -0.00068271625936597215 0.0041991181581290688 0 -0.00041844033972597387 0.0043037398691220356 0 -0.00068271625936597215 0.0041991181581290688 0 -0.00080633714944458959 0.0046385327217802414 0 -0.00067748946040995048 0.0045208253353715431 0 -0.00078529132921308781 0.0046303905960668659 0 -0.00094057831772394792 0.0047771404622344964 0 -0.00096716813077766541 0.0047452023030028828 0 -0.00080633714944458959 0.0046385327217802414 0 -0.0009317991657500944 0.004804485012857981 0 -0.00096716813077766541 0.0047452023030028828 0 -0.00090523346994256129 0.0047667404919767981 0 -0.00091115248082354052 0.0047501092367901272 0 -0.00096716813077766541 0.0047452023030028828 0 -0.00090523346994256129 0.0047667404919767981 0 -0.0009317991657500944 0.004804485012857981 0 -0.00085674398127953612 0.0047873693845043091 0 -0.00082302258352094746 0.0048156123345295138 0 -0.0009317991657500944 0.004804485012857981 0 -0.00085674398127953612 0.0047873693845043091 0 -0.00090523346994256129 0.0047667404919767981 0 -0.00078987856551292364 0.0048525887265607574 0 -0.0009317991657500944 0.004804485012857981 0 -0.00082302258352094746 0.0048156123345295138 0 -0.00085674398127953612 0.0047873693845043091 0 -0.00090523346994256129 0.0047667404919767981 0 -0.00083866908384093745 0.0047526580358273236 0 -0.00077196787722007547 0.0048503060042895665 0 -0.00078024758020204762 0.0048141117304846878 0 -0.00078525863177782054 0.0048342005539253174 0 -0.00078024758020204762 0.0048141117304846878 0 -0.00078525863177782054 0.0048342005539253174 0 -0.00082302258352094746 0.0048156123345295138 0 -0.00078987856551292364 0.0048525887265607574 0 -0.00078525863177782054 0.0048342005539253174 0 -0.00082302258352094746 0.0048156123345295138 0 -0.00078024758020204762 0.0048141117304846878 0 -0.00082302258352094746 0.0048156123345295138 0 -0.00081417314981172039 0.0047891813131835286 0 -0.00085674398127953612 0.0047873693845043091 0 -0.00082302258352094746 0.0048156123345295138 0 -0.00081417314981172039 0.0047891813131835286 0 -0.00085674398127953612 0.0047873693845043091 0 -0.00081417314981172039 0.0047891813131835286 0 -0.00083866908384093745 0.0047526580358273236 0 -0.00078024758020204762 0.0048141117304846878 0 -0.00081417314981172039 0.0047891813131835286 0 -0.00078740453537366729 0.0047677251317386786 0 -0.00081417314981172039 0.0047891813131835286 0 -0.00078740453537366729 0.0047677251317386786 0 -0.00083866908384093745 0.0047526580358273236 0 -0.00078740453537366729 0.0047677251317386786 0 -0.00083866908384093745 0.0047526580358273236 0 -0.00077740801883603012 0.0047262183194892822 0 -0.00083866908384093745 0.0047526580358273236 0 -0.00077740801883603012 0.0047262183194892822 0 -0.00081587825361041676 0.0047110456822968376 0 -0.00091115248082354052 0.0047501092367901272 0 -0.00090523346994256129 0.0047667404919767981 0 -0.00083866908384093745 0.0047526580358273236 0 -0.00091115248082354052 0.0047501092367901272 0 -0.00083866908384093745 0.0047526580358273236 0 -0.00085991057226739111 0.0047158650663286662 0 -0.00085991057226739111 0.0047158650663286662 0 -0.00083333040197611414 0.0046787508713423479 0 -0.00091065619422040314 0.0046972923520627145 0 -0.00083866908384093745 0.0047526580358273236 0 -0.00085991057226739111 0.0047158650663286662 0 -0.00081587825361041676 0.0047110456822968376 0 -0.00085991057226739111 0.0047158650663286662 0 -0.00083333040197611414 0.0046787508713423479 0 -0.00081587825361041676 0.0047110456822968376 0 -0.00083333040197611414 0.0046787508713423479 0 -0.00081587825361041676 0.0047110456822968376 0 -0.00077156814133307885 0.0046805706215103876 0 -0.00077740801883603012 0.0047262183194892822 0 -0.00081587825361041676 0.0047110456822968376 0 -0.00077156814133307885 0.0046805706215103876 0 -0.00074103302703130871 0.0047077393418958145 0 -0.00077740801883603012 0.0047262183194892822 0 -0.00077156814133307885 0.0046805706215103876 0 -0.00083333040197611414 0.0046787508713423479 0 -0.00077156814133307885 0.0046805706215103876 0 -0.00080376025403633303 0.0046531299005342624 0 -0.00079062350842861058 0.0044510339342694856 0 -0.0002043155051423644 0.0053341988805293899 0 -0.00080376025403633303 0.0046531299005342624 0 -0.00078495357907891808 0.0046333670726345774 0 -0.00080127702985087761 0.0046288255365573728 0 -0.00077156814133307885 0.0046805706215103876 0 -0.00080376025403633303 0.0046531299005342624 0 -0.00078495357907891808 0.0046333670726345774 0 -0.0002043155051423644 0.0053341988805293899 0 -0.00066693361279493175 0.0050600085462655167 0 -0.00083333040197611414 0.0046787508713423479 0 -0.00084793615285361473 0.0046280628682038548 0 -0.00091065619422040314 0.0046972923520627145 0 -0.00083333040197611414 0.0046787508713423479 0 -0.00080376025403633303 0.0046531299005342624 0 -0.00084793615285361473 0.0046280628682038548 0 -0.00080376025403633303 0.0046531299005342624 0 -0.00084793615285361473 0.0046280628682038548 0 -0.00080127702985087761 0.0046288255365573728 0 3.275338448019588e-05 0.0034741842139840396 0 -0.00024503510482163287 0.0034766651603260535 0 -0.00013686797098624536 0.0038667319736919582 0 -0.00044234415252058276 0.0038557651050200349 0 -0.00053315678173147373 0.0043193793526358952 0 -0.00091115248082354052 0.0047501092367901272 0 -0.00085991057226739111 0.0047158650663286662 0 -0.00091065619422040314 0.0046972923520627145 0 -0.00041844033972597387 0.0043037398691220356 0 -0.00013686797098624536 0.0038667319736919582 0 -0.00063803601751092102 0.0038602862698129043 0 -0.00024503510482163287 0.0034766651603260535 0 -0.00063803601751092102 0.0038602862698129043 0 -0.0006704865321737406 0.0033846470009716192 0 -0.00024503510482163287 0.0034766651603260535 0 -0.00013686797098624536 0.0038667319736919582 0 -0.00063803601751092102 0.0038602862698129043 0 -0.0010681093112726336 0.0035155845781032129 0 -0.00063803601751092102 0.0038602862698129043 0 -0.0006704865321737406 0.0033846470009716192 0 -0.00059614850497134828 0.00099469292244847842 0 -0.00040612227287139158 0.00090684764245504295 0 -0.00040215789082241301 0.00084990191122138407 0 -0.00083074595884821798 0.0022598487885423981 0 -0.00071792138063478611 0.0025019386771965475 0 -0.0010681093112726336 0.0035155845781032129 0 -0.00063803601751092102 0.0038602862698129043 0 -0.0010488992269494562 0.0041493901419702708 0 -0.00063803601751092102 0.0038602862698129043 0 -0.00068271625936597215 0.0041991181581290688 0 -0.0010488992269494562 0.0041493901419702708 0 -0.00032907014438164373 0.00094396012128860523 0 -0.00023658925432336407 0.0010090540965449093 0 -0.00038464561673278688 0.0010705161784689014 0 -0.00032907014438164373 0.00094396012128860523 0 -0.00040612227287139158 0.00090684764245504295 0 -0.00038464561673278688 0.0010705161784689014 0 -0.00059614850497134828 0.00099469292244847842 0 -0.00040612227287139158 0.00090684764245504295 0 -0.00038464561673278688 0.0010705161784689014 0 -0.00040612227287139158 0.00090684764245504295 0 -0.00036093796449865383 0.00085737751888909086 0 -0.00040215789082241301 0.00084990191122138407 0 -0.00040612227287139158 0.00090684764245504295 0 -0.00033497722252241545 0.0008712957111456992 0 -0.00036093796449865383 0.00085737751888909086 0 -0.00032907014438164373 0.00094396012128860523 0 -0.00040612227287139158 0.00090684764245504295 0 -0.00033497722252241545 0.0008712957111456992 0 -0.00033497722252241545 0.0008712957111456992 0 -0.00026771712618949998 0.00088869046331441269 0 -0.00030409260620235009 0.00085412421359393632 0 -0.00032907014438164373 0.00094396012128860523 0 -0.00033497722252241545 0.0008712957111456992 0 -0.00026771712618949998 0.00088869046331441269 0 -0.00033734175189485026 0.00084570638823421983 0 -0.0002948785533152867 0.00083445283088294465 0 -0.00030409260620235009 0.00085412421359393632 0 -0.00033497722252241545 0.0008712957111456992 0 -0.00033734175189485026 0.00084570638823421983 0 -0.00030409260620235009 0.00085412421359393632 0 -0.00033497722252241545 0.0008712957111456992 0 -0.00033734175189485026 0.00084570638823421983 0 -0.00036093796449865383 0.00085737751888909086 0 -0.00033734175189485026 0.00084570638823421983 0 -0.0003339076192278445 0.00085678116682452743 0 -0.00035889189216465088 0.00086415309794793665 0 -0.00033734175189485026 0.00084570638823421983 0 -0.0003339076192278445 0.00085678116682452743 0 -0.00036093796449865383 0.00085737751888909086 0 -0.0003339076192278445 0.00085678116682452743 0 -0.00025116673289600131 0.00097821431951098737 0 -0.00040215789082241301 0.00084990191122138407 0 -0.0003339076192278445 0.00085678116682452743 0 -0.00036093796449865383 0.00085737751888909086 0 -0.00040215789082241301 0.00084990191122138407 0 -0.00032506074833425921 0.00088667530480882116 0 -0.00028404504321454264 0.0011855565005803933 0 -0.0003339076192278445 0.00085678116682452743 0 -0.00025116673289600131 0.00097821431951098737 0 -0.00043315223718268101 0.0011496950668214334 0 -0.00035889189216465088 0.00086415309794793665 0 -0.00013854538897363405 0.0011582775152206132 0 -0.00038636178785314752 0.0010783484621723226 0 -0.0003339076192278445 0.00085678116682452743 0 -0.00035889189216465088 0.00086415309794793665 0 -0.00013854538897363405 0.0011582775152206132 0 -0.00035889189216465088 0.00086415309794793665 0 -0.00038636178785314752 0.0010783484621723226 0 -0.00058859238561372756 0.0010388881512763863 0 -0.00033734175189485026 0.00084570638823421983 0 -0.00035889189216465088 0.00086415309794793665 0 -0.00031742810380069913 0.00082874503514740092 0 -0.00068271625936597215 0.0041991181581290688 0 -0.0010488992269494562 0.0041493901419702708 0 -0.0008199713247266881 0.0044120466730374229 0 -0.0005142348095505887 0.0027229906095039558 0 -0.00071792138063478611 0.0025019386771965475 0 -0.00078572973842627877 0.0045230073338925984 0 -0.0010488992269494562 0.0041493901419702708 0 -0.0008199713247266881 0.0044120466730374229 0 -0.00078572973842627877 0.0045230073338925984 0 -0.00077932604271457222 0.0045179546553381598 0 -0.0008199713247266881 0.0044120466730374229 0 -0.00068271625936597215 0.0041991181581290688 0 -0.0008199713247266881 0.0044120466730374229 0 -0.00080633714944458959 0.0046385327217802414 0 -0.00077932604271457222 0.0045179546553381598 0 -0.0008199713247266881 0.0044120466730374229 0 -0.00080633714944458959 0.0046385327217802414 0 -0.00077932604271457222 0.0045179546553381598 0 -0.00080633714944458959 0.0046385327217802414 0 -0.00076611738250692866 0.0044953497419217333 0 -0.00076611738250692866 0.0044953497419217333 0 -0.00086920025772238996 0.0044603714951245909 0 -0.0007129890808001743 0.0043329919246014991 0 -0.00080633714944458959 0.0046385327217802414 0 -0.00076611738250692866 0.0044953497419217333 0 -0.00086920025772238996 0.0044603714951245909 0 -0.00086920025772238996 0.0044603714951245909 0 -0.00089867094073305706 0.0041833302778423878 0 -0.0007129890808001743 0.0043329919246014991 0 -0.00089867094073305706 0.0041833302778423878 0 -0.0007129890808001743 0.0043329919246014991 0 -0.0007711593270551849 0.0040023402957221751 0 -0.00054733322312050363 0.004169141696957126 0 -0.0007129890808001743 0.0043329919246014991 0 -0.0007711593270551849 0.0040023402957221751 0 -0.00054733322312050363 0.004169141696957126 0 -0.00034911404707366808 0.0042877028197225563 0 -0.00040837299486340731 0.0040600950863422698 0 -0.00054733322312050363 0.004169141696957126 0 -0.00057042898108420205 0.0043073899204265414 0 -0.00034911404707366808 0.0042877028197225563 0 -0.00054733322312050363 0.004169141696957126 0 -0.0007129890808001743 0.0043329919246014991 0 -0.00057042898108420205 0.0043073899204265414 0 -0.0007129890808001743 0.0043329919246014991 0 -0.00057042898108420205 0.0043073899204265414 0 -0.00063711185240331633 0.0044254737637026932 0 -0.00057042898108420205 0.0043073899204265414 0 -0.00063711185240331633 0.0044254737637026932 0 -0.00034911404707366808 0.0042877028197225563 0 -0.00076611738250692866 0.0044953497419217333 0 -0.0007129890808001743 0.0043329919246014991 0 -0.00063711185240331633 0.0044254737637026932 0 -0.00077932604271457222 0.0045179546553381598 0 -0.00076611738250692866 0.0044953497419217333 0 -0.00063711185240331633 0.0044254737637026932 0 -0.00078572973842627877 0.0045230073338925984 0 -0.00077932604271457222 0.0045179546553381598 0 -0.00063711185240331633 0.0044254737637026932 0 -0.00025116673289600131 0.00097821431951098737 0 -0.00043315223718268101 0.0011496950668214334 0 -0.00027183153791093752 0.0015419967437123759 0 -0.00078572973842627877 0.0045230073338925984 0 -0.00063711185240331633 0.0044254737637026932 0 -0.00034911404707366808 0.0042877028197225563 0 -0.0005142348095505887 0.0027229906095039558 0 -0.00033025140156466639 0.002963137241909844 0 -0.00038636178785314752 0.0010783484621723226 0 -0.00031287419876729921 0.0012199291257769412 0 -0.00049988038402536909 0.00122234110751312 0 -0.00013854538897363405 0.0011582775152206132 0 -0.00038636178785314752 0.0010783484621723226 0 -0.00031287419876729921 0.0012199291257769412 0 -0.00013854538897363405 0.0011582775152206132 0 -0.00031287419876729921 0.0012199291257769412 0 -0.00029714776036118292 0.0014339927994766509 0 -0.00031287419876729921 0.0012199291257769412 0 -0.00029714776036118292 0.0014339927994766509 0 -0.00049988038402536909 0.00122234110751312 0 -0.00013854538897363405 0.0011582775152206132 0 -0.00029714776036118292 0.0014339927994766509 0 -2.3343060665503806e-05 0.0016855100484563887 0 -0.00029714776036118292 0.0014339927994766509 0 -0.00057689042946924677 0.0014959631936763656 0 -0.00049988038402536909 0.00122234110751312 0 -0.00029714776036118292 0.0014339927994766509 0 -0.00035624921499549867 0.0017192049147114967 0 -2.3343060665503806e-05 0.0016855100484563887 0 -0.00029714776036118292 0.0014339927994766509 0 -0.00035624921499549867 0.0017192049147114967 0 -0.00057689042946924677 0.0014959631936763656 0 -0.00043315223718268101 0.0011496950668214334 0 -0.00042206358532646126 0.0016630009939937408 0 -0.00027183153791093752 0.0015419967437123759 0 -0.00028404504321454264 0.0011855565005803933 0 -0.00023095551388521384 0.001600276284160689 0 -2.3343060665503806e-05 0.0016855100484563887 0 -0.00022129545246408827 0.0019910444439501149 0 3.788977189279327e-05 0.0022443769571632434 0 -0.00033025140156466639 0.002963137241909844 0 -0.0001043338422159018 0.0026268217371112458 0 -0.00034911404707366808 0.0042877028197225563 0 -0.00029825185756344785 0.0038877190632928948 0 1.2952129755934036e-05 0.0035665965359849097 0 -0.00042206358532646126 0.0016630009939937408 0 -0.00027183153791093752 0.0015419967437123759 0 -0.00036814518605842285 0.0022671670177195659 0 -0.00034911404707366808 0.0042877028197225563 0 -0.00029825185756344785 0.0038877190632928948 0 -0.00040837299486340731 0.0040600950863422698 0 -0.00023095551388521384 0.001600276284160689 0 -0.0001043338422159018 0.0026268217371112458 0 -0.00035624921499549867 0.0017192049147114967 0 -0.00022129545246408827 0.0019910444439501149 0 -0.00065723139345541201 0.0020057978699909089 0 -0.00022129545246408827 0.0019910444439501149 0 -0.00021479482769280457 0.0022553616602400068 0 -0.00065723139345541201 0.0020057978699909089 0 -0.00035624921499549867 0.0017192049147114967 0 -2.3343060665503806e-05 0.0016855100484563887 0 -0.00022129545246408827 0.0019910444439501149 0 -0.00024504151502367474 0.002533964580112809 0 -0.00021479482769280457 0.0022553616602400068 0 -0.00065723139345541201 0.0020057978699909089 0 -0.00022129545246408827 0.0019910444439501149 0 -0.00021479482769280457 0.0022553616602400068 0 3.788977189279327e-05 0.0022443769571632434 0 -0.00024504151502367474 0.002533964580112809 0 -0.00021479482769280457 0.0022553616602400068 0 -1.5137363027646863e-05 0.0024861455056392322 0 -2.4699926513710393e-05 0.0028367665458031615 0 1.2952129755934036e-05 0.0035665965359849097 0 -0.00022029147016821305 0.0033091781056021636 0 1.2952129755934036e-05 0.0035665965359849097 0 -0.00022029147016821305 0.0033091781056021636 0 -0.00038119924281444659 0.0036473664471561311 0 -0.00029825185756344785 0.0038877190632928948 0 1.2952129755934036e-05 0.0035665965359849097 0 -0.00038119924281444659 0.0036473664471561311 0 -0.00021479482769280457 0.0022553616602400068 0 3.788977189279327e-05 0.0022443769571632434 0 -1.5137363027646863e-05 0.0024861455056392322 0 -0.0001043338422159018 0.0026268217371112458 0 -1.6930909641457721e-05 0.0023843315422135652 0 -0.00022029147016821305 0.0033091781056021636 0 -0.00038119924281444659 0.0036473664471561311 0 -0.00061000747203339325 0.0034338832744516823 0 -0.00025412534264850702 0.003108925272280801 0 -0.00022029147016821305 0.0033091781056021636 0 -0.00061000747203339325 0.0034338832744516823 0 -0.00062770372684889245 0.0037098289358931378 0 -0.00061000747203339325 0.0034338832744516823 0 -0.00082355197196610456 0.0036431100554723682 0 -0.00038119924281444659 0.0036473664471561311 0 -0.00062770372684889245 0.0037098289358931378 0 -0.00061000747203339325 0.0034338832744516823 0 -0.00099570868495780498 0.0033063254212246148 0 -0.0010942255855776431 0.0037759420317815769 0 -0.00082355197196610456 0.0036431100554723682 0 -0.00099570868495780498 0.0033063254212246148 0 -0.00061000747203339325 0.0034338832744516823 0 -0.00082355197196610456 0.0036431100554723682 0 -0.00062770372684889245 0.0037098289358931378 0 -0.00082355197196610456 0.0036431100554723682 0 -0.0007711593270551849 0.0040023402957221751 0 -0.0010942255855776431 0.0037759420317815769 0 -0.00089867094073305706 0.0041833302778423878 0 -0.0007711593270551849 0.0040023402957221751 0 -0.0010942255855776431 0.0037759420317815769 0 -0.00082355197196610456 0.0036431100554723682 0 -0.0007711593270551849 0.0040023402957221751 0 -0.00054733322312050363 0.004169141696957126 0 -0.0007711593270551849 0.0040023402957221751 0 -0.0004859715220087841 0.0039119008947586815 0 -0.00054733322312050363 0.004169141696957126 0 -0.00040837299486340731 0.0040600950863422698 0 -0.0004859715220087841 0.0039119008947586815 0 -0.00029825185756344785 0.0038877190632928948 0 -0.00040837299486340731 0.0040600950863422698 0 -0.0004859715220087841 0.0039119008947586815 0 -0.00038119924281444659 0.0036473664471561311 0 -0.00062770372684889245 0.0037098289358931378 0 -0.0004859715220087841 0.0039119008947586815 0 -0.00029825185756344785 0.0038877190632928948 0 -0.00038119924281444659 0.0036473664471561311 0 -0.0004859715220087841 0.0039119008947586815 0 -0.00062770372684889245 0.0037098289358931378 0 -0.0007711593270551849 0.0040023402957221751 0 -0.0004859715220087841 0.0039119008947586815 0 -0.0014516585848678865 0.0017159275292641541 0 -0.0010324787259105405 0.0020496547543015597 0 -0.0010210197707540879 0.0016499437071557019 0 -0.0010324787259105405 0.0020496547543015597 0 -0.00077694635137392273 0.0018812160119455849 0 -0.0010210197707540879 0.0016499437071557019 0 -0.0014516585848678865 0.0017159275292641541 0 -0.0012864669491108292 0.0023200338512949525 0 -0.0010324787259105405 0.0020496547543015597 0 -0.00093948317820129364 0.0024152709934230315 0 -0.0012864669491108292 0.0023200338512949525 0 -0.0010324787259105405 0.0020496547543015597 0 -0.00093948317820129364 0.0024152709934230315 0 -0.0010324787259105405 0.0020496547543015597 0 -0.00071664112886465165 0.0022262472612261538 0 -0.00024504151502367474 0.002533964580112809 0 -0.00047583967354793036 0.0024310293368916785 0 -0.00040689277528499685 0.0020048633197893716 0 -0.00047583967354793036 0.0024310293368916785 0 -0.00071664112886465165 0.0022262472612261538 0 -0.00040689277528499685 0.0020048633197893716 0 -0.00026177764126802776 0.0024929189422389971 0 -0.00052956411958357714 0.0020001961840501099 0 -0.00035624921499549867 0.0017192049147114967 0 -0.00065723139345541201 0.0020057978699909089 0 -0.00057689042946924677 0.0014959631936763656 0 -0.00052956411958357714 0.0020001961840501099 0 -0.00086937977692988022 0.0015153127610628414 0 -0.0010324787259105405 0.0020496547543015597 0 -0.00071664112886465165 0.0022262472612261538 0 -0.00077694635137392273 0.0018812160119455849 0 -0.00071664112886465165 0.0022262472612261538 0 -0.00040689277528499685 0.0020048633197893716 0 -0.00077694635137392273 0.0018812160119455849 0 -0.00040689277528499685 0.0020048633197893716 0 -0.00077694635137392273 0.0018812160119455849 0 -0.00069394056859831479 0.0014479257045640142 0 -0.00077694635137392273 0.0018812160119455849 0 -0.00069394056859831479 0.0014479257045640142 0 -0.0010210197707540879 0.0016499437071557019 0 -0.00096823726332513084 0.0014943419492362282 0 -0.00057689042946924677 0.0014959631936763656 0 -0.0007448382659315172 0.0011666333512462444 0 -0.00065723139345541201 0.0020057978699909089 0 -0.00096823726332513084 0.0014943419492362282 0 -0.00057689042946924677 0.0014959631936763656 0 -0.00057689042946924677 0.0014959631936763656 0 -0.00049988038402536909 0.00122234110751312 0 -0.0007448382659315172 0.0011666333512462444 0 -0.0007448382659315172 0.0011666333512462444 0 -0.00075829212033165657 0.0010526183527208959 0 -0.00058859238561372756 0.0010388881512763863 0 -0.0007448382659315172 0.0011666333512462444 0 -0.00075829212033165657 0.0010526183527208959 0 -0.00090435483733897215 0.0010712613658643848 0 -0.00049988038402536909 0.00122234110751312 0 -0.0007448382659315172 0.0011666333512462444 0 -0.00058859238561372756 0.0010388881512763863 0 -0.00038636178785314752 0.0010783484621723226 0 -0.00049988038402536909 0.00122234110751312 0 -0.00058859238561372756 0.0010388881512763863 0 -0.00086937977692988022 0.0015153127610628414 0 -0.0008494634893202337 0.00076601408043975108 0 -0.00090435483733897215 0.0010712613658643848 0 -0.00099023443005075 0.0011803460126301151 0 -0.001260702712162597 0.0010324633419212844 0 -0.00096823726332513084 0.0014943419492362282 0 -0.00099023443005075 0.0011803460126301151 0 -0.001260702712162597 0.0010324633419212844 0 -0.00096823726332513084 0.0014943419492362282 0 -0.0007448382659315172 0.0011666333512462444 0 -0.00099023443005075 0.0011803460126301151 0 -0.0007448382659315172 0.0011666333512462444 0 -0.00090435483733897215 0.0010712613658643848 0 -0.00099023443005075 0.0011803460126301151 0 -0.00069394056859831479 0.0014479257045640142 0 -0.0010973874493963008 0.00115516186652209 0 -0.0010643247623711763 0.0010480994326282792 0 -0.0014516585848678865 0.0017159275292641541 0 -0.0010973874493963008 0.00115516186652209 0 -0.0010210197707540879 0.0016499437071557019 0 -0.00069394056859831479 0.0014479257045640142 0 -0.0010973874493963008 0.00115516186652209 0 -0.0010210197707540879 0.0016499437071557019 0 -0.0012545049083710535 0.0012712790941642046 0 -0.0011084569461909963 0.0011576661990477808 0 -0.0008494634893202337 0.00076601408043975108 0 -0.0008727805060885056 0.0005421245789806894 0 -0.0010973874493963008 0.00115516186652209 0 -0.0010643247623711763 0.0010480994326282792 0 -0.0010580702810999412 0.001108919017031791 0 -0.0010991046316079199 0.00088249708632498307 0 -0.0010973874493963008 0.00115516186652209 0 -0.0010580702810999412 0.001108919017031791 0 -0.00020933201986049249 0.00069727068360547523 0 -0.00016224124723641277 0.00071378482120724313 0 -0.00014546199878413452 0.00068490055417362182 0 -0.00072201767248707398 0.00015575353368991196 0 -0.0009344887214904914 0.00011293555654681138 0 -0.00064093059541899531 3.2692044475228518e-05 0 -0.00045593707462397113 0.00060014141385950255 0 -0.000369966444888552 0.00045865493591224686 0 -0.00072201767248707398 0.00015575353368991196 0 -0.00085711692285359606 0.00021954574109295732 0 -0.00058605851455197403 0.0002466563964817598 0 -0.0008494634893202337 0.00076601408043975108 0 -0.00045593707462397113 0.00060014141385950255 0 -0.00072201767248707398 0.00015575353368991196 0 -0.0009344887214904914 0.00011293555654681138 0 -0.00085711692285359606 0.00021954574109295732 0 -0.00045593707462397113 0.00060014141385950255 0 -0.00023252610065026242 0.00076769318330547221 0 -0.00018920973547141082 0.00076598739690285583 0 -0.00019937576688573401 0.00078999770839555507 0 -0.00021502645000649913 0.00077274706289785485 0 -0.00033488884454840933 0.0007893245246767209 0 -0.00035810428300091506 0.00075643909730922451 0 -0.00030819311185757866 0.00076307722051487082 0 -0.00018920973547141082 0.00076598739690285583 0 -0.00019937576688573401 0.00078999770839555507 0 -0.000178625929402502 0.00074774137254641452 0 -0.00019937576688573401 0.00078999770839555507 0 -0.000178625929402502 0.00074774137254641452 0 -0.00018100835613173074 0.00079198120078990551 0 -0.00020933201986049249 0.00069727068360547523 0 -0.000178625929402502 0.00074774137254641452 0 -0.00016224124723641277 0.00071378482120724313 0 -0.000178625929402502 0.00074774137254641452 0 -0.00016224124723641277 0.00071378482120724313 0 -0.00015249649160796675 0.00072875249930104717 0 -0.00045593707462397113 0.00060014141385950255 0 -0.00014007223497796188 0.00081789187567870257 0 -0.00035889189216465088 0.00086415309794793665 0 -0.00031742810380069913 0.00082874503514740092 0 -0.00027395934502910522 0.0007748550727830596 0 -0.00037161165274124939 0.00085274555749680157 0 -0.00052813088741139136 0.00087189437674894054 0 -0.00035889189216465088 0.00086415309794793665 0 -0.00058859238561372756 0.0010388881512763863 0 -0.00079768228078642446 0.00093401819770599231 0 -0.00075829212033165657 0.0010526183527208959 0 -0.00058859238561372756 0.0010388881512763863 0 -0.00079768228078642446 0.00093401819770599231 0 -0.00031742810380069913 0.00082874503514740092 0 -0.00027395934502910522 0.0007748550727830596 0 -0.00029523751122531653 0.00080963487198928259 0 -0.00031742810380069913 0.00082874503514740092 0 -0.00029523751122531653 0.00080963487198928259 0 -0.0002803321761654885 0.00081617289809131192 0 -0.00027395934502910522 0.0007748550727830596 0 -0.00027670541339488817 0.00078621729664306815 0 -0.00029523751122531653 0.00080963487198928259 0 -0.00027670541339488817 0.00078621729664306815 0 -0.00029523751122531653 0.00080963487198928259 0 -0.0002643772796576764 0.00080037684817037323 0 -0.00029523751122531653 0.00080963487198928259 0 -0.0002643772796576764 0.00080037684817037323 0 -0.0002803321761654885 0.00081617289809131192 0 -0.00027395934502910522 0.0007748550727830596 0 -0.00027670541339488817 0.00078621729664306815 0 -0.00030819311185757866 0.00076307722051487082 0 -0.00027670541339488817 0.00078621729664306815 0 -0.0002643772796576764 0.00080037684817037323 0 -0.00021502645000649913 0.00077274706289785485 0 -0.0002832023451566489 0.00077809087125974821 0 -0.00023252610065026242 0.00076769318330547221 0 -0.00033488884454840933 0.0007893245246767209 0 -0.00027395934502910522 0.0007748550727830596 0 -0.00030819311185757866 0.00076307722051487082 0 -0.00090435483733897215 0.0010712613658643848 0 -0.001260702712162597 0.0010324633419212844 0 -0.00079768228078642446 0.00093401819770599231 0 -0.0008494634893202337 0.00076601408043975108 0 -0.00052813088741139136 0.00087189437674894054 0 -0.0002643772796576764 0.00080037684817037323 0 -0.00021502645000649913 0.00077274706289785485 0 -0.00024090188116903744 0.00080141565812205944 0 -0.00075829212033165657 0.0010526183527208959 0 -0.00090435483733897215 0.0010712613658643848 0 -0.00079768228078642446 0.00093401819770599231 0 -0.00019937576688573401 0.00078999770839555507 0 -0.00024272968599694866 0.00082428764455275258 0 -0.00019924259368957694 0.00082768795090080202 0 -0.00019937576688573401 0.00078999770839555507 0 -0.00024272968599694866 0.00082428764455275258 0 -0.00024090188116903744 0.00080141565812205944 0 -0.00019937576688573401 0.00078999770839555507 0 -0.00021502645000649913 0.00077274706289785485 0 -0.00024090188116903744 0.00080141565812205944 0 -0.00024272968599694866 0.00082428764455275258 0 -0.00024090188116903744 0.00080141565812205944 0 -0.0002803321761654885 0.00081617289809131192 0 -0.0002643772796576764 0.00080037684817037323 0 -0.00024090188116903744 0.00080141565812205944 0 -0.0002803321761654885 0.00081617289809131192 0 -0.00024272968599694866 0.00082428764455275258 0 -0.0002803321761654885 0.00081617289809131192 0 -0.0002948785533152867 0.00083445283088294465 0 -0.00024272968599694866 0.00082428764455275258 0 -0.0002948785533152867 0.00083445283088294465 0 -0.00026818567105111208 0.00084898199310705011 0 -0.0002948785533152867 0.00083445283088294465 0 -0.00030409260620235009 0.00085412421359393632 0 -0.00026818567105111208 0.00084898199310705011 0 -0.00031742810380069913 0.00082874503514740092 0 -0.0002803321761654885 0.00081617289809131192 0 -0.0002948785533152867 0.00083445283088294465 0 -0.00033734175189485026 0.00084570638823421983 0 -0.00031742810380069913 0.00082874503514740092 0 -0.0002948785533152867 0.00083445283088294465 0 -0.00026771712618949998 0.00088869046331441269 0 -0.00022984438236741553 0.00085182695693673935 0 -0.00018836407447368501 0.00088489833133103342 0 -0.00026771712618949998 0.00088869046331441269 0 -0.00030409260620235009 0.00085412421359393632 0 -0.00026818567105111208 0.00084898199310705011 0 -0.00024272968599694866 0.00082428764455275258 0 -0.00026818567105111208 0.00084898199310705011 0 -0.00022984438236741553 0.00085182695693673935 0 -0.00026771712618949998 0.00088869046331441269 0 -0.00026818567105111208 0.00084898199310705011 0 -0.00022984438236741553 0.00085182695693673935 0 -0.00022984438236741553 0.00085182695693673935 0 -0.00019924259368957694 0.00082768795090080202 0 -0.00018836407447368501 0.00088489833133103342 0 -0.00024272968599694866 0.00082428764455275258 0 -0.00022984438236741553 0.00085182695693673935 0 -0.00019924259368957694 0.00082768795090080202 0 -0.00032907014438164373 0.00094396012128860523 0 -0.00026771712618949998 0.00088869046331441269 0 -0.00023658925432336407 0.0010090540965449093 0 -0.00026771712618949998 0.00088869046331441269 0 -0.00018836407447368501 0.00088489833133103342 0 -0.00023658925432336407 0.0010090540965449093 0 -0.000178625929402502 0.00074774137254641452 0 -0.00015895185321423017 0.00077705495041597227 0 -0.00015249649160796675 0.00072875249930104717 0 -0.000178625929402502 0.00074774137254641452 0 -0.00015895185321423017 0.00077705495041597227 0 -0.00018100835613173074 0.00079198120078990551 0 -0.00015895185321423017 0.00077705495041597227 0 -0.00018100835613173074 0.00079198120078990551 0 -0.00017417827630058182 0.00082683742859865057 0 -0.00019937576688573401 0.00078999770839555507 0 -0.00019924259368957694 0.00082768795090080202 0 -0.00018100835613173074 0.00079198120078990551 0 -0.00019924259368957694 0.00082768795090080202 0 -0.00018100835613173074 0.00079198120078990551 0 -0.00017417827630058182 0.00082683742859865057 0 -0.00019924259368957694 0.00082768795090080202 0 -0.00018836407447368501 0.00088489833133103342 0 -0.00017417827630058182 0.00082683742859865057 0 -0.00017417827630058182 0.00082683742859865057 0 -0.00015962141849322449 0.00080687354864667545 0 -0.00016467372367165916 0.00085481497303408491 0 -0.00018836407447368501 0.00088489833133103342 0 -0.00017417827630058182 0.00082683742859865057 0 -0.00016467372367165916 0.00085481497303408491 0 -0.00015895185321423017 0.00077705495041597227 0 -0.00017417827630058182 0.00082683742859865057 0 -0.00015962141849322449 0.00080687354864667545 0 -0.00015895185321423017 0.00077705495041597227 0 -0.00015962141849322449 0.00080687354864667545 0 -0.00013191799645009058 0.00075040659493983753 0 -0.00015962141849322449 0.00080687354864667545 0 -0.00015857791493802259 0.0007920931834751653 0 -0.00013191799645009058 0.00075040659493983753 0 -0.00015962141849322449 0.00080687354864667545 0 -0.00015857791493802259 0.0007920931834751653 0 -0.00016467372367165916 0.00085481497303408491 0 -0.00015857791493802259 0.0007920931834751653 0 -0.00016467372367165916 0.00085481497303408491 0 -0.00017933020514519779 0.00081796577907150005 0 -0.00016467372367165916 0.00085481497303408491 0 -0.00017933020514519779 0.00081796577907150005 0 -0.00015088964915955562 0.00092948697536375145 0 -0.00017933020514519779 0.00081796577907150005 0 -0.00017620619538822875 0.00079651845844423328 0 -0.00020132826725157704 0.00081307647979790153 0 -0.00017933020514519779 0.00081796577907150005 0 -0.00015382610966577567 0.00076355551282837142 0 -0.00017620619538822875 0.00079651845844423328 0 -0.00015857791493802259 0.0007920931834751653 0 -0.00017933020514519779 0.00081796577907150005 0 -0.00015382610966577567 0.00076355551282837142 0 -0.00015857791493802259 0.0007920931834751653 0 -0.00015382610966577567 0.00076355551282837142 0 -0.00013901815943844755 0.00074236137595433697 0 -0.00015382610966577567 0.00076355551282837142 0 -0.00017620619538822875 0.00079651845844423328 0 -0.00013047955495403211 0.00076132618556822387 0 -0.00017620619538822875 0.00079651845844423328 0 -0.00013700017872491992 0.00086618408441022847 0 -0.00023666496770363883 0.00088634528442986223 0 -0.00017620619538822875 0.00079651845844423328 0 -0.00013700017872491992 0.00086618408441022847 0 -0.00013047955495403211 0.00076132618556822387 0 -0.00036429878175180922 0.00086924149994907615 0 -0.00025538543571423277 0.00081926659536715469 0 -0.00034840322568254883 0.00084062001313367247 0 -0.00017620619538822875 0.00079651845844423328 0 -0.00025538543571423277 0.00081926659536715469 0 -0.00023666496770363883 0.00088634528442986223 0 -0.00036429878175180922 0.00086924149994907615 0 -0.00025538543571423277 0.00081926659536715469 0 -0.00023666496770363883 0.00088634528442986223 0 -0.00017620619538822875 0.00079651845844423328 0 -0.00025538543571423277 0.00081926659536715469 0 -0.00020132826725157704 0.00081307647979790153 0 -0.00025538543571423277 0.00081926659536715469 0 -0.00023463035805891858 0.000806508292106413 0 -0.00020132826725157704 0.00081307647979790153 0 -0.00014630213786834026 0.0012598556180861186 0 -0.00033553831403980688 0.0013448347164139655 0 -0.00023645735723015014 0.0015589859709390747 0 -0.00020902065474150169 0.0010531494630035445 0 -0.00027120527246279175 0.0011764176464748727 0 -0.00025538543571423277 0.00081926659536715469 0 -0.00023463035805891858 0.000806508292106413 0 -0.00034840322568254883 0.00084062001313367247 0 -0.00014630213786834026 0.0012598556180861186 0 -0.00023658925432336407 0.0010090540965449093 0 -0.00033553831403980688 0.0013448347164139655 0 -0.00017933020514519779 0.00081796577907150005 0 -0.00020132826725157704 0.00081307647979790153 0 -0.00015088964915955562 0.00092948697536375145 0 -0.00020902065474150169 0.0010531494630035445 0 -0.00016176833346974681 0.00095783724747663208 0 -0.00023463035805891858 0.000806508292106413 0 -0.00020132826725157704 0.00081307647979790153 0 -0.00015088964915955562 0.00092948697536375145 0 -0.00018836407447368501 0.00088489833133103342 0 -0.00015088964915955562 0.00092948697536375145 0 -0.00023658925432336407 0.0010090540965449093 0 -0.00018836407447368501 0.00088489833133103342 0 -0.00016467372367165916 0.00085481497303408491 0 -0.00015088964915955562 0.00092948697536375145 0 -0.00014630213786834026 0.0012598556180861186 0 -0.00015088964915955562 0.00092948697536375145 0 -0.00023658925432336407 0.0010090540965449093 0 -0.00023658925432336407 0.0010090540965449093 0 -0.00038464561673278688 0.0010705161784689014 0 -0.00033553831403980688 0.0013448347164139655 0 -0.00059614850497134828 0.00099469292244847842 0 -0.00038464561673278688 0.0010705161784689014 0 -0.00051453036874151694 0.001256722316002935 0 -0.00038464561673278688 0.0010705161784689014 0 -0.00051453036874151694 0.001256722316002935 0 -0.00033553831403980688 0.0013448347164139655 0 -0.00051453036874151694 0.001256722316002935 0 -0.00033553831403980688 0.0013448347164139655 0 -0.00048019014497909142 0.0016361855276691053 0 -0.0010681093112726336 0.0035155845781032129 0 -0.0006704865321737406 0.0033846470009716192 0 -0.00099763608184265363 0.0028474420656129586 0 -0.0006704865321737406 0.0033846470009716192 0 -0.00099763608184265363 0.0028474420656129586 0 -0.00038228566244225665 0.0030084356053478862 0 -0.00059614850497134828 0.00099469292244847842 0 -0.00051453036874151694 0.001256722316002935 0 -0.00078653389541020731 0.0013526773925835764 0 -0.00083074595884821798 0.0022598487885423981 0 -0.00087902107924932543 0.0021052930762035841 0 -0.00051453036874151694 0.001256722316002935 0 -0.00078653389541020731 0.0013526773925835764 0 -0.00048019014497909142 0.0016361855276691053 0 -0.00099763608184265363 0.0028474420656129586 0 -0.00038228566244225665 0.0030084356053478862 0 -0.00051741694788969104 0.0025892402925488138 0 -0.00082270187222639865 0.0020822666573698106 0 -0.00051741694788969104 0.0025892402925488138 0 -0.00054734900688689116 0.0022597692212599453 0 -0.00099763608184265363 0.0028474420656129586 0 -0.00082270187222639865 0.0020822666573698106 0 -0.00051741694788969104 0.0025892402925488138 0 -0.00087902107924932543 0.0021052930762035841 0 -0.00083586753879095826 0.0020760845665678232 0 -0.00078653389541020731 0.0013526773925835764 0 -0.00069643023685887469 0.0018601309237566185 0 -0.00048019014497909142 0.0016361855276691053 0 -0.00078653389541020731 0.0013526773925835764 0 -0.00069643023685887469 0.0018601309237566185 0 -0.00082270187222639865 0.0020822666573698106 0 -0.00069643023685887469 0.0018601309237566185 0 -0.00058287101499300119 0.0019360356319198576 0 -0.00048019014497909142 0.0016361855276691053 0 -0.00069643023685887469 0.0018601309237566185 0 -0.00058287101499300119 0.0019360356319198576 0 -0.00082995553758393565 0.0020565085691449697 0 -0.00069643023685887469 0.0018601309237566185 0 -0.00082995553758393565 0.0020565085691449697 0 -0.00082270187222639865 0.0020822666573698106 0 -0.00075690102768301813 0.0020915128687022692 0 -0.000463163954519695 0.0020731215056078167 0 -0.00082270187222639865 0.0020822666573698106 0 -0.00044284535033691256 0.0020973940021060001 0 -0.00054734900688689116 0.0022597692212599453 0 -0.00082995553758393565 0.0020565085691449697 0 -0.00082270187222639865 0.0020822666573698106 0 -0.00044284535033691256 0.0020973940021060001 0 -0.00033553831403980688 0.0013448347164139655 0 -0.00023645735723015014 0.0015589859709390747 0 -0.00037984044987519151 0.0016294027787991329 0 -0.00033553831403980688 0.0013448347164139655 0 -0.00037984044987519151 0.0016294027787991329 0 -0.00048019014497909142 0.0016361855276691053 0 -0.00039893123431843661 0.0017545985002259776 0 -0.00055558635989110547 0.0016798828556998727 0 -0.00058287101499300119 0.0019360356319198576 0 -0.00048019014497909142 0.0016361855276691053 0 -0.00025962647688753331 0.0021019073217017959 0 -0.00071777094131469856 0.0020148053456565153 0 -0.0008833538791584686 0.0020001288512075019 0 -0.00083054351813271045 0.001966761995639743 0 -0.00058287101499300119 0.0019360356319198576 0 -0.00082995553758393565 0.0020565085691449697 0 -0.00025962647688753331 0.0021019073217017959 0 -0.00037984044987519151 0.0016294027787991329 0 -0.00048019014497909142 0.0016361855276691053 0 -0.0003888589593679493 0.0017282060013391631 0 -0.00075690102768301813 0.0020915128687022692 0 -0.00055558635989110547 0.0016798828556998727 0 -0.0008833538791584686 0.0020001288512075019 0 -0.00089250853247896454 0.0019875911634296391 0 -0.00083054351813271045 0.001966761995639743 0 -0.00055558635989110547 0.0016798828556998727 0 -0.00068541272629232342 0.0015480750811212424 0 -0.00037984044987519151 0.0016294027787991329 0 -0.0003888589593679493 0.0017282060013391631 0 -0.00036690247648975255 0.0017324174553030457 0 -0.00027120527246279175 0.0011764176464748727 0 -0.00054507540821085022 0.001369806440151992 0 -0.00023645735723015014 0.0015589859709390747 0 -0.00037984044987519151 0.0016294027787991329 0 -0.00036690247648975255 0.0017324174553030457 0 -0.00036429878175180922 0.00086924149994907615 0 -0.00034840322568254883 0.00084062001313367247 0 -0.00036629883300156782 0.00086095522154026958 0 -0.00039409501207956664 0.00075127924481880964 0 -0.00054507540821085022 0.001369806440151992 0 -0.00068541272629232342 0.0015480750811212424 0 -0.00054507540821085022 0.001369806440151992 0 -0.00055558635989110547 0.0016798828556998727 0 -0.00054507540821085022 0.001369806440151992 0 -0.00071444143752888325 0.0015021243676685055 0 -0.00070369728168855874 0.00152270697399349 0 -0.00068645870494773813 0.0015017601174799682 0 -0.00036429878175180922 0.00086924149994907615 0 -0.00080819658747886369 0.00085617889951508858 0 -0.00067130413141718731 0.00099688884207659294 0 -0.0007192957949171022 0.0017412506005153202 0 -0.00072563678173411623 0.0018070970950142078 0 -0.00068267475250612141 0.0017995633419089542 0 -0.00068541272629232342 0.0015480750811212424 0 -0.00071157749898546115 0.001446727091739493 0 -0.00083350450868242517 0.0008927541697053541 0 -0.00067130413141718731 0.00099688884207659294 0 -0.00069678998385760158 0.0011796694609638423 0 -0.00083350450868242517 0.0008927541697053541 0 -0.00080819658747886369 0.00085617889951508858 0 -0.00067130413141718731 0.00099688884207659294 0 -0.00089250853247896454 0.0019875911634296391 0 -0.00083054351813271045 0.001966761995639743 0 -0.00077062577540097513 0.0018424893939655159 0 -0.0007192957949171022 0.0017412506005153202 0 -0.00072563678173411623 0.0018070970950142078 0 -0.00077062577540097513 0.0018424893939655159 0 -0.00083054351813271045 0.001966761995639743 0 -0.00077400387727518945 0.0019415586413769751 0 -0.00077062577540097513 0.0018424893939655159 0 -0.00068541272629232342 0.0015480750811212424 0 -0.00083888503595643123 0.0019659491362361663 0 -0.00077062577540097513 0.0018424893939655159 0 -0.00072452017995553418 0.0018436457614036082 0 -0.00076632888186689888 0.0018598176406282379 0 -0.00072563678173411623 0.0018070970950142078 0 -0.00077062577540097513 0.0018424893939655159 0 -0.00072452017995553418 0.0018436457614036082 0 -0.00068267475250612141 0.0017995633419089542 0 -0.00072452017995553418 0.0018436457614036082 0 -0.00060603278994381235 0.0018479457063900041 0 -0.00072563678173411623 0.0018070970950142078 0 -0.00068267475250612141 0.0017995633419089542 0 -0.00072452017995553418 0.0018436457614036082 0 -0.00071157749898546115 0.001446727091739493 0 -0.00059425043819217823 0.0016980716252991365 0 -0.00061848567818999169 0.0019527999930832127 0 -0.00064990983950038528 0.0018810797360809773 0 -0.00050344363859416779 0.0018887800397927794 0 -0.00071777094131469856 0.0020148053456565153 0 -0.00061848567818999169 0.0019527999930832127 0 -0.00044284535033691256 0.0020973940021060001 0 -0.00071777094131469856 0.0020148053456565153 0 -0.00061848567818999169 0.0019527999930832127 0 -0.0007158635256126945 0.0019262307342014081 0 -0.00061848567818999169 0.0019527999930832127 0 -0.00064990983950038528 0.0018810797360809773 0 -0.0007158635256126945 0.0019262307342014081 0 -0.00064990983950038528 0.0018810797360809773 0 -0.0007158635256126945 0.0019262307342014081 0 -0.00077062577540097513 0.0018424893939655159 0 -0.00071777094131469856 0.0020148053456565153 0 -0.00083054351813271045 0.001966761995639743 0 -0.00077400387727518945 0.0019415586413769751 0 -0.00071777094131469856 0.0020148053456565153 0 -0.0007158635256126945 0.0019262307342014081 0 -0.00077400387727518945 0.0019415586413769751 0 -0.0007158635256126945 0.0019262307342014081 0 -0.00077400387727518945 0.0019415586413769751 0 -0.00077062577540097513 0.0018424893939655159 0 -0.00064990983950038528 0.0018810797360809773 0 -0.00077062577540097513 0.0018424893939655159 0 -0.0007478028235609963 0.0018386450220445175 0 -0.00077062577540097513 0.0018424893939655159 0 -0.0007478028235609963 0.0018386450220445175 0 -0.00076632888186689888 0.0018598176406282379 0 -0.00064990983950038528 0.0018810797360809773 0 -0.00061954256083527411 0.0018464337107228143 0 -0.00050344363859416779 0.0018887800397927794 0 -0.00064990983950038528 0.0018810797360809773 0 -0.00061954256083527411 0.0018464337107228143 0 -0.00060611039715452865 0.0018596635291949974 0 -0.00063359075214219581 0.001940487045513575 0 -0.00072160861025461691 0.0017099822117271077 0 0.00010657079560488913 0.0029573702509643014 0 0.00012225608852177981 0.0028134349666542042 0 0.00022113111597875433 0.0030375851493220844 0 -0.00061954256083527411 0.0018464337107228143 0 -0.00060611039715452865 0.0018596635291949974 0 -0.0006106459686541514 0.0019293517327066824 0 -0.00029938344629635568 0.0021207248711447016 0 -0.00015903232530571534 0.0035762836317553255 0 -0.00060611039715452865 0.0018596635291949974 0 -0.00057343455097963079 0.0019328409811665709 0 -0.0006106459686541514 0.0019293517327066824 0 -0.0007478028235609963 0.0018386450220445175 0 -0.00077427638559870646 0.0018820049920111733 0 -0.00076632888186689888 0.0018598176406282379 0 -0.00072160861025461691 0.0017099822117271077 0 -0.00050812456010702683 0.0026899387606283717 0 -0.00027837510984801131 0.0050301324420356968 0 3.4889656367422969e-05 0.0050259995885540655 0 -0.00027015839144816506 0.0044137175239163081 0 -0.00050812456010702683 0.0026899387606283717 0 -0.00015903232530571534 0.0035762836317553255 0 -2.5312302475787075e-06 0.0046660407238017657 0 0.00036747133432963664 0.0045930417305120432 0 0.00026843860929279316 0.0045007148560040127 0 0.00010657079560488913 0.0029573702509643014 0 0.00022113111597875433 0.0030375851493220844 0 -1.1264029411514193e-05 0.0030298166083965383 0 -2.5312302475787075e-06 0.0046660407238017657 0 0.00026843860929279316 0.0045007148560040127 0 0.00010614663498497337 0.0044936742357408839 0 -0.00015903232530571534 0.0035762836317553255 0 0.00022730720278234132 0.0038339693629639848 0 -2.5312302475787075e-06 0.0046660407238017657 0 0.00010614663498497337 0.0044936742357408839 0 -6.8141910483243582e-06 0.0044264918617674077 0 -0.00072452017995553418 0.0018436457614036082 0 -0.00078108082862029268 0.0019194454038846882 0 -0.00065465975389277301 0.0019183210674659156 0 -0.00072452017995553418 0.0018436457614036082 0 -0.00065465975389277301 0.0019183210674659156 0 -0.00060603278994381235 0.0018479457063900041 0 -0.00072452017995553418 0.0018436457614036082 0 -0.00076632888186689888 0.0018598176406282379 0 -0.00078108082862029268 0.0019194454038846882 0 -0.00050812456010702683 0.0026899387606283717 0 -0.00094871576261797467 0.0018540901686849736 0 -0.0010936736241403833 0.0019112184951112169 0 -0.00078108082862029268 0.0019194454038846882 0 -0.00092037196768957584 0.0020628330881105085 0 -0.00078108082862029268 0.0019194454038846882 0 -0.00092037196768957584 0.0020628330881105085 0 -0.00077780974707515398 0.0021652296878806039 0 -0.00077427638559870646 0.0018820049920111733 0 -0.00076632888186689888 0.0018598176406282379 0 -0.00078108082862029268 0.0019194454038846882 0 -0.00078108082862029268 0.0019194454038846882 0 -0.00065465975389277301 0.0019183210674659156 0 -0.0006179556042288782 0.0020736621942610595 0 -0.00065465975389277301 0.0019183210674659156 0 -0.00046746645816482686 0.0019480853071618793 0 -0.0006179556042288782 0.0020736621942610595 0 -0.00047678217487532432 0.0019292411255635855 0 -0.00059425043819217823 0.0016980716252991365 0 -0.00065465975389277301 0.0019183210674659156 0 -0.00046746645816482686 0.0019480853071618793 0 -0.00060603278994381235 0.0018479457063900041 0 -0.00046746645816482686 0.0019480853071618793 0 -0.00061105593924761859 0.0014990047801397809 0 -0.00032293394654756122 0.0014412004755656321 0 -0.00032293394654756122 0.0014412004755656321 0 -0.00016375202315332518 0.0017716991748710964 0 -8.7079648366028046e-05 0.0012524386351817024 0 -0.00046746645816482686 0.0019480853071618793 0 -0.00032293394654756122 0.0014412004755656321 0 -0.00016375202315332518 0.0017716991748710964 0 -0.00024939577082377939 0.001399059144715258 0 -0.00042114275918689228 0.00177300514573929 0 -0.00046746645816482686 0.0019480853071618793 0 -0.00016375202315332518 0.0017716991748710964 0 -0.00039094059696041518 0.0022162672581206521 0 -0.00031707512975104156 0.0010217036150018122 0 -0.00017408052426108833 0.0010310171702875965 0 -0.00015056762076416698 0.001211687439877142 0 -0.00017408052426108833 0.0010310171702875965 0 -0.0001059032144348229 0.0009870054251269909 0 -5.3658560396677549e-05 0.0010699698892511764 0 -0.00017408052426108833 0.0010310171702875965 0 -0.00015056762076416698 0.001211687439877142 0 -5.3658560396677549e-05 0.0010699698892511764 0 -0.00017408052426108833 0.0010310171702875965 0 -0.0001059032144348229 0.0009870054251269909 0 -0.0001409965318133924 0.00088459833175549396 0 -0.00017408052426108833 0.0010310171702875965 0 -0.00020669344728022442 0.00088211549683731569 0 -0.0001409965318133924 0.00088459833175549396 0 -0.00031707512975104156 0.0010217036150018122 0 -0.00017408052426108833 0.0010310171702875965 0 -0.00020669344728022442 0.00088211549683731569 0 -0.00024939577082377939 0.001399059144715258 0 -0.00015476043700891648 0.0010774404433753079 0 -0.00020669344728022442 0.00088211549683731569 0 -0.0001409965318133924 0.00088459833175549396 0 -0.00013700017872491992 0.00086618408441022847 0 -0.0001409965318133924 0.00088459833175549396 0 -0.00013700017872491992 0.00086618408441022847 0 -0.00012976052483528448 0.00083168517877544776 0 -0.00013700017872491992 0.00086618408441022847 0 -0.00013047955495403211 0.00076132618556822387 0 -0.00012976052483528448 0.00083168517877544776 0 -0.00015476043700891648 0.0010774404433753079 0 -0.0001332451304793909 0.00089127586977643921 0 -8.7079648366028046e-05 0.0012524386351817024 0 -0.00013700017872491992 0.00086618408441022847 0 -0.00023666496770363883 0.00088634528442986223 0 -0.00036429878175180922 0.00086924149994907615 0 -0.00023666496770363883 0.00088634528442986223 0 -0.00041837199000697387 0.0011346063882272071 0 -8.7079648366028046e-05 0.0012524386351817024 0 -0.00023666496770363883 0.00088634528442986223 0 -0.00041837199000697387 0.0011346063882272071 0 -0.00036429878175180922 0.00086924149994907615 0 -0.00067130413141718731 0.00099688884207659294 0 -0.00041837199000697387 0.0011346063882272071 0 -0.00067130413141718731 0.00099688884207659294 0 -0.00069678998385760158 0.0011796694609638423 0 -0.00041837199000697387 0.0011346063882272071 0 -0.00061105593924761859 0.0014990047801397809 0 -0.00032293394654756122 0.0014412004755656321 0 -0.00041837199000697387 0.0011346063882272071 0 -0.00069678998385760158 0.0011796694609638423 0 -0.00061105593924761859 0.0014990047801397809 0 -0.00041837199000697387 0.0011346063882272071 0 -0.00032293394654756122 0.0014412004755656321 0 -8.7079648366028046e-05 0.0012524386351817024 0 -0.00041837199000697387 0.0011346063882272071 0 0.00021009162943592916 0.0073300893838776256 0 0.00035134654080458145 0.0072352889485550187 0 0.00021878661448890255 0.0071697081024577128 0 0.00021009162943592916 0.0073300893838776256 0 0.0003102856960930945 0.0073650563995576058 0 0.00035134654080458145 0.0072352889485550187 0 0.00021009162943592916 0.0073300893838776256 0 0.00013233985596761963 0.0073024796597022422 0 0.00021878661448890255 0.0071697081024577128 0 5.6721611804381998e-05 0.0071856157929377027 0 0.00013233985596761963 0.0073024796597022422 0 0.00021878661448890255 0.0071697081024577128 0 8.6626090413250922e-05 0.007490232281210916 0 0.00013235340473322028 0.0074060275267049782 0 0.0001870595317947873 0.0074829983467979847 0 0.00021009162943592916 0.0073300893838776256 0 0.00013235340473322028 0.0074060275267049782 0 0.0001870595317947873 0.0074829983467979847 0 0.00021009162943592916 0.0073300893838776256 0 0.00013233985596761963 0.0073024796597022422 0 0.00013235340473322028 0.0074060275267049782 0 4.4873290342400677e-05 0.0074197566740670058 0 0.00013233985596761963 0.0073024796597022422 0 0.00013235340473322028 0.0074060275267049782 0 8.6626090413250922e-05 0.007490232281210916 0 4.4873290342400677e-05 0.0074197566740670058 0 0.00013235340473322028 0.0074060275267049782 0 0.00021009162943592916 0.0073300893838776256 0 0.0003102856960930945 0.0073650563995576058 0 0.0001870595317947873 0.0074829983467979847 0 0.0003102856960930945 0.0073650563995576058 0 0.00046258707064168411 0.0073060282861583739 0 0.00036090702759544984 0.0074824389248301024 0 0.00046258707064168411 0.0073060282861583739 0 0.00035134654080458145 0.0072352889485550187 0 0.00047907613599022211 0.0071092190696148807 0 0.0003102856960930945 0.0073650563995576058 0 0.00046258707064168411 0.0073060282861583739 0 0.00035134654080458145 0.0072352889485550187 0 0.00035134654080458145 0.0072352889485550187 0 0.00031997935388680177 0.0071009013805631042 0 0.00021878661448890255 0.0071697081024577128 0 0.00035134654080458145 0.0072352889485550187 0 0.00031997935388680177 0.0071009013805631042 0 0.00047907613599022211 0.0071092190696148807 0 0.00047907613599022211 0.0071092190696148807 0 0.00041759105612151551 0.0069805819588822744 0 0.00058496138648998005 0.0069410332910275971 0 0.00031997935388680177 0.0071009013805631042 0 0.00047907613599022211 0.0071092190696148807 0 0.00041759105612151551 0.0069805819588822744 0 0.00031997935388680177 0.0071009013805631042 0 0.00041759105612151551 0.0069805819588822744 0 0.00027578963036946358 0.0068660120631883204 0 0.00031997935388680177 0.0071009013805631042 0 0.00021878661448890255 0.0071697081024577128 0 0.00027578963036946358 0.0068660120631883204 0 0.00022088550527302449 0.0069302501690764254 0 0.0002613656846476437 0.007010703188812719 0 0.00039543344254538667 0.0068002683031283054 0 5.6721611804381998e-05 0.0071856157929377027 0 0.00021878661448890255 0.0071697081024577128 0 0.00027578963036946358 0.0068660120631883204 0 0.00010851780905594915 0.0070834669987443113 0 0.00034539494209599383 0.0068334181506190953 0 0.00022088550527302449 0.0069302501690764254 0 0.00039543344254538667 0.0068002683031283054 0 0.00032907180941178337 0.006659639208245572 0 0.00094246109628289313 0.007159706713194481 0 0.0010046798884411508 0.006814315131552731 0 0.0014936118899307449 0.0068095802987364479 0 0.0016663105516964412 0.0066752528430758995 0 0.0017346931819994269 0.0069627536786745371 0 0.00050795006396863341 0.0065124102854613704 0 0.00032907180941178337 0.006659639208245572 0 0.00051416916883910478 0.0066086201415923055 0 0.00051416916883910478 0.0066086201415923055 0 0.00047179254755058231 0.0068601112672651114 0 0.00057666037225637275 0.0066343297227986937 0 0.00039543344254538667 0.0068002683031283054 0 0.00032907180941178337 0.006659639208245572 0 0.00051416916883910478 0.0066086201415923055 0 0.00034539494209599383 0.0068334181506190953 0 0.00049820671290168761 0.0066248766679974499 0 0.00050795006396863341 0.0065124102854613704 0 0.00051416916883910478 0.0066086201415923055 0 0.00057666037225637275 0.0066343297227986937 0 0.00027578963036946358 0.0068660120631883204 0 0.00051416916883910478 0.0066086201415923055 0 0.00047179254755058231 0.0068601112672651114 0 0.00041759105612151551 0.0069805819588822744 0 0.00027578963036946358 0.0068660120631883204 0 0.00047179254755058231 0.0068601112672651114 0 0.00041759105612151551 0.0069805819588822744 0 0.00047179254755058231 0.0068601112672651114 0 0.00058496138648998005 0.0069410332910275971 0 0.00047179254755058231 0.0068601112672651114 0 0.00058496138648998005 0.0069410332910275971 0 0.00065523706596090539 0.0067930794525798725 0 0.00047179254755058231 0.0068601112672651114 0 0.00058436944622236272 0.0067309817969841935 0 0.0005463288376570029 0.0066032766179505414 0 0.00049433543805285467 0.0067978236964515576 0 0.0005312068344128383 0.0067207250882175109 0 0.00058496138648998005 0.0069410332910275971 0 0.00065523706596090539 0.0067930794525798725 0 0.00078275117098199293 0.0069122027325840265 0 0.00065523706596090539 0.0067930794525798725 0 0.00058436944622236272 0.0067309817969841935 0 0.00066448253934349888 0.0066662398874494403 0 0.00047179254755058231 0.0068601112672651114 0 0.00065523706596090539 0.0067930794525798725 0 0.00058436944622236272 0.0067309817969841935 0 0.00058436944622236272 0.0067309817969841935 0 0.00066448253934349888 0.0066662398874494403 0 0.0005463288376570029 0.0066032766179505414 0 0.00063515010831371121 0.0063572050264867185 0 0.0005463288376570029 0.0066032766179505414 0 0.00071479631373680852 0.0065577337476618348 0 0.00066448253934349888 0.0066662398874494403 0 0.0005463288376570029 0.0066032766179505414 0 0.00071479631373680852 0.0065577337476618348 0 0.00084460535887040844 0.0065426679379762282 0 0.00071479631373680852 0.0065577337476618348 0 0.00081143538221571285 0.0066974445230442853 0 0.00066448253934349888 0.0066662398874494403 0 0.00071479631373680852 0.0065577337476618348 0 0.00081143538221571285 0.0066974445230442853 0 0.00084460535887040844 0.0065426679379762282 0 0.00081143538221571285 0.0066974445230442853 0 0.00095891170302507696 0.0066548720166800185 0 0.00081143538221571285 0.0066974445230442853 0 0.00078275117098199293 0.0069122027325840265 0 0.00093050452459677885 0.0068044044485743443 0 0.00081143538221571285 0.0066974445230442853 0 0.00093050452459677885 0.0068044044485743443 0 0.00095891170302507696 0.0066548720166800185 0 0.00065523706596090539 0.0067930794525798725 0 0.00081143538221571285 0.0066974445230442853 0 0.00078275117098199293 0.0069122027325840265 0 0.00065523706596090539 0.0067930794525798725 0 0.00066448253934349888 0.0066662398874494403 0 0.00081143538221571285 0.0066974445230442853 0 0.00078275117098199293 0.0069122027325840265 0 0.00098349441734942923 0.0070005323792648386 0 0.00093050452459677885 0.0068044044485743443 0 0.00081036596197409355 0.0070743243387775667 0 0.00085770411757417884 0.0072047652555713038 0 0.00098349441734942923 0.0070005323792648386 0 0.00088817713805747483 0.0071179080924748317 0 0.0010246136387135117 0.0069395013926568322 0 0.00078275117098199293 0.0069122027325840265 0 0.00081036596197409355 0.0070743243387775667 0 0.00098349441734942923 0.0070005323792648386 0 0.00081036596197409355 0.0070743243387775667 0 0.00066464887923525231 0.0070638875313811618 0 0.00071586629136560645 0.0071827859483750882 0 0.00078275117098199293 0.0069122027325840265 0 0.00081036596197409355 0.0070743243387775667 0 0.00066464887923525231 0.0070638875313811618 0 0.00058496138648998005 0.0069410332910275971 0 0.00078275117098199293 0.0069122027325840265 0 0.00066464887923525231 0.0070638875313811618 0 0.00047907613599022211 0.0071092190696148807 0 0.00058496138648998005 0.0069410332910275971 0 0.00066464887923525231 0.0070638875313811618 0 0.00047907613599022211 0.0071092190696148807 0 0.00066464887923525231 0.0070638875313811618 0 0.0005742680420869811 0.0071815291209094386 0 0.00066464887923525231 0.0070638875313811618 0 0.00071586629136560645 0.0071827859483750882 0 0.0005742680420869811 0.0071815291209094386 0 0.00071586629136560645 0.0071827859483750882 0 0.0005742680420869811 0.0071815291209094386 0 0.00061742786105875049 0.0072843321197794634 0 0.00046258707064168411 0.0073060282861583739 0 0.00047907613599022211 0.0071092190696148807 0 0.0005742680420869811 0.0071815291209094386 0 0.00046258707064168411 0.0073060282861583739 0 0.0005742680420869811 0.0071815291209094386 0 0.00061742786105875049 0.0072843321197794634 0 0.00046258707064168411 0.0073060282861583739 0 0.00061742786105875049 0.0072843321197794634 0 0.00055347653824410414 0.0074507461566669904 0 0.00061742786105875049 0.0072843321197794634 0 0.00074061816217216455 0.0073507218331565257 0 0.00055347653824410414 0.0074507461566669904 0 0.00071586629136560645 0.0071827859483750882 0 0.00061742786105875049 0.0072843321197794634 0 0.00074061816217216455 0.0073507218331565257 0 0.00071586629136560645 0.0071827859483750882 0 0.00074061816217216455 0.0073507218331565257 0 0.00085770411757417884 0.0072047652555713038 0 0.00074061816217216455 0.0073507218331565257 0 0.00085770411757417884 0.0072047652555713038 0 0.0010285740433320679 0.0073122119328014315 0 0.00081036596197409355 0.0070743243387775667 0 0.00071586629136560645 0.0071827859483750882 0 0.00085770411757417884 0.0072047652555713038 0 -0.00038881907513037945 0.002650895371497851 0 -0.00033136952501293268 0.0026419784491073443 0 -0.00032611537482605597 0.0026917552804218282 0 -0.00038881907513037945 0.002650895371497851 0 -0.00033136952501293268 0.0026419784491073443 0 -0.00031179868147342816 0.0025954810155769618 0 0.00085770411757417884 0.0072047652555713038 0 0.0010285740433320679 0.0073122119328014315 0 0.0011238364812166763 0.0069217827923781002 0 -0.00029578014741145792 0.0026414130871207564 0 -0.00033136952501293268 0.0026419784491073443 0 -0.00031179868147342816 0.0025954810155769618 0 -0.00029578014741145792 0.0026414130871207564 0 -0.00033136952501293268 0.0026419784491073443 0 -0.00032611537482605597 0.0026917552804218282 0 -0.00015772095372787017 0.002352121725697676 0 0.00010563404979384823 0.0025682691609052568 0 -0.00012918049378951487 0.0024278049156515871 0 -0.00028756710375899323 0.0022678177269873936 0 0.0001722013326777711 0.0037573559334292098 0 0.0015642220488926207 0.0065501024183155215 0 0.0011238364812166763 0.0069217827923781002 0 0.0010869735233387085 0.0066171782879528773 0 0.00085770411757417884 0.0072047652555713038 0 0.0011238364812166763 0.0069217827923781002 0 0.0010869735233387085 0.0066171782879528773 0 0.0010285740433320679 0.0073122119328014315 0 0.0015642220488926207 0.0065501024183155215 0 0.0011238364812166763 0.0069217827923781002 0 0.00035692925928222907 0.0051342854301541299 0 0.0001722013326777711 0.0037573559334292098 0 0.00098349441734942923 0.0070005323792648386 0 0.0011193576910042478 0.0067551931263652677 0 0.00093050452459677885 0.0068044044485743443 0 0.0010246136387135117 0.0069395013926568322 0 0.00048353872579207303 0.0052609946372719572 0 0.0015642220488926207 0.0065501024183155215 0 0.0010869735233387085 0.0066171782879528773 0 0.0014011842309070727 0.0060330310586334743 0 0.0011193576910042478 0.0067551931263652677 0 0.00093050452459677885 0.0068044044485743443 0 0.00095891170302507696 0.0066548720166800185 0 -0.0002043155051423644 0.0053341988805293899 0 0.00048353872579207303 0.0052609946372719572 0 0.001026093530488678 0.0064718913545562173 0 0.0011193576910042478 0.0067551931263652677 0 0.00095891170302507696 0.0066548720166800185 0 -0.00078451634792930632 0.0046351204692210842 0 -0.00079415429473251686 0.0045761951230079423 0 -0.00080127702985087761 0.0046288255365573728 0 0.001026093530488678 0.0064718913545562173 0 0.00084460535887040844 0.0065426679379762282 0 0.00095891170302507696 0.0066548720166800185 0 -0.00044234415252058276 0.0038557651050200349 0 0.00048353872579207303 0.0052609946372719572 0 3.275338448019588e-05 0.0034741842139840396 0 0.00012715290687945766 0.0032777719137658543 0 -3.6113709230700053e-05 0.0032936358605354303 0 -0.00084793615285361473 0.0046280628682038548 0 -0.00079415429473251686 0.0045761951230079423 0 -0.00080127702985087761 0.0046288255365573728 0 0.0001722013326777711 0.0037573559334292098 0 1.0805299533003033e-05 0.002990713354857726 0 0.00010563404979384823 0.0025682691609052568 0 -2.7650404582302115e-06 0.0029597786819763995 0 -0.00017917602337094059 0.0026510460789212521 0 8.4438532421868739e-05 0.0031542054219281068 0 0.00012715290687945766 0.0032777719137658543 0 -3.6113709230700053e-05 0.0032936358605354303 0 0.0001722013326777711 0.0037573559334292098 0 0.00048353872579207303 0.0052609946372719572 0 -2.7650404582302115e-06 0.0029597786819763995 0 -0.00017917602337094059 0.0026510460789212521 0 -0.00038228566244225665 0.0030084356053478862 0 -0.00026060425726664576 0.003509516244650793 0 1.0805299533003033e-05 0.002990713354857726 0 3.275338448019588e-05 0.0034741842139840396 0 -0.00024503510482163287 0.0034766651603260535 0 -3.6113709230700053e-05 0.0032936358605354303 0 -0.00024503510482163287 0.0034766651603260535 0 -2.7650404582302115e-06 0.0029597786819763995 0 -0.00038228566244225665 0.0030084356053478862 0 -0.00024503510482163287 0.0034766651603260535 0 -0.0006704865321737406 0.0033846470009716192 0 -0.00038228566244225665 0.0030084356053478862 0 -0.00017917602337094059 0.0026510460789212521 0 -0.00038228566244225665 0.0030084356053478862 0 -0.00051741694788969104 0.0025892402925488138 0 -0.00017917602337094059 0.0026510460789212521 0 -0.00051741694788969104 0.0025892402925488138 0 -0.00029617393936752544 0.0024525249921573205 0 -0.00051741694788969104 0.0025892402925488138 0 -0.00029617393936752544 0.0024525249921573205 0 -0.00054734900688689116 0.0022597692212599453 0 -0.00029617393936752544 0.0024525249921573205 0 -0.00021330689367108537 0.0022985916452122807 0 -0.00054734900688689116 0.0022597692212599453 0 -0.00017917602337094059 0.0026510460789212521 0 -0.00029617393936752544 0.0024525249921573205 0 -0.00012918049378951487 0.0024278049156515871 0 0.00010563404979384823 0.0025682691609052568 0 -0.00017917602337094059 0.0026510460789212521 0 -0.00012918049378951487 0.0024278049156515871 0 -0.00029617393936752544 0.0024525249921573205 0 -0.00012918049378951487 0.0024278049156515871 0 -0.00021330689367108537 0.0022985916452122807 0 -0.00015772095372787017 0.002352121725697676 0 -0.00021330689367108537 0.0022985916452122807 0 -0.00015075969978798338 0.0024668900171169574 0 -0.00015772095372787017 0.002352121725697676 0 -0.00012918049378951487 0.0024278049156515871 0 -0.00021330689367108537 0.0022985916452122807 0 -0.00021330689367108537 0.0022985916452122807 0 -0.00044284535033691256 0.0020973940021060001 0 -0.00050344363859416779 0.0018887800397927794 0 -0.00021762456183125096 0.0022820061332384377 0 -0.00022540107229846278 0.0022833479756635103 0 -0.00021330689367108537 0.0022985916452122807 0 -0.00044284535033691256 0.0020973940021060001 0 -0.00054734900688689116 0.0022597692212599453 0 -0.00021330689367108537 0.0022985916452122807 0 1.8899933126655653e-05 0.0025601104062760779 0 -0.00015075969978798338 0.0024668900171169574 0 -0.00061848567818999169 0.0019527999930832127 0 -0.00044284535033691256 0.0020973940021060001 0 -0.00050344363859416779 0.0018887800397927794 0 1.8899933126655653e-05 0.0025601104062760779 0 -0.00015075969978798338 0.0024668900171169574 0 -0.00022976644156956068 0.0026672949531004655 0 -0.00015772095372787017 0.002352121725697676 0 -0.00015075969978798338 0.0024668900171169574 0 -0.00022976644156956068 0.0026672949531004655 0 -0.00022976644156956068 0.0026672949531004655 0 -6.2426563191070048e-05 0.0027536279447958078 0 -0.00019499097042939797 0.0028584886569733617 0 1.8899933126655653e-05 0.0025601104062760779 0 -0.00022976644156956068 0.0026672949531004655 0 -6.2426563191070048e-05 0.0027536279447958078 0 -0.00029938344629635568 0.0021207248711447016 0 -0.00022540107229846278 0.0022833479756635103 0 0.00012225608852177981 0.0028134349666542042 0 1.8899933126655653e-05 0.0025601104062760779 0 -6.2426563191070048e-05 0.0027536279447958078 0 5.4757259577180129e-06 0.0028784630686639503 0 -1.1264029411514193e-05 0.0030298166083965383 0 -0.00019499097042939797 0.0028584886569733617 0 0.00010657079560488913 0.0029573702509643014 0 0.00012225608852177981 0.0028134349666542042 0 5.4757259577180129e-06 0.0028784630686639503 0 0.00012225608852177981 0.0028134349666542042 0 -6.2426563191070048e-05 0.0027536279447958078 0 5.4757259577180129e-06 0.0028784630686639503 0 0.00010657079560488913 0.0029573702509643014 0 5.4757259577180129e-06 0.0028784630686639503 0 -1.1264029411514193e-05 0.0030298166083965383 0 0.00036747133432963664 0.0045930417305120432 0 0.00026843860929279316 0.0045007148560040127 0 0.00038755059722435164 0.0044028921527927778 0 0.00036747133432963664 0.0045930417305120432 0 0.00047765557865382723 0.0044781314526493787 0 0.00038755059722435164 0.0044028921527927778 0 0.00036747133432963664 0.0045930417305120432 0 0.0005195531870569362 0.0044996580656681846 0 0.00047765557865382723 0.0044781314526493787 0 0.00022730720278234132 0.0038339693629639848 0 0.00012708068676733659 0.0037614412560014522 0 0.0005195531870569362 0.0044996580656681846 0 0.0005124169713681873 0.00448725659044618 0 0.00047765557865382723 0.0044781314526493787 0 -1.1264029411514193e-05 0.0030298166083965383 0 -0.00019499097042939797 0.0028584886569733617 0 -0.00022755891553222018 0.0030150551089384615 0 -6.2426563191070048e-05 0.0027536279447958078 0 5.4757259577180129e-06 0.0028784630686639503 0 -0.00019499097042939797 0.0028584886569733617 0 -0.00019499097042939797 0.0028584886569733617 0 -0.00031237914218124437 0.0029237488722101174 0 -0.00022755891553222018 0.0030150551089384615 0 -0.00019499097042939797 0.0028584886569733617 0 -0.00031237914218124437 0.0029237488722101174 0 -0.00036658250580368985 0.0028170754250182711 0 -0.00031237914218124437 0.0029237488722101174 0 -0.00022755891553222018 0.0030150551089384615 0 -0.00038978975347521254 0.0030105732233524185 0 0.00012708068676733659 0.0037614412560014522 0 2.7131313120325209e-05 0.0036771385089754268 0 0.0005195531870569362 0.0044996580656681846 0 0.00043659204447390196 0.0044347366883325957 0 0.00047682908982577351 0.0045012608820088193 0 0.0005195531870569362 0.0044996580656681846 0 0.00047682908982577351 0.0045012608820088193 0 0.0005124169713681873 0.00448725659044618 0 0.00043659204447390196 0.0044347366883325957 0 0.00037746070963390267 0.0044837538869246631 0 0.00047682908982577351 0.0045012608820088193 0 -0.00031237914218124437 0.0029237488722101174 0 -0.00036658250580368985 0.0028170754250182711 0 -0.00046665591332896558 0.0029120929344879972 0 -0.00031237914218124437 0.0029237488722101174 0 -0.00038978975347521254 0.0030105732233524185 0 -0.00046665591332896558 0.0029120929344879972 0 -0.00036658250580368985 0.0028170754250182711 0 -0.00032611537482605597 0.0026917552804218282 0 -0.00051920838403685197 0.0027997621072462136 0 -0.00022976644156956068 0.0026672949531004655 0 -0.00019499097042939797 0.0028584886569733617 0 -0.00036658250580368985 0.0028170754250182711 0 -0.00022976644156956068 0.0026672949531004655 0 -0.00036658250580368985 0.0028170754250182711 0 -0.00032611537482605597 0.0026917552804218282 0 -0.00029578014741145792 0.0026414130871207564 0 -0.00022976644156956068 0.0026672949531004655 0 -0.00032611537482605597 0.0026917552804218282 0 -0.00028756710375899323 0.0022678177269873936 0 -0.00018969448378267531 0.0027603195753720202 0 -0.00038881907513037945 0.002650895371497851 0 -0.00032611537482605597 0.0026917552804218282 0 -0.00051920838403685197 0.0027997621072462136 0 0.00074061816217216455 0.0073507218331565257 0 0.0010285740433320679 0.0073122119328014315 0 0.00073062658610526855 0.0076723091247627648 0 0.00035692925928222907 0.0051342854301541299 0 0.00013945860503721593 0.0051603930416405557 0 0.00074061816217216455 0.0073507218331565257 0 0.00055347653824410414 0.0074507461566669904 0 0.00073062658610526855 0.0076723091247627648 0 0.00055347653824410414 0.0074507461566669904 0 0.00073062658610526855 0.0076723091247627648 0 0.00043741787721972796 0.0076212148348503029 0 0.00073062658610526855 0.0076723091247627648 0 0.00042062142389282496 0.0077957607683616379 0 0.00043741787721972796 0.0076212148348503029 0 -0.00036658250580368985 0.0028170754250182711 0 -0.00051920838403685197 0.0027997621072462136 0 -0.00046665591332896558 0.0029120929344879972 0 0.00048186269861932363 0.0045390564406245417 0 -0.00017141967282951375 0.0042752655692747249 0 0.00043659204447390196 0.0044347366883325957 0 0.00037746070963390267 0.0044837538869246631 0 0.00025566995464953708 0.0044126710358078167 0 -0.00038978975347521254 0.0030105732233524185 0 -0.00046665591332896558 0.0029120929344879972 0 -0.0005436808475788057 0.0030279617801285681 0 0.00024035115283802506 0.004498889680236943 0 0.00037746070963390267 0.0044837538869246631 0 0.00017671271968281742 0.0043708281309170595 0 2.7131313120325209e-05 0.0036771385089754268 0 -0.00017141967282951375 0.0042752655692747249 0 -0.00017141967282951375 0.0042752655692747249 0 -0.00055862294421553718 0.0060322584631645757 0 4.7035039568996747e-05 0.0044559144697187596 0 0.00017671271968281742 0.0043708281309170595 0 -8.8175947230176175e-05 0.0043742646051699941 0 -0.00029586060993624328 0.005252551504076922 0 -0.00032559658854683447 0.0052437014073970908 0 -0.00033740356042766712 0.0052617628505966466 0 0.00024035115283802506 0.004498889680236943 0 4.7035039568996747e-05 0.0044559144697187596 0 0.00017671271968281742 0.0043708281309170595 0 -0.00017141967282951375 0.0042752655692747249 0 -0.00021212018062182267 0.0056982391854865705 0 -0.00051920838403685197 0.0027997621072462136 0 -0.00046665591332896558 0.0029120929344879972 0 -0.00063631600094720753 0.0029884109205680766 0 0.00013945860503721593 0.0051603930416405557 0 -0.00021212018062182267 0.0056982391854865705 0 0.00073062658610526855 0.0076723091247627648 0 0.00049483308403217257 0.0079765808472415968 0 0.00042062142389282496 0.0077957607683616379 0 -0.00046665591332896558 0.0029120929344879972 0 -0.0005436808475788057 0.0030279617801285681 0 -0.00063631600094720753 0.0029884109205680766 0 -0.00068076924649123293 0.0073679076027813803 0 -0.00045295095503250233 0.007378060093411758 0 -0.00041122019683184169 0.0075449041391064927 0 0.00049483308403217257 0.0079765808472415968 0 0.00022389531506879719 0.0078484604464560334 0 0.00042062142389282496 0.0077957607683616379 0 -0.00021212018062182267 0.0056982391854865705 0 3.5057311927796364e-05 0.0079597524053278308 0 -0.00021212018062182267 0.0056982391854865705 0 -0.00055862294421553718 0.0060322584631645757 0 -0.00068076924649123293 0.0073679076027813803 0 -0.0006142896424785381 0.0072726026970121749 0 -0.00045295095503250233 0.007378060093411758 0 4.7035039568996747e-05 0.0044559144697187596 0 -8.8175947230176175e-05 0.0043742646051699941 0 -0.00020800607238775432 0.0045490617178739132 0 -0.001389261779651928 0.0071348949546228418 0 -0.00081868797212879523 0.0071768200845627201 0 -0.0012084087471665352 0.0068675458965654149 0 -0.00055862294421553718 0.0060322584631645757 0 -0.00075522237946451282 0.0056333337991688647 0 -0.00085051038332084334 0.0069440717552260106 0 -0.00081868797212879523 0.0071768200845627201 0 -0.0012084087471665352 0.0068675458965654149 0 -0.0006142896424785381 0.0072726026970121749 0 -0.00028535619059322757 0.0072967285909925012 0 -0.00045295095503250233 0.007378060093411758 0 -0.00055862294421553718 0.0060322584631645757 0 -0.00064052072756596006 0.0073643948326904728 0 -0.00028535619059322757 0.0072967285909925012 0 -0.00026085435477468904 0.007453569052970033 0 -0.00045295095503250233 0.007378060093411758 0 -0.00026085435477468904 0.007453569052970033 0 -0.00045295095503250233 0.007378060093411758 0 -0.00041122019683184169 0.0075449041391064927 0 -0.00013410100666382834 0.0076391511808081534 0 3.5057311927796364e-05 0.0079597524053278308 0 -5.9037423496357663e-05 0.0077199315755326981 0 -0.00026085435477468904 0.007453569052970033 0 -0.00041122019683184169 0.0075449041391064927 0 -5.9037423496357663e-05 0.0077199315755326981 0 0.00022389531506879719 0.0078484604464560334 0 0.00022523060569135201 0.0076576226390178337 0 0.00022523060569135201 0.0076576226390178337 0 0.00042062142389282496 0.0077957607683616379 0 0.00043741787721972796 0.0076212148348503029 0 0.00022389531506879719 0.0078484604464560334 0 0.00022523060569135201 0.0076576226390178337 0 0.00042062142389282496 0.0077957607683616379 0 0.00022523060569135201 0.0076576226390178337 0 0.00043741787721972796 0.0076212148348503029 0 0.00036090702759544984 0.0074824389248301024 0 0.00055347653824410414 0.0074507461566669904 0 0.00043741787721972796 0.0076212148348503029 0 0.00036090702759544984 0.0074824389248301024 0 0.00046258707064168411 0.0073060282861583739 0 0.00055347653824410414 0.0074507461566669904 0 0.00036090702759544984 0.0074824389248301024 0 0.00022523060569135201 0.0076576226390178337 0 0.00036090702759544984 0.0074824389248301024 0 0.0001870595317947873 0.0074829983467979847 0 0.0003102856960930945 0.0073650563995576058 0 0.00036090702759544984 0.0074824389248301024 0 0.0001870595317947873 0.0074829983467979847 0 6.4035518681563621e-05 0.0075966232803146762 0 8.6626090413250922e-05 0.007490232281210916 0 0.0001870595317947873 0.0074829983467979847 0 6.4035518681563621e-05 0.0075966232803146762 0 0.00022523060569135201 0.0076576226390178337 0 0.0001870595317947873 0.0074829983467979847 0 -0.00030390542924308697 0.0054894733825038861 0 -0.00072174175559961611 0.0053900017037462767 0 -0.00012238763678138915 0.0062919932061773192 0 -0.00032022824295078778 0.0061231545371600834 0 -0.00013646672513977577 0.0062968844198791757 0 9.9120171720904491e-05 0.0067809019112100048 0 3.8424238390677258e-05 0.0068343312639907285 0 -0.00012238763678138915 0.0062919932061773192 0 9.1833243005869662e-06 0.0054749646968641659 0 0.00010222561896259936 0.0057813298011823765 0 -0.00012238763678138915 0.0062919932061773192 0 9.1833243005869662e-06 0.0054749646968641659 0 -0.00030390542924308697 0.0054894733825038861 0 -0.00012238763678138915 0.0062919932061773192 0 9.1833243005869662e-06 0.0054749646968641659 0 -0.00022316164643967765 0.0052692925442822426 0 -1.1853446137274991e-05 0.0050291439609726997 0 9.1833243005869662e-06 0.0054749646968641659 0 -0.00030390542924308697 0.0054894733825038861 0 -0.00022316164643967765 0.0052692925442822426 0 -0.00030390542924308697 0.0054894733825038861 0 -0.00022316164643967765 0.0052692925442822426 0 -0.00048881668780611034 0.0052882305304644567 0 -0.00022316164643967765 0.0052692925442822426 0 -0.00048881668780611034 0.0052882305304644567 0 -0.00026367152927360627 0.0050618986969189449 0 -0.00030390542924308697 0.0054894733825038861 0 -0.00048881668780611034 0.0052882305304644567 0 -0.00072174175559961611 0.0053900017037462767 0 -0.00061626469072407445 0.0055647638736613225 0 -0.00048881668780611034 0.0052882305304644567 0 -0.00072174175559961611 0.0053900017037462767 0 -0.00065709101816652498 0.0055193611795192133 0 -0.00083474848863937284 0.0055439436682547579 0 -0.00061626469072407445 0.0055647638736613225 0 -0.00048881668780611034 0.0052882305304644567 0 -0.00053542304562050991 0.0049223783493911929 0 -0.00048881668780611034 0.0052882305304644567 0 -0.00053542304562050991 0.0049223783493911929 0 -0.00026367152927360627 0.0050618986969189449 0 -0.00074154981577218828 0.0060147800946165801 0 -0.001149736918566727 0.006105576070506301 0 -0.00099447598792594839 0.0064847183195637275 0 -0.00096949496001401132 0.0068705086077324546 0 -0.00075522237946451282 0.0056333337991688647 0 -0.00083474848863937284 0.0055439436682547579 0 -0.00075522237946451282 0.0056333337991688647 0 -0.001001667224820791 0.0068825265803360942 0 -0.00099447598792594839 0.0064847183195637275 0 -0.0015963603872710913 0.0067592032376617714 0 -0.001149736918566727 0.006105576070506301 0 -0.00099447598792594839 0.0064847183195637275 0 -0.0015963603872710913 0.0067592032376617714 0 -0.00075522237946451282 0.0056333337991688647 0 0.00021157582581567171 0.004504153317769038 0 -0.00053542304562050991 0.0049223783493911929 0 -0.00028363356839596792 0.0045349466118057178 0 -0.00012330749638975988 0.0048197546141287018 0 -0.00028363356839596792 0.0045349466118057178 0 -0.00012330749638975988 0.0048197546141287018 0 0.00013755826218557287 0.004605066196921033 0 -0.00053542304562050991 0.0049223783493911929 0 -0.00012330749638975988 0.0048197546141287018 0 -0.00026367152927360627 0.0050618986969189449 0 -0.00022316164643967765 0.0052692925442822426 0 -0.00026367152927360627 0.0050618986969189449 0 -1.1853446137274991e-05 0.0050291439609726997 0 -0.00012330749638975988 0.0048197546141287018 0 -0.00026367152927360627 0.0050618986969189449 0 -1.1853446137274991e-05 0.0050291439609726997 0 0.00012091626301998721 0.0048239276981643037 0 0.00013755826218557287 0.004605066196921033 0 0.00031981371246562578 0.0047529800228470215 0 -1.1853446137274991e-05 0.0050291439609726997 0 0.00012091626301998721 0.0048239276981643037 0 0.00020587067669236288 0.0050376825240158775 0 -0.00012330749638975988 0.0048197546141287018 0 -1.1853446137274991e-05 0.0050291439609726997 0 0.00012091626301998721 0.0048239276981643037 0 -0.00012330749638975988 0.0048197546141287018 0 0.00012091626301998721 0.0048239276981643037 0 0.00013755826218557287 0.004605066196921033 0 4.7035039568996747e-05 0.0044559144697187596 0 -0.00020800607238775432 0.0045490617178739132 0 0.00012088801738921923 0.00458770009365947 0 0.00024035115283802506 0.004498889680236943 0 4.7035039568996747e-05 0.0044559144697187596 0 0.00012088801738921923 0.00458770009365947 0 0.00013755826218557287 0.004605066196921033 0 0.00031981371246562578 0.0047529800228470215 0 0.00040292553604818424 0.0045851115455085509 0 0.00021157582581567171 0.004504153317769038 0 0.00035567938276503437 0.0046084153345438998 0 0.00024035115283802506 0.004498889680236943 0 0.00012088801738921923 0.00458770009365947 0 0.00040292553604818424 0.0045851115455085509 0 0.00024035115283802506 0.004498889680236943 0 0.00037746070963390267 0.0044837538869246631 0 0.00040292553604818424 0.0045851115455085509 0 0.00012091626301998721 0.0048239276981643037 0 0.00031981371246562578 0.0047529800228470215 0 0.00020587067669236288 0.0050376825240158775 0 0.00031981371246562578 0.0047529800228470215 0 0.00037312262084206681 0.0048756431615923166 0 0.00020587067669236288 0.0050376825240158775 0 0.00031981371246562578 0.0047529800228470215 0 0.00037312262084206681 0.0048756431615923166 0 0.00043460735912576514 0.0046985952459916262 0 0.00037312262084206681 0.0048756431615923166 0 0.00027196033708432141 0.0052503456365822609 0 0.0004427327872790134 0.0048858691252092017 0 0.00037312262084206681 0.0048756431615923166 0 0.00020587067669236288 0.0050376825240158775 0 0.00027196033708432141 0.0052503456365822609 0 9.1833243005869662e-06 0.0054749646968641659 0 -1.1853446137274991e-05 0.0050291439609726997 0 0.00020587067669236288 0.0050376825240158775 0 9.1833243005869662e-06 0.0054749646968641659 0 0.00020587067669236288 0.0050376825240158775 0 0.00027196033708432141 0.0052503456365822609 0 9.1833243005869662e-06 0.0054749646968641659 0 0.00027196033708432141 0.0052503456365822609 0 0.00010222561896259936 0.0057813298011823765 0 0.00027196033708432141 0.0052503456365822609 0 0.00041968196888467077 0.0051555171094093879 0 0.00023132360349699949 0.0056559214079960419 0 0.00027196033708432141 0.0052503456365822609 0 0.00023132360349699949 0.0056559214079960419 0 0.00010222561896259936 0.0057813298011823765 0 0.00027196033708432141 0.0052503456365822609 0 0.00041968196888467077 0.0051555171094093879 0 0.0004427327872790134 0.0048858691252092017 0 0.00047052836186253148 0.0047861468421312404 0 0.00050327043187355428 0.0046031634786422651 0 0.0004427327872790134 0.0048858691252092017 0 0.00041968196888467077 0.0051555171094093879 0 0.00047052836186253148 0.0047861468421312404 0 0.0004427327872790134 0.0048858691252092017 0 0.00047052836186253148 0.0047861468421312404 0 0.00050327043187355428 0.0046031634786422651 0 0.00050571496505604982 0.0043941524028517894 0 0.00045803060332930124 0.0045555696132599487 0 0.00047052836186253148 0.0047861468421312404 0 0.00050571496505604982 0.0043941524028517894 0 0.00050327043187355428 0.0046031634786422651 0 0.00051426018478926343 0.0044342499550728354 0 0.00050571496505604982 0.0043941524028517894 0 0.00050327043187355428 0.0046031634786422651 0 0.00051426018478926343 0.0044342499550728354 0 0.00051424188916376098 0.004529072786253311 0 0.00051426018478926343 0.0044342499550728354 0 0.00051424188916376098 0.004529072786253311 0 0.00051343397934320819 0.0044014145955246576 0 0.00050327043187355428 0.0046031634786422651 0 0.00051424188916376098 0.004529072786253311 0 0.00047454067761486534 0.0046928569570374272 0 0.00050327043187355428 0.0046031634786422651 0 0.00047454067761486534 0.0046928569570374272 0 0.0004427327872790134 0.0048858691252092017 0 0.00037312262084206681 0.0048756431615923166 0 0.00047454067761486534 0.0046928569570374272 0 0.0004427327872790134 0.0048858691252092017 0 0.00037312262084206681 0.0048756431615923166 0 0.00047454067761486534 0.0046928569570374272 0 0.00043460735912576514 0.0046985952459916262 0 0.00031981371246562578 0.0047529800228470215 0 0.00043460735912576514 0.0046985952459916262 0 0.00045953595149353203 0.0045941498552356467 0 0.00031981371246562578 0.0047529800228470215 0 0.00045953595149353203 0.0045941498552356467 0 0.00040292553604818424 0.0045851115455085509 0 0.00047454067761486534 0.0046928569570374272 0 0.00043460735912576514 0.0046985952459916262 0 0.00049626210155004336 0.004579049768005123 0 0.00043460735912576514 0.0046985952459916262 0 0.00045953595149353203 0.0045941498552356467 0 0.00049626210155004336 0.004579049768005123 0 0.00045953595149353203 0.0045941498552356467 0 0.00050925753263170246 0.0045158256324419176 0 0.00049626210155004336 0.004579049768005123 0 0.00045953595149353203 0.0045941498552356467 0 0.00040292553604818424 0.0045851115455085509 0 0.00047682908982577351 0.0045012608820088193 0 0.00045953595149353203 0.0045941498552356467 0 0.00047682908982577351 0.0045012608820088193 0 0.00050925753263170246 0.0045158256324419176 0 0.00037746070963390267 0.0044837538869246631 0 0.00040292553604818424 0.0045851115455085509 0 0.00047682908982577351 0.0045012608820088193 0 0.00047682908982577351 0.0045012608820088193 0 0.0005124169713681873 0.00448725659044618 0 0.00050925753263170246 0.0045158256324419176 0 0.0005124169713681873 0.00448725659044618 0 0.00050925753263170246 0.0045158256324419176 0 0.00051084509507582905 0.0044369438387744896 0 0.00050925753263170246 0.0045158256324419176 0 0.00051683207271327719 0.0044891606501136277 0 0.00051084509507582905 0.0044369438387744896 0 0.00051683207271327719 0.0044891606501136277 0 0.00051343397934320819 0.0044014145955246576 0 0.00051084509507582905 0.0044369438387744896 0 0.00050925753263170246 0.0045158256324419176 0 0.00051683207271327719 0.0044891606501136277 0 0.00049626210155004336 0.004579049768005123 0 0.00051424188916376098 0.004529072786253311 0 0.00047454067761486534 0.0046928569570374272 0 0.00049626210155004336 0.004579049768005123 0 0.00051424188916376098 0.004529072786253311 0 0.00051683207271327719 0.0044891606501136277 0 0.00049626210155004336 0.004579049768005123 0 0.00051424188916376098 0.004529072786253311 0 0.00051683207271327719 0.0044891606501136277 0 0.00051343397934320819 0.0044014145955246576 0 0.00051343397934320819 0.0044014145955246576 0 0.00046012318478722334 0.0043045020824963231 0 0.00049960757549729023 0.0042728716380606062 0 0.00046012318478722334 0.0043045020824963231 0 0.00041330239906996273 0.0041314120594889503 0 0.00049960757549729023 0.0042728716380606062 0 0.00051343397934320819 0.0044014145955246576 0 0.00046012318478722334 0.0043045020824963231 0 0.00051084509507582905 0.0044369438387744896 0 0.00046012318478722334 0.0043045020824963231 0 0.00051084509507582905 0.0044369438387744896 0 0.00038755059722435164 0.0044028921527927778 0 0.00051084509507582905 0.0044369438387744896 0 0.00047765557865382723 0.0044781314526493787 0 0.00038755059722435164 0.0044028921527927778 0 0.0005124169713681873 0.00448725659044618 0 0.00051084509507582905 0.0044369438387744896 0 0.00047765557865382723 0.0044781314526493787 0 0.00026843860929279316 0.0045007148560040127 0 0.00038755059722435164 0.0044028921527927778 0 0.00015896803940176061 0.004375324072983554 0 0.00038755059722435164 0.0044028921527927778 0 0.00015896803940176061 0.004375324072983554 0 0.00020190678762157426 0.0042015111790393448 0 0.00038755059722435164 0.0044028921527927778 0 0.00033927526131593335 0.0042025911436955037 0 0.00020190678762157426 0.0042015111790393448 0 0.00046012318478722334 0.0043045020824963231 0 0.00038755059722435164 0.0044028921527927778 0 0.00033927526131593335 0.0042025911436955037 0 0.00046012318478722334 0.0043045020824963231 0 0.00033927526131593335 0.0042025911436955037 0 0.00041330239906996273 0.0041314120594889503 0 0.00033927526131593335 0.0042025911436955037 0 0.00020190678762157426 0.0042015111790393448 0 0.00022430836021051809 0.0039579702561684596 0 0.00033927526131593335 0.0042025911436955037 0 0.00041330239906996273 0.0041314120594889503 0 0.00022430836021051809 0.0039579702561684596 0 0.00031916438254542652 0.0038903103323191901 0 0.00041330239906996273 0.0041314120594889503 0 0.00022430836021051809 0.0039579702561684596 0 0.00031916438254542652 0.0038903103323191901 0 0.00048532289283932011 0.0041220287227507861 0 0.00041179857919082334 0.0039234695337689411 0 0.00031916438254542652 0.0038903103323191901 0 0.00041330239906996273 0.0041314120594889503 0 0.00048532289283932011 0.0041220287227507861 0 0.00041330239906996273 0.0041314120594889503 0 0.00049960757549729023 0.0042728716380606062 0 0.00048532289283932011 0.0041220287227507861 0 0.00051426018478926343 0.0044342499550728354 0 0.00051343397934320819 0.0044014145955246576 0 0.00049960757549729023 0.0042728716380606062 0 0.00051426018478926343 0.0044342499550728354 0 0.00049960757549729023 0.0042728716380606062 0 0.00050571496505604982 0.0043941524028517894 0 0.00049960757549729023 0.0042728716380606062 0 0.00048532289283932011 0.0041220287227507861 0 0.00050571496505604982 0.0043941524028517894 0 0.00048532289283932011 0.0041220287227507861 0 0.00052920454607307882 0.0040860096052581897 0 0.00050571496505604982 0.0043941524028517894 0 0.00052920454607307882 0.0040860096052581897 0 0.00050571496505604982 0.0043941524028517894 0 0.00046731208737517421 0.0043527514994634326 0 0.00045803060332930124 0.0045555696132599487 0 0.00046731208737517421 0.0043527514994634326 0 0.00041730821118396053 0.0044325500250183081 0 0.00045803060332930124 0.0045555696132599487 0 0.00050571496505604982 0.0043941524028517894 0 0.00046731208737517421 0.0043527514994634326 0 0.00052920454607307882 0.0040860096052581897 0 0.00046731208737517421 0.0043527514994634326 0 0.00041730821118396053 0.0044325500250183081 0 0.00052920454607307882 0.0040860096052581897 0 0.00044111008454724446 0.0038351513045128691 0 0.0003660561420478885 0.0034139658990470197 0 0.00044111008454724446 0.0038351513045128691 0 0.00023468143594703101 0.0035834366349904198 0 0.00024483762698623466 0.0033299402402016853 0 0.00031916438254542652 0.0038903103323191901 0 0.00023468143594703101 0.0035834366349904198 0 0.00041179857919082334 0.0039234695337689411 0 0.00048532289283932011 0.0041220287227507861 0 0.00052920454607307882 0.0040860096052581897 0 0.00041179857919082334 0.0039234695337689411 0 0.00052920454607307882 0.0040860096052581897 0 0.00044111008454724446 0.0038351513045128691 0 0.00041179857919082334 0.0039234695337689411 0 0.00044111008454724446 0.0038351513045128691 0 0.00023468143594703101 0.0035834366349904198 0 0.00041179857919082334 0.0039234695337689411 0 0.00044111008454724446 0.0038351513045128691 0 0.00024483762698623466 0.0033299402402016853 0 0.00029991837500815624 0.0028406150055727206 0 0.00044111008454724446 0.0038351513045128691 0 0.0003660561420478885 0.0034139658990470197 0 0.00027033858754325207 0.003392672945279957 0 0.00044178752101371835 0.0037591485829967905 0 0.0002586273153177316 0.003154680618944835 0 0.00050477692918483787 0.0040649721591650093 0 0.00036430813331047652 0.0039441478952783274 0 0.00024483762698623466 0.0033299402402016853 0 0.00029991837500815624 0.0028406150055727206 0 0.00015397969703115084 0.0030755525132607703 0 0.00041730821118396053 0.0044325500250183081 0 0.00041554535516852677 0.0044194200056641023 0 0.00047114155025121439 0.0043642408635097786 0 0.00046048703467982285 0.0045549126738811266 0 0.0005203688081071977 0.0045482777701139725 0 0.00052920454607307882 0.0040860096052581897 0 0.00039071370394011198 0.004485482229339993 0 0.00041730821118396053 0.0044325500250183081 0 0.00045803060332930124 0.0045555696132599487 0 0.00041730821118396053 0.0044325500250183081 0 0.00047114155025121439 0.0043642408635097786 0 0.00039071370394011198 0.004485482229339993 0 0.00041730821118396053 0.0044325500250183081 0 0.00041554535516852677 0.0044194200056641023 0 0.00041554535516852677 0.0044194200056641023 0 0.00039608280896208625 0.0043867690279462352 0 0.00047114155025121439 0.0043642408635097786 0 0.00047114155025121439 0.0043642408635097786 0 0.00038029819867671467 0.0043224429203141661 0 0.00032236330732480069 0.0042129874381574171 0 0.00039608280896208625 0.0043867690279462352 0 0.00038029819867671467 0.0043224429203141661 0 0.00033400897124123029 0.0043210187077116656 0 0.00039608280896208625 0.0043867690279462352 0 0.00047114155025121439 0.0043642408635097786 0 0.00038029819867671467 0.0043224429203141661 0 0.00038029819867671467 0.0043224429203141661 0 0.00033400897124123029 0.0043210187077116656 0 0.00032236330732480069 0.0042129874381574171 0 0.00039071370394011198 0.004485482229339993 0 5.5594097898378758e-05 0.0041382018364870439 0 0.0002402301648048736 0.0042238386516781391 0 0.00039071370394011198 0.004485482229339993 0 0.00033400897124123029 0.0043210187077116656 0 0.0002402301648048736 0.0042238386516781391 0 0.0002586273153177316 0.003154680618944835 0 3.3401721975171583e-05 0.0030657128630423116 0 0.0003660561420478885 0.0034139658990470197 0 0.00027033858754325207 0.003392672945279957 0 0.00012276676445409642 0.0034094613358675347 0 0.00033400897124123029 0.0043210187077116656 0 0.0002402301648048736 0.0042238386516781391 0 0.00032236330732480069 0.0042129874381574171 0 0.00036430813331047652 0.0039441478952783274 0 0.00011219489121639849 0.0037813321105837753 0 0.00039071370394011198 0.004485482229339993 0 0.00039608280896208625 0.0043867690279462352 0 0.00033400897124123029 0.0043210187077116656 0 0.00039071370394011198 0.004485482229339993 0 0.00041554535516852677 0.0044194200056641023 0 0.00039608280896208625 0.0043867690279462352 0 5.5594097898378758e-05 0.0041382018364870439 0 0.0002402301648048736 0.0042238386516781391 0 0.00016268363005443324 0.0040355206049732754 0 0.00023678816345909054 0.0040919741151096006 0 0.00027788734086439849 0.0039332832063758427 0 0.00032236330732480069 0.0042129874381574171 0 0.00027033858754325207 0.003392672945279957 0 0.00012276676445409642 0.0034094613358675347 0 0.00011611620605162201 0.0034225843123129682 0 0.0002402301648048736 0.0042238386516781391 0 0.00016268363005443324 0.0040355206049732754 0 0.00023678816345909054 0.0040919741151096006 0 0.0002402301648048736 0.0042238386516781391 0 0.00023678816345909054 0.0040919741151096006 0 0.00032236330732480069 0.0042129874381574171 0 0.00016268363005443324 0.0040355206049732754 0 0.00023678816345909054 0.0040919741151096006 0 0.00027788734086439849 0.0039332832063758427 0 5.5594097898378758e-05 0.0041382018364870439 0 0.00016268363005443324 0.0040355206049732754 0 0.00012395308195923326 0.0039055829953624876 0 5.5594097898378758e-05 0.0041382018364870439 0 0.00012395308195923326 0.0039055829953624876 0 7.2009125093755363e-05 0.0038435979328431736 0 0.00012395308195923326 0.0039055829953624876 0 4.0606535979370066e-07 0.0039155389992735837 0 0.00027788734086439849 0.0039332832063758427 0 0.00016268363005443324 0.0040355206049732754 0 0.00012395308195923326 0.0039055829953624876 0 0.00027788734086439849 0.0039332832063758427 0 1.8996073320174752e-08 0.0040903828524445716 0 -1.6623611380067385e-08 0.0039179684399046812 0 3.6983223266538291e-06 0.0042414440684026373 0 -1.1891731691390509e-08 0.0040917916981369293 0 0.00021540508159279256 0.0044760853846696411 0 -8.1798451880784534e-08 0.0039166631531083358 0 0.00021540508159279256 0.0044760853846696411 0 0.00012395308195923326 0.0039055829953624876 0 7.2009125093755363e-05 0.0038435979328431736 0 4.0606535979370066e-07 0.0039155389992735837 0 7.2009125093755363e-05 0.0038435979328431736 0 4.0606535979370066e-07 0.0039155389992735837 0 -2.7731507723199103e-07 0.0035917167326953809 0 -0.00012318738819890062 0.0048347412522318708 0 2.3756846140517201e-05 0.005197965720147261 0 5.2256607805671348e-07 0.0049230515939118809 0 -1.018315249842802e-06 0.004092943126607412 0 -0.00012318738819890062 0.0048347412522318708 0 5.2256607805671348e-07 0.0049230515939118809 0 0.00053853866833850745 0.0047617289877157076 0 0.00055425705252478395 0.0048588327787958373 0 0.00051355705060051324 0.0047962413856896318 0 -0.00012318738819890062 0.0048347412522318708 0 -1.1834309657614567e-05 0.0055623410206281972 0 2.3756846140517201e-05 0.005197965720147261 0 0.0005203688081071977 0.0045482777701139725 0 0.00021540508159279256 0.0044760853846696411 0 0.00021540508159279256 0.0044760853846696411 0 0.000303498655908084 0.0052213707782268279 0 0.00047114155025121439 0.0043642408635097786 0 0.00027788734086439849 0.0039332832063758427 0 0.00032236330732480069 0.0042129874381574171 0 -1.1834309657614567e-05 0.0055623410206281972 0 0.00013624971641449675 0.0054919318995095287 0 0.00022742869264083247 0.0056627028370723111 0 0.00013624971641449675 0.0054919318995095287 0 2.3756846140517201e-05 0.005197965720147261 0 0.00012191630630457845 0.005478687733966329 0 -1.1834309657614567e-05 0.0055623410206281972 0 0.00013624971641449675 0.0054919318995095287 0 2.3756846140517201e-05 0.005197965720147261 0 2.3756846140517201e-05 0.005197965720147261 0 5.2256607805671348e-07 0.0049230515939118809 0 0.00012191630630457845 0.005478687733966329 0 5.2256607805671348e-07 0.0049230515939118809 0 0.00012191630630457845 0.005478687733966329 0 1.9521572495192175e-07 0.0057547386267728633 0 0.00012191630630457845 0.005478687733966329 0 0.00020431290338731071 0.0057278010216330116 0 0.00012221855029460248 0.0059945777258079754 0 0.00013624971641449675 0.0054919318995095287 0 0.00012191630630457845 0.005478687733966329 0 0.00020431290338731071 0.0057278010216330116 0 0.00013624971641449675 0.0054919318995095287 0 0.00020431290338731071 0.0057278010216330116 0 0.00022742869264083247 0.0056627028370723111 0 0.00027403382349886358 0.0057984317024700185 0 0.00022742869264083247 0.0056627028370723111 0 0.00036258507927853389 0.0056863460223171821 0 0.00020431290338731071 0.0057278010216330116 0 0.00027403382349886358 0.0057984317024700185 0 0.00022742869264083247 0.0056627028370723111 0 0.00053853866833850745 0.0047617289877157076 0 0.00051355705060051324 0.0047962413856896318 0 0.0004259660563195726 0.0047036041051919863 0 -1.1834309657614567e-05 0.0055623410206281972 0 0.00022742869264083247 0.0056627028370723111 0 0.00036258507927853389 0.0056863460223171821 0 0.000303498655908084 0.0052213707782268279 0 0.00036063179877638665 0.0051638729431592971 0 0.00045803060332930124 0.0045555696132599487 0 0.00047052836186253148 0.0047861468421312404 0 0.0004259660563195726 0.0047036041051919863 0 0.00045803060332930124 0.0045555696132599487 0 0.00053853866833850745 0.0047617289877157076 0 0.0004259660563195726 0.0047036041051919863 0 0.0003925742810686083 0.0051357440250800104 0 0.00036063179877638665 0.0051638729431592971 0 0.00041968196888467077 0.0051555171094093879 0 0.00027403382349886358 0.0057984317024700185 0 0.00036258507927853389 0.0056863460223171821 0 0.00041968196888467077 0.0051555171094093879 0 0.00027403382349886358 0.0057984317024700185 0 0.00023132360349699949 0.0056559214079960419 0 0.00041968196888467077 0.0051555171094093879 0 0.00047052836186253148 0.0047861468421312404 0 0.0004259660563195726 0.0047036041051919863 0 0.00023132360349699949 0.0056559214079960419 0 0.00010222561896259936 0.0057813298011823765 0 4.0690966296397836e-05 0.00628235138667382 0 0.00023132360349699949 0.0056559214079960419 0 0.00016429238660601857 0.0060399256578786168 0 4.0690966296397836e-05 0.00628235138667382 0 0.00016429238660601857 0.0060399256578786168 0 6.7320807301578207e-05 0.0064164211288658063 0 4.0690966296397836e-05 0.00628235138667382 0 0.00027403382349886358 0.0057984317024700185 0 0.00023132360349699949 0.0056559214079960419 0 0.00016429238660601857 0.0060399256578786168 0 0.00020431290338731071 0.0057278010216330116 0 0.00027403382349886358 0.0057984317024700185 0 0.00016429238660601857 0.0060399256578786168 0 0.00020431290338731071 0.0057278010216330116 0 0.00016429238660601857 0.0060399256578786168 0 0.00012221855029460248 0.0059945777258079754 0 0.00012221855029460248 0.0059945777258079754 0 1.9521572495192175e-07 0.0057547386267728633 0 1.7977215452480301e-07 0.0065859609344186354 0 0.00012191630630457845 0.005478687733966329 0 0.00012221855029460248 0.0059945777258079754 0 1.9521572495192175e-07 0.0057547386267728633 0 0.00012221855029460248 0.0059945777258079754 0 6.7320807301578207e-05 0.0064164211288658063 0 1.7977215452480301e-07 0.0065859609344186354 0 0.00016429238660601857 0.0060399256578786168 0 0.00012221855029460248 0.0059945777258079754 0 6.7320807301578207e-05 0.0064164211288658063 0 6.7320807301578207e-05 0.0064164211288658063 0 5.6977020059134367e-05 0.0068284984675460059 0 4.0690966296397836e-05 0.00628235138667382 0 1.7977215452480301e-07 0.0065859609344186354 0 8.1819429034537485e-08 0.0074172743993440602 0 5.6977020059134367e-05 0.0068284984675460059 0 6.7320807301578207e-05 0.0064164211288658063 0 1.7977215452480301e-07 0.0065859609344186354 0 5.6977020059134367e-05 0.0068284984675460059 0 6.3393010215326558e-05 0.0073697809851619948 0 5.6977020059134367e-05 0.0068284984675460059 0 2.1844371111880294e-05 0.0067434674950760283 0 6.3393010215326558e-05 0.0073697809851619948 0 8.1819429034537485e-08 0.0074172743993440602 0 5.6977020059134367e-05 0.0068284984675460059 0 5.6977020059134367e-05 0.0068284984675460059 0 2.1844371111880294e-05 0.0067434674950760283 0 4.0690966296397836e-05 0.00628235138667382 0 2.1844371111880294e-05 0.0067434674950760283 0 4.0690966296397836e-05 0.00628235138667382 0 -0.00012238763678138915 0.0062919932061773192 0 0.00010222561896259936 0.0057813298011823765 0 4.0690966296397836e-05 0.00628235138667382 0 -0.00012238763678138915 0.0062919932061773192 0 9.9120171720904491e-05 0.0067809019112100048 0 2.1844371111880294e-05 0.0067434674950760283 0 -0.00012238763678138915 0.0062919932061773192 0 -0.00040446099843344431 0.0020966772442938338 0 -0.0005559332029426811 0.0021595425743559738 0 -0.00060645929702952766 0.0024635893059000904 0 -0.00040446099843344431 0.0020966772442938338 0 -0.0005559332029426811 0.0021595425743559738 0 -0.00022504147603347589 0.0016863583527477208 0 -0.0005559332029426811 0.0021595425743559738 0 -0.00062220095541680725 0.0024694376886100415 0 -0.00060645929702952766 0.0024635893059000904 0 -0.00062220095541680725 0.0024694376886100415 0 -0.00060645929702952766 0.0024635893059000904 0 -0.00071176771013209481 0.0026870528896600471 0 -0.0005559332029426811 0.0021595425743559738 0 -0.00062220095541680725 0.0024694376886100415 0 -0.00056936556885647522 0.0023587865310453417 0 -0.00022268370343919163 0.0025129792450902847 0 -0.000156071768051215 0.0026593107165482121 0 -0.00017103553932042254 0.0025331198759804964 0 -0.00022268370343919163 0.0025129792450902847 0 -0.00024058396745836252 0.0021091225466901104 0 -0.00025358301763771175 0.0024030135796535416 0 -0.00041340008927866445 0.0024749247901042376 0 -0.00024582235817981803 0.0021724059277854996 0 -0.00040446099843344431 0.0020966772442938338 0 -0.00060645929702952766 0.0024635893059000904 0 -0.00024058396745836252 0.0021091225466901104 0 -0.00024058396745836252 0.0021091225466901104 0 -0.0001298131889199581 0.0020515601254525676 0 -2.419386339197066e-05 0.0016932980869965408 0 -0.00024058396745836252 0.0021091225466901104 0 -0.0001298131889199581 0.0020515601254525676 0 -0.00021936773629254561 0.0022632503414962684 0 -0.0001298131889199581 0.0020515601254525676 0 0.0001140596181700675 0.0016738112267412016 0 -2.419386339197066e-05 0.0016932980869965408 0 3.9955923722500718e-05 0.0020325834869799287 0 0.0001971441325094911 0.0022552879834428366 0 0.00040234835567286748 0.001434489547826873 0 3.9955923722500718e-05 0.0020325834869799287 0 -0.0001298131889199581 0.0020515601254525676 0 -0.00010690057353083292 0.0021850030647084617 0 3.9955923722500718e-05 0.0020325834869799287 0 -0.0001298131889199581 0.0020515601254525676 0 0.0001140596181700675 0.0016738112267412016 0 3.9955923722500718e-05 0.0020325834869799287 0 0.0001140596181700675 0.0016738112267412016 0 0.00040234835567286748 0.001434489547826873 0 -2.419386339197066e-05 0.0016932980869965408 0 -1.1509799976014979e-05 0.0013930576614102218 0 0.00021100350986872875 0.0014010926706561626 0 0.0001140596181700675 0.0016738112267412016 0 -2.419386339197066e-05 0.0016932980869965408 0 0.00021100350986872875 0.0014010926706561626 0 -0.00040446099843344431 0.0020966772442938338 0 -0.00024058396745836252 0.0021091225466901104 0 -0.00022504147603347589 0.0016863583527477208 0 -0.00024058396745836252 0.0021091225466901104 0 -2.419386339197066e-05 0.0016932980869965408 0 -0.00022504147603347589 0.0016863583527477208 0 -0.00022504147603347589 0.0016863583527477208 0 -0.00019790730288392444 0.0014103560748862367 0 -0.00046776239537247845 0.0013359143765821842 0 -0.00022504147603347589 0.0016863583527477208 0 -0.00019790730288392444 0.0014103560748862367 0 -1.1509799976014979e-05 0.0013930576614102218 0 -2.419386339197066e-05 0.0016932980869965408 0 -0.00022504147603347589 0.0016863583527477208 0 -1.1509799976014979e-05 0.0013930576614102218 0 -0.00015056762076416698 0.001211687439877142 0 -5.8797036875436894e-06 0.0011968569050118539 0 -5.3658560396677549e-05 0.0010699698892511764 0 -1.1509799976014979e-05 0.0013930576614102218 0 -0.00015056762076416698 0.001211687439877142 0 -5.8797036875436894e-06 0.0011968569050118539 0 -0.00019790730288392444 0.0014103560748862367 0 -0.00015056762076416698 0.001211687439877142 0 -0.00046776239537247845 0.0013359143765821842 0 -0.00031707512975104156 0.0010217036150018122 0 -0.00015056762076416698 0.001211687439877142 0 -0.00046776239537247845 0.0013359143765821842 0 -0.00019790730288392444 0.0014103560748862367 0 -1.1509799976014979e-05 0.0013930576614102218 0 -0.00015056762076416698 0.001211687439877142 0 -0.00046746645816482686 0.0019480853071618793 0 -0.00039094059696041518 0.0022162672581206521 0 -0.00051632452756385575 0.0021607417868797349 0 -0.00054239355803254645 0.002115579877924816 0 -0.00042114275918689228 0.00177300514573929 0 -0.0005559332029426811 0.0021595425743559738 0 -0.00022504147603347589 0.0016863583527477208 0 -0.00046776239537247845 0.0013359143765821842 0 -0.0005559332029426811 0.0021595425743559738 0 -0.00039094059696041518 0.0022162672581206521 0 -0.00051030586866824331 0.0022563753124947399 0 -0.0005559332029426811 0.0021595425743559738 0 -0.00056936556885647522 0.0023587865310453417 0 -0.00051030586866824331 0.0022563753124947399 0 -0.00051030586866824331 0.0022563753124947399 0 -0.00051632452756385575 0.0021607417868797349 0 -0.00061942334774216961 0.0023116438347597357 0 -0.00056936556885647522 0.0023587865310453417 0 -0.00051030586866824331 0.0022563753124947399 0 -0.00061942334774216961 0.0023116438347597357 0 -0.00046746645816482686 0.0019480853071618793 0 -0.00051632452756385575 0.0021607417868797349 0 -0.0006179556042288782 0.0020736621942610595 0 -0.00051632452756385575 0.0021607417868797349 0 -0.0006179556042288782 0.0020736621942610595 0 -0.00061942334774216961 0.0023116438347597357 0 -0.00039094059696041518 0.0022162672581206521 0 -0.00051030586866824331 0.0022563753124947399 0 -0.00051632452756385575 0.0021607417868797349 0 -0.0006179556042288782 0.0020736621942610595 0 -0.00077780974707515398 0.0021652296878806039 0 -0.00061942334774216961 0.0023116438347597357 0 -0.00078108082862029268 0.0019194454038846882 0 -0.0006179556042288782 0.0020736621942610595 0 -0.00077780974707515398 0.0021652296878806039 0 -0.0010936736241403833 0.0019112184951112169 0 -0.00092037196768957584 0.0020628330881105085 0 -0.0010296727015429925 0.0022633181921315319 0 -0.00092037196768957584 0.0020628330881105085 0 -0.0010296727015429925 0.0022633181921315319 0 -0.00077780974707515398 0.0021652296878806039 0 -0.0010296727015429925 0.0022633181921315319 0 -0.00077780974707515398 0.0021652296878806039 0 -0.00075833110196250994 0.002455929990982513 0 -0.0010296727015429925 0.0022633181921315319 0 -0.00075833110196250994 0.002455929990982513 0 -0.00080820587471335783 0.0029938953975865426 0 -0.00059780841067686124 0.0042557167104210775 0 -0.00056247219422348468 0.0035262112990062269 0 -0.00080820587471335783 0.0029938953975865426 0 -0.00079121366413639229 0.0034190685867459335 0 -0.00082974427836265572 0.002965037947693378 0 -0.00075833110196250994 0.002455929990982513 0 -0.00065587257979922951 0.0025466562434017042 0 -0.00080820587471335783 0.0029938953975865426 0 -0.00075833110196250994 0.002455929990982513 0 -0.00065587257979922951 0.0025466562434017042 0 -0.00061942334774216961 0.0023116438347597357 0 -0.00056936556885647522 0.0023587865310453417 0 -0.00065587257979922951 0.0025466562434017042 0 -0.00061942334774216961 0.0023116438347597357 0 -0.00077780974707515398 0.0021652296878806039 0 -0.00075833110196250994 0.002455929990982513 0 -0.00061942334774216961 0.0023116438347597357 0 0.00015896803940176061 0.004375324072983554 0 -1.313631760836743e-05 0.0041942906905717992 0 0.00020190678762157426 0.0042015111790393448 0 0.00026843860929279316 0.0045007148560040127 0 0.00010614663498497337 0.0044936742357408839 0 0.00015896803940176061 0.004375324072983554 0 0.00010614663498497337 0.0044936742357408839 0 0.00015896803940176061 0.004375324072983554 0 -6.8141910483243582e-06 0.0044264918617674077 0 0.00015896803940176061 0.004375324072983554 0 -6.8141910483243582e-06 0.0044264918617674077 0 -1.313631760836743e-05 0.0041942906905717992 0 -2.5312302475787075e-06 0.0046660407238017657 0 -6.8141910483243582e-06 0.0044264918617674077 0 -0.00026676624571384655 0.0043280354559419552 0 -0.00027837510984801131 0.0050301324420356968 0 -0.00059780841067686124 0.0042557167104210775 0 -0.00027015839144816506 0.0044137175239163081 0 -0.00015903232530571534 0.0035762836317553255 0 -0.00017645283959192304 0.0045787944351715227 0 -0.00050812456010702683 0.0026899387606283717 0 -0.00079121366413639229 0.0034190685867459335 0 -6.8141910483243582e-06 0.0044264918617674077 0 -1.313631760836743e-05 0.0041942906905717992 0 -0.00026676624571384655 0.0043280354559419552 0 -0.00059780841067686124 0.0042557167104210775 0 -0.00056247219422348468 0.0035262112990062269 0 -0.00027015839144816506 0.0044137175239163081 0 -0.00056247219422348468 0.0035262112990062269 0 -0.00026676624571384655 0.0043280354559419552 0 -0.00020584643154643808 0.0039036659757649924 0 -0.0005970252226353141 0.0035113907724914338 0 -0.00017645283959192304 0.0045787944351715227 0 -0.00056247219422348468 0.0035262112990062269 0 -0.00020584643154643808 0.0039036659757649924 0 -0.00024632353056934476 0.0035564624171855875 0 -0.00020584643154643808 0.0039036659757649924 0 -8.4209839936255002e-06 0.0038694799560581288 0 -0.00024632353056934476 0.0035564624171855875 0 -1.313631760836743e-05 0.0041942906905717992 0 -0.00026676624571384655 0.0043280354559419552 0 -0.00020584643154643808 0.0039036659757649924 0 -1.313631760836743e-05 0.0041942906905717992 0 -0.00020584643154643808 0.0039036659757649924 0 -8.4209839936255002e-06 0.0038694799560581288 0 -1.313631760836743e-05 0.0041942906905717992 0 -8.4209839936255002e-06 0.0038694799560581288 0 0.00020190678762157426 0.0042015111790393448 0 -8.4209839936255002e-06 0.0038694799560581288 0 0.00020190678762157426 0.0042015111790393448 0 0.00022430836021051809 0.0039579702561684596 0 -8.4209839936255002e-06 0.0038694799560581288 0 0.00022430836021051809 0.0039579702561684596 0 -3.5163076738714662e-05 0.0033020181086765277 0 0.00031916438254542652 0.0038903103323191901 0 0.00022430836021051809 0.0039579702561684596 0 -3.5163076738714662e-05 0.0033020181086765277 0 -8.4209839936255002e-06 0.0038694799560581288 0 -0.00024632353056934476 0.0035564624171855875 0 -3.5163076738714662e-05 0.0033020181086765277 0 -0.00024632353056934476 0.0035564624171855875 0 -0.00049205786406385774 0.0032125922342397233 0 -3.5163076738714662e-05 0.0033020181086765277 0 -0.00056247219422348468 0.0035262112990062269 0 -0.00024632353056934476 0.0035564624171855875 0 -0.00049205786406385774 0.0032125922342397233 0 -0.00049205786406385774 0.0032125922342397233 0 -3.5163076738714662e-05 0.0033020181086765277 0 -0.000774143747625798 0.0028402450130256408 0 -3.5163076738714662e-05 0.0033020181086765277 0 -0.00012720844199495156 0.0028376245894192634 0 -5.6715521693107335e-05 0.003007251229156026 0 -5.9287609133946161e-05 0.0032236073974811707 0 -0.00043716604420772668 0.0028598579516633869 0 0.00031916438254542652 0.0038903103323191901 0 0.00023468143594703101 0.0035834366349904198 0 -3.5163076738714662e-05 0.0033020181086765277 0 0.00023468143594703101 0.0035834366349904198 0 -3.5163076738714662e-05 0.0033020181086765277 0 5.9134222157857418e-05 0.0031652145131001713 0 -3.5163076738714662e-05 0.0033020181086765277 0 5.9134222157857418e-05 0.0031652145131001713 0 -5.6715521693107335e-05 0.003007251229156026 0 -0.00062220095541680725 0.0024694376886100415 0 -0.00065587257979922951 0.0025466562434017042 0 -0.00071176771013209481 0.0026870528896600471 0 -0.00062220095541680725 0.0024694376886100415 0 -0.00056936556885647522 0.0023587865310453417 0 -0.00065587257979922951 0.0025466562434017042 0 -0.00065587257979922951 0.0025466562434017042 0 -0.00071176771013209481 0.0026870528896600471 0 -0.00080820587471335783 0.0029938953975865426 0 -0.00056247219422348468 0.0035262112990062269 0 -0.00049205786406385774 0.0032125922342397233 0 -0.00080820587471335783 0.0029938953975865426 0 -0.00049205786406385774 0.0032125922342397233 0 -0.00080820587471335783 0.0029938953975865426 0 -0.000774143747625798 0.0028402450130256408 0 -0.00071176771013209481 0.0026870528896600471 0 -0.00080820587471335783 0.0029938953975865426 0 -0.000774143747625798 0.0028402450130256408 0 -0.00012720844199495156 0.0028376245894192634 0 -0.00012071911441243606 0.0027533816541422218 0 -9.1870059015454497e-05 0.002818012873003668 0 -0.00012720844199495156 0.0028376245894192634 0 -9.1870059015454497e-05 0.002818012873003668 0 -5.6715521693107335e-05 0.003007251229156026 0 -0.00060645929702952766 0.0024635893059000904 0 -0.00071176771013209481 0.0026870528896600471 0 -0.000774143747625798 0.0028402450130256408 0 -0.00041340008927866445 0.0024749247901042376 0 -0.00043716604420772668 0.0028598579516633869 0 -0.00022268370343919163 0.0025129792450902847 0 -0.00012720844199495156 0.0028376245894192634 0 -0.000156071768051215 0.0026593107165482121 0 -0.00012720844199495156 0.0028376245894192634 0 -0.00012071911441243606 0.0027533816541422218 0 -0.000156071768051215 0.0026593107165482121 0 -0.00010945204842974288 0.0026596536334176544 0 -8.8545218191394314e-05 0.002561513394720025 0 -0.00017103553932042254 0.0025331198759804964 0 -0.000156071768051215 0.0026593107165482121 0 -0.00010945204842974288 0.0026596536334176544 0 -0.00017103553932042254 0.0025331198759804964 0 -0.00012071911441243606 0.0027533816541422218 0 -0.000156071768051215 0.0026593107165482121 0 -0.00010945204842974288 0.0026596536334176544 0 -0.00012071911441243606 0.0027533816541422218 0 -0.00010945204842974288 0.0026596536334176544 0 -9.1870059015454497e-05 0.002818012873003668 0 -9.1870059015454497e-05 0.002818012873003668 0 -5.5117535549315081e-05 0.0026574882525918792 0 -4.8334890535552461e-05 0.002776774448557531 0 -0.00010945204842974288 0.0026596536334176544 0 -9.1870059015454497e-05 0.002818012873003668 0 -5.5117535549315081e-05 0.0026574882525918792 0 -5.5117535549315081e-05 0.0026574882525918792 0 -2.6061018127754516e-06 0.0026475489921399865 0 -4.8334890535552461e-05 0.002776774448557531 0 -5.5117535549315081e-05 0.0026574882525918792 0 -2.6061018127754516e-06 0.0026475489921399865 0 -1.4946260087162965e-05 0.0025141212170507621 0 -5.5117535549315081e-05 0.0026574882525918792 0 -8.8545218191394314e-05 0.002561513394720025 0 -1.4946260087162965e-05 0.0025141212170507621 0 -8.8545218191394314e-05 0.002561513394720025 0 -0.00012401297345861792 0.0024424265710887385 0 -0.00017103553932042254 0.0025331198759804964 0 -8.8545218191394314e-05 0.002561513394720025 0 -1.4946260087162965e-05 0.0025141212170507621 0 -0.00012401297345861792 0.0024424265710887385 0 -0.00010945204842974288 0.0026596536334176544 0 -5.5117535549315081e-05 0.0026574882525918792 0 -8.8545218191394314e-05 0.002561513394720025 0 0.00015397969703115084 0.0030755525132607703 0 8.5038733356062097e-05 0.0029188671193815211 0 5.9134222157857418e-05 0.0031652145131001713 0 0.00029991837500815624 0.0028406150055727206 0 0.00015397969703115084 0.0030755525132607703 0 8.5038733356062097e-05 0.0029188671193815211 0 0.00024483762698623466 0.0033299402402016853 0 0.00015397969703115084 0.0030755525132607703 0 5.9134222157857418e-05 0.0031652145131001713 0 0.00023468143594703101 0.0035834366349904198 0 0.00024483762698623466 0.0033299402402016853 0 5.9134222157857418e-05 0.0031652145131001713 0 5.9134222157857418e-05 0.0031652145131001713 0 -1.2925057471422573e-05 0.0028740571954929705 0 -5.6715521693107335e-05 0.003007251229156026 0 8.5038733356062097e-05 0.0029188671193815211 0 5.9134222157857418e-05 0.0031652145131001713 0 -1.2925057471422573e-05 0.0028740571954929705 0 -1.2925057471422573e-05 0.0028740571954929705 0 -5.6715521693107335e-05 0.003007251229156026 0 -4.8334890535552461e-05 0.002776774448557531 0 -9.1870059015454497e-05 0.002818012873003668 0 -5.6715521693107335e-05 0.003007251229156026 0 -4.8334890535552461e-05 0.002776774448557531 0 -2.6061018127754516e-06 0.0026475489921399865 0 -4.8334890535552461e-05 0.002776774448557531 0 -6.0382057390749063e-06 0.0027252887431778905 0 -6.0382057390749063e-06 0.0027252887431778905 0 1.725231617253035e-05 0.0027727647033168159 0 3.7982288414869718e-06 0.0027212647474597882 0 -1.2925057471422573e-05 0.0028740571954929705 0 -4.8334890535552461e-05 0.002776774448557531 0 -6.0382057390749063e-06 0.0027252887431778905 0 -1.2925057471422573e-05 0.0028740571954929705 0 -6.0382057390749063e-06 0.0027252887431778905 0 1.725231617253035e-05 0.0027727647033168159 0 0.00029991837500815624 0.0028406150055727206 0 7.5165858036113165e-05 0.0027717113947334122 0 -8.7635922539554525e-05 0.0026860718134458224 0 8.5038733356062097e-05 0.0029188671193815211 0 -1.2925057471422573e-05 0.0028740571954929705 0 1.725231617253035e-05 0.0027727647033168159 0 1.725231617253035e-05 0.0027727647033168159 0 5.0116245792451092e-06 0.0027287493231634833 0 3.7982288414869718e-06 0.0027212647474597882 0 1.725231617253035e-05 0.0027727647033168159 0 7.5165858036113165e-05 0.0027717113947334122 0 5.0116245792451092e-06 0.0027287493231634833 0 0.00029991837500815624 0.0028406150055727206 0 8.5038733356062097e-05 0.0029188671193815211 0 7.5165858036113165e-05 0.0027717113947334122 0 8.5038733356062097e-05 0.0029188671193815211 0 1.725231617253035e-05 0.0027727647033168159 0 7.5165858036113165e-05 0.0027717113947334122 0 -8.7635922539554525e-05 0.0026860718134458224 0 -1.868315214555221e-05 0.0027189058610574447 0 5.0116245792451092e-06 0.0027287493231634833 0 7.5165858036113165e-05 0.0027717113947334122 0 -8.7635922539554525e-05 0.0026860718134458224 0 5.0116245792451092e-06 0.0027287493231634833 0 -1.868315214555221e-05 0.0027189058610574447 0 5.0116245792451092e-06 0.0027287493231634833 0 3.7982288414869718e-06 0.0027212647474597882 0 -1.868315214555221e-05 0.0027189058610574447 0 3.7982288414869718e-06 0.0027212647474597882 0 -1.5821874426372113e-06 0.0027575782422416409 0 -8.7635922539554525e-05 0.0026860718134458224 0 -1.868315214555221e-05 0.0027189058610574447 0 -1.5821874426372113e-06 0.0027575782422416409 0 -8.7635922539554525e-05 0.0026860718134458224 0 -1.5821874426372113e-06 0.0027575782422416409 0 2.5473662157206949e-05 0.0029252253640099282 0 -1.5821874426372113e-06 0.0027575782422416409 0 4.0819550854796995e-05 0.0027226883341103666 0 2.5473662157206949e-05 0.0029252253640099282 0 -6.0382057390749063e-06 0.0027252887431778905 0 3.7982288414869718e-06 0.0027212647474597882 0 4.0819550854796995e-05 0.0027226883341103666 0 3.7982288414869718e-06 0.0027212647474597882 0 -1.5821874426372113e-06 0.0027575782422416409 0 4.0819550854796995e-05 0.0027226883341103666 0 -2.6061018127754516e-06 0.0026475489921399865 0 -6.0382057390749063e-06 0.0027252887431778905 0 4.0819550854796995e-05 0.0027226883341103666 0 4.8224704982140547e-05 0.0028519776297113433 0 -4.0756880481574227e-07 0.0034093970298269042 0 2.4559837714380133e-07 0.0027689843204508377 0 4.0819550854796995e-05 0.0027226883341103666 0 4.8224704982140547e-05 0.0028519776297113433 0 4.9538724702132186e-05 0.0025472696577979975 0 4.8224704982140547e-05 0.0028519776297113433 0 2.5473662157206949e-05 0.0029252253640099282 0 -4.0756880481574227e-07 0.0034093970298269042 0 4.0819550854796995e-05 0.0027226883341103666 0 4.8224704982140547e-05 0.0028519776297113433 0 2.5473662157206949e-05 0.0029252253640099282 0 -8.7635922539554525e-05 0.0026860718134458224 0 2.5473662157206949e-05 0.0029252253640099282 0 -4.0756880481574227e-07 0.0034093970298269042 0 0.00011219489121639849 0.0037813321105837753 0 3.0018026337003089e-08 0.003590559474900452 0 0.00011611620605162201 0.0034225843123129682 0 2.4158476727907507e-07 0.0034127366980155008 0 -1.8526570535572004e-07 0.003588367511017231 0 0.00012276676445409642 0.0034094613358675347 0 0.00011611620605162201 0.0034225843123129682 0 -1.8526570535572004e-07 0.003588367511017231 0 5.5594097898378758e-05 0.0041382018364870439 0 7.2009125093755363e-05 0.0038435979328431736 0 -2.7731507723199103e-07 0.0035917167326953809 0 3.3401721975171583e-05 0.0030657128630423116 0 2.018527535949422e-08 0.0034105889045014937 0 5.5757224813907655e-06 0.0022611932730851108 0 -1.4946260087162965e-05 0.0025141212170507621 0 4.9538724702132186e-05 0.0025472696577979975 0 5.5757224813907655e-06 0.0022611932730851108 0 -1.4946260087162965e-05 0.0025141212170507621 0 -0.00012401297345861792 0.0024424265710887385 0 -2.6061018127754516e-06 0.0026475489921399865 0 -1.4946260087162965e-05 0.0025141212170507621 0 4.9538724702132186e-05 0.0025472696577979975 0 -2.6061018127754516e-06 0.0026475489921399865 0 4.0819550854796995e-05 0.0027226883341103666 0 4.9538724702132186e-05 0.0025472696577979975 0 4.9538724702132186e-05 0.0025472696577979975 0 2.4559837714380133e-07 0.0027689843204508377 0 2.62840898139683e-07 0.0021264961480431002 0 4.8224704982140547e-05 0.0028519776297113433 0 4.9538724702132186e-05 0.0025472696577979975 0 2.4559837714380133e-07 0.0027689843204508377 0 5.5757224813907655e-06 0.0022611932730851108 0 4.9538724702132186e-05 0.0025472696577979975 0 2.62840898139683e-07 0.0021264961480431002 0 5.5757224813907655e-06 0.0022611932730851108 0 -7.0153707553273608e-07 0.0014866601257551254 0 -0.00013782643647600049 0.0021743136315792691 0 5.5757224813907655e-06 0.0022611932730851108 0 2.62840898139683e-07 0.0021264961480431002 0 -7.0153707553273608e-07 0.0014866601257551254 0 -7.0153707553273608e-07 0.0014866601257551254 0 -0.00013782643647600049 0.0021743136315792691 0 -0.00042128344250895152 0.0021465648288711532 0 1.9660851753563059e-09 0.0014324144260121157 0 -2.1115436648355801e-09 0.0010727829304637171 0 -9.889484702552559e-08 0.00089232384639508129 0 2.4267562320446042e-08 0.0014332077332541427 0 -3.7276323553359738e-06 0.00095236611216246644 0 1.0909630125826082e-07 0.001483170262909057 0 -1.1184882966321199e-07 0.0014350891756875585 0 5.7006456760365e-05 0.0012281698446804017 0 1.0909630125826082e-07 0.001483170262909057 0 5.7006456760365e-05 0.0012281698446804017 0 5.8210541937608667e-05 0.001158396411891266 0 -6.0645483486215689e-09 0.001484988762800522 0 -0.00016879744182686328 0.0015066273499684665 0 3.4241063822238862e-08 0.001071560500386445 0 -3.7276323553359738e-06 0.00095236611216246644 0 -0.00013782643647600049 0.0021743136315792691 0 -0.0002525739476752348 0.0023363558691053008 0 -0.00042128344250895152 0.0021465648288711532 0 5.5757224813907655e-06 0.0022611932730851108 0 -0.00013782643647600049 0.0021743136315792691 0 -0.00012401297345861792 0.0024424265710887385 0 -0.00013782643647600049 0.0021743136315792691 0 -0.00012401297345861792 0.0024424265710887385 0 -0.0002525739476752348 0.0023363558691053008 0 -0.00012401297345861792 0.0024424265710887385 0 -0.0002525739476752348 0.0023363558691053008 0 -0.00025358301763771175 0.0024030135796535416 0 -0.0002525739476752348 0.0023363558691053008 0 -0.00025358301763771175 0.0024030135796535416 0 -0.00025729003899877922 0.0023490740531240794 0 -0.00022268370343919163 0.0025129792450902847 0 -0.00025358301763771175 0.0024030135796535416 0 -0.00017103553932042254 0.0025331198759804964 0 -0.00012401297345861792 0.0024424265710887385 0 -0.00025358301763771175 0.0024030135796535416 0 -0.00017103553932042254 0.0025331198759804964 0 7.102920095980087e-05 0.0021591089220031317 0 -0.00010690057353083292 0.0021850030647084617 0 -0.00025868173016419405 0.0023679611013958254 0 0.00025196918589333816 0.0014941700432629288 0 -0.000169716416191112 0.001961913610599338 0 3.9955923722500718e-05 0.0020325834869799287 0 7.102920095980087e-05 0.0021591089220031317 0 -0.00010690057353083292 0.0021850030647084617 0 0.00029291842021644912 0.0018094642416571574 0 0.00025196918589333816 0.0014941700432629288 0 -0.00024058396745836252 0.0021091225466901104 0 -0.00025358301763771175 0.0024030135796535416 0 -0.00021936773629254561 0.0022632503414962684 0 -0.0001298131889199581 0.0020515601254525676 0 -0.00010690057353083292 0.0021850030647084617 0 -0.00021936773629254561 0.0022632503414962684 0 -0.00025358301763771175 0.0024030135796535416 0 -0.00021936773629254561 0.0022632503414962684 0 -0.00025729003899877922 0.0023490740531240794 0 -0.00010690057353083292 0.0021850030647084617 0 -0.00021936773629254561 0.0022632503414962684 0 -0.00025868173016419405 0.0023679611013958254 0 -0.0002525739476752348 0.0023363558691053008 0 -0.00025729003899877922 0.0023490740531240794 0 -0.00025868173016419405 0.0023679611013958254 0 -0.00021936773629254561 0.0022632503414962684 0 -0.00025729003899877922 0.0023490740531240794 0 -0.00025868173016419405 0.0023679611013958254 0 0.00013181830560179351 0.0011814393257124471 0 1.4881831506734838e-05 0.0013799950864863981 0 0.00024764504316496293 0.001342210871264529 0 1.4881831506734838e-05 0.0013799950864863981 0 7.3167354165975016e-05 0.0014618167906569502 0 0.00024764504316496293 0.001342210871264529 0 9.7905797650956454e-05 0.00080952378130400232 0 9.3052575964418753e-05 0.00073558851537698687 0 -0.00020581378921063454 0.00094214910431341683 0 9.7905797650956454e-05 0.00080952378130400232 0 9.3052575964418753e-05 0.00073558851537698687 0 0.00044703090426563509 0.00060154753295229939 0 6.8974335755125329e-05 0.0011054963178997721 0 -0.00016879744182686328 0.0015066273499684665 0 9.7905797650956454e-05 0.00080952378130400232 0 -0.00024772097014185801 0.0010160628287026214 0 -0.00020581378921063454 0.00094214910431341683 0 1.4881831506734838e-05 0.0013799950864863981 0 7.3167354165975016e-05 0.0014618167906569502 0 -0.00010360056338895017 0.0015793219536430192 0 4.8174199656876552e-05 0.00039390242996629983 0 -3.7276323553359738e-06 0.00095236611216246644 0 -0.0002525739476752348 0.0023363558691053008 0 -0.00025868173016419405 0.0023679611013958254 0 -0.00042128344250895152 0.0021465648288711532 0 -0.000169716416191112 0.001961913610599338 0 -0.00016879744182686328 0.0015066273499684665 0 2.3129362267834507e-05 -1.9120006746115202e-05 0 -4.7861268766932973e-05 0.00053984685542737137 0 2.6677322780023502e-07 0.0003221393591627509 0 -5.2222857841495187e-07 0.0010708822607285904 0 -4.7861268766932973e-05 0.00053984685542737137 0 2.6677322780023502e-07 0.0003221393591627509 0 -3.7276323553359738e-06 0.00095236611216246644 0 -0.00016879744182686328 0.0015066273499684665 0 2.3129362267834507e-05 -1.9120006746115202e-05 0 2.6677322780023502e-07 0.0003221393591627509 0 6.094895232219584e-05 -0.0001676560742876406 0 2.6677322780023502e-07 0.0003221393591627509 0 2.558825236557939e-07 -0.00042767846322335818 0 6.094895232219584e-05 -0.0001676560742876406 0 2.558825236557939e-07 -0.00042767846322335818 0 -3.6944409089414983e-05 -0.00032947226696386657 0 -5.1610577462222141e-07 -0.0011762144817659436 0 2.558825236557939e-07 -0.00042767846322335818 0 -3.6944409089414983e-05 -0.00032947226696386657 0 6.094895232219584e-05 -0.0001676560742876406 0 0.00045822432342375449 -0.00067479590537653726 0 0.00074361783974846339 4.1188312551824794e-05 0 0.00042089274786011934 -5.7105309080396466e-05 0 -3.6944409089414983e-05 -0.00032947226696386657 0 6.094895232219584e-05 -0.0001676560742876406 0 4.188518350939483e-05 -0.00012786781087769741 0 0.00045822432342375449 -0.00067479590537653726 0 0.00013319852919119847 -7.4870902624699301e-05 0 0.00042089274786011934 -5.7105309080396466e-05 0 0.00022152254593860277 -0.00053272650652799248 0 0.00031758556000918074 0.00020020952769300148 0 2.3129362267834507e-05 -1.9120006746115202e-05 0 6.094895232219584e-05 -0.0001676560742876406 0 4.188518350939483e-05 -0.00012786781087769741 0 4.8174199656876552e-05 0.00039390242996629983 0 0.00031758556000918074 0.00020020952769300148 0 -9.1004376443698396e-05 -0.0015864681310154649 0 1.6447679028183441e-07 -0.0011778339039751214 0 -4.893620687516822e-07 -0.0019828005684429067 0 -9.1004376443698396e-05 -0.0015864681310154649 0 5.8669987572077945e-05 -0.00094078216476914975 0 -0.0001676175460005995 -0.00070348083039903559 0 -9.1004376443698396e-05 -0.0015864681310154649 0 -3.861903403078625e-06 -0.002519291151559831 0 -4.801847310026099e-06 -0.0021449050491622857 0 -9.1004376443698396e-05 -0.0015864681310154649 0 -4.893620687516822e-07 -0.0019828005684429067 0 -4.801847310026099e-06 -0.0021449050491622857 0 0.00022152254593860277 -0.00053272650652799248 0 1.0139742597963872e-07 -0.0011769795646367318 0 0.00045822432342375449 -0.00067479590537653726 0 5.8669987572077945e-05 -0.00094078216476914975 0 1.6447679028183441e-07 -0.0011778339039751214 0 -9.1004376443698396e-05 -0.0015864681310154649 0 5.8669987572077945e-05 -0.00094078216476914975 0 1.6447679028183441e-07 -0.0011778339039751214 0 0.00045822432342375449 -0.00067479590537653726 0 5.8669987572077945e-05 -0.00094078216476914975 0 1.8739447626065478e-05 -0.00045797938599437 0 0.00045822432342375449 -0.00067479590537653726 0 1.8739447626065478e-05 -0.00045797938599437 0 0.00013319852919119847 -7.4870902624699301e-05 0 1.8739447626065478e-05 -0.00045797938599437 0 -0.00013723595334448781 -3.7622675478573974e-05 0 0.00013319852919119847 -7.4870902624699301e-05 0 5.8669987572077945e-05 -0.00094078216476914975 0 1.8739447626065478e-05 -0.00045797938599437 0 -0.0001676175460005995 -0.00070348083039903559 0 -0.00013118117026333201 -0.0016481625001902587 0 -0.00032452552114501033 -0.0015595609116728568 0 -9.1004376443698396e-05 -0.0015864681310154649 0 -0.0001676175460005995 -0.00070348083039903559 0 -0.00068746337071251508 -0.00020798638768026374 0 -9.1004376443698396e-05 -0.0015864681310154649 0 -3.861903403078625e-06 -0.002519291151559831 0 -8.760462878963307e-05 -0.0029890128238681799 0 1.8739447626065478e-05 -0.00045797938599437 0 -0.0001676175460005995 -0.00070348083039903559 0 -0.00024978868213042238 -0.0002675882667680879 0 1.8739447626065478e-05 -0.00045797938599437 0 -0.00024978868213042238 -0.0002675882667680879 0 -0.00013723595334448781 -3.7622675478573974e-05 0 -0.0001676175460005995 -0.00070348083039903559 0 -0.00024978868213042238 -0.0002675882667680879 0 -0.00068746337071251508 -0.00020798638768026374 0 -0.00024978868213042238 -0.0002675882667680879 0 -0.00036922285970046744 2.7126370158186238e-05 0 -0.00068746337071251508 -0.00020798638768026374 0 -0.00036922285970046744 2.7126370158186238e-05 0 -0.0004432984281349554 0.00029821445813885491 0 -0.00068746337071251508 -0.00020798638768026374 0 -0.00036922285970046744 2.7126370158186238e-05 0 -0.00024759718350648589 0.0002882824836327499 0 -0.0004432984281349554 0.00029821445813885491 0 -0.00024978868213042238 -0.0002675882667680879 0 -0.00036922285970046744 2.7126370158186238e-05 0 -0.00013723595334448781 -3.7622675478573974e-05 0 -0.00036922285970046744 2.7126370158186238e-05 0 -0.00013723595334448781 -3.7622675478573974e-05 0 -0.00024759718350648589 0.0002882824836327499 0 -0.00013723595334448781 -3.7622675478573974e-05 0 -0.00024759718350648589 0.0002882824836327499 0 -3.8931740459704081e-05 0.00021802029767048118 0 -0.00024759718350648589 0.0002882824836327499 0 -3.8931740459704081e-05 0.00021802029767048118 0 -0.00013531482320326222 0.00040228052989650485 0 -3.8931740459704081e-05 0.00021802029767048118 0 0.00014558003516028432 0.00030237702439937211 0 -2.0897214162656115e-05 0.00045119021686154724 0 -0.00013723595334448781 -3.7622675478573974e-05 0 -3.8931740459704081e-05 0.00021802029767048118 0 0.00013319852919119847 -7.4870902624699301e-05 0 0.00013319852919119847 -7.4870902624699301e-05 0 0.00014558003516028432 0.00030237702439937211 0 0.00027082507267346152 0.00011807570885617093 0 -3.8931740459704081e-05 0.00021802029767048118 0 0.00013319852919119847 -7.4870902624699301e-05 0 0.00014558003516028432 0.00030237702439937211 0 0.00014558003516028432 0.00030237702439937211 0 9.3162700667928517e-05 0.00058458300820040808 0 -2.0897214162656115e-05 0.00045119021686154724 0 0.00014558003516028432 0.00030237702439937211 0 9.3162700667928517e-05 0.00058458300820040808 0 0.0002456865091291883 0.00045223143867344261 0 9.3162700667928517e-05 0.00058458300820040808 0 -5.4732862800172207e-05 0.00066106594475090041 0 3.0552917944414228e-05 0.00078958533870442766 0 9.3162700667928517e-05 0.00058458300820040808 0 0.00015507954697982975 0.00077610960328105985 0 3.0552917944414228e-05 0.00078958533870442766 0 9.3162700667928517e-05 0.00058458300820040808 0 -5.4732862800172207e-05 0.00066106594475090041 0 -2.0897214162656115e-05 0.00045119021686154724 0 -5.4732862800172207e-05 0.00066106594475090041 0 -2.0897214162656115e-05 0.00045119021686154724 0 -0.00012637522787500895 0.00052724403629642296 0 -2.0897214162656115e-05 0.00045119021686154724 0 -0.00013531482320326222 0.00040228052989650485 0 -0.00012637522787500895 0.00052724403629642296 0 -3.8931740459704081e-05 0.00021802029767048118 0 -2.0897214162656115e-05 0.00045119021686154724 0 -0.00013531482320326222 0.00040228052989650485 0 -0.00024759718350648589 0.0002882824836327499 0 -0.00013531482320326222 0.00040228052989650485 0 -0.00022614229822543323 0.00049689655536867166 0 -0.00013531482320326222 0.00040228052989650485 0 -0.00022614229822543323 0.00049689655536867166 0 -0.00012637522787500895 0.00052724403629642296 0 -5.4732862800172207e-05 0.00066106594475090041 0 -0.00017104584711871986 0.00064519331035641577 0 -0.00010864607601428252 0.00078491387653743436 0 -5.4732862800172207e-05 0.00066106594475090041 0 -0.00012637522787500895 0.00052724403629642296 0 -0.00017104584711871986 0.00064519331035641577 0 -0.00022614229822543323 0.00049689655536867166 0 -0.00012637522787500895 0.00052724403629642296 0 -0.00017104584711871986 0.00064519331035641577 0 -0.00022614229822543323 0.00049689655536867166 0 -0.00017104584711871986 0.00064519331035641577 0 -0.0002948849368773966 0.00062895913610804075 0 -0.00022614229822543323 0.00049689655536867166 0 -0.0002948849368773966 0.00062895913610804075 0 -0.00035199418631344433 0.0004812393610264699 0 -0.00017104584711871986 0.00064519331035641577 0 -0.0002948849368773966 0.00062895913610804075 0 -0.00021835759118316188 0.00071484407473777192 0 -0.0002948849368773966 0.00062895913610804075 0 -0.00035199418631344433 0.0004812393610264699 0 -0.00037862280193153437 0.00060930285352949192 0 -0.00024759718350648589 0.0002882824836327499 0 -0.00022614229822543323 0.00049689655536867166 0 -0.00035199418631344433 0.0004812393610264699 0 -0.00024759718350648589 0.0002882824836327499 0 -0.00035199418631344433 0.0004812393610264699 0 -0.0004432984281349554 0.00029821445813885491 0 6.8974335755125329e-05 0.0011054963178997721 0 0.0004158518120519641 0.0006662478612620451 0 9.3052575964418753e-05 0.00073558851537698687 0 0.00039501913066084226 0.00052757989294014568 0 0.00044703090426563509 0.00060154753295229939 0 0.00058733430200389564 0.00030222730766737174 0 0.0005092260402085806 0.00039251817449201216 0 0.00055103413077442725 0.00058744037377508624 0 0.0004158518120519641 0.0006662478612620451 0 0.00062405613360951625 0.00042242446520541826 0 0.00080544351735128462 0.00021165324299371525 0 0.00070575777878882022 6.2417946321718831e-05 0 0.00056111938807238391 0.00014158420419616526 0 0.0004158518120519641 0.0006662478612620451 0 0.00031758556000918074 0.00020020952769300148 0 0.00074361783974846339 4.1188312551824794e-05 0 0.00056111938807238391 0.00014158420419616526 0 0.00042089274786011934 -5.7105309080396466e-05 0 0.00056111938807238391 0.00014158420419616526 0 0.00042089274786011934 -5.7105309080396466e-05 0 0.00039895769343457161 0.0001223609501612563 0 0.00031758556000918074 0.00020020952769300148 0 0.00050228227377604041 0.00011399373653482801 0 0.00013319852919119847 -7.4870902624699301e-05 0 0.00042089274786011934 -5.7105309080396466e-05 0 0.00027082507267346152 0.00011807570885617093 0 0.00042089274786011934 -5.7105309080396466e-05 0 0.00039895769343457161 0.0001223609501612563 0 0.00027082507267346152 0.00011807570885617093 0 0.00014558003516028432 0.00030237702439937211 0 0.00035455216771018813 0.00028573536533508273 0 0.0002456865091291883 0.00045223143867344261 0 0.00014558003516028432 0.00030237702439937211 0 0.00027082507267346152 0.00011807570885617093 0 0.00035455216771018813 0.00028573536533508273 0 0.00039895769343457161 0.0001223609501612563 0 0.00027082507267346152 0.00011807570885617093 0 0.00035455216771018813 0.00028573536533508273 0 0.00080544351735128462 0.00021165324299371525 0 0.00056111938807238391 0.00014158420419616526 0 0.0005092260402085806 0.00039251817449201216 0 0.00056111938807238391 0.00014158420419616526 0 0.00039895769343457161 0.0001223609501612563 0 0.00035455216771018813 0.00028573536533508273 0 0.00056111938807238391 0.00014158420419616526 0 0.00035455216771018813 0.00028573536533508273 0 0.0005092260402085806 0.00039251817449201216 0 0.00035455216771018813 0.00028573536533508273 0 0.0005092260402085806 0.00039251817449201216 0 0.00035521530756266108 0.00048159100698356657 0 0.00041000121720769048 0.00061867196758671084 0 0.00035521530756266108 0.00048159100698356657 0 0.00025449319483659023 0.00063506880793352317 0 0.0005092260402085806 0.00039251817449201216 0 0.00041000121720769048 0.00061867196758671084 0 0.00035521530756266108 0.00048159100698356657 0 0.0005092260402085806 0.00039251817449201216 0 0.00041000121720769048 0.00061867196758671084 0 0.00055103413077442725 0.00058744037377508624 0 9.3162700667928517e-05 0.00058458300820040808 0 0.0002456865091291883 0.00045223143867344261 0 0.00025449319483659023 0.00063506880793352317 0 0.00035455216771018813 0.00028573536533508273 0 0.00035521530756266108 0.00048159100698356657 0 0.0002456865091291883 0.00045223143867344261 0 0.00035521530756266108 0.00048159100698356657 0 0.0002456865091291883 0.00045223143867344261 0 0.00025449319483659023 0.00063506880793352317 0 9.3162700667928517e-05 0.00058458300820040808 0 0.00015507954697982975 0.00077610960328105985 0 0.00025449319483659023 0.00063506880793352317 0 0.00015507954697982975 0.00077610960328105985 0 0.00025449319483659023 0.00063506880793352317 0 0.0002715294805315243 0.00089676527644530295 0 0.00041000121720769048 0.00061867196758671084 0 0.00025449319483659023 0.00063506880793352317 0 0.0002715294805315243 0.00089676527644530295 0 0.00041000121720769048 0.00061867196758671084 0 0.00046226715544573456 0.00087656055963411387 0 0.0002715294805315243 0.00089676527644530295 0 0.00041000121720769048 0.00061867196758671084 0 0.00046226715544573456 0.00087656055963411387 0 0.00055103413077442725 0.00058744037377508624 0 0.00025196918589333816 0.0014941700432629288 0 0.0004158518120519641 0.0006662478612620451 0 0.00089155005620390575 0.00080474977042851808 0 0.00058733430200389564 0.00030222730766737174 0 0.00055103413077442725 0.00058744037377508624 0 0.00089155005620390575 0.00080474977042851808 0 0.00046226715544573456 0.00087656055963411387 0 0.00055103413077442725 0.00058744037377508624 0 0.00089155005620390575 0.00080474977042851808 0 0.00046226715544573456 0.00087656055963411387 0 0.00040234835567286748 0.001434489547826873 0 0.00025196918589333816 0.0014941700432629288 0 0.00045828841155778362 0.0014402887088086562 0 0.00046226715544573456 0.00087656055963411387 0 0.00032939534215991489 0.0011152251067991189 0 0.00040234835567286748 0.001434489547826873 0 0.00032939534215991489 0.0011152251067991189 0 0.00040234835567286748 0.001434489547826873 0 0.0002380848379974039 0.0012028371566696397 0 0.0001140596181700675 0.0016738112267412016 0 0.00040234835567286748 0.001434489547826873 0 0.00021100350986872875 0.0014010926706561626 0 0.00040234835567286748 0.001434489547826873 0 0.00021100350986872875 0.0014010926706561626 0 0.0002380848379974039 0.0012028371566696397 0 0.00021100350986872875 0.0014010926706561626 0 0.00012229854475711495 0.0012052965835113027 0 0.0002380848379974039 0.0012028371566696397 0 0.00012229854475711495 0.0012052965835113027 0 0.0002380848379974039 0.0012028371566696397 0 7.3437728553575957e-05 0.0010851555501473667 0 0.00012229854475711495 0.0012052965835113027 0 7.3437728553575957e-05 0.0010851555501473667 0 1.0957307167567525e-05 0.0010987850675536145 0 0.0002380848379974039 0.0012028371566696397 0 0.00012855881859682712 0.00094837144941926509 0 7.3437728553575957e-05 0.0010851555501473667 0 0.00046226715544573456 0.00087656055963411387 0 0.00032939534215991489 0.0011152251067991189 0 0.0002715294805315243 0.00089676527644530295 0 0.00032939534215991489 0.0011152251067991189 0 0.0002380848379974039 0.0012028371566696397 0 0.0002715294805315243 0.00089676527644530295 0 0.0002380848379974039 0.0012028371566696397 0 0.0002715294805315243 0.00089676527644530295 0 0.00012855881859682712 0.00094837144941926509 0 0.00015507954697982975 0.00077610960328105985 0 0.0002715294805315243 0.00089676527644530295 0 0.00012855881859682712 0.00094837144941926509 0 0.00012855881859682712 0.00094837144941926509 0 3.0552917944414228e-05 0.00078958533870442766 0 -1.5322436534563255e-05 0.00092449624975532668 0 0.00015507954697982975 0.00077610960328105985 0 0.00012855881859682712 0.00094837144941926509 0 3.0552917944414228e-05 0.00078958533870442766 0 -5.4732862800172207e-05 0.00066106594475090041 0 3.0552917944414228e-05 0.00078958533870442766 0 -0.00010864607601428252 0.00078491387653743436 0 3.0552917944414228e-05 0.00078958533870442766 0 -1.5322436534563255e-05 0.00092449624975532668 0 -0.00010864607601428252 0.00078491387653743436 0 -1.5322436534563255e-05 0.00092449624975532668 0 -0.00010864607601428252 0.00078491387653743436 0 -0.00012189749911701428 0.00087998268438020926 0 -1.5322436534563255e-05 0.00092449624975532668 0 -0.00012189749911701428 0.00087998268438020926 0 -7.6474098108548507e-05 0.00098213200530415158 0 0.00012855881859682712 0.00094837144941926509 0 -1.5322436534563255e-05 0.00092449624975532668 0 7.3437728553575957e-05 0.0010851555501473667 0 -0.00021835759118316188 0.00071484407473777192 0 -0.00021544441963655136 0.0007945389246065155 0 -0.00031361703031335868 0.00070815784689148213 0 -0.0002948849368773966 0.00062895913610804075 0 -0.00021835759118316188 0.00071484407473777192 0 -0.00031361703031335868 0.00070815784689148213 0 -0.00017104584711871986 0.00064519331035641577 0 -0.00021835759118316188 0.00071484407473777192 0 -0.00010864607601428252 0.00078491387653743436 0 -0.00021835759118316188 0.00071484407473777192 0 -0.00010864607601428252 0.00078491387653743436 0 -0.00021544441963655136 0.0007945389246065155 0 -0.00010864607601428252 0.00078491387653743436 0 -0.00012189749911701428 0.00087998268438020926 0 -0.00021544441963655136 0.0007945389246065155 0 -0.00012189749911701428 0.00087998268438020926 0 -0.00021544441963655136 0.0007945389246065155 0 -0.00018870589089173823 0.00087324193393707424 0 -0.00021544441963655136 0.0007945389246065155 0 -0.00018870589089173823 0.00087324193393707424 0 -0.00028317758611314675 0.00078021834341370877 0 -0.00018870589089173823 0.00087324193393707424 0 -7.6474098108548507e-05 0.00098213200530415158 0 -0.00017481501168558098 0.00092894098127577619 0 -0.00018870589089173823 0.00087324193393707424 0 -0.00017481501168558098 0.00092894098127577619 0 -0.00024400031046048425 0.00084544587422417299 0 -0.00012189749911701428 0.00087998268438020926 0 -0.00018870589089173823 0.00087324193393707424 0 -7.6474098108548507e-05 0.00098213200530415158 0 -7.6474098108548507e-05 0.00098213200530415158 0 -0.00017481501168558098 0.00092894098127577619 0 -9.2801445215285098e-05 0.0010193951317245859 0 -1.5322436534563255e-05 0.00092449624975532668 0 -7.6474098108548507e-05 0.00098213200530415158 0 7.3437728553575957e-05 0.0010851555501473667 0 -7.6474098108548507e-05 0.00098213200530415158 0 1.0957307167567525e-05 0.0010987850675536145 0 -9.2801445215285098e-05 0.0010193951317245859 0 -7.6474098108548507e-05 0.00098213200530415158 0 7.3437728553575957e-05 0.0010851555501473667 0 1.0957307167567525e-05 0.0010987850675536145 0 1.0957307167567525e-05 0.0010987850675536145 0 -4.6753065396328961e-05 0.0010588957018946724 0 3.3388819617175873e-05 0.0011332704661665459 0 1.0957307167567525e-05 0.0010987850675536145 0 -9.2801445215285098e-05 0.0010193951317245859 0 -4.6753065396328961e-05 0.0010588957018946724 0 -0.00017481501168558098 0.00092894098127577619 0 -9.2801445215285098e-05 0.0010193951317245859 0 -0.00016647456559574974 0.00096260857761438557 0 -9.2801445215285098e-05 0.0010193951317245859 0 -0.0001238469015731339 0.0010011589880399815 0 -4.6753065396328961e-05 0.0010588957018946724 0 -9.2801445215285098e-05 0.0010193951317245859 0 -0.0001238469015731339 0.0010011589880399815 0 -0.00016647456559574974 0.00096260857761438557 0 -0.0001238469015731339 0.0010011589880399815 0 -0.00010462887977922818 0.00098796305549866243 0 -0.00016071515367786738 0.00096200445412525132 0 -0.0001238469015731339 0.0010011589880399815 0 -0.00010462887977922818 0.00098796305549866243 0 -4.6753065396328961e-05 0.0010588957018946724 0 -4.6753065396328961e-05 0.0010588957018946724 0 3.3388819617175873e-05 0.0011332704661665459 0 -4.5927326406555968e-05 0.0010228555416530809 0 -0.00010462887977922818 0.00098796305549866243 0 -4.6753065396328961e-05 0.0010588957018946724 0 -4.5927326406555968e-05 0.0010228555416530809 0 1.4352259705593962e-06 0.0010998764156160054 0 8.6848848072304866e-05 0.0012415529344706926 0 3.3388819617175873e-05 0.0011332704661665459 0 1.4352259705593962e-06 0.0010998764156160054 0 3.3388819617175873e-05 0.0011332704661665459 0 -4.5927326406555968e-05 0.0010228555416530809 0 1.4352259705593962e-06 0.0010998764156160054 0 -5.8797036875436894e-06 0.0011968569050118539 0 8.6848848072304866e-05 0.0012415529344706926 0 1.4352259705593962e-06 0.0010998764156160054 0 -5.8797036875436894e-06 0.0011968569050118539 0 -5.3658560396677549e-05 0.0010699698892511764 0 0.00021100350986872875 0.0014010926706561626 0 0.00012229854475711495 0.0012052965835113027 0 8.6848848072304866e-05 0.0012415529344706926 0 -1.1509799976014979e-05 0.0013930576614102218 0 -5.8797036875436894e-06 0.0011968569050118539 0 8.6848848072304866e-05 0.0012415529344706926 0 -1.1509799976014979e-05 0.0013930576614102218 0 0.00021100350986872875 0.0014010926706561626 0 8.6848848072304866e-05 0.0012415529344706926 0 0.00012229854475711495 0.0012052965835113027 0 8.6848848072304866e-05 0.0012415529344706926 0 3.3388819617175873e-05 0.0011332704661665459 0 0.00012229854475711495 0.0012052965835113027 0 1.0957307167567525e-05 0.0010987850675536145 0 3.3388819617175873e-05 0.0011332704661665459 0 -0.00020035483690062218 0.00094360149329969631 0 -0.00026675039767298743 0.00091847329684510248 0 -0.00033505281490297243 0.00086968306697841891 0 2.4706783466196823e-05 -0.0029975110917847226 0 -0.00025432249561966566 -0.0032223164538095466 0 -0.00053920940478013218 -0.002881030331492466 0 2.4706783466196823e-05 -0.0029975110917847226 0 -0.00053920940478013218 -0.002881030331492466 0 -0.00020950030640623472 -0.0024459188897134896 0 -9.3464155640035783e-05 -0.0010431517161694959 0 -0.00010366872148194352 -0.00074738676645739002 0 -0.00020035483690062218 0.00094360149329969631 0 -8.9440515170100546e-05 0.00087501662449427156 0 -3.6561480475317541e-06 0.00087569829785046635 0 -0.00020035483690062218 0.00094360149329969631 0 -0.00016263309133936719 0.00092043521161090875 0 -8.9440515170100546e-05 0.00087501662449427156 0 -0.00020035483690062218 0.00094360149329969631 0 -0.00016263309133936719 0.00092043521161090875 0 -0.0002130741514742742 0.00093882646140986672 0 -0.00016263309133936719 0.00092043521161090875 0 -0.00016071515367786738 0.00096200445412525132 0 -0.0002130741514742742 0.00093882646140986672 0 -0.00010462887977922818 0.00098796305549866243 0 -0.00016071515367786738 0.00096200445412525132 0 -0.00013517337110670167 0.00092431207672881649 0 -0.00016071515367786738 0.00096200445412525132 0 -0.00019818733205075525 0.00095363366273896208 0 -0.0002130741514742742 0.00093882646140986672 0 -0.0001238469015731339 0.0010011589880399815 0 -0.00016071515367786738 0.00096200445412525132 0 -0.00019818733205075525 0.00095363366273896208 0 -0.0001238469015731339 0.0010011589880399815 0 -0.00019818733205075525 0.00095363366273896208 0 -0.00016647456559574974 0.00096260857761438557 0 -0.00019818733205075525 0.00095363366273896208 0 -0.00016647456559574974 0.00096260857761438557 0 -0.00024512145806630483 0.00087739711964293881 0 -0.00019818733205075525 0.00095363366273896208 0 -0.00026675039767298743 0.00091847329684510248 0 -0.00024512145806630483 0.00087739711964293881 0 -0.00020035483690062218 0.00094360149329969631 0 -0.0002130741514742742 0.00093882646140986672 0 -0.00026675039767298743 0.00091847329684510248 0 -0.00019818733205075525 0.00095363366273896208 0 -0.0002130741514742742 0.00093882646140986672 0 -0.00026675039767298743 0.00091847329684510248 0 -0.00026675039767298743 0.00091847329684510248 0 -0.00033505281490297243 0.00086968306697841891 0 -0.00024512145806630483 0.00087739711964293881 0 -0.00033505281490297243 0.00086968306697841891 0 -0.00030069345580499123 0.00076089656450288449 0 -0.00024512145806630483 0.00087739711964293881 0 -0.00030069345580499123 0.00076089656450288449 0 -0.00029657794924194971 0.00067781548595151277 0 -0.00034611164609789786 0.00070620387705070807 0 -0.00030069345580499123 0.00076089656450288449 0 -0.00030846373659138162 0.00076447962259333267 0 -0.00034611164609789786 0.00070620387705070807 0 -0.00033505281490297243 0.00086968306697841891 0 -0.00029657794924194971 0.00067781548595151277 0 -0.00051147862270250598 0.00080571846929509505 0 -0.00033505281490297243 0.00086968306697841891 0 -0.00030069345580499123 0.00076089656450288449 0 -0.00029657794924194971 0.00067781548595151277 0 -0.00017481501168558098 0.00092894098127577619 0 -0.00016647456559574974 0.00096260857761438557 0 -0.00024512145806630483 0.00087739711964293881 0 -0.00017481501168558098 0.00092894098127577619 0 -0.00024512145806630483 0.00087739711964293881 0 -0.00024400031046048425 0.00084544587422417299 0 -0.00024512145806630483 0.00087739711964293881 0 -0.00024400031046048425 0.00084544587422417299 0 -0.00030846373659138162 0.00076447962259333267 0 -0.00030069345580499123 0.00076089656450288449 0 -0.00024512145806630483 0.00087739711964293881 0 -0.00030846373659138162 0.00076447962259333267 0 -0.00018870589089173823 0.00087324193393707424 0 -0.00024400031046048425 0.00084544587422417299 0 -0.00028317758611314675 0.00078021834341370877 0 -0.00024400031046048425 0.00084544587422417299 0 -0.00028317758611314675 0.00078021834341370877 0 -0.00030846373659138162 0.00076447962259333267 0 -0.00021544441963655136 0.0007945389246065155 0 -0.00028317758611314675 0.00078021834341370877 0 -0.00031361703031335868 0.00070815784689148213 0 -0.00028317758611314675 0.00078021834341370877 0 -0.00035831302947251549 0.00070869747219632262 0 -0.00031361703031335868 0.00070815784689148213 0 -0.00035831302947251549 0.00070869747219632262 0 -0.00041115935853264473 0.000659039086106147 0 -0.00034611164609789786 0.00070620387705070807 0 -0.00028317758611314675 0.00078021834341370877 0 -0.00035831302947251549 0.00070869747219632262 0 -0.00030846373659138162 0.00076447962259333267 0 -0.00035831302947251549 0.00070869747219632262 0 -0.00030846373659138162 0.00076447962259333267 0 -0.00034611164609789786 0.00070620387705070807 0 -0.00041115935853264473 0.000659039086106147 0 -0.00039471824643152992 0.00065621343767374588 0 -0.00045017075623198346 0.00060576796221475904 0 -0.00035831302947251549 0.00070869747219632262 0 -0.00041115935853264473 0.000659039086106147 0 -0.00039471824643152992 0.00065621343767374588 0 -0.00035831302947251549 0.00070869747219632262 0 -0.00039471824643152992 0.00065621343767374588 0 -0.00031361703031335868 0.00070815784689148213 0 -0.00039471824643152992 0.00065621343767374588 0 -0.00031361703031335868 0.00070815784689148213 0 -0.00037862280193153437 0.00060930285352949192 0 5.990523909099594e-05 -0.0035915356717907991 0 0.00015341311049559743 -0.0035447922749330058 0 -0.0001245993501456886 -0.0035330261052015761 0 -0.00029657794924194971 0.00067781548595151277 0 -0.00051147862270250598 0.00080571846929509505 0 -0.00038270333228290369 -0.0011188924082761605 0 -0.00018798088617096427 -0.0014102123138824238 0 -0.00021372855946652375 -0.0023283248123919455 0 -0.00035673789896356682 0.00062279102124889818 0 -0.00033713436067929118 -0.00041981950353501537 0 -0.00029657794924194971 0.00067781548595151277 0 -0.00041115935853264473 0.000659039086106147 0 -0.00053628009809385876 0.00057938608331791397 0 -0.00029657794924194971 0.00067781548595151277 0 -0.00011230840959384723 -0.0014578665360626222 0 -0.00038270333228290369 -0.0011188924082761605 0 -0.00029657794924194971 0.00067781548595151277 0 -0.00041115935853264473 0.000659039086106147 0 -0.00034611164609789786 0.00070620387705070807 0 5.990523909099594e-05 -0.0035915356717907991 0 8.2808785173976425e-05 -0.0036983295409956044 0 2.5043456933152093e-05 -0.0035388671410174818 0 8.2808785173976425e-05 -0.0036983295409956044 0 7.1863674730157271e-05 -0.0035827792535202724 0 -5.4286210832238876e-05 -0.0034968249334612384 0 5.990523909099594e-05 -0.0035915356717907991 0 7.1863674730157271e-05 -0.0035827792535202724 0 0.00015341311049559743 -0.0035447922749330058 0 5.990523909099594e-05 -0.0035915356717907991 0 8.2808785173976425e-05 -0.0036983295409956044 0 7.1863674730157271e-05 -0.0035827792535202724 0 2.4706783466196823e-05 -0.0029975110917847226 0 0.00015341311049559743 -0.0035447922749330058 0 -5.4286210832238876e-05 -0.0034968249334612384 0 -9.3464155640035783e-05 -0.0010431517161694959 0 -0.00018798088617096427 -0.0014102123138824238 0 -0.00020035483690062218 0.00094360149329969631 0 -0.00033505281490297243 0.00086968306697841891 0 -0.00051147862270250598 0.00080571846929509505 0 7.1863674730157271e-05 -0.0035827792535202724 0 0.00015341311049559743 -0.0035447922749330058 0 -5.4286210832238876e-05 -0.0034968249334612384 0 2.4706783466196823e-05 -0.0029975110917847226 0 -0.00025432249561966566 -0.0032223164538095466 0 -5.4286210832238876e-05 -0.0034968249334612384 0 -0.00025432249561966566 -0.0032223164538095466 0 -5.4286210832238876e-05 -0.0034968249334612384 0 -0.00034525935237795542 -0.0035640047708541968 0 6.8165168816065763e-05 -0.0037195579170667308 0 3.310468977952341e-05 -0.0037821452797647702 0 8.2808785173976425e-05 -0.0036983295409956044 0 0.00037761406644069905 -0.004009114009277925 0 0.00027487826442889501 -0.0037547040165278709 0 8.2808785173976425e-05 -0.0036983295409956044 0 -5.4286210832238876e-05 -0.0034968249334612384 0 -0.00034525935237795542 -0.0035640047708541968 0 0.00019503196712285383 -0.0035014716611486848 0 0.00027487826442889501 -0.0037547040165278709 0 6.8884684820865041e-05 -0.0034500426084080205 0 0.00019503196712285383 -0.0035014716611486848 0 0.00027487826442889501 -0.0037547040165278709 0 0.00040268331277013047 -0.0038082012670387039 0 0.00019503196712285383 -0.0035014716611486848 0 0.00022006699869366693 -0.0033326055182961844 0 0.00040268331277013047 -0.0038082012670387039 0 8.2808785173976425e-05 -0.0036983295409956044 0 0.00027487826442889501 -0.0037547040165278709 0 6.8884684820865041e-05 -0.0034500426084080205 0 8.2808785173976425e-05 -0.0036983295409956044 0 2.5043456933152093e-05 -0.0035388671410174818 0 6.8884684820865041e-05 -0.0034500426084080205 0 2.5043456933152093e-05 -0.0035388671410174818 0 6.8884684820865041e-05 -0.0034500426084080205 0 5.7200271174763657e-06 -0.0033711741364816092 0 6.8884684820865041e-05 -0.0034500426084080205 0 3.6307511342752744e-05 -0.0032123337023839383 0 5.7200271174763657e-06 -0.0033711741364816092 0 0.00019503196712285383 -0.0035014716611486848 0 6.8884684820865041e-05 -0.0034500426084080205 0 0.00011394470016017115 -0.0032568020322356317 0 0.00011394470016017115 -0.0032568020322356317 0 3.6307511342752744e-05 -0.0032123337023839383 0 6.3098974177782548e-05 -0.0031002766430722494 0 6.8884684820865041e-05 -0.0034500426084080205 0 0.00011394470016017115 -0.0032568020322356317 0 3.6307511342752744e-05 -0.0032123337023839383 0 6.3098974177782548e-05 -0.0031002766430722494 0 2.2351618996924919e-07 -0.0030115720814151269 0 3.6236081976114627e-05 -0.002974495081269582 0 6.3098974177782548e-05 -0.0031002766430722494 0 0.00010223133627800745 -0.0030376697923794765 0 3.6236081976114627e-05 -0.002974495081269582 0 3.6307511342752744e-05 -0.0032123337023839383 0 6.3098974177782548e-05 -0.0031002766430722494 0 2.2351618996924919e-07 -0.0030115720814151269 0 0.00011394470016017115 -0.0032568020322356317 0 0.00015288733989627146 -0.0031568089854199875 0 0.00010223133627800745 -0.0030376697923794765 0 0.00011394470016017115 -0.0032568020322356317 0 6.3098974177782548e-05 -0.0031002766430722494 0 0.00010223133627800745 -0.0030376697923794765 0 0.00022006699869366693 -0.0033326055182961844 0 0.00040268331277013047 -0.0038082012670387039 0 0.00029893339388021857 -0.0030783858571500752 0 0.00015288733989627146 -0.0031568089854199875 0 0.00020177238839166444 -0.003150727981056404 0 0.00022006699869366693 -0.0033326055182961844 0 0.00015288733989627146 -0.0031568089854199875 0 0.00020177238839166444 -0.003150727981056404 0 0.00016034920307434993 -0.0030754495459298014 0 0.00020177238839166444 -0.003150727981056404 0 0.00022006699869366693 -0.0033326055182961844 0 0.00029893339388021857 -0.0030783858571500752 0 0.00011394470016017115 -0.0032568020322356317 0 0.00015288733989627146 -0.0031568089854199875 0 0.00022006699869366693 -0.0033326055182961844 0 0.00019503196712285383 -0.0035014716611486848 0 0.00011394470016017115 -0.0032568020322356317 0 0.00022006699869366693 -0.0033326055182961844 0 -0.00011230840959384723 -0.0014578665360626222 0 -0.00038270333228290369 -0.0011188924082761605 0 -0.00021752027503477324 -0.0026842320431762602 0 -0.00043088624225810876 0.00051963910856353372 0 -0.00053628009809385876 0.00057938608331791397 0 -0.0004432984281349554 0.00029821445813885491 0 -0.00035199418631344433 0.0004812393610264699 0 -0.00043088624225810876 0.00051963910856353372 0 -0.0004432984281349554 0.00029821445813885491 0 -0.00035199418631344433 0.0004812393610264699 0 -0.00043088624225810876 0.00051963910856353372 0 -0.00037862280193153437 0.00060930285352949192 0 -0.0002948849368773966 0.00062895913610804075 0 -0.00031361703031335868 0.00070815784689148213 0 -0.00037862280193153437 0.00060930285352949192 0 -0.00039471824643152992 0.00065621343767374588 0 -0.00037862280193153437 0.00060930285352949192 0 -0.00045017075623198346 0.00060576796221475904 0 -0.00043088624225810876 0.00051963910856353372 0 -0.00037862280193153437 0.00060930285352949192 0 -0.00045017075623198346 0.00060576796221475904 0 -0.00043088624225810876 0.00051963910856353372 0 -0.00045017075623198346 0.00060576796221475904 0 -0.00053628009809385876 0.00057938608331791397 0 -0.00041115935853264473 0.000659039086106147 0 -0.00045017075623198346 0.00060576796221475904 0 -0.00053628009809385876 0.00057938608331791397 0 5.990523909099594e-05 -0.0035915356717907991 0 2.5043456933152093e-05 -0.0035388671410174818 0 -0.0001245993501456886 -0.0035330261052015761 0 2.5043456933152093e-05 -0.0035388671410174818 0 -0.0001245993501456886 -0.0035330261052015761 0 5.7200271174763657e-06 -0.0033711741364816092 0 -0.0001245993501456886 -0.0035330261052015761 0 5.7200271174763657e-06 -0.0033711741364816092 0 -5.337863064489985e-05 -0.0031082749282274114 0 -0.0001245993501456886 -0.0035330261052015761 0 -5.337863064489985e-05 -0.0031082749282274114 0 -0.00021752027503477324 -0.0026842320431762602 0 3.6307511342752744e-05 -0.0032123337023839383 0 2.2351618996924919e-07 -0.0030115720814151269 0 -5.337863064489985e-05 -0.0031082749282274114 0 3.6307511342752744e-05 -0.0032123337023839383 0 5.7200271174763657e-06 -0.0033711741364816092 0 -5.337863064489985e-05 -0.0031082749282274114 0 2.2351618996924919e-07 -0.0030115720814151269 0 -7.4711968905297082e-05 -0.0028635537901699807 0 -1.8590372427812178e-05 -0.0028735882527837213 0 2.2351618996924919e-07 -0.0030115720814151269 0 -7.4711968905297082e-05 -0.0028635537901699807 0 -5.337863064489985e-05 -0.0031082749282274114 0 2.2351618996924919e-07 -0.0030115720814151269 0 -1.8590372427812178e-05 -0.0028735882527837213 0 3.6236081976114627e-05 -0.002974495081269582 0 -7.4711968905297082e-05 -0.0028635537901699807 0 -5.337863064489985e-05 -0.0031082749282274114 0 -0.00021752027503477324 -0.0026842320431762602 0 -0.00033713436067929118 -0.00041981950353501537 0 -0.00032452552114501033 -0.0015595609116728568 0 -0.00011230840959384723 -0.0014578665360626222 0 -0.00021752027503477324 -0.0026842320431762602 0 -8.760462878963307e-05 -0.0029890128238681799 0 -0.00053628009809385876 0.00057938608331791397 0 -0.0004432984281349554 0.00029821445813885491 0 -0.00068746337071251508 -0.00020798638768026374 0 -0.00021372855946652375 -0.0023283248123919455 0 -0.00018930941055461296 -0.0027059523125876322 0 -7.4711968905297082e-05 -0.0028635537901699807 0 -0.00021752027503477324 -0.0026842320431762602 0 -4.6452437907096701e-05 -0.0027777510976538964 0 -3.861903403078625e-06 -0.002519291151559831 0 -8.760462878963307e-05 -0.0029890128238681799 0 -4.6452437907096701e-05 -0.0027777510976538964 0 -0.00021752027503477324 -0.0026842320431762602 0 -8.760462878963307e-05 -0.0029890128238681799 0 -4.6452437907096701e-05 -0.0027777510976538964 0 -3.861903403078625e-06 -0.002519291151559831 0 -4.6452437907096701e-05 -0.0027777510976538964 0 3.263591380311046e-05 -0.0024854857225045149 0 -4.6452437907096701e-05 -0.0027777510976538964 0 3.9050870029120227e-05 -0.0027658150963893444 0 3.263591380311046e-05 -0.0024854857225045149 0 -4.6452437907096701e-05 -0.0027777510976538964 0 -1.8590372427812178e-05 -0.0028735882527837213 0 3.9050870029120227e-05 -0.0027658150963893444 0 -7.4711968905297082e-05 -0.0028635537901699807 0 -4.6452437907096701e-05 -0.0027777510976538964 0 -1.8590372427812178e-05 -0.0028735882527837213 0 -1.8590372427812178e-05 -0.0028735882527837213 0 3.6236081976114627e-05 -0.002974495081269582 0 6.6002144801730755e-05 -0.0029263989322672922 0 -1.8590372427812178e-05 -0.0028735882527837213 0 3.9050870029120227e-05 -0.0027658150963893444 0 6.6002144801730755e-05 -0.0029263989322672922 0 3.9050870029120227e-05 -0.0027658150963893444 0 4.8380005111093072e-07 -0.002788521763789012 0 3.263591380311046e-05 -0.0024854857225045149 0 4.8380005111093072e-07 -0.002788521763789012 0 3.263591380311046e-05 -0.0024854857225045149 0 -4.893620687516822e-07 -0.0019828005684429067 0 3.263591380311046e-05 -0.0024854857225045149 0 -4.893620687516822e-07 -0.0019828005684429067 0 -4.801847310026099e-06 -0.0021449050491622857 0 -3.861903403078625e-06 -0.002519291151559831 0 3.263591380311046e-05 -0.0024854857225045149 0 -4.801847310026099e-06 -0.0021449050491622857 0 0.00010602223946476115 -0.0030726243284937434 0 -5.2305241088341675e-05 -0.0031682227583036864 0 0.00029893339388021857 -0.0030783858571500752 0 0.00012934097511161274 -0.0037403924939527155 0 0.00034571735960740532 -0.0034546031494652667 0 0.00010602223946476115 -0.0030726243284937434 0 0.00011184774071465319 -0.0030206803838063643 0 8.7627090453092546e-05 -0.0031260881730647704 0 0.00010602223946476115 -0.0030726243284937434 0 0.00016034920307434993 -0.0030754495459298014 0 0.00011184774071465319 -0.0030206803838063643 0 0.00020177238839166444 -0.003150727981056404 0 0.00016034920307434993 -0.0030754495459298014 0 0.00029893339388021857 -0.0030783858571500752 0 0.00010602223946476115 -0.0030726243284937434 0 0.00016034920307434993 -0.0030754495459298014 0 0.00029893339388021857 -0.0030783858571500752 0 0.00016034920307434993 -0.0030754495459298014 0 0.00010223133627800745 -0.0030376697923794765 0 0.00011184774071465319 -0.0030206803838063643 0 0.00015288733989627146 -0.0031568089854199875 0 0.00016034920307434993 -0.0030754495459298014 0 0.00010223133627800745 -0.0030376697923794765 0 0.00010223133627800745 -0.0030376697923794765 0 6.6002144801730755e-05 -0.0029263989322672922 0 0.00011184774071465319 -0.0030206803838063643 0 0.00010223133627800745 -0.0030376697923794765 0 3.6236081976114627e-05 -0.002974495081269582 0 6.6002144801730755e-05 -0.0029263989322672922 0 3.9050870029120227e-05 -0.0027658150963893444 0 6.6002144801730755e-05 -0.0029263989322672922 0 6.902789657290209e-05 -0.0029280211701846913 0 6.6002144801730755e-05 -0.0029263989322672922 0 0.00011184774071465319 -0.0030206803838063643 0 6.902789657290209e-05 -0.0029280211701846913 0 3.9050870029120227e-05 -0.0027658150963893444 0 4.8380005111093072e-07 -0.002788521763789012 0 6.902789657290209e-05 -0.0029280211701846913 0 4.8380005111093072e-07 -0.002788521763789012 0 8.7627090453092546e-05 -0.0031260881730647704 0 -1.6260778948978214e-07 -0.0035925383322148109 0 0.00011184774071465319 -0.0030206803838063643 0 6.902789657290209e-05 -0.0029280211701846913 0 8.7627090453092546e-05 -0.0031260881730647704 0 4.8380005111093072e-07 -0.002788521763789012 0 6.902789657290209e-05 -0.0029280211701846913 0 8.7627090453092546e-05 -0.0031260881730647704 0 0.00010602223946476115 -0.0030726243284937434 0 8.7627090453092546e-05 -0.0031260881730647704 0 -5.2305241088341675e-05 -0.0031682227583036864 0 0.00012934097511161274 -0.0037403924939527155 0 1.7494690658991241e-09 -0.0035936168665708181 0 1.3214058962282116e-06 -0.0037213869724665263 0 1.7880443957134975e-09 -0.003708076748269647 0 -9.3933046476917464e-10 -0.0035945928067179582 0 0.00012934097511161274 -0.0037403924939527155 0 8.2440785342337211e-08 -0.0037091089569803275 0 8.7627090453092546e-05 -0.0031260881730647704 0 -5.2305241088341675e-05 -0.0031682227583036864 0 -1.6260778948978214e-07 -0.0035925383322148109 0 1.1557136162651301e-06 -0.0039650697841554306 0 0.00014264148417619227 -0.0042571272361088403 0 0.00041299275451732963 -0.0044789576362663959 0 -7.0917067318148111e-05 -0.004182241079707401 0 -1.0081398524598513e-06 -0.0037100724287692038 0 1.1557136162651301e-06 -0.0039650697841554306 0 -7.0917067318148111e-05 -0.004182241079707401 0 1.1557136162651301e-06 -0.0039650697841554306 0 0.00014264148417619227 -0.0042571272361088403 0 -7.0917067318148111e-05 -0.004182241079707401 0 0.00014264148417619227 -0.0042571272361088403 0 0.00021888574628502059 -0.0044161790493269289 0 0.00012934097511161274 -0.0037403924939527155 0 0.00038020967947046547 -0.0042672030825699637 0 -7.0917067318148111e-05 -0.004182241079707401 0 0.00021888574628502059 -0.0044161790493269289 0 0.00032252858267843126 -0.0046233059373710301 0 0.0004130158662616525 -0.0038591413362027492 0 0.00041942803578609919 -0.003850919459942898 0 0.00041308034820295927 -0.0038531875729055725 0 0.00021888574628502059 -0.0044161790493269289 0 0.00032979504786264334 -0.0045755736655181661 0 0.00032252858267843126 -0.0046233059373710301 0 0.00034172720799916547 -0.0046110730141308582 0 0.00033810490583003608 -0.0045145243719799718 0 0.00041299275451732963 -0.0044789576362663959 0 0.00034172720799916547 -0.0046110730141308582 0 0.00041299275451732963 -0.0044789576362663959 0 0.00031427123753049817 -0.0047026617890073242 0 0.00034172720799916547 -0.0046110730141308582 0 0.00032979504786264334 -0.0045755736655181661 0 0.00034702878008887429 -0.0045234914607935293 0 0.00034172720799916547 -0.0046110730141308582 0 0.00032979504786264334 -0.0045755736655181661 0 0.00033810490583003608 -0.0045145243719799718 0 0.00021888574628502059 -0.0044161790493269289 0 0.00033810490583003608 -0.0045145243719799718 0 0.00041299275451732963 -0.0044789576362663959 0 0.00021888574628502059 -0.0044161790493269289 0 0.00032979504786264334 -0.0045755736655181661 0 0.00033810490583003608 -0.0045145243719799718 0 9.9203032535909502e-08 -0.003966211735807898 0 0.00021503494990644215 -0.0046253527408985891 0 -3.2894309864245045e-07 -0.0039664473390794838 0 1.0798721130782584e-06 -0.0048116215583243775 0 2.5931671012998345e-07 -0.004666293287034746 0 0.00014264148417619227 -0.0042571272361088403 0 0.00021888574628502059 -0.0044161790493269289 0 0.00041299275451732963 -0.0044789576362663959 0 1.0798721130782584e-06 -0.0048116215583243775 0 0.00010512536209107635 -0.0049926743007640993 0 0.00020771742862089369 -0.0049382910779215815 0 2.5931671012998345e-07 -0.004666293287034746 0 0.00010512536209107635 -0.0049926743007640993 0 1.7882385524151513e-07 -0.0053663547070287665 0 1.0798721130782584e-06 -0.0048116215583243775 0 2.5931671012998345e-07 -0.004666293287034746 0 0.00010512536209107635 -0.0049926743007640993 0 0.00010512536209107635 -0.0049926743007640993 0 7.323528621812052e-05 -0.0053602899828707733 0 1.7882385524151513e-07 -0.0053663547070287665 0 0.00010512536209107635 -0.0049926743007640993 0 7.323528621812052e-05 -0.0053602899828707733 0 0.00020771742862089369 -0.0049382910779215815 0 7.323528621812052e-05 -0.0053602899828707733 0 0.00020771742862089369 -0.0049382910779215815 0 2.818229878493969e-06 -0.0050981608680852565 0 0.00021503494990644215 -0.0046253527408985891 0 0.00019486604091794801 -0.0048677150679841139 0 0.00041299275451732963 -0.0044789576362663959 0 0.00020771742862089369 -0.0049382910779215815 0 0.00031427123753049817 -0.0047026617890073242 0 0.00020771742862089369 -0.0049382910779215815 0 0.00031427123753049817 -0.0047026617890073242 0 0.00022109237216930209 -0.0046291807740523622 0 0.00031427123753049817 -0.0047026617890073242 0 0.00022109237216930209 -0.0046291807740523622 0 0.00031772078886768153 -0.0044831327847340416 0 0.00022109237216930209 -0.0046291807740523622 0 0.00031772078886768153 -0.0044831327847340416 0 0.00024502441686354048 -0.0043721615966932654 0 0.00020771742862089369 -0.0049382910779215815 0 9.6761719748855409e-05 -0.0047621551902143405 0 2.818229878493969e-06 -0.0050981608680852565 0 0.00020771742862089369 -0.0049382910779215815 0 0.00022109237216930209 -0.0046291807740523622 0 9.6761719748855409e-05 -0.0047621551902143405 0 0.00022109237216930209 -0.0046291807740523622 0 9.6761719748855409e-05 -0.0047621551902143405 0 8.8600224875378693e-05 -0.004493843712014509 0 9.6761719748855409e-05 -0.0047621551902143405 0 8.8600224875378693e-05 -0.004493843712014509 0 -2.9479330331261812e-05 -0.0047409030789932844 0 0.00022109237216930209 -0.0046291807740523622 0 8.8600224875378693e-05 -0.004493843712014509 0 0.00024502441686354048 -0.0043721615966932654 0 8.8600224875378693e-05 -0.004493843712014509 0 0.00024502441686354048 -0.0043721615966932654 0 0.00017774816300990042 -0.0042786338836989729 0 8.8600224875378693e-05 -0.004493843712014509 0 1.9642082017422878e-05 -0.0043760259234754831 0 0.00017774816300990042 -0.0042786338836989729 0 0.00031772078886768153 -0.0044831327847340416 0 0.00024502441686354048 -0.0043721615966932654 0 0.000347010531610348 -0.0042431891088494378 0 0.00024502441686354048 -0.0043721615966932654 0 0.00030356175388725296 -0.0042047246262058319 0 0.00017774816300990042 -0.0042786338836989729 0 0.00024502441686354048 -0.0043721615966932654 0 0.000347010531610348 -0.0042431891088494378 0 0.00030356175388725296 -0.0042047246262058319 0 0.000347010531610348 -0.0042431891088494378 0 0.00045579598617089017 -0.0041046492784262405 0 0.00038259137270331173 -0.0040933208313829504 0 0.00031772078886768153 -0.0044831327847340416 0 0.000347010531610348 -0.0042431891088494378 0 0.00045579598617089017 -0.0041046492784262405 0 0.00045579598617089017 -0.0041046492784262405 0 0.00040268331277013047 -0.0038082012670387039 0 0.00044549345429565859 -0.0039981754362106801 0 0.00027487826442889501 -0.0037547040165278709 0 0.00040268331277013047 -0.0038082012670387039 0 0.00044549345429565859 -0.0039981754362106801 0 0.00039741731230073649 -0.0037948455196929846 0 0.00034571735960740532 -0.0034546031494652667 0 0.00045579598617089017 -0.0041046492784262405 0 0.00040268331277013047 -0.0038082012670387039 0 0.00041308034820295927 -0.0038531875729055725 0 0.00041610739390094087 -0.0040824442926006982 0 0.00038020967947046547 -0.0042672030825699637 0 0.00040268331277013047 -0.0038082012670387039 0 0.00041942803578609919 -0.003850919459942898 0 0.00041308034820295927 -0.0038531875729055725 0 0.00032979504786264334 -0.0045755736655181661 0 0.00032252858267843126 -0.0046233059373710301 0 0.00034702878008887429 -0.0045234914607935293 0 0.00034172720799916547 -0.0046110730141308582 0 0.00031427123753049817 -0.0047026617890073242 0 0.00031772078886768153 -0.0044831327847340416 0 0.00045579598617089017 -0.0041046492784262405 0 0.00032252858267843126 -0.0046233059373710301 0 0.00034702878008887429 -0.0045234914607935293 0 0.00031772078886768153 -0.0044831327847340416 0 0.00045579598617089017 -0.0041046492784262405 0 0.00034702878008887429 -0.0045234914607935293 0 0.00034172720799916547 -0.0046110730141308582 0 0.00031772078886768153 -0.0044831327847340416 0 0.00034702878008887429 -0.0045234914607935293 0 -0.00025978504334764113 -0.007807868590475167 0 -0.00020866984621810205 -0.0081247445890311361 0 5.706409458493651e-05 -0.008112148186753293 0 -0.00018305092561462794 -0.0070399779206387738 0 -5.612679072713468e-05 -0.0084973848876281934 0 -1.7044722837332983e-05 -0.0076747882909144922 0 -0.00025978504334764113 -0.007807868590475167 0 5.706409458493651e-05 -0.008112148186753293 0 -1.7044722837332983e-05 -0.0076747882909144922 0 -3.6230016016859988e-05 -0.0073681715383981791 0 4.2450557784292476e-07 -0.0076658371906195679 0 -3.6230016016859988e-05 -0.0073681715383981791 0 -1.0296363257412589e-06 -0.0067683927306637776 0 4.2450557784292476e-07 -0.0076658371906195679 0 -1.7044722837332983e-05 -0.0076747882909144922 0 -3.6230016016859988e-05 -0.0073681715383981791 0 -0.00025978504334764113 -0.007807868590475167 0 -3.6230016016859988e-05 -0.0073681715383981791 0 -1.0296363257412589e-06 -0.0067683927306637776 0 -0.00025978504334764113 -0.007807868590475167 0 -1.9804422106827626e-07 -0.006767188555347756 0 -0.00038456918443296442 -0.0066987982755058895 0 -1.3523103688576536e-06 -0.0067657400419805112 0 -0.00036364485212459538 -0.0057790564765211432 0 -0.00058951885682178727 -0.0057137615017903145 0 -1.3523103688576536e-06 -0.0067657400419805112 0 -0.00036364485212459538 -0.0057790564765211432 0 -6.214008796155114e-05 -0.0060621910348445896 0 -0.00036364485212459538 -0.0057790564765211432 0 -0.00058951885682178727 -0.0057137615017903145 0 -0.00039653992350939857 -0.0054855231901296177 0 -0.00036364485212459538 -0.0057790564765211432 0 -0.00016009616149257846 -0.0053497896576935947 0 -0.00039653992350939857 -0.0054855231901296177 0 -0.00038456918443296442 -0.0066987982755058895 0 -0.00018305092561462794 -0.0070399779206387738 0 -0.00058951885682178727 -0.0057137615017903145 0 -0.00039653992350939857 -0.0054855231901296177 0 -0.00059365186868243897 -0.0053473356408589162 0 -0.00037044036772503248 -0.0057036470024466948 0 -0.00020304853201847739 -0.0051776907358023865 0 -4.6400407056957161e-05 -0.0055665438776501238 0 -0.00018458457684381607 -0.0055758035723899755 0 -0.00026913200927096756 -0.0049708898775788152 0 -0.00036364485212459538 -0.0057790564765211432 0 -0.00018458457684381607 -0.0055758035723899755 0 -0.00026913200927096756 -0.0049708898775788152 0 -4.6400407056957161e-05 -0.0055665438776501238 0 -0.00018458457684381607 -0.0055758035723899755 0 -6.214008796155114e-05 -0.0060621910348445896 0 -0.00036364485212459538 -0.0057790564765211432 0 -0.00018458457684381607 -0.0055758035723899755 0 -6.214008796155114e-05 -0.0060621910348445896 0 -4.6400407056957161e-05 -0.0055665438776501238 0 -6.214008796155114e-05 -0.0060621910348445896 0 3.1629775413156566e-07 -0.0060666932465262878 0 -1.3523103688576536e-06 -0.0067657400419805112 0 -6.214008796155114e-05 -0.0060621910348445896 0 3.1629775413156566e-07 -0.0060666932465262878 0 7.323528621812052e-05 -0.0053602899828707733 0 -4.6400407056957161e-05 -0.0055665438776501238 0 3.1629775413156566e-07 -0.0060666932465262878 0 7.323528621812052e-05 -0.0053602899828707733 0 1.7882385524151513e-07 -0.0053663547070287665 0 3.1629775413156566e-07 -0.0060666932465262878 0 -4.6400407056957161e-05 -0.0055665438776501238 0 2.818229878493969e-06 -0.0050981608680852565 0 -0.00026913200927096756 -0.0049708898775788152 0 7.323528621812052e-05 -0.0053602899828707733 0 -4.6400407056957161e-05 -0.0055665438776501238 0 2.818229878493969e-06 -0.0050981608680852565 0 2.818229878493969e-06 -0.0050981608680852565 0 -2.9479330331261812e-05 -0.0047409030789932844 0 -0.00026913200927096756 -0.0049708898775788152 0 9.6761719748855409e-05 -0.0047621551902143405 0 2.818229878493969e-06 -0.0050981608680852565 0 -2.9479330331261812e-05 -0.0047409030789932844 0 -2.9479330331261812e-05 -0.0047409030789932844 0 -9.8084613033711161e-05 -0.0043982475903677921 0 -0.00026913200927096756 -0.0049708898775788152 0 8.8600224875378693e-05 -0.004493843712014509 0 -2.9479330331261812e-05 -0.0047409030789932844 0 -9.8084613033711161e-05 -0.0043982475903677921 0 4.5413790376723231e-05 -0.0050338696543373003 0 -0.00026054017227627205 -0.0051099970052127641 0 1.266961380459359e-05 -0.0049170435862582523 0 -1.2905585096056095e-05 -0.0046717828995137796 0 -0.00020304853201847739 -0.0051776907358023865 0 1.9642082017422878e-05 -0.0043760259234754831 0 -9.8084613033711161e-05 -0.0043982475903677921 0 7.8758733428809202e-05 -0.0042647871118107316 0 8.8600224875378693e-05 -0.004493843712014509 0 1.9642082017422878e-05 -0.0043760259234754831 0 -9.8084613033711161e-05 -0.0043982475903677921 0 4.5413790376723231e-05 -0.0050338696543373003 0 -0.00026054017227627205 -0.0051099970052127641 0 -0.00016009616149257846 -0.0053497896576935947 0 -4.5086801957972728e-05 -0.0054524413683216888 0 2.7140402062461264e-05 -0.0055598769242157378 0 -0.00026054017227627205 -0.0051099970052127641 0 -0.00016009616149257846 -0.0053497896576935947 0 -0.00039653992350939857 -0.0054855231901296177 0 -0.00026054017227627205 -0.0051099970052127641 0 -0.00039653992350939857 -0.0054855231901296177 0 -0.00059365186868243897 -0.0053473356408589162 0 -4.5086801957972728e-05 -0.0054524413683216888 0 -0.00018305092561462794 -0.0070399779206387738 0 6.1871455997319876e-06 -0.006182706380719721 0 2.4798411566179502e-05 -0.0061289882531489343 0 -4.0684070443391351e-07 -0.0061116187082951717 0 5.6710928113056675e-05 -0.0061286925162068245 0 6.1871455997319876e-06 -0.006182706380719721 0 2.4798411566179502e-05 -0.0061289882531489343 0 5.6710928113056675e-05 -0.0061286925162068245 0 2.4798411566179502e-05 -0.0061289882531489343 0 3.612041983440359e-05 -0.006095674042297783 0 2.4798411566179502e-05 -0.0061289882531489343 0 -4.0684070443391351e-07 -0.0061116187082951717 0 3.612041983440359e-05 -0.006095674042297783 0 -0.00018305092561462794 -0.0070399779206387738 0 1.4514511170999335e-05 -0.0074298525014179903 0 -0.0001799260709069136 -0.0084343281879103466 0 -1.8489700387683568e-05 -0.0085651013135192976 0 -5.1069833771754935e-08 -0.0086457059564491595 0 -1.8489700387683568e-05 -0.0085651013135192976 0 -5.1069833771754935e-08 -0.0086457059564491595 0 5.9687552128351963e-05 -0.0086290114091040777 0 -1.8489700387683568e-05 -0.0085651013135192976 0 5.5827889505237815e-06 -0.008522612554841786 0 5.9687552128351963e-05 -0.0086290114091040777 0 -0.0001799260709069136 -0.0084343281879103466 0 5.5827889505237815e-06 -0.008522612554841786 0 5.706409458493651e-05 -0.008112148186753293 0 -0.0001799260709069136 -0.0084343281879103466 0 -1.8489700387683568e-05 -0.0085651013135192976 0 5.5827889505237815e-06 -0.008522612554841786 0 3.5531853143733023e-06 -0.0060577465659442976 0 2.7690621401784369e-05 -0.0060456132508946384 0 2.078319200881848e-05 -0.0060302039788911639 0 3.5531853143733023e-06 -0.0060577465659442976 0 2.1141535486072811e-05 -0.006073355552093351 0 2.7690621401784369e-05 -0.0060456132508946384 0 4.5831211363341463e-05 -0.0072825319731650981 0 1.4514511170999335e-05 -0.0074298525014179903 0 0.00010533123249258349 -0.0085711602553978361 0 5.5082650700517312e-05 -0.0086261603747379272 0 -5.1069833771754935e-08 -0.0086457059564491595 0 3.5531853143733023e-06 -0.0060577465659442976 0 -4.0684070443391351e-07 -0.0061116187082951717 0 2.1141535486072811e-05 -0.006073355552093351 0 5.5082650700517312e-05 -0.0086261603747379272 0 -5.1069833771754935e-08 -0.0086457059564491595 0 5.9687552128351963e-05 -0.0086290114091040777 0 -4.0684070443391351e-07 -0.0061116187082951717 0 3.612041983440359e-05 -0.006095674042297783 0 2.1141535486072811e-05 -0.006073355552093351 0 3.612041983440359e-05 -0.006095674042297783 0 3.961056088313051e-05 -0.0060616461164917307 0 5.3487110004572398e-05 -0.0060717588964879481 0 3.612041983440359e-05 -0.006095674042297783 0 3.961056088313051e-05 -0.0060616461164917307 0 2.1141535486072811e-05 -0.006073355552093351 0 3.961056088313051e-05 -0.0060616461164917307 0 2.1141535486072811e-05 -0.006073355552093351 0 2.7690621401784369e-05 -0.0060456132508946384 0 3.961056088313051e-05 -0.0060616461164917307 0 2.7690621401784369e-05 -0.0060456132508946384 0 4.9297346275071103e-05 -0.0060325021143946972 0 3.961056088313051e-05 -0.0060616461164917307 0 5.8809745394611403e-05 -0.0060504345318728248 0 4.9297346275071103e-05 -0.0060325021143946972 0 7.0956311058747461e-05 -0.0060290469096935398 0 5.8809745394611403e-05 -0.0060504345318728248 0 4.9297346275071103e-05 -0.0060325021143946972 0 7.0956311058747461e-05 -0.0060290469096935398 0 5.8809745394611403e-05 -0.0060504345318728248 0 7.7265096835303773e-05 -0.0060474741189622686 0 5.8809745394611403e-05 -0.0060504345318728248 0 6.7473222593251756e-05 -0.0060647605687843579 0 7.7265096835303773e-05 -0.0060474741189622686 0 6.7473222593251756e-05 -0.0060647605687843579 0 8.0955101206121757e-05 -0.0060640625847402894 0 7.7265096835303773e-05 -0.0060474741189622686 0 3.961056088313051e-05 -0.0060616461164917307 0 5.8809745394611403e-05 -0.0060504345318728248 0 5.3487110004572398e-05 -0.0060717588964879481 0 5.8809745394611403e-05 -0.0060504345318728248 0 5.3487110004572398e-05 -0.0060717588964879481 0 6.7473222593251756e-05 -0.0060647605687843579 0 5.3487110004572398e-05 -0.0060717588964879481 0 6.4670986319069173e-05 -0.006088882991701911 0 6.7473222593251756e-05 -0.0060647605687843579 0 5.6710928113056675e-05 -0.0061286925162068245 0 6.4670986319069173e-05 -0.006088882991701911 0 8.9049607136504206e-05 -0.0060798796336906536 0 5.6710928113056675e-05 -0.0061286925162068245 0 3.612041983440359e-05 -0.006095674042297783 0 6.4670986319069173e-05 -0.006088882991701911 0 3.612041983440359e-05 -0.006095674042297783 0 5.3487110004572398e-05 -0.0060717588964879481 0 6.4670986319069173e-05 -0.006088882991701911 0 6.4670986319069173e-05 -0.006088882991701911 0 6.7473222593251756e-05 -0.0060647605687843579 0 8.0955101206121757e-05 -0.0060640625847402894 0 -1.2905585096056095e-05 -0.0046717828995137796 0 0.00022951640205536584 -0.004675592961657371 0 6.4670986319069173e-05 -0.006088882991701911 0 8.0955101206121757e-05 -0.0060640625847402894 0 8.9049607136504206e-05 -0.0060798796336906536 0 8.9049607136504206e-05 -0.0060798796336906536 0 0.00010186605800089582 -0.0060441701149515428 0 0.00011705133149492415 -0.0060371659230929794 0 2.7140402062461264e-05 -0.0055598769242157378 0 0.00010443445130197265 -0.0050846750223341401 0 4.5413790376723231e-05 -0.0050338696543373003 0 1.266961380459359e-05 -0.0049170435862582523 0 0.00023043015509327511 -0.00476715029273611 0 8.0955101206121757e-05 -0.0060640625847402894 0 8.9049607136504206e-05 -0.0060798796336906536 0 9.1175030400389109e-05 -0.0060482060215088689 0 8.9049607136504206e-05 -0.0060798796336906536 0 0.00010186605800089582 -0.0060441701149515428 0 9.1175030400389109e-05 -0.0060482060215088689 0 0.00010186605800089582 -0.0060441701149515428 0 9.1175030400389109e-05 -0.0060482060215088689 0 0.00010166536620079775 -0.0060274348389126424 0 8.0955101206121757e-05 -0.0060640625847402894 0 9.1175030400389109e-05 -0.0060482060215088689 0 7.7265096835303773e-05 -0.0060474741189622686 0 9.1175030400389109e-05 -0.0060482060215088689 0 7.7265096835303773e-05 -0.0060474741189622686 0 8.5311072128110434e-05 -0.0060331802302217418 0 7.0956311058747461e-05 -0.0060290469096935398 0 8.5311072128110434e-05 -0.0060331802302217418 0 8.56091748700624e-05 -0.0060145022395222689 0 7.0956311058747461e-05 -0.0060290469096935398 0 7.7265096835303773e-05 -0.0060474741189622686 0 8.5311072128110434e-05 -0.0060331802302217418 0 8.5311072128110434e-05 -0.0060331802302217418 0 8.56091748700624e-05 -0.0060145022395222689 0 0.00010166536620079775 -0.0060274348389126424 0 9.1175030400389109e-05 -0.0060482060215088689 0 8.5311072128110434e-05 -0.0060331802302217418 0 0.00010166536620079775 -0.0060274348389126424 0 8.56091748700624e-05 -0.0060145022395222689 0 9.083072566715085e-05 -0.0059838978036900132 0 5.9831179258612582e-05 -0.0060079215932124785 0 8.56091748700624e-05 -0.0060145022395222689 0 0.00010166536620079775 -0.0060274348389126424 0 0.00010364176202628773 -0.006008596300028873 0 7.0956311058747461e-05 -0.0060290469096935398 0 8.56091748700624e-05 -0.0060145022395222689 0 5.9831179258612582e-05 -0.0060079215932124785 0 8.56091748700624e-05 -0.0060145022395222689 0 9.083072566715085e-05 -0.0059838978036900132 0 0.00010364176202628773 -0.006008596300028873 0 -0.00016589587064816014 -0.0044199225052605319 0 0.00011722376097152195 -0.0045317853432717348 0 -0.00046069085191341257 -0.0027345706270701731 0 0.00016698415166459265 -0.0030261195918005949 0 -0.00032646684096172401 -0.003150944456395592 0 9.083072566715085e-05 -0.0059838978036900132 0 5.9831179258612582e-05 -0.0060079215932124785 0 5.3061051885889152e-05 -0.005985088379119121 0 5.9831179258612582e-05 -0.0060079215932124785 0 3.750051588860615e-05 -0.0060030025756625492 0 5.3061051885889152e-05 -0.005985088379119121 0 5.9831179258612582e-05 -0.0060079215932124785 0 4.9297346275071103e-05 -0.0060325021143946972 0 3.6103476262600582e-05 -0.006019765273204282 0 7.0956311058747461e-05 -0.0060290469096935398 0 5.9831179258612582e-05 -0.0060079215932124785 0 4.9297346275071103e-05 -0.0060325021143946972 0 2.7690621401784369e-05 -0.0060456132508946384 0 4.9297346275071103e-05 -0.0060325021143946972 0 3.6103476262600582e-05 -0.006019765273204282 0 2.7690621401784369e-05 -0.0060456132508946384 0 3.6103476262600582e-05 -0.006019765273204282 0 2.078319200881848e-05 -0.0060302039788911639 0 3.6103476262600582e-05 -0.006019765273204282 0 2.2076123673449038e-05 -0.0060182181775682445 0 2.078319200881848e-05 -0.0060302039788911639 0 5.9831179258612582e-05 -0.0060079215932124785 0 3.6103476262600582e-05 -0.006019765273204282 0 3.750051588860615e-05 -0.0060030025756625492 0 3.750051588860615e-05 -0.0060030025756625492 0 2.2076123673449038e-05 -0.0060182181775682445 0 2.7587189430896677e-05 -0.0060086892043698025 0 3.6103476262600582e-05 -0.006019765273204282 0 3.750051588860615e-05 -0.0060030025756625492 0 2.2076123673449038e-05 -0.0060182181775682445 0 2.2076123673449038e-05 -0.0060182181775682445 0 2.7587189430896677e-05 -0.0060086892043698025 0 1.853902152922727e-05 -0.0060271676995813893 0 2.7587189430896677e-05 -0.0060086892043698025 0 1.853902152922727e-05 -0.0060271676995813893 0 2.4842646286761524e-05 -0.0060076394380166962 0 2.2076123673449038e-05 -0.0060182181775682445 0 1.853902152922727e-05 -0.0060271676995813893 0 1.7760984508283717e-05 -0.0060154334832174588 0 4.5831211363341463e-05 -0.0072825319731650981 0 8.3958813673622618e-05 -0.0073178486305329688 0 3.5531853143733023e-06 -0.0060577465659442976 0 1.7760984508283717e-05 -0.0060154334832174588 0 2.078319200881848e-05 -0.0060302039788911639 0 0.00010533123249258349 -0.0085711602553978361 0 0.00014043678890878367 -0.0084587493813229261 0 0.00010727882869041608 -0.0085058784195987894 0 2.2076123673449038e-05 -0.0060182181775682445 0 1.7760984508283717e-05 -0.0060154334832174588 0 2.078319200881848e-05 -0.0060302039788911639 0 0.00041954771488629121 -0.0039957637851143661 0 0.00038259137270331173 -0.0040933208313829504 0 0.00030630278660778341 -0.0040336679996250489 0 -0.00025432249561966566 -0.0032223164538095466 0 -0.00034525935237795542 -0.0035640047708541968 0 -0.00080125955132020305 -0.0033277409614221477 0 0.00037761406644069905 -0.004009114009277925 0 0.00041954771488629121 -0.0039957637851143661 0 0.00044549345429565859 -0.0039981754362106801 0 3.310468977952341e-05 -0.0037821452797647702 0 -0.00025719192881411431 -0.0035839870649434936 0 0.00037761406644069905 -0.004009114009277925 0 0.00027487826442889501 -0.0037547040165278709 0 0.00044549345429565859 -0.0039981754362106801 0 0.00041954771488629121 -0.0039957637851143661 0 0.00044549345429565859 -0.0039981754362106801 0 0.00038259137270331173 -0.0040933208313829504 0 0.00045579598617089017 -0.0041046492784262405 0 0.00044549345429565859 -0.0039981754362106801 0 0.00038259137270331173 -0.0040933208313829504 0 0.000347010531610348 -0.0042431891088494378 0 0.00038259137270331173 -0.0040933208313829504 0 0.00030356175388725296 -0.0042047246262058319 0 0.00038259137270331173 -0.0040933208313829504 0 0.00030356175388725296 -0.0042047246262058319 0 0.00026999907672878743 -0.0041296902538016222 0 0.00030356175388725296 -0.0042047246262058319 0 0.00026999907672878743 -0.0041296902538016222 0 0.00017774816300990042 -0.0042786338836989729 0 0.00026999907672878743 -0.0041296902538016222 0 0.00030630278660778341 -0.0040336679996250489 0 0.0002337947146575984 -0.0040626750187940444 0 0.00026999907672878743 -0.0041296902538016222 0 0.00017890509765971119 -0.0041361039273395796 0 0.0002337947146575984 -0.0040626750187940444 0 0.00038259137270331173 -0.0040933208313829504 0 0.00026999907672878743 -0.0041296902538016222 0 0.00030630278660778341 -0.0040336679996250489 0 -9.8084613033711161e-05 -0.0043982475903677921 0 7.8758733428809202e-05 -0.0042647871118107316 0 0.00011856846527268807 -0.0040541218991957404 0 1.266961380459359e-05 -0.0049170435862582523 0 0.00023043015509327511 -0.00476715029273611 0 0.00025170028885135515 -0.0047377105369783819 0 1.9642082017422878e-05 -0.0043760259234754831 0 7.8758733428809202e-05 -0.0042647871118107316 0 0.00017774816300990042 -0.0042786338836989729 0 0.00026999907672878743 -0.0041296902538016222 0 0.00017774816300990042 -0.0042786338836989729 0 0.00017890509765971119 -0.0041361039273395796 0 7.8758733428809202e-05 -0.0042647871118107316 0 0.00017774816300990042 -0.0042786338836989729 0 0.00017890509765971119 -0.0041361039273395796 0 7.8758733428809202e-05 -0.0042647871118107316 0 0.00017890509765971119 -0.0041361039273395796 0 0.00011856846527268807 -0.0040541218991957404 0 0.00017890509765971119 -0.0041361039273395796 0 0.00018918089892240925 -0.0040664282111612798 0 0.0002337947146575984 -0.0040626750187940444 0 0.00017890509765971119 -0.0041361039273395796 0 0.00011856846527268807 -0.0040541218991957404 0 0.00018918089892240925 -0.0040664282111612798 0 0.00010443445130197265 -0.0050846750223341401 0 -0.00031810466224961456 -0.0040710918155538352 0 0.00011705133149492415 -0.0060371659230929794 0 0.0001153401382165164 -0.0060178801391950181 0 0.00013437751151082681 -0.00598922876026771 0 0.00010186605800089582 -0.0060441701149515428 0 0.00011705133149492415 -0.0060371659230929794 0 0.00010971898614151774 -0.0060305114868993547 0 0.00010186605800089582 -0.0060441701149515428 0 0.00010971898614151774 -0.0060305114868993547 0 0.00010166536620079775 -0.0060274348389126424 0 0.00011856846527268807 -0.0040541218991957404 0 0.00014030163432185623 -0.0040354249490833442 0 0.00022344609265084007 -0.0040207428905180004 0 0.00011856846527268807 -0.0040541218991957404 0 0.00018918089892240925 -0.0040664282111612798 0 0.00022344609265084007 -0.0040207428905180004 0 0.00022951640205536584 -0.004675592961657371 0 0.00010443445130197265 -0.0050846750223341401 0 0.00011705133149492415 -0.0060371659230929794 0 0.0001153401382165164 -0.0060178801391950181 0 0.00010971898614151774 -0.0060305114868993547 0 0.0001153401382165164 -0.0060178801391950181 0 0.00010166536620079775 -0.0060274348389126424 0 0.00010364176202628773 -0.006008596300028873 0 0.0001153401382165164 -0.0060178801391950181 0 0.00010971898614151774 -0.0060305114868993547 0 0.00010166536620079775 -0.0060274348389126424 0 0.00030630278660778341 -0.0040336679996250489 0 0.00022344609265084007 -0.0040207428905180004 0 0.00027279895827051848 -0.0038918676911614595 0 0.00041954771488629121 -0.0039957637851143661 0 0.00030630278660778341 -0.0040336679996250489 0 0.00027279895827051848 -0.0038918676911614595 0 0.00014030163432185623 -0.0040354249490833442 0 0.00022344609265084007 -0.0040207428905180004 0 0.00027279895827051848 -0.0038918676911614595 0 0.00030630278660778341 -0.0040336679996250489 0 0.0002337947146575984 -0.0040626750187940444 0 0.00022344609265084007 -0.0040207428905180004 0 0.00018918089892240925 -0.0040664282111612798 0 0.0002337947146575984 -0.0040626750187940444 0 0.00022344609265084007 -0.0040207428905180004 0 -0.0012563815341227308 -0.0030856173740903881 0 -0.0010040344244866487 -0.0026996038149556829 0 -0.00091846278093529645 -0.0030136240668847129 0 -0.00031810466224961456 -0.0040710918155538352 0 -0.00079950987974221246 -0.0024784330646057109 0 -0.0007657001690702667 -0.0028456350994128386 0 -0.00080567716261116648 -0.0028526609092139827 0 -0.00062270960289920261 -0.0025456857515271745 0 -0.00046069085191341257 -0.0027345706270701731 0 -0.0007657001690702667 -0.0028456350994128386 0 -0.00080567716261116648 -0.0028526609092139827 0 9.083072566715085e-05 -0.0059838978036900132 0 0.00013437751151082681 -0.00598922876026771 0 0.0001139815809944763 -0.0059999915918534097 0 -0.00016589587064816014 -0.0044199225052605319 0 -0.00031810466224961456 -0.0040710918155538352 0 0.0001153401382165164 -0.0060178801391950181 0 0.00010364176202628773 -0.006008596300028873 0 0.0001139815809944763 -0.0059999915918534097 0 0.0001153401382165164 -0.0060178801391950181 0 0.00013437751151082681 -0.00598922876026771 0 0.0001139815809944763 -0.0059999915918534097 0 9.083072566715085e-05 -0.0059838978036900132 0 0.00010364176202628773 -0.006008596300028873 0 0.0001139815809944763 -0.0059999915918534097 0 -0.00046069085191341257 -0.0027345706270701731 0 -0.00056719438857216298 -0.0029214422444803342 0 -0.00032646684096172401 -0.003150944456395592 0 -0.00046069085191341257 -0.0027345706270701731 0 -0.0007657001690702667 -0.0028456350994128386 0 -0.00065750257390439202 -0.0028095410536486997 0 -0.00065750257390439202 -0.0028095410536486997 0 -0.00056719438857216298 -0.0029214422444803342 0 -0.00074383311847253284 -0.0027526674168891056 0 -0.00046069085191341257 -0.0027345706270701731 0 -0.00065750257390439202 -0.0028095410536486997 0 -0.00056719438857216298 -0.0029214422444803342 0 -0.0007657001690702667 -0.0028456350994128386 0 -0.00062270960289920261 -0.0025456857515271745 0 -0.00089390567324330601 -0.0021829706211946823 0 -0.0007657001690702667 -0.0028456350994128386 0 -0.00074383311847253284 -0.0027526674168891056 0 -0.00069297821041816783 -0.002612708740148293 0 -0.0007657001690702667 -0.0028456350994128386 0 -0.00065750257390439202 -0.0028095410536486997 0 -0.00074383311847253284 -0.0027526674168891056 0 -0.00078363359451941042 -0.0028057856564666578 0 -0.00077812857836162552 -0.00238203931705078 0 -0.0010040344244866487 -0.0026996038149556829 0 -0.00053920940478013218 -0.002881030331492466 0 -0.00074590885433917058 -0.002301860202300571 0 -0.0010040344244866487 -0.0026996038149556829 0 -0.00091846278093529645 -0.0030136240668847129 0 -0.00053920940478013218 -0.002881030331492466 0 -0.00080125955132020305 -0.0033277409614221477 0 -0.0012563815341227308 -0.0030856173740903881 0 -0.00091846278093529645 -0.0030136240668847129 0 -0.00025719192881411431 -0.0035839870649434936 0 -0.00031810466224961456 -0.0040710918155538352 0 -0.00080125955132020305 -0.0033277409614221477 0 -0.00091846278093529645 -0.0030136240668847129 0 -0.00053920940478013218 -0.002881030331492466 0 -0.00025432249561966566 -0.0032223164538095466 0 -0.00080125955132020305 -0.0033277409614221477 0 -0.00053920940478013218 -0.002881030331492466 0 -0.00053920940478013218 -0.002881030331492466 0 -0.00074590885433917058 -0.002301860202300571 0 -0.00020950030640623472 -0.0024459188897134896 0 -0.00046966034436469409 -0.0018919548478399757 0 -0.00074590885433917058 -0.002301860202300571 0 -0.00020950030640623472 -0.0024459188897134896 0 -0.0002801452140943148 -0.00081405588689550121 0 -0.00061603069426226925 -0.0023260554538695544 0 -6.497991593543339e-05 -0.0015213792463745978 0 -0.00045109531375472033 -0.001520256994534798 0 -0.0003516896005005922 -0.0020433107119702276 0 -0.00045109531375472033 -0.001520256994534798 0 -0.00060861756986769198 -0.001801475165530634 0 -0.0003516896005005922 -0.0020433107119702276 0 -0.00045109531375472033 -0.001520256994534798 0 -0.00060861756986769198 -0.001801475165530634 0 -0.00077243805638444168 -0.0013431733790547681 0 -0.00060861756986769198 -0.001801475165530634 0 -0.00061870095976798256 -0.0021482743204670513 0 -0.00089390567324330601 -0.0021829706211946823 0 -0.00079950987974221246 -0.0024784330646057109 0 -0.00061603069426226925 -0.0023260554538695544 0 -0.00062270960289920261 -0.0025456857515271745 0 -0.0003516896005005922 -0.0020433107119702276 0 -0.00061870095976798256 -0.0021482743204670513 0 -0.00060861756986769198 -0.001801475165530634 0 -0.0003516896005005922 -0.0020433107119702276 0 -0.00061870095976798256 -0.0021482743204670513 0 -0.00062270960289920261 -0.0025456857515271745 0 -0.00061870095976798256 -0.0021482743204670513 0 -0.00089390567324330601 -0.0021829706211946823 0 -0.0007612505685845914 -0.0027514029195074316 0 -0.00079998826912515842 -0.002734247124861994 0 -0.00074383311847253284 -0.0027526674168891056 0 -0.00069297821041816783 -0.002612708740148293 0 -0.00085694454991449263 -0.0019737693087617603 0 -0.00074383311847253284 -0.0027526674168891056 0 -0.00057407854670945885 -0.00317056417967139 0 -0.00078064746778733337 -0.0035179916855512961 0 -0.00057407854670945885 -0.00317056417967139 0 -0.00044272822986478664 -0.0034825657533738923 0 -0.00032646684096172401 -0.003150944456395592 0 -0.00056719438857216298 -0.0029214422444803342 0 -0.00057407854670945885 -0.00317056417967139 0 -0.00032646684096172401 -0.003150944456395592 0 -0.00056719438857216298 -0.0029214422444803342 0 -0.00074383311847253284 -0.0027526674168891056 0 -0.00057407854670945885 -0.00317056417967139 0 -0.00044272822986478664 -0.0034825657533738923 0 -0.00078064746778733337 -0.0035179916855512961 0 -0.00048561731523679818 -0.0037922766789417212 0 -0.00057407854670945885 -0.00317056417967139 0 -0.00044272822986478664 -0.0034825657533738923 0 -0.00078064746778733337 -0.0035179916855512961 0 -0.00060861756986769198 -0.001801475165530634 0 -0.00089390567324330601 -0.0021829706211946823 0 -0.00077243805638444168 -0.0013431733790547681 0 -0.00077812857836162552 -0.00238203931705078 0 -0.00063047900184152377 -0.0015218955258327288 0 -0.00069297821041816783 -0.002612708740148293 0 -0.00085694454991449263 -0.0019737693087617603 0 -0.00047409124199497191 -0.0016862012166075609 0 -0.00085694454991449263 -0.0019737693087617603 0 -0.00073619942740473638 -0.0010123817907938823 0 -0.00047409124199497191 -0.0016862012166075609 0 -0.00078064746778733337 -0.0035179916855512961 0 -0.00048561731523679818 -0.0037922766789417212 0 -0.00063474476919063623 -0.0040305608180147834 0 -0.00073619942740473638 -0.0010123817907938823 0 -0.00053655782413246594 -0.00085893012986508911 0 -0.00047409124199497191 -0.0016862012166075609 0 -0.00079998826912515842 -0.002734247124861994 0 -0.0006760715575120607 -0.0025331978856182884 0 -0.00048561731523679818 -0.0037922766789417212 0 -0.00031530999731848919 -0.0040855670979803721 0 -0.00026872537871210371 -0.003778677318113874 0 -0.00044272822986478664 -0.0034825657533738923 0 -0.00048561731523679818 -0.0037922766789417212 0 -0.00026872537871210371 -0.003778677318113874 0 -0.00031530999731848919 -0.0040855670979803721 0 -0.00063474476919063623 -0.0040305608180147834 0 -0.00041380681431520724 -0.0042303699036835372 0 -0.00048561731523679818 -0.0037922766789417212 0 -0.00031530999731848919 -0.0040855670979803721 0 -0.00063474476919063623 -0.0040305608180147834 0 -0.00073619942740473638 -0.0010123817907938823 0 -0.00053655782413246594 -0.00085893012986508911 0 -0.00034142425882071427 -0.0008637568903582082 0 -0.00053655782413246594 -0.00085893012986508911 0 -0.00047859134245858108 -0.00096099216130563067 0 -0.00061162937885789713 -0.00080508157798782267 0 -0.00052383601934769387 -0.00091017264749217956 0 -0.00047859134245858108 -0.00096099216130563067 0 -0.00061162937885789713 -0.00080508157798782267 0 -0.00052383601934769387 -0.00091017264749217956 0 -0.00061162937885789713 -0.00080508157798782267 0 -0.00052851075167611311 -0.00064316393063441684 0 -6.497991593543339e-05 -0.0015213792463745978 0 -0.00045109531375472033 -0.001520256994534798 0 -0.00047859134245858108 -0.00096099216130563067 0 -0.0002801452140943148 -0.00081405588689550121 0 -0.00041406532420250417 -0.001137322093795466 0 -0.00049607879876257654 -0.00096475120390573607 0 -0.00052383601934769387 -0.00091017264749217956 0 -0.00047859134245858108 -0.00096099216130563067 0 -0.00049607879876257654 -0.00096475120390573607 0 -0.00052383601934769387 -0.00091017264749217956 0 -0.00046191773958203982 -0.00093765662790139227 0 -0.00053655782413246594 -0.00085893012986508911 0 -0.00047859134245858108 -0.00096099216130563067 0 -0.00077243805638444168 -0.0013431733790547681 0 -0.00045109531375472033 -0.001520256994534798 0 -0.00047859134245858108 -0.00096099216130563067 0 -0.00077243805638444168 -0.0013431733790547681 0 -0.00053482242031791091 -0.00091596384404955746 0 -0.00063047900184152377 -0.0015218955258327288 0 2.9886589098189078e-05 -0.0059944877393615092 0 2.335104360420614e-05 -0.0060030227980637698 0 2.0295373740558729e-05 -0.0060040069857057151 0 0.00042323059499800841 -0.0044796583166688223 0 0.0004981694753124628 -0.0066279388613802188 0 0.00084223102225256495 -0.0034130598138685775 0 0.00096639300550382425 -0.0040914320773237445 0 0.0015830192002890605 -0.003842349268790264 0 1.853902152922727e-05 -0.0060271676995813893 0 2.4842646286761524e-05 -0.0060076394380166962 0 2.0295373740558729e-05 -0.0060040069857057151 0 2.4842646286761524e-05 -0.0060076394380166962 0 2.9886589098189078e-05 -0.0059944877393615092 0 2.0295373740558729e-05 -0.0060040069857057151 0 2.7587189430896677e-05 -0.0060086892043698025 0 2.4842646286761524e-05 -0.0060076394380166962 0 2.9886589098189078e-05 -0.0059944877393615092 0 3.750051588860615e-05 -0.0060030025756625492 0 2.7587189430896677e-05 -0.0060086892043698025 0 2.9886589098189078e-05 -0.0059944877393615092 0 3.750051588860615e-05 -0.0060030025756625492 0 2.9886589098189078e-05 -0.0059944877393615092 0 5.3061051885889152e-05 -0.005985088379119121 0 0.00042323059499800841 -0.0044796583166688223 0 0.00011722376097152195 -0.0045317853432717348 0 0.00084223102225256495 -0.0034130598138685775 0 0.00025876149120000963 -0.0036091373999500827 0 0.00016698415166459265 -0.0030261195918005949 0 0.00012151014293335932 -0.0035025871775985233 0 0.00023950656699728106 -0.0038726692398404852 0 0.00044747426963387811 -0.0037980865363223758 0 0.00084223102225256495 -0.0034130598138685775 0 0.00025876149120000963 -0.0036091373999500827 0 0.00096639300550382425 -0.0040914320773237445 0 0.00021230585618495524 -0.0035916990182616074 0 0.00063256090752141934 -0.0036866377812473069 0 0.00012151014293335932 -0.0035025871775985233 0 -0.00018369931828453185 -0.0035427511246184195 0 2.8441711336540026e-05 -0.0038837693342283928 0 0.00021230585618495524 -0.0035916990182616074 0 -0.0003168880494813083 -0.0031699583277487874 0 0.00025876149120000963 -0.0036091373999500827 0 0.00016698415166459265 -0.0030261195918005949 0 -0.00032646684096172401 -0.003150944456395592 0 -0.00044272822986478664 -0.0034825657533738923 0 -0.00032646684096172401 -0.003150944456395592 0 -0.00018369931828453185 -0.0035427511246184195 0 0.00012151014293335932 -0.0035025871775985233 0 -0.00032646684096172401 -0.003150944456395592 0 -0.00018369931828453185 -0.0035427511246184195 0 -0.00044272822986478664 -0.0034825657533738923 0 -0.00018369931828453185 -0.0035427511246184195 0 -0.00026872537871210371 -0.003778677318113874 0 -0.00031530999731848919 -0.0040855670979803721 0 -0.00026872537871210371 -0.003778677318113874 0 -0.00015200843994815611 -0.0039847515663602754 0 -0.00018369931828453185 -0.0035427511246184195 0 -0.00026872537871210371 -0.003778677318113874 0 2.8441711336540026e-05 -0.0038837693342283928 0 -0.00026872537871210371 -0.003778677318113874 0 -0.00015200843994815611 -0.0039847515663602754 0 2.8441711336540026e-05 -0.0038837693342283928 0 -0.00031530999731848919 -0.0040855670979803721 0 -0.00015200843994815611 -0.0039847515663602754 0 -5.2814281798411326e-05 -0.0041791337396102262 0 -0.00031530999731848919 -0.0040855670979803721 0 -5.2814281798411326e-05 -0.0041791337396102262 0 -0.00024863839091141725 -0.0043363661069739231 0 -0.00015200843994815611 -0.0039847515663602754 0 -5.2814281798411326e-05 -0.0041791337396102262 0 2.8441711336540026e-05 -0.0038837693342283928 0 -5.2814281798411326e-05 -0.0041791337396102262 0 0.00019864158457802523 -0.0040993379541967067 0 0.00012855869675011447 -0.0043052490357481455 0 -5.2814281798411326e-05 -0.0041791337396102262 0 2.8441711336540026e-05 -0.0038837693342283928 0 0.00019864158457802523 -0.0040993379541967067 0 0.00012151014293335932 -0.0035025871775985233 0 2.8441711336540026e-05 -0.0038837693342283928 0 0.00023950656699728106 -0.0038726692398404852 0 0.00023950656699728106 -0.0038726692398404852 0 0.00039303289079868804 -0.004060629915066255 0 0.00044747426963387811 -0.0037980865363223758 0 2.8441711336540026e-05 -0.0038837693342283928 0 0.00023950656699728106 -0.0038726692398404852 0 0.00019864158457802523 -0.0040993379541967067 0 0.00019864158457802523 -0.0040993379541967067 0 0.00039303289079868804 -0.004060629915066255 0 0.00033793256443572666 -0.0043355594215954522 0 0.00019864158457802523 -0.0040993379541967067 0 0.00033793256443572666 -0.0043355594215954522 0 0.00012855869675011447 -0.0043052490357481455 0 0.00023950656699728106 -0.0038726692398404852 0 0.00019864158457802523 -0.0040993379541967067 0 0.00039303289079868804 -0.004060629915066255 0 0.00039303289079868804 -0.004060629915066255 0 0.0005541105585064927 -0.0042511734959584466 0 0.00033793256443572666 -0.0043355594215954522 0 0.00039303289079868804 -0.004060629915066255 0 0.0005541105585064927 -0.0042511734959584466 0 0.00059302080363457564 -0.0040541514093991064 0 0.00059302080363457564 -0.0040541514093991064 0 0.00044747426963387811 -0.0037980865363223758 0 0.00080728820737248743 -0.0040510476992133395 0 0.00039303289079868804 -0.004060629915066255 0 0.00059302080363457564 -0.0040541514093991064 0 0.00044747426963387811 -0.0037980865363223758 0 0.00040995525477802934 -0.0045759409505469195 0 0.00026780933375811 -0.004645331193906894 0 0.00050827605917379975 -0.0047327214786304726 0 0.00040995525477802934 -0.0045759409505469195 0 0.00055254560921780521 -0.0046855842173345293 0 0.00050827605917379975 -0.0047327214786304726 0 0.00040995525477802934 -0.0045759409505469195 0 0.00055254560921780521 -0.0046855842173345293 0 0.00051582907476489521 -0.0044902871286036936 0 0.0005541105585064927 -0.0042511734959584466 0 0.00051582907476489521 -0.0044902871286036936 0 0.00033793256443572666 -0.0043355594215954522 0 0.00040995525477802934 -0.0045759409505469195 0 0.00051582907476489521 -0.0044902871286036936 0 0.00033793256443572666 -0.0043355594215954522 0 0.00040995525477802934 -0.0045759409505469195 0 0.00033793256443572666 -0.0043355594215954522 0 0.00018837690145436339 -0.0044884523554163929 0 0.00033793256443572666 -0.0043355594215954522 0 0.00018837690145436339 -0.0044884523554163929 0 0.00012855869675011447 -0.0043052490357481455 0 0.00040995525477802934 -0.0045759409505469195 0 0.00018837690145436339 -0.0044884523554163929 0 0.00026780933375811 -0.004645331193906894 0 0.00018837690145436339 -0.0044884523554163929 0 0.00026780933375811 -0.004645331193906894 0 9.0112390757110121e-05 -0.0045789866787248612 0 -2.4248646903770835e-05 -0.0044387714219222508 0 9.0112390757110121e-05 -0.0045789866787248612 0 -6.2295118477654878e-05 -0.0045821970858755433 0 0.00018837690145436339 -0.0044884523554163929 0 -2.4248646903770835e-05 -0.0044387714219222508 0 9.0112390757110121e-05 -0.0045789866787248612 0 0.00018837690145436339 -0.0044884523554163929 0 -2.4248646903770835e-05 -0.0044387714219222508 0 0.00012855869675011447 -0.0043052490357481455 0 -5.2814281798411326e-05 -0.0041791337396102262 0 -2.4248646903770835e-05 -0.0044387714219222508 0 0.00012855869675011447 -0.0043052490357481455 0 -5.2814281798411326e-05 -0.0041791337396102262 0 -2.4248646903770835e-05 -0.0044387714219222508 0 -0.00024863839091141725 -0.0043363661069739231 0 -2.4248646903770835e-05 -0.0044387714219222508 0 -0.00018772796956641698 -0.0044977890040144818 0 -6.2295118477654878e-05 -0.0045821970858755433 0 -2.4248646903770835e-05 -0.0044387714219222508 0 -0.00024863839091141725 -0.0043363661069739231 0 -0.00018772796956641698 -0.0044977890040144818 0 -0.00018772796956641698 -0.0044977890040144818 0 -0.00016062991832847454 -0.0046090467365298253 0 -0.0002474125093152321 -0.0045793340141544623 0 -0.00018772796956641698 -0.0044977890040144818 0 -6.2295118477654878e-05 -0.0045821970858755433 0 -0.00016062991832847454 -0.0046090467365298253 0 -6.2295118477654878e-05 -0.0045821970858755433 0 -0.00016062991832847454 -0.0046090467365298253 0 -6.9424489737906456e-05 -0.004667889419705004 0 -0.00019004293491319135 -0.0046298098398717801 0 -6.9424489737906456e-05 -0.004667889419705004 0 -0.00011697840782161807 -0.0047166404573008207 0 -0.00016062991832847454 -0.0046090467365298253 0 -0.00019004293491319135 -0.0046298098398717801 0 -6.9424489737906456e-05 -0.004667889419705004 0 -0.00019004293491319135 -0.0046298098398717801 0 -0.00021898064573286631 -0.0046086315525774354 0 -0.00011697840782161807 -0.0047166404573008207 0 -6.9424489737906456e-05 -0.004667889419705004 0 1.4826208652619081e-05 -0.0047827966917778951 0 -0.00011697840782161807 -0.0047166404573008207 0 -6.9424489737906456e-05 -0.004667889419705004 0 1.4826208652619081e-05 -0.0047827966917778951 0 9.6223910161036142e-05 -0.0046934212296461612 0 1.4826208652619081e-05 -0.0047827966917778951 0 9.6223910161036142e-05 -0.0046934212296461612 0 0.00016510521332722142 -0.0047987469837750601 0 -6.2295118477654878e-05 -0.0045821970858755433 0 -6.9424489737906456e-05 -0.004667889419705004 0 9.6223910161036142e-05 -0.0046934212296461612 0 9.0112390757110121e-05 -0.0045789866787248612 0 -6.2295118477654878e-05 -0.0045821970858755433 0 9.6223910161036142e-05 -0.0046934212296461612 0 0.00026780933375811 -0.004645331193906894 0 9.6223910161036142e-05 -0.0046934212296461612 0 0.00032961345037087084 -0.0047585990584986639 0 0.00026780933375811 -0.004645331193906894 0 9.0112390757110121e-05 -0.0045789866787248612 0 9.6223910161036142e-05 -0.0046934212296461612 0 9.6223910161036142e-05 -0.0046934212296461612 0 0.00016510521332722142 -0.0047987469837750601 0 0.00032961345037087084 -0.0047585990584986639 0 0.00016510521332722142 -0.0047987469837750601 0 0.00032961345037087084 -0.0047585990584986639 0 0.00028614844663578767 -0.0048703217474930574 0 0.00032961345037087084 -0.0047585990584986639 0 0.0004911780626619815 -0.0047671017001612919 0 0.0004644089333674405 -0.0048898221518630519 0 0.00032961345037087084 -0.0047585990584986639 0 0.0004644089333674405 -0.0048898221518630519 0 0.00028614844663578767 -0.0048703217474930574 0 0.00026780933375811 -0.004645331193906894 0 0.00032961345037087084 -0.0047585990584986639 0 0.00050827605917379975 -0.0047327214786304726 0 0.00032961345037087084 -0.0047585990584986639 0 0.00050827605917379975 -0.0047327214786304726 0 0.00056984623897766583 -0.0048401413404778404 0 0.00034630476403392225 -0.0047686462207594217 0 0.00056712896349752934 -0.0048304052229077576 0 -0.00047260816445569885 -0.0012705063119772585 0 -0.00067652433685100083 -0.0012366392098078481 0 -0.00059828838067511414 -0.00088017375572114283 0 -0.00067652433685100083 -0.0012366392098078481 0 -0.00080948836562332233 -0.00072439519551633345 0 -0.00059828838067511414 -0.00088017375572114283 0 -0.00067652433685100083 -0.0012366392098078481 0 -0.00080948836562332233 -0.00072439519551633345 0 -0.00087537345726697931 -0.0016559471771962311 0 -0.00080948836562332233 -0.00072439519551633345 0 -0.00061162937885789713 -0.00080508157798782267 0 -0.00052851075167611311 -0.00064316393063441684 0 -0.00080948836562332233 -0.00072439519551633345 0 -0.00061162937885789713 -0.00080508157798782267 0 -0.00059828838067511414 -0.00088017375572114283 0 -0.00053655782413246594 -0.00085893012986508911 0 -0.00061162937885789713 -0.00080508157798782267 0 -0.00059828838067511414 -0.00088017375572114283 0 -0.00053655782413246594 -0.00085893012986508911 0 -0.00059828838067511414 -0.00088017375572114283 0 -0.00034142425882071427 -0.0008637568903582082 0 -0.00063474476919063623 -0.0040305608180147834 0 -0.00041380681431520724 -0.0042303699036835372 0 -0.00046397881209152308 -0.0044016132480327675 0 -0.0006760715575120607 -0.0025331978856182884 0 -0.00039208939170404879 -0.0026571379097020953 0 -0.00031530999731848919 -0.0040855670979803721 0 -0.00024863839091141725 -0.0043363661069739231 0 -0.00041380681431520724 -0.0042303699036835372 0 -0.00024863839091141725 -0.0043363661069739231 0 -0.00041380681431520724 -0.0042303699036835372 0 -0.00046397881209152308 -0.0044016132480327675 0 -0.00018772796956641698 -0.0044977890040144818 0 -0.00046397881209152308 -0.0044016132480327675 0 -0.0002474125093152321 -0.0045793340141544623 0 -0.00024863839091141725 -0.0043363661069739231 0 -0.00018772796956641698 -0.0044977890040144818 0 -0.00046397881209152308 -0.0044016132480327675 0 -0.00039208939170404879 -0.0026571379097020953 0 -0.0001029596339036742 -0.0032971953231562081 0 -0.00047260816445569885 -0.0012705063119772585 0 -0.00059828838067511414 -0.00088017375572114283 0 -0.00034142425882071427 -0.0008637568903582082 0 -0.00047260816445569885 -0.0012705063119772585 0 -0.00034142425882071427 -0.0008637568903582082 0 0.00017423784497527626 -0.001940493459240055 0 -0.00047260816445569885 -0.0012705063119772585 0 0.00017423784497527626 -0.001940493459240055 0 -0.00065557322223415003 -0.0018512298944916234 0 -0.00046397881209152308 -0.0044016132480327675 0 -0.0002819943275999986 -0.0046094778144274247 0 -0.0002474125093152321 -0.0045793340141544623 0 -0.0002819943275999986 -0.0046094778144274247 0 -0.0002474125093152321 -0.0045793340141544623 0 -0.00025542679951502472 -0.0045859074167422373 0 -0.00016062991832847454 -0.0046090467365298253 0 -0.00019004293491319135 -0.0046298098398717801 0 -0.0002474125093152321 -0.0045793340141544623 0 -0.00019004293491319135 -0.0046298098398717801 0 -0.0002474125093152321 -0.0045793340141544623 0 -0.00025542679951502472 -0.0045859074167422373 0 -0.00025542679951502472 -0.0045859074167422373 0 -0.00020995060107023309 -0.0043687970123688956 0 -0.00021898064573286631 -0.0046086315525774354 0 -0.00019004293491319135 -0.0046298098398717801 0 -0.00025542679951502472 -0.0045859074167422373 0 -0.00021898064573286631 -0.0046086315525774354 0 -0.0002819943275999986 -0.0046094778144274247 0 -0.00025542679951502472 -0.0045859074167422373 0 -0.00020995060107023309 -0.0043687970123688956 0 -0.0001029596339036742 -0.0032971953231562081 0 -0.00017201121430244866 -0.0042765500382535753 0 0.00017423784497527626 -0.001940493459240055 0 -0.00064768642792904893 -0.0034484399322958904 0 -0.00020995060107023309 -0.0043687970123688956 0 0.00017423784497527626 -0.001940493459240055 0 -0.00064768642792904893 -0.0034484399322958904 0 -0.00065557322223415003 -0.0018512298944916234 0 -0.0010483630777513016 -0.002764845116580828 0 -0.00067862087075179511 -0.0019337114625072537 0 -0.00064768642792904893 -0.0034484399322958904 0 -0.0014014486074515602 -0.0036212211304065683 0 -0.00065557322223415003 -0.0018512298944916234 0 -0.00077370999360941808 -0.0019978959019690723 0 -0.00065557322223415003 -0.0018512298944916234 0 -0.00087537345726697931 -0.0016559471771962311 0 -0.00067652433685100083 -0.0012366392098078481 0 -0.00065557322223415003 -0.0018512298944916234 0 -0.00087537345726697931 -0.0016559471771962311 0 -0.00047260816445569885 -0.0012705063119772585 0 -0.00067652433685100083 -0.0012366392098078481 0 -0.00065557322223415003 -0.0018512298944916234 0 -0.00080948836562332233 -0.00072439519551633345 0 -0.00087537345726697931 -0.0016559471771962311 0 -0.001307062901550117 -0.0015820724681965346 0 -0.00087537345726697931 -0.0016559471771962311 0 -0.001307062901550117 -0.0015820724681965346 0 -0.0011263438771413913 -0.0020422892232667281 0 -0.00077370999360941808 -0.0019978959019690723 0 -0.00087537345726697931 -0.0016559471771962311 0 -0.0011263438771413913 -0.0020422892232667281 0 -0.00087208289979655534 -0.00077238058927434137 0 -0.00097968436412723637 -0.0010320306739404269 0 -0.001307062901550117 -0.0015820724681965346 0 -0.0014740337412388741 -0.0020293178340653104 0 -0.0011263438771413913 -0.0020422892232667281 0 -0.00026437660268945859 5.2811923262526625e-05 0 -0.00024758212658061387 0.00012197780570303845 0 -0.00033842289383247554 0.00012080450363638236 0 -0.00026437660268945859 5.2811923262526625e-05 0 -0.00048569334425813658 1.5630994196258835e-05 0 -0.00033842289383247554 0.00012080450363638236 0 -0.00026437660268945859 5.2811923262526625e-05 0 -0.0002379168292284365 -1.8877822475078338e-05 0 -0.00048569334425813658 1.5630994196258835e-05 0 -0.0002379168292284365 -1.8877822475078338e-05 0 -0.00048569334425813658 1.5630994196258835e-05 0 -0.00032938160881854019 -0.00024822946959358384 0 -0.00082810597955568471 -0.00073067228498435212 0 -0.00087208289979655534 -0.00077238058927434137 0 -0.00080948836562332233 -0.00072439519551633345 0 -0.00048569334425813658 1.5630994196258835e-05 0 -0.00032938160881854019 -0.00024822946959358384 0 -0.00080948836562332233 -0.00072439519551633345 0 -0.00032938160881854019 -0.00024822946959358384 0 -0.00052851075167611311 -0.00064316393063441684 0 -0.00032938160881854019 -0.00024822946959358384 0 -0.00010841513824146749 -6.0716949911096796e-05 0 -0.00017827188803559835 -7.938075278297321e-06 0 -0.0002379168292284365 -1.8877822475078338e-05 0 -0.00032938160881854019 -0.00024822946959358384 0 -0.00017827188803559835 -7.938075278297321e-06 0 -0.00010841513824146749 -6.0716949911096796e-05 0 -0.0001405888038724053 0.00034496545716173943 0 0.00010471506527774618 0.00046039817923734772 0 -0.00010841513824146749 -6.0716949911096796e-05 0 -0.00052851075167611311 -0.00064316393063441684 0 -0.0003480304332083476 -0.00077976537568266214 0 -0.0001107974505655736 -8.7833551568777506e-05 0 -0.00015278654834708963 -0.00018024730755999795 0 -0.00032938160881854019 -0.00024822946959358384 0 -0.00010841513824146749 -6.0716949911096796e-05 0 -0.00052851075167611311 -0.00064316393063441684 0 -0.00021798421449675326 0.00028370405507690936 0 -0.00022443102792894996 0.00015780218428659447 0 -0.00018362188038189867 0.00038399410539745484 0 -0.00021798421449675326 0.00028370405507690936 0 -0.00022382991780520091 0.00063434946314255434 0 -0.00019357819826326748 0.00057264547982114353 0 -0.00021798421449675326 0.00028370405507690936 0 -0.00018362188038189867 0.00038399410539745484 0 -0.0001501581956946252 0.00050181846561552759 0 -0.00020012352883121322 0.00033352525956045862 0 -0.00018632082231394805 0.00055227667915439178 0 -0.0001405888038724053 0.00034496545716173943 0 -0.00021798421449675326 0.00028370405507690936 0 -0.00019357819826326748 0.00057264547982114353 0 -0.00010841513824146749 -6.0716949911096796e-05 0 -0.00021798421449675326 0.00028370405507690936 0 -0.00022443102792894996 0.00015780218428659447 0 -0.00010841513824146749 -6.0716949911096796e-05 0 -0.0001405888038724053 0.00034496545716173943 0 -0.00021798421449675326 0.00028370405507690936 0 -0.00022443102792894996 0.00015780218428659447 0 -0.00017827188803559835 -7.938075278297321e-06 0 -0.00019292735188517897 7.6616390351589971e-07 0 -0.00010841513824146749 -6.0716949911096796e-05 0 -0.00022443102792894996 0.00015780218428659447 0 -0.00017827188803559835 -7.938075278297321e-06 0 -0.00022443102792894996 0.00015780218428659447 0 -0.00018362188038189867 0.00038399410539745484 0 -0.00018010203830536758 0.00043599071288568828 0 -0.00018362188038189867 0.00038399410539745484 0 -0.00018010203830536758 0.00043599071288568828 0 -0.00014893375443084293 0.00051223315647561357 0 -0.00022443102792894996 0.00015780218428659447 0 -0.00018010203830536758 0.00043599071288568828 0 -0.00028779419220990892 0.00058403941076008443 0 -0.00018010203830536758 0.00043599071288568828 0 -0.00028779419220990892 0.00058403941076008443 0 -0.00015471734790729522 0.00058710769594434232 0 -0.00026437660268945859 5.2811923262526625e-05 0 -0.0002379168292284365 -1.8877822475078338e-05 0 -0.00019292735188517897 7.6616390351589971e-07 0 -0.00022932857687671079 0.00017351605041177496 0 -0.00023538866531568945 0.00030002495761203803 0 -0.0002379168292284365 -1.8877822475078338e-05 0 -0.00017827188803559835 -7.938075278297321e-06 0 -0.00019292735188517897 7.6616390351589971e-07 0 -0.00026437660268945859 5.2811923262526625e-05 0 -0.00019292735188517897 7.6616390351589971e-07 0 -0.00024758212658061387 0.00012197780570303845 0 -0.00019292735188517897 7.6616390351589971e-07 0 -0.00016659772452108052 0.00015418629395429399 0 -0.00024758212658061387 0.00012197780570303845 0 -0.00028779419220990892 0.00058403941076008443 0 -0.00016926003974915133 0.00067954093811602753 0 -0.00015471734790729522 0.00058710769594434232 0 -0.00028779419220990892 0.00058403941076008443 0 -0.00016926003974915133 0.00067954093811602753 0 -0.00026417782736764677 0.0007312548998285799 0 -0.00023538866531568945 0.00030002495761203803 0 -0.00021567223617899404 0.0004190349734110694 0 -0.00016318239048171283 0.00068690486116998234 0 -0.00013114598091177443 0.00066361076415907545 0 -0.00014801558719643412 0.00070162379520998658 0 -0.00016926003974915133 0.00067954093811602753 0 -0.00013114598091177443 0.00066361076415907545 0 -0.00015471734790729522 0.00058710769594434232 0 -0.00018810093193930163 0.00070388088844682277 0 -0.00012496111381985684 0.00065939737242897084 0 -0.00013114598091177443 0.00066361076415907545 0 -0.00012582842153675058 0.0007030302574938768 0 -0.00012903994957606731 0.00071724848429188131 0 -0.00013114598091177443 0.00066361076415907545 0 -0.00012243363262213236 0.00061904501357435261 0 -0.00012582842153675058 0.0007030302574938768 0 -0.00013114598091177443 0.00066361076415907545 0 -0.00012243363262213236 0.00061904501357435261 0 -0.00015471734790729522 0.00058710769594434232 0 -0.00018010203830536758 0.00043599071288568828 0 -0.00015471734790729522 0.00058710769594434232 0 -0.00014893375443084293 0.00051223315647561357 0 -0.00012243363262213236 0.00061904501357435261 0 -0.00015471734790729522 0.00058710769594434232 0 -0.00014893375443084293 0.00051223315647561357 0 -0.00012582842153675058 0.0007030302574938768 0 -0.00013901815943844755 0.00074236137595433697 0 -0.00013191799645009058 0.00075040659493983753 0 -0.00015857791493802259 0.0007920931834751653 0 -0.00013901815943844755 0.00074236137595433697 0 -0.00013191799645009058 0.00075040659493983753 0 -0.00012243363262213236 0.00061904501357435261 0 -0.00012582842153675058 0.0007030302574938768 0 -0.00012807846099413116 0.00070610568715671548 0 -0.00015382610966577567 0.00076355551282837142 0 -0.00013901815943844755 0.00074236137595433697 0 -0.00012807846099413116 0.00070610568715671548 0 -0.00012582842153675058 0.0007030302574938768 0 -0.00013901815943844755 0.00074236137595433697 0 -0.00012807846099413116 0.00070610568715671548 0 -0.00012807846099413116 0.00070610568715671548 0 -0.00012228770701440278 0.00065864625366224858 0 -0.00013047955495403211 0.00076132618556822387 0 -0.00015382610966577567 0.00076355551282837142 0 -0.00012807846099413116 0.00070610568715671548 0 -0.00013047955495403211 0.00076132618556822387 0 -0.00012243363262213236 0.00061904501357435261 0 -0.00012807846099413116 0.00070610568715671548 0 -0.00012228770701440278 0.00065864625366224858 0 -0.00012228770701440278 0.00065864625366224858 0 -0.00013047955495403211 0.00076132618556822387 0 -0.00011330632052712325 0.0006793623986866555 0 -0.00018362188038189867 0.00038399410539745484 0 -0.00014893375443084293 0.00051223315647561357 0 -0.0001324029176444061 0.00056006243636198155 0 -0.00012243363262213236 0.00061904501357435261 0 -0.00012228770701440278 0.00065864625366224858 0 -0.0001324029176444061 0.00056006243636198155 0 -0.00012243363262213236 0.00061904501357435261 0 -0.00014893375443084293 0.00051223315647561357 0 -0.0001324029176444061 0.00056006243636198155 0 -0.00012228770701440278 0.00065864625366224858 0 -0.0001324029176444061 0.00056006243636198155 0 -0.00011330632052712325 0.0006793623986866555 0 -0.0001324029176444061 0.00056006243636198155 0 -0.0001501581956946252 0.00050181846561552759 0 -0.00011330632052712325 0.0006793623986866555 0 -0.00018362188038189867 0.00038399410539745484 0 -0.0001324029176444061 0.00056006243636198155 0 -0.0001501581956946252 0.00050181846561552759 0 -0.00022382991780520091 0.00063434946314255434 0 -0.00017136066411834638 0.00077606534742453396 0 -0.00019357819826326748 0.00057264547982114353 0 -0.00018632082231394805 0.00055227667915439178 0 -0.00013520639331864362 0.00073325839830415548 0 -0.00022382991780520091 0.00063434946314255434 0 -0.00014520749054083759 0.00081450982126443899 0 -0.00014536538601674331 0.0007918512335635899 0 -0.00014520749054083759 0.00081450982126443899 0 -0.00010974877624530852 0.00086085746046660726 0 -0.00010830590083988863 0.00089654154828148179 0 -0.00014520749054083759 0.00081450982126443899 0 -0.00017136066411834638 0.00077606534742453396 0 -0.00010830590083988863 0.00089654154828148179 0 -0.00022382991780520091 0.00063434946314255434 0 -0.00014520749054083759 0.00081450982126443899 0 -0.00017136066411834638 0.00077606534742453396 0 -0.00013047955495403211 0.00076132618556822387 0 -0.00012976052483528448 0.00083168517877544776 0 -0.00011330632052712325 0.0006793623986866555 0 -0.0001372265992793336 0.00081817538038313176 0 -0.00013520639331864362 0.00073325839830415548 0 -0.00012976052483528448 0.00083168517877544776 0 -0.00014536538601674331 0.0007918512335635899 0 -0.00010974877624530852 0.00086085746046660726 0 -0.00014520749054083759 0.00081450982126443899 0 -0.00014536538601674331 0.0007918512335635899 0 -0.00010974877624530852 0.00086085746046660726 0 -0.0001409965318133924 0.00088459833175549396 0 -0.00012976052483528448 0.00083168517877544776 0 -0.00010974877624530852 0.00086085746046660726 0 -0.0001409965318133924 0.00088459833175549396 0 -0.00010974877624530852 0.00086085746046660726 0 -6.9218575309899723e-05 0.00096597260493922171 0 -0.0001059032144348229 0.0009870054251269909 0 -0.0001409965318133924 0.00088459833175549396 0 -6.9218575309899723e-05 0.00096597260493922171 0 -0.00010974877624530852 0.00086085746046660726 0 -6.9218575309899723e-05 0.00096597260493922171 0 -0.00010830590083988863 0.00089654154828148179 0 -6.9218575309899723e-05 0.00096597260493922171 0 -0.00010830590083988863 0.00089654154828148179 0 -4.5927326406555968e-05 0.0010228555416530809 0 1.4352259705593962e-06 0.0010998764156160054 0 -6.9218575309899723e-05 0.00096597260493922171 0 -4.5927326406555968e-05 0.0010228555416530809 0 1.4352259705593962e-06 0.0010998764156160054 0 -6.9218575309899723e-05 0.00096597260493922171 0 -5.3658560396677549e-05 0.0010699698892511764 0 -0.0001059032144348229 0.0009870054251269909 0 -6.9218575309899723e-05 0.00096597260493922171 0 -5.3658560396677549e-05 0.0010699698892511764 0 -0.00017136066411834638 0.00077606534742453396 0 -0.00012035812647760336 0.00091659670463199239 0 -0.00014463921817482712 0.00084796031655274618 0 -0.00017136066411834638 0.00077606534742453396 0 -0.00010830590083988863 0.00089654154828148179 0 -0.00012035812647760336 0.00091659670463199239 0 -0.00010462887977922818 0.00098796305549866243 0 -4.5927326406555968e-05 0.0010228555416530809 0 -0.00012035812647760336 0.00091659670463199239 0 -0.00010830590083988863 0.00089654154828148179 0 -4.5927326406555968e-05 0.0010228555416530809 0 -0.00012035812647760336 0.00091659670463199239 0 -0.00010462887977922818 0.00098796305549866243 0 -0.00012035812647760336 0.00091659670463199239 0 -0.00013517337110670167 0.00092431207672881649 0 -0.00012035812647760336 0.00091659670463199239 0 -0.00013517337110670167 0.00092431207672881649 0 -0.00014463921817482712 0.00084796031655274618 0 -0.00013517337110670167 0.00092431207672881649 0 -0.00014463921817482712 0.00084796031655274618 0 -0.00013441594488604433 0.00086761495188590425 0 -0.00016071515367786738 0.00096200445412525132 0 -0.00013517337110670167 0.00092431207672881649 0 -0.00013441594488604433 0.00086761495188590425 0 -0.00014463921817482712 0.00084796031655274618 0 -0.00013441594488604433 0.00086761495188590425 0 -0.00013800945392764216 0.00072798564610093513 0 -0.00013441594488604433 0.00086761495188590425 0 -4.9994176792438859e-05 0.0007944977033338339 0 -0.00013800945392764216 0.00072798564610093513 0 -0.00016263309133936719 0.00092043521161090875 0 -0.00016071515367786738 0.00096200445412525132 0 -0.00013441594488604433 0.00086761495188590425 0 -0.00016263309133936719 0.00092043521161090875 0 -0.00013441594488604433 0.00086761495188590425 0 -8.9440515170100546e-05 0.00087501662449427156 0 -0.00013441594488604433 0.00086761495188590425 0 -8.9440515170100546e-05 0.00087501662449427156 0 -4.9994176792438859e-05 0.0007944977033338339 0 -8.9440515170100546e-05 0.00087501662449427156 0 -3.6561480475317541e-06 0.00087569829785046635 0 -4.9994176792438859e-05 0.0007944977033338339 0 -0.0002801452140943148 -0.00081405588689550121 0 -0.00010366872148194352 -0.00074738676645739002 0 0.00012487929563440034 0.00074541914644498568 0 -3.6561480475317541e-06 0.00087569829785046635 0 4.3544659451969304e-05 0.00074465952813710886 0 -3.6561480475317541e-06 0.00087569829785046635 0 4.3544659451969304e-05 0.00074465952813710886 0 -4.9994176792438859e-05 0.0007944977033338339 0 4.3544659451969304e-05 0.00074465952813710886 0 -4.9994176792438859e-05 0.0007944977033338339 0 -1.4418822621710383e-05 0.00066823323648574631 0 -4.9994176792438859e-05 0.0007944977033338339 0 -1.4418822621710383e-05 0.00066823323648574631 0 -0.00013800945392764216 0.00072798564610093513 0 -0.0002801452140943148 -0.00081405588689550121 0 -0.00012076391676230975 -4.2346759937199286e-05 0 4.3544659451969304e-05 0.00074465952813710886 0 -1.4418822621710383e-05 0.00066823323648574631 0 0.00010007199312689248 0.00064106276217307169 0 0.00012487929563440034 0.00074541914644498568 0 4.3544659451969304e-05 0.00074465952813710886 0 0.00010007199312689248 0.00064106276217307169 0 -0.00012076391676230975 -4.2346759937199286e-05 0 -0.00015278654834708963 -0.00018024730755999795 0 -0.00052383601934769387 -0.00091017264749217956 0 -0.00046191773958203982 -0.00093765662790139227 0 -0.0003480304332083476 -0.00077976537568266214 0 -0.00052383601934769387 -0.00091017264749217956 0 -0.00052851075167611311 -0.00064316393063441684 0 -0.0003480304332083476 -0.00077976537568266214 0 -1.4418822621710383e-05 0.00066823323648574631 0 0.00010007199312689248 0.00064106276217307169 0 0.00010471506527774618 0.00046039817923734772 0 -1.4418822621710383e-05 0.00066823323648574631 0 0.00010471506527774618 0.00046039817923734772 0 -0.00010328521282807683 0.0005596189578455918 0 -0.0001405888038724053 0.00034496545716173943 0 0.00010471506527774618 0.00046039817923734772 0 -0.00010328521282807683 0.0005596189578455918 0 -0.00010328521282807683 0.0005596189578455918 0 -0.00019357819826326748 0.00057264547982114353 0 -0.00013800945392764216 0.00072798564610093513 0 -0.0001405888038724053 0.00034496545716173943 0 -0.00010328521282807683 0.0005596189578455918 0 -0.00019357819826326748 0.00057264547982114353 0 -0.00017136066411834638 0.00077606534742453396 0 -0.00014463921817482712 0.00084796031655274618 0 -0.00013800945392764216 0.00072798564610093513 0 -0.00017136066411834638 0.00077606534742453396 0 -0.00019357819826326748 0.00057264547982114353 0 -0.00013800945392764216 0.00072798564610093513 0 -1.4418822621710383e-05 0.00066823323648574631 0 -0.00010328521282807683 0.0005596189578455918 0 -0.00013800945392764216 0.00072798564610093513 0 6.076329763866026e-05 -0.014954658856341565 0 2.1240611375460386e-05 -0.014931517229307186 0 7.5185161642569927e-05 -0.014870394142379317 0 5.6055713178425567e-05 -0.014961749445543796 0 -1.2472926263679511e-10 -0.014999981932902357 0 6.076329763866026e-05 -0.014954658856341565 0 7.1567490979445648e-09 -0.015000060600024533 0 2.1240611375460386e-05 -0.014931517229307186 0 -6.6384314639208234e-08 -0.014999712654197436 0 2.1240611375460386e-05 -0.014931517229307186 0 1.5911457071962541e-05 -0.014775522630370635 0 7.1567490979445648e-09 -0.015000060600024533 0 -6.6384314639208234e-08 -0.014999712654197436 0 2.1240611375460386e-05 -0.014931517229307186 0 2.1240611375460386e-05 -0.014931517229307186 0 7.5185161642569927e-05 -0.014870394142379317 0 1.5911457071962541e-05 -0.014775522630370635 0 7.5185161642569927e-05 -0.014870394142379317 0 0.00017421462737316566 -0.014799599273621991 0 0.00015354109013163662 -0.014889568442120726 0 7.5185161642569927e-05 -0.014870394142379317 0 0.00017421462737316566 -0.014799599273621991 0 0.00010990702320167569 -0.014756545273053008 0 0.00017421462737316566 -0.014799599273621991 0 0.00026644025662639467 -0.014858582656303533 0 0.00027293432900577506 -0.01471236088137025 0 0.00017421462737316566 -0.014799599273621991 0 0.00015354109013163662 -0.014889568442120726 0 0.00026644025662639467 -0.014858582656303533 0 0.00015354109013163662 -0.014889568442120726 0 0.00021917175907506281 -0.014965888442925993 0 0.00026644025662639467 -0.014858582656303533 0 6.076329763866026e-05 -0.014954658856341565 0 7.5185161642569927e-05 -0.014870394142379317 0 0.00015354109013163662 -0.014889568442120726 0 6.076329763866026e-05 -0.014954658856341565 0 0.00015354109013163662 -0.014889568442120726 0 0.00021917175907506281 -0.014965888442925993 0 5.6055713178425567e-05 -0.014961749445543796 0 0.00021056842141393641 -0.014967895273070658 0 4.3350573119295555e-05 -0.01496471088141276 0 9.1621054270102229e-05 -0.015038925954015132 0 0.00021917175907506281 -0.014965888442925993 0 2.4391895047545093e-06 -0.014969269759511508 0 0.00011978574965970103 -0.015262072863225295 0 9.1621054270102229e-05 -0.015038925954015132 0 0.00021917175907506281 -0.014965888442925993 0 0.00027445825362677295 -0.01503910973897137 0 -9.6809397957267699e-05 -0.014952997634286076 0 -0.00011286576510927559 -0.014939735523414138 0 -0.00014199319726779255 -0.01492767508956136 0 -9.2852325944673553e-05 -0.014980242136865987 0 -9.6809397957267699e-05 -0.014952997634286076 0 -7.736402073793253e-05 -0.014910821718899377 0 0.00011688402623408522 -0.015520345653036951 0 -0.00022307827490872863 -0.012721838568388778 0 -9.2852325944673553e-05 -0.014980242136865987 0 -9.6809397957267699e-05 -0.014952997634286076 0 -9.0341955925667285e-05 -0.014961560781548153 0 -9.6809397957267699e-05 -0.014952997634286076 0 -9.0341955925667285e-05 -0.014961560781548153 0 -0.00011286576510927559 -0.014939735523414138 0 -9.2852325944673553e-05 -0.014980242136865987 0 -9.0341955925667285e-05 -0.014961560781548153 0 -5.1533752283873687e-05 -0.014976517703207914 0 -7.3704262531586145e-08 -0.015000030674877287 0 -8.0339062190781338e-06 -0.015004682307614347 0 8.1805018446426329e-08 -0.014999888201754893 0 2.4391895047545093e-06 -0.014969269759511508 0 -4.8750898160287742e-06 -0.015015402574399562 0 -9.2852325944673553e-05 -0.014980242136865987 0 -5.1533752283873687e-05 -0.014976517703207914 0 -8.0339062190781338e-06 -0.015004682307614347 0 4.3350573119295555e-05 -0.01496471088141276 0 9.1621054270102229e-05 -0.015038925954015132 0 -8.0339062190781338e-06 -0.015004682307614347 0 4.3350573119295555e-05 -0.01496471088141276 0 -7.3704262531586145e-08 -0.015000030674877287 0 -8.0339062190781338e-06 -0.015004682307614347 0 8.1805018446426329e-08 -0.014999888201754893 0 1.1454841389796369e-06 -0.014836908259686026 0 -8.1894951258412588e-05 -0.014942437714835123 0 -5.1533752283873687e-05 -0.014976517703207914 0 8.1805018446426329e-08 -0.014999888201754893 0 -8.1894951258412588e-05 -0.014942437714835123 0 -5.1533752283873687e-05 -0.014976517703207914 0 -8.0339062190781338e-06 -0.015004682307614347 0 8.1805018446426329e-08 -0.014999888201754893 0 1.1454841389796369e-06 -0.014836908259686026 0 -0.00014893258841393482 -0.014835069268865355 0 -8.1894951258412588e-05 -0.014942437714835123 0 8.1805018446426329e-08 -0.014999888201754893 0 1.1454841389796369e-06 -0.014836908259686026 0 -9.5708838205329e-08 -0.014999298489248953 0 -3.4197850871075337e-05 -0.014458117302348311 0 -9.5708838205329e-08 -0.014999298489248953 0 2.0207291712314454e-07 -0.013471933696943692 0 1.1454841389796369e-06 -0.014836908259686026 0 -3.4197850871075337e-05 -0.014458117302348311 0 -0.00014893258841393482 -0.014835069268865355 0 -4.0260826637427418e-05 -0.014404399793497155 0 -2.3465471518198567e-05 -0.014142678070646449 0 1.1454841389796369e-06 -0.014836908259686026 0 -3.4197850871075337e-05 -0.014458117302348311 0 -9.5708838205329e-08 -0.014999298489248953 0 -3.4197850871075337e-05 -0.014458117302348311 0 2.0207291712314454e-07 -0.013471933696943692 0 -4.9311668332122044e-06 -0.013539363267818979 0 -4.9311668332122044e-06 -0.013539363267818979 0 4.3003691845277446e-05 -0.013307624693440982 0 4.2753518877218429e-05 -0.013263482659848645 0 2.0207291712314454e-07 -0.013471933696943692 0 -4.9311668332122044e-06 -0.013539363267818979 0 4.2753518877218429e-05 -0.013263482659848645 0 -2.3465471518198567e-05 -0.014142678070646449 0 -0.00010156202921239723 -0.014352264898329494 0 -0.00014893258841393482 -0.014835069268865355 0 -0.00013391817764789104 -0.014912257837748313 0 -8.1894951258412588e-05 -0.014942437714835123 0 -0.00013391817764789104 -0.014912257837748313 0 -8.1894951258412588e-05 -0.014942437714835123 0 -0.00011286576510927559 -0.014939735523414138 0 -9.0341955925667285e-05 -0.014961560781548153 0 -5.1533752283873687e-05 -0.014976517703207914 0 -8.1894951258412588e-05 -0.014942437714835123 0 -9.0341955925667285e-05 -0.014961560781548153 0 -8.1894951258412588e-05 -0.014942437714835123 0 -0.00011286576510927559 -0.014939735523414138 0 -0.00013391817764789104 -0.014912257837748313 0 -0.00011286576510927559 -0.014939735523414138 0 -0.00014199319726779255 -0.01492767508956136 0 -0.00010156202921239723 -0.014352264898329494 0 -0.00022307827490872863 -0.012721838568388778 0 4.3003691845277446e-05 -0.013307624693440982 0 -3.9336732935116642e-05 -0.013425450614821761 0 -4.0927342754028457e-05 -0.01329871257490888 0 -0.00033949990378843341 -0.009008357303137501 0 -0.00038289913562584142 -0.0089722193163433855 0 -0.00037771666283031142 -0.0089971236997918782 0 -0.00022307827490872863 -0.012721838568388778 0 -0.00036740781916847593 -0.010912528111534335 0 -3.9336732935116642e-05 -0.013425450614821761 0 -4.0927342754028457e-05 -0.01329871257490888 0 -0.00028017585810765158 -0.013336694571430918 0 -4.0927342754028457e-05 -0.01329871257490888 0 -0.00011747285455202183 -0.013170783280354231 0 -0.00028017585810765158 -0.013336694571430918 0 4.3003691845277446e-05 -0.013307624693440982 0 -4.0927342754028457e-05 -0.01329871257490888 0 4.2753518877218429e-05 -0.013263482659848645 0 -4.0927342754028457e-05 -0.01329871257490888 0 4.2753518877218429e-05 -0.013263482659848645 0 -0.00011747285455202183 -0.013170783280354231 0 2.0207291712314454e-07 -0.013471933696943692 0 -1.3255129448199135e-07 -0.012321312287939661 0 -1.2845245048908855e-05 -0.012713448290437024 0 4.2753518877218429e-05 -0.013263482659848645 0 8.5439207458490165e-06 -0.013056980655484676 0 -0.00011747285455202183 -0.013170783280354231 0 -0.00011747285455202183 -0.013170783280354231 0 -0.00016619359313269536 -0.012979082312688016 0 -0.00037243568005860839 -0.013106782352561833 0 8.5439207458490165e-06 -0.013056980655484676 0 -0.00011747285455202183 -0.013170783280354231 0 -0.00016619359313269536 -0.012979082312688016 0 8.5439207458490165e-06 -0.013056980655484676 0 -0.00016619359313269536 -0.012979082312688016 0 -1.2845245048908855e-05 -0.012713448290437024 0 -0.00016619359313269536 -0.012979082312688016 0 -1.2845245048908855e-05 -0.012713448290437024 0 -0.00032978835807528472 -0.012891987201644776 0 -1.3255129448199135e-07 -0.012321312287939661 0 -1.2845245048908855e-05 -0.012713448290437024 0 2.7078416715906476e-05 -0.011909531592349257 0 1.5924444220696528e-05 -0.012621807446911226 0 -9.8593508454000484e-05 -0.01241456092661718 0 2.0207291712314454e-07 -0.013471933696943692 0 8.5439207458490165e-06 -0.013056980655484676 0 -1.2845245048908855e-05 -0.012713448290437024 0 2.0207291712314454e-07 -0.013471933696943692 0 4.2753518877218429e-05 -0.013263482659848645 0 8.5439207458490165e-06 -0.013056980655484676 0 -6.1610886779126273e-05 -0.011638794186339925 0 -6.6765491460837384e-09 -0.011456104106618415 0 2.7078416715906476e-05 -0.011909531592349257 0 -0.00034072299270083528 -0.012382165496760619 0 -9.8593508454000484e-05 -0.01241456092661718 0 -0.00052780605748803692 -0.012944395997355827 0 -0.00032978835807528472 -0.012891987201644776 0 -0.0004356319711441554 -0.012996179634640292 0 -6.1610886779126273e-05 -0.011638794186339925 0 -6.6765491460837384e-09 -0.011456104106618415 0 -0.00018599278348649284 -0.011577742985713934 0 -2.7188419239099113e-08 -0.011455260273521957 0 -2.4734279741196561e-05 -0.01117011892614597 0 -1.3255129448199135e-07 -0.012321312287939661 0 -6.6765491460837384e-09 -0.011456104106618415 0 2.7078416715906476e-05 -0.011909531592349257 0 -0.00016619359313269536 -0.012979082312688016 0 -0.00032978835807528472 -0.012891987201644776 0 -0.00037243568005860839 -0.013106782352561833 0 -0.00032978835807528472 -0.012891987201644776 0 -0.00037243568005860839 -0.013106782352561833 0 -0.0004356319711441554 -0.012996179634640292 0 -0.00037243568005860839 -0.013106782352561833 0 -0.00050671162561871208 -0.013045294358819121 0 -0.00057533722567793477 -0.013171569362807955 0 -0.00037243568005860839 -0.013106782352561833 0 -0.0004356319711441554 -0.012996179634640292 0 -0.00050671162561871208 -0.013045294358819121 0 -0.00052780605748803692 -0.012944395997355827 0 -0.0004356319711441554 -0.012996179634640292 0 -0.00050671162561871208 -0.013045294358819121 0 -0.00052780605748803692 -0.012944395997355827 0 -0.00050671162561871208 -0.013045294358819121 0 -0.00062879869969907295 -0.013032479035671344 0 -0.00038289913562584142 -0.0089722193163433855 0 -0.00033619599021700162 -0.0089456062700234654 0 -0.00027729101182696572 -0.0090218405333980841 0 -0.00037243568005860839 -0.013106782352561833 0 -0.00028017585810765158 -0.013336694571430918 0 -0.00057533722567793477 -0.013171569362807955 0 -0.00036740781916847593 -0.010912528111534335 0 -0.0004454575767083238 -0.011167061337818227 0 -0.00011747285455202183 -0.013170783280354231 0 -0.00037243568005860839 -0.013106782352561833 0 -0.00028017585810765158 -0.013336694571430918 0 -0.00038289913562584142 -0.0089722193163433855 0 -0.0003563726003182866 -0.0089416208121562216 0 -0.00033619599021700162 -0.0089456062700234654 0 -0.00038289913562584142 -0.0089722193163433855 0 -0.0003563726003182866 -0.0089416208121562216 0 -0.00036821280870932529 -0.0089541932282113743 0 -0.0003563726003182866 -0.0089416208121562216 0 -0.00036821280870932529 -0.0089541932282113743 0 -0.00035338823016009113 -0.0089027396513986432 0 -0.00038289913562584142 -0.0089722193163433855 0 -0.00036821280870932529 -0.0089541932282113743 0 -0.00037771666283031142 -0.0089971236997918782 0 -0.00033619599021700162 -0.0089456062700234654 0 -0.000287634811484763 -0.0089275390135242078 0 -0.00027729101182696572 -0.0090218405333980841 0 -0.0003563726003182866 -0.0089416208121562216 0 -0.00033850555317728096 -0.0089181035056023206 0 -0.00035338823016009113 -0.0089027396513986432 0 -0.0003563726003182866 -0.0089416208121562216 0 -0.00033619599021700162 -0.0089456062700234654 0 -0.00033850555317728096 -0.0089181035056023206 0 -0.00033619599021700162 -0.0089456062700234654 0 -0.00033850555317728096 -0.0089181035056023206 0 -0.00031146999059688917 -0.0089067175859121311 0 -0.00033850555317728096 -0.0089181035056023206 0 -0.00031146999059688917 -0.0089067175859121311 0 -0.00032516663282336066 -0.008899390608238765 0 -0.00033619599021700162 -0.0089456062700234654 0 -0.00031146999059688917 -0.0089067175859121311 0 -0.000287634811484763 -0.0089275390135242078 0 -0.00031146999059688917 -0.0089067175859121311 0 -0.000287634811484763 -0.0089275390135242078 0 -0.0002717421051128717 -0.0088815817179386924 0 -0.00050202148856050711 -0.008985030338787281 0 -0.00041697105100873714 -0.0089325487593919888 0 -0.00032620936935878406 -0.0089158719108349861 0 -0.00041713369193320179 -0.0089441606552538733 0 -0.00028328250971818133 -0.0088662285881386214 0 -0.00029573902714951663 -0.0088686530549319693 0 -0.00035338823016009113 -0.0089027396513986432 0 -0.00024013482113630817 -0.008817809499789192 0 -0.00031146999059688917 -0.0089067175859121311 0 -0.00029573902714951663 -0.0088686530549319693 0 -0.0002717421051128717 -0.0088815817179386924 0 -0.00031146999059688917 -0.0089067175859121311 0 -0.00029573902714951663 -0.0088686530549319693 0 -0.00032516663282336066 -0.008899390608238765 0 -0.00029573902714951663 -0.0088686530549319693 0 -0.00032516663282336066 -0.008899390608238765 0 -0.00035338823016009113 -0.0089027396513986432 0 -0.00050202148856050711 -0.008985030338787281 0 -0.00046486463767581574 -0.0089459287680053005 0 -0.00041697105100873714 -0.0089325487593919888 0 -0.00033850555317728096 -0.0089181035056023206 0 -0.00032516663282336066 -0.008899390608238765 0 -0.00035338823016009113 -0.0089027396513986432 0 -0.00050202148856050711 -0.008985030338787281 0 -0.00046486463767581574 -0.0089459287680053005 0 -0.00049844048645879551 -0.0089918147539137377 0 -0.00046486463767581574 -0.0089459287680053005 0 -0.00043780296181858229 -0.0089018221445751784 0 -0.00047577081635792953 -0.008848216602902732 0 -0.00046486463767581574 -0.0089459287680053005 0 -0.00047577081635792953 -0.008848216602902732 0 -0.00049844048645879551 -0.0089918147539137377 0 -0.00055548114875761032 -0.0096828760272777686 0 -0.00040719080067080774 -0.008835406246308266 0 -0.00041697105100873714 -0.0089325487593919888 0 -0.0003960071395096576 -0.0089042061177605682 0 -0.00043780296181858229 -0.0089018221445751784 0 -0.00041697105100873714 -0.0089325487593919888 0 -0.0003960071395096576 -0.0089042061177605682 0 -0.0003708864998832527 -0.0089100631499357801 0 -0.00046486463767581574 -0.0089459287680053005 0 -0.00041697105100873714 -0.0089325487593919888 0 -0.00043780296181858229 -0.0089018221445751784 0 -0.0003960071395096576 -0.0089042061177605682 0 -0.00043780296181858229 -0.0089018221445751784 0 -0.00039659009833444209 -0.0088787578360334986 0 -0.00043780296181858229 -0.0089018221445751784 0 -0.00039659009833444209 -0.0088787578360334986 0 -0.00047577081635792953 -0.008848216602902732 0 -0.00055548114875761032 -0.0096828760272777686 0 -0.00039359071575372797 -0.0089468719267419491 0 -0.00039659009833444209 -0.0088787578360334986 0 -0.00047577081635792953 -0.008848216602902732 0 -0.00036604338376547088 -0.0088396133768099319 0 -0.00026297988744309713 -0.011400401120566766 0 -0.00028470154155466455 -0.011456601797212258 0 -0.00026006702055305091 -0.011468392443902834 0 -0.00055548114875761032 -0.0096828760272777686 0 -0.00035470071831576278 -0.0099736988181150059 0 -0.00035470071831576278 -0.0099736988181150059 0 -0.00039359071575372797 -0.0089468719267419491 0 -0.00031248552914430215 -0.0094476380448515838 0 -0.00041217033297463761 -0.0097077259483851104 0 -0.00054263941259813126 -0.0094579630595968134 0 -0.00053322478705460476 -0.0090951296088732925 0 -0.00044301405463337013 -0.009022297757533989 0 -0.00039338759553105555 -0.0090873784024139703 0 -0.00026297988744309713 -0.011400401120566766 0 -0.00018342346929979298 -0.011409423716923174 0 -0.00026006702055305091 -0.011468392443902834 0 0.00010327186780223459 -0.012671215270802264 0 -0.00023801410923251145 -0.012738650112238469 0 -0.00055548114875761032 -0.0096828760272777686 0 0.00010327186780223459 -0.012671215270802264 0 -0.00036821280870932529 -0.0089541932282113743 0 -0.00035338823016009113 -0.0089027396513986432 0 -0.00037771666283031142 -0.0089971236997918782 0 -0.00050202148856050711 -0.008985030338787281 0 -0.00044301405463337013 -0.009022297757533989 0 -0.00037771666283031142 -0.0089971236997918782 0 -0.00041713369193320179 -0.0089441606552538733 0 -0.00038228250706256377 -0.0089836920239168144 0 -0.00053322478705460476 -0.0090951296088732925 0 -0.00044301405463337013 -0.009022297757533989 0 -0.00049844048645879551 -0.0089918147539137377 0 -0.00050202148856050711 -0.008985030338787281 0 -0.00044301405463337013 -0.009022297757533989 0 -0.00049844048645879551 -0.0089918147539137377 0 -0.00033949990378843341 -0.009008357303137501 0 -0.00037771666283031142 -0.0089971236997918782 0 -0.00039338759553105555 -0.0090873784024139703 0 -0.00044301405463337013 -0.009022297757533989 0 -0.00037771666283031142 -0.0089971236997918782 0 -0.00039338759553105555 -0.0090873784024139703 0 -0.00022307827490872863 -0.012721838568388778 0 0.00010327186780223459 -0.012671215270802264 0 -9.6809397957267699e-05 -0.014952997634286076 0 -5.9350617891074101e-05 -0.014928518574372373 0 -7.736402073793253e-05 -0.014910821718899377 0 -5.9350617891074101e-05 -0.014928518574372373 0 -7.736402073793253e-05 -0.014910821718899377 0 -1.0518570895369131e-05 -0.014865225371299095 0 0.00027445825362677295 -0.01503910973897137 0 0.00032506887642585059 -0.01495052631869968 0 0.00048324863444536314 -0.015011409750100619 0 0.00021917175907506281 -0.014965888442925993 0 0.00027445825362677295 -0.01503910973897137 0 0.00032506887642585059 -0.01495052631869968 0 0.00011978574965970103 -0.015262072863225295 0 0.00010327186780223459 -0.012671215270802264 0 0.00032506887642585059 -0.01495052631869968 0 0.00048324863444536314 -0.015011409750100619 0 0.00038688511649150249 -0.014883774370341453 0 0.00048324863444536314 -0.015011409750100619 0 0.00038688511649150249 -0.014883774370341453 0 0.00050649814108504347 -0.014822918126870687 0 0.00038688511649150249 -0.014883774370341453 0 0.00038798260520433189 -0.014768347318754741 0 0.00050649814108504347 -0.014822918126870687 0 0.00021917175907506281 -0.014965888442925993 0 0.00032506887642585059 -0.01495052631869968 0 0.00026644025662639467 -0.014858582656303533 0 0.00038688511649150249 -0.014883774370341453 0 0.00026644025662639467 -0.014858582656303533 0 0.00038798260520433189 -0.014768347318754741 0 0.00032506887642585059 -0.01495052631869968 0 0.00038688511649150249 -0.014883774370341453 0 0.00026644025662639467 -0.014858582656303533 0 0.00026644025662639467 -0.014858582656303533 0 0.00038798260520433189 -0.014768347318754741 0 0.00027293432900577506 -0.01471236088137025 0 0.00038798260520433189 -0.014768347318754741 0 0.00050649814108504347 -0.014822918126870687 0 0.00051740277803383205 -0.014682121587319567 0 0.00061967878633074197 -0.014738545885572244 0 0.00050649814108504347 -0.014822918126870687 0 0.00051740277803383205 -0.014682121587319567 0 -0.00030543287504225503 -0.008894293062695369 0 -0.00023934653412655934 -0.0090366403444480815 0 -0.00011478659618836384 -0.0088790232347528038 0 -0.00030543287504225503 -0.008894293062695369 0 -0.00011478659618836384 -0.0088790232347528038 0 -0.00021150893165636442 -0.0087444147615067143 0 -0.0001374716867267475 -0.010682260513422031 0 -1.8331356371874422e-05 -0.0087021953055474843 0 8.3863725144988754e-05 -0.012290792015937541 0 -0.00023801410923251145 -0.012738650112238469 0 8.3863725144988754e-05 -0.012290792015937541 0 -0.0001374716867267475 -0.010682260513422031 0 9.8082215600137841e-05 -0.012177357865362646 0 -0.00016150957518941869 -0.011693542080263367 0 -3.2633903545378332e-05 -0.011560996969307794 0 -0.00035470071831576278 -0.0099736988181150059 0 -1.8331356371874422e-05 -0.0087021953055474843 0 -0.00054752712808351983 -0.009840179617886937 0 -0.00030586313857288323 -0.010299147442544352 0 0.00015586441066762013 -0.009110732439788511 0 -0.0001374716867267475 -0.010682260513422031 0 -0.00023801410923251145 -0.012738650112238469 0 -0.00026871685409771059 -0.01148675347197224 0 -0.00025787198734571236 -0.011476853391397947 0 -0.00026006702055305091 -0.011468392443902834 0 -0.0001374716867267475 -0.010682260513422031 0 -0.00035470071831576278 -0.0099736988181150059 0 -0.00023801410923251145 -0.012738650112238469 0 -0.00027386447284522426 -0.012499408489547425 0 -0.00026871685409771059 -0.01148675347197224 0 -0.00028470154155466455 -0.011456601797212258 0 -0.00026006702055305091 -0.011468392443902834 0 0.00061967878633074197 -0.014738545885572244 0 0.00063671026787809717 -0.014844598527878368 0 0.00050649814108504347 -0.014822918126870687 0 0.00048324863444536314 -0.015011409750100619 0 0.00063671026787809717 -0.014844598527878368 0 0.00050649814108504347 -0.014822918126870687 0 -0.00018342346929979298 -0.011409423716923174 0 -0.00025852211019829739 -0.01147730105255359 0 -0.00026006702055305091 -0.011468392443902834 0 -0.00016112994860574252 -0.0086591023559521047 0 -0.00017933613795538596 -0.0086152392633248136 0 -0.00011285253917506956 -0.0085878121201026641 0 -0.00010845609882139961 -0.0086512669728590254 0 -0.00011285253917506956 -0.0085878121201026641 0 -5.277442134059301e-05 -0.0086345580759990912 0 -0.00010845609882139961 -0.0086512669728590254 0 -0.00016112994860574252 -0.0086591023559521047 0 -0.00011285253917506956 -0.0085878121201026641 0 -0.00025005531685680068 -0.008657953183478102 0 -0.00017933613795538596 -0.0086152392633248136 0 -0.00020796000714637375 -0.0085570742647025529 0 -0.00016112994860574252 -0.0086591023559521047 0 -0.00017933613795538596 -0.0086152392633248136 0 -0.00020619965379699471 -0.0086752989533590511 0 -0.00025005531685680068 -0.008657953183478102 0 -0.00017933613795538596 -0.0086152392633248136 0 -0.00020619965379699471 -0.0086752989533590511 0 -0.00017933613795538596 -0.0086152392633248136 0 -0.00020796000714637375 -0.0085570742647025529 0 -0.00014298184562714275 -0.0085517989989030326 0 -0.00020796000714637375 -0.0085570742647025529 0 -0.00014298184562714275 -0.0085517989989030326 0 -0.00011969267346630209 -0.0084974658427156863 0 -1.8331356371874422e-05 -0.0087021953055474843 0 -0.00013274278106374424 -0.0084766306895459539 0 -0.00014298184562714275 -0.0085517989989030326 0 -0.00010317144285392772 -0.0085260337535991246 0 -0.00011969267346630209 -0.0084974658427156863 0 -0.00014298184562714275 -0.0085517989989030326 0 -0.00011285253917506956 -0.0085878121201026641 0 -0.00010317144285392772 -0.0085260337535991246 0 -0.00017933613795538596 -0.0086152392633248136 0 -0.00014298184562714275 -0.0085517989989030326 0 -0.00011285253917506956 -0.0085878121201026641 0 -0.00011285253917506956 -0.0085878121201026641 0 -0.00010317144285392772 -0.0085260337535991246 0 -6.9096187608613734e-05 -0.0085637390822665988 0 -2.4741322795840048e-05 -0.0085663526045212986 0 -1.9089071697040533e-05 -0.0084763267783972019 0 -7.0696907404145951e-05 -0.0085096774123420444 0 -0.00010317144285392772 -0.0085260337535991246 0 -6.9096187608613734e-05 -0.0085637390822665988 0 -7.0696907404145951e-05 -0.0085096774123420444 0 -6.9096187608613734e-05 -0.0085637390822665988 0 -2.4741322795840048e-05 -0.0085663526045212986 0 -7.0696907404145951e-05 -0.0085096774123420444 0 -2.4741322795840048e-05 -0.0085663526045212986 0 5.8803878975099668e-05 -0.0086313033017221489 0 5.0897125048295046e-05 -0.0085513971223847539 0 -2.4741322795840048e-05 -0.0085663526045212986 0 5.0897125048295046e-05 -0.0085513971223847539 0 -1.9089071697040533e-05 -0.0084763267783972019 0 -2.4741322795840048e-05 -0.0085663526045212986 0 1.2898667610874438e-06 -0.0086505473295286784 0 5.8803878975099668e-05 -0.0086313033017221489 0 -0.00011285253917506956 -0.0085878121201026641 0 -6.9096187608613734e-05 -0.0085637390822665988 0 -5.277442134059301e-05 -0.0086345580759990912 0 -6.9096187608613734e-05 -0.0085637390822665988 0 -2.4741322795840048e-05 -0.0085663526045212986 0 -5.277442134059301e-05 -0.0086345580759990912 0 -2.4741322795840048e-05 -0.0085663526045212986 0 1.2898667610874438e-06 -0.0086505473295286784 0 -5.277442134059301e-05 -0.0086345580759990912 0 -5.277442134059301e-05 -0.0086345580759990912 0 -3.5453993252491032e-05 -0.0086991207524838802 0 -0.0001080529242988672 -0.0087160569656898907 0 -3.5453993252491032e-05 -0.0086991207524838802 0 3.183723065298416e-05 -0.0087198486721187206 0 -8.7025663160627257e-05 -0.0088046053704968919 0 1.2898667610874438e-06 -0.0086505473295286784 0 -5.277442134059301e-05 -0.0086345580759990912 0 -3.5453993252491032e-05 -0.0086991207524838802 0 -3.5453993252491032e-05 -0.0086991207524838802 0 -8.7025663160627257e-05 -0.0088046053704968919 0 -0.0001080529242988672 -0.0087160569656898907 0 1.2898667610874438e-06 -0.0086505473295286784 0 -3.5453993252491032e-05 -0.0086991207524838802 0 3.183723065298416e-05 -0.0087198486721187206 0 1.2898667610874438e-06 -0.0086505473295286784 0 3.183723065298416e-05 -0.0087198486721187206 0 5.8803878975099668e-05 -0.0086313033017221489 0 3.183723065298416e-05 -0.0087198486721187206 0 7.7518716489403478e-05 -0.0087654350238964476 0 0.00010799206572209131 -0.0087145241534104731 0 3.183723065298416e-05 -0.0087198486721187206 0 2.1690187547502238e-05 -0.008779564580717018 0 7.7518716489403478e-05 -0.0087654350238964476 0 3.183723065298416e-05 -0.0087198486721187206 0 2.1690187547502238e-05 -0.008779564580717018 0 -3.8938754833129879e-05 -0.0087831021819370133 0 2.1736090585046303e-05 -0.0087302964377929723 0 -9.4668919204677918e-05 -0.0087810233912758561 0 3.183723065298416e-05 -0.0087198486721187206 0 -3.8938754833129879e-05 -0.0087831021819370133 0 -9.6057653635994063e-05 -0.008753784587828892 0 2.1690187547502238e-05 -0.008779564580717018 0 -3.8938754833129879e-05 -0.0087831021819370133 0 -1.9562661705492124e-05 -0.0088319063961051856 0 -3.8938754833129879e-05 -0.0087831021819370133 0 -0.00010038113730593725 -0.008807769606489867 0 -7.1673226365905624e-05 -0.0088249321984349149 0 -3.8938754833129879e-05 -0.0087831021819370133 0 -0.00010038113730593725 -0.008807769606489867 0 -9.6057653635994063e-05 -0.008753784587828892 0 -9.4668919204677918e-05 -0.0087810233912758561 0 -0.00028328250971818133 -0.0088662285881386214 0 -0.00016275430290226483 -0.0088260287061058314 0 -9.6057653635994063e-05 -0.008753784587828892 0 -0.00024013482113630817 -0.008817809499789192 0 -0.00010038113730593725 -0.008807769606489867 0 -0.00016275430290226483 -0.0088260287061058314 0 -9.6057653635994063e-05 -0.008753784587828892 0 -0.00010038113730593725 -0.008807769606489867 0 -0.00016275430290226483 -0.0088260287061058314 0 -0.00013251282155012683 -0.0088555975005201563 0 -8.7025663160627257e-05 -0.0088046053704968919 0 -0.00024511279601918158 -0.0088161528888523431 0 -0.00032620936935878406 -0.0089158719108349861 0 -8.7025663160627257e-05 -0.0088046053704968919 0 -0.0001080529242988672 -0.0087160569656898907 0 -0.00024511279601918158 -0.0088161528888523431 0 -0.00010845609882139961 -0.0086512669728590254 0 -0.00016112994860574252 -0.0086591023559521047 0 -0.0001080529242988672 -0.0087160569656898907 0 -0.00010845609882139961 -0.0086512669728590254 0 -5.277442134059301e-05 -0.0086345580759990912 0 -0.0001080529242988672 -0.0087160569656898907 0 -7.6630430951857943e-05 -0.0086766328112009555 0 -0.00039359071575372797 -0.0089468719267419491 0 -0.0001080529242988672 -0.0087160569656898907 0 -0.00038770585461845545 -0.0087603876924353102 0 -0.00024511279601918158 -0.0088161528888523431 0 -0.00016112994860574252 -0.0086591023559521047 0 -0.0001080529242988672 -0.0087160569656898907 0 -0.00021420660681278049 -0.00872276598368232 0 -0.00025005531685680068 -0.008657953183478102 0 -0.00020619965379699471 -0.0086752989533590511 0 -0.00021420660681278049 -0.00872276598368232 0 -0.00016112994860574252 -0.0086591023559521047 0 -0.00020619965379699471 -0.0086752989533590511 0 -0.00021420660681278049 -0.00872276598368232 0 -0.00038770585461845545 -0.0087603876924353102 0 -0.0003326893424634866 -0.0088743957562790465 0 -0.00024511279601918158 -0.0088161528888523431 0 -0.00039359071575372797 -0.0089468719267419491 0 -0.00037949982919731595 -0.0088626045208721142 0 -0.00039659009833444209 -0.0088787578360334986 0 -0.00036604338376547088 -0.0088396133768099319 0 -0.00036789624360832475 -0.0088830394172186404 0 -0.00041697105100873714 -0.0089325487593919888 0 -0.0003708864998832527 -0.0089100631499357801 0 -0.00032620936935878406 -0.0089158719108349861 0 -0.00036604338376547088 -0.0088396133768099319 0 -0.00036789624360832475 -0.0088830394172186404 0 -0.0003326893424634866 -0.0088743957562790465 0 -0.0003960071395096576 -0.0089042061177605682 0 -0.00039659009833444209 -0.0088787578360334986 0 -0.00036789624360832475 -0.0088830394172186404 0 -0.00036789624360832475 -0.0088830394172186404 0 -0.0003326893424634866 -0.0088743957562790465 0 -0.00035016435502572445 -0.0088945337954981045 0 -0.00035016435502572445 -0.0088945337954981045 0 -0.0003708864998832527 -0.0089100631499357801 0 -0.00032620936935878406 -0.0089158719108349861 0 -0.0003326893424634866 -0.0088743957562790465 0 -0.00035016435502572445 -0.0088945337954981045 0 -0.00032620936935878406 -0.0089158719108349861 0 -0.0003960071395096576 -0.0089042061177605682 0 -0.00036789624360832475 -0.0088830394172186404 0 -0.0003708864998832527 -0.0089100631499357801 0 -0.00036789624360832475 -0.0088830394172186404 0 -0.00035016435502572445 -0.0088945337954981045 0 -0.0003708864998832527 -0.0089100631499357801 0 -0.0003326893424634866 -0.0088743957562790465 0 -0.00024511279601918158 -0.0088161528888523431 0 -0.00032620936935878406 -0.0089158719108349861 0 -0.00016275430290226483 -0.0088260287061058314 0 -0.00021600064736099876 -0.0088477420509343232 0 -0.0002200648136496226 -0.0088904060306027911 0 -0.00016275430290226483 -0.0088260287061058314 0 -0.00024013482113630817 -0.008817809499789192 0 -0.00021600064736099876 -0.0088477420509343232 0 -0.00024013482113630817 -0.008817809499789192 0 -0.00021600064736099876 -0.0088477420509343232 0 -0.00024242312306440241 -0.008856983675836835 0 -0.00029573902714951663 -0.0088686530549319693 0 -0.00024013482113630817 -0.008817809499789192 0 -0.00026288687058272011 -0.0088563272939472578 0 -0.00024013482113630817 -0.008817809499789192 0 -0.00024242312306440241 -0.008856983675836835 0 -0.00026288687058272011 -0.0088563272939472578 0 -0.00024242312306440241 -0.008856983675836835 0 -0.00026288687058272011 -0.0088563272939472578 0 -0.0002717421051128717 -0.0088815817179386924 0 -0.00029573902714951663 -0.0088686530549319693 0 -0.00026288687058272011 -0.0088563272939472578 0 -0.0002717421051128717 -0.0088815817179386924 0 -0.0002200648136496226 -0.0088904060306027911 0 -0.00015127134780945408 -0.0089150658708342899 0 -0.00027729101182696572 -0.0090218405333980841 0 -0.000287634811484763 -0.0089275390135242078 0 -0.0002200648136496226 -0.0088904060306027911 0 -0.00027729101182696572 -0.0090218405333980841 0 -0.000287634811484763 -0.0089275390135242078 0 -0.0002717421051128717 -0.0088815817179386924 0 -0.0002200648136496226 -0.0088904060306027911 0 -0.00024242312306440241 -0.008856983675836835 0 -0.0002717421051128717 -0.0088815817179386924 0 -0.0002200648136496226 -0.0088904060306027911 0 -0.00021600064736099876 -0.0088477420509343232 0 -0.00024242312306440241 -0.008856983675836835 0 -0.0002200648136496226 -0.0088904060306027911 0 -0.00010038113730593725 -0.008807769606489867 0 -0.00013251282155012683 -0.0088555975005201563 0 -7.1673226365905624e-05 -0.0088249321984349149 0 -0.00013251282155012683 -0.0088555975005201563 0 -0.00015127134780945408 -0.0089150658708342899 0 -8.5404543953023491e-05 -0.0088686511192857132 0 -0.00013251282155012683 -0.0088555975005201563 0 -7.1673226365905624e-05 -0.0088249321984349149 0 -8.5404543953023491e-05 -0.0088686511192857132 0 -0.0002200648136496226 -0.0088904060306027911 0 -0.00013251282155012683 -0.0088555975005201563 0 -0.00015127134780945408 -0.0089150658708342899 0 -0.00016275430290226483 -0.0088260287061058314 0 -0.0002200648136496226 -0.0088904060306027911 0 -0.00013251282155012683 -0.0088555975005201563 0 -0.00013074374003857887 -0.008991506562031043 0 -0.00027729101182696572 -0.0090218405333980841 0 -0.00011625245757841141 -0.0090925812443210154 0 -0.00015127134780945408 -0.0089150658708342899 0 -0.00013074374003857887 -0.008991506562031043 0 -0.00027729101182696572 -0.0090218405333980841 0 -0.00015127134780945408 -0.0089150658708342899 0 -0.00013074374003857887 -0.008991506562031043 0 -4.8994089439851513e-05 -0.0089203531899999782 0 -0.00013074374003857887 -0.008991506562031043 0 -0.00011625245757841141 -0.0090925812443210154 0 -7.3774207750782237e-05 -0.0090004112327924119 0 -0.00052780605748803692 -0.012944395997355827 0 -0.00062879869969907295 -0.013032479035671344 0 -0.00072128787935108526 -0.012968458482136878 0 -0.0004454575767083238 -0.011167061337818227 0 -0.00024775171771869577 -0.010809220288131052 0 -0.00050671162561871208 -0.013045294358819121 0 -0.00057533722567793477 -0.013171569362807955 0 -0.00062879869969907295 -0.013032479035671344 0 -0.00057533722567793477 -0.013171569362807955 0 -0.00062879869969907295 -0.013032479035671344 0 -0.00081194644894621551 -0.013017547904046974 0 -0.00062879869969907295 -0.013032479035671344 0 -0.00081194644894621551 -0.013017547904046974 0 -0.00072128787935108526 -0.012968458482136878 0 -0.00017628591640588272 -0.010100418699197564 0 -0.00045498784933293716 -0.010300816578473803 0 -6.7872148799519544e-05 -0.010201894905946503 0 -2.3441943900055151e-05 -0.010434053216247564 0 -1.1011357781360704e-05 -0.010403786396410477 0 -6.7872148799519544e-05 -0.010201894905946503 0 -0.00043393831799361574 -0.011339069610919046 0 6.2814853568551938e-05 -0.010351081764309718 0 -0.00024775171771869577 -0.010809220288131052 0 -0.00027472940620117234 -0.010611920848021985 0 -0.00024775171771869577 -0.010809220288131052 0 -0.00043393831799361574 -0.011339069610919046 0 -5.6006185427140178e-09 -0.010362344515670434 0 1.6121523041209472e-06 -0.01059917322931238 0 2.2719980573386845e-08 -0.010908049320137836 0 -1.1011357781360704e-05 -0.010403786396410477 0 -5.6006185427140178e-09 -0.010362344515670434 0 -6.7872148799519544e-05 -0.010201894905946503 0 -2.3441943900055151e-05 -0.010434053216247564 0 -1.1011357781360704e-05 -0.010403786396410477 0 1.6121523041209472e-06 -0.01059917322931238 0 -1.1011357781360704e-05 -0.010403786396410477 0 -5.6006185427140178e-09 -0.010362344515670434 0 1.6121523041209472e-06 -0.01059917322931238 0 -2.547942857853159e-07 -0.011455161493411803 0 2.2719980573386845e-08 -0.010908049320137836 0 -5.1105646434423974e-05 -0.010819969474038529 0 1.6121523041209472e-06 -0.01059917322931238 0 2.2719980573386845e-08 -0.010908049320137836 0 -5.1105646434423974e-05 -0.010819969474038529 0 -0.00034072299270083528 -0.012382165496760619 0 -0.00043393831799361574 -0.011339069610919046 0 -6.1610886779126273e-05 -0.011638794186339925 0 -0.00036683978744382373 -0.011697469313095211 0 -0.00018599278348649284 -0.011577742985713934 0 -2.3441943900055151e-05 -0.010434053216247564 0 1.6121523041209472e-06 -0.01059917322931238 0 -5.1105646434423974e-05 -0.010819969474038529 0 -0.00043393831799361574 -0.011339069610919046 0 -2.4734279741196561e-05 -0.01117011892614597 0 3.9879501007660937e-07 -0.009462882072993695 0 -6.5952557066903424e-05 -0.0091629464859813974 0 0.00011041927944471227 -0.0089066983898597636 0 2.0326855831521055e-08 -0.010361212440667081 0 2.1127525186911839e-05 -0.0095941928238932744 0 -5.6006185427140178e-09 -0.010362344515670434 0 -6.7872148799519544e-05 -0.010201894905946503 0 7.91622345176066e-05 -0.010049557823321165 0 -7.3862469405590323e-07 -0.010360241896043008 0 3.9879501007660937e-07 -0.009462882072993695 0 -6.5952557066903424e-05 -0.0091629464859813974 0 -0.00024775171771869577 -0.010809220288131052 0 9.9937427705401168e-05 -0.0091103836519120344 0 -0.00017320302508168556 -0.010117574275406518 0 -7.6351659952492273e-05 -0.010152217474571942 0 -4.2431431864243308e-05 -0.0095703065859239697 0 -6.7872148799519544e-05 -0.010201894905946503 0 -7.6351659952492273e-05 -0.010152217474571942 0 7.91622345176066e-05 -0.010049557823321165 0 -0.00017628591640588272 -0.010100418699197564 0 -6.7872148799519544e-05 -0.010201894905946503 0 -7.6351659952492273e-05 -0.010152217474571942 0 -7.6351659952492273e-05 -0.010152217474571942 0 7.91622345176066e-05 -0.010049557823321165 0 -4.2431431864243308e-05 -0.0095703065859239697 0 -6.5952557066903424e-05 -0.0091629464859813974 0 7.7142987263846969e-05 -0.0089586631742340616 0 0.00011041927944471227 -0.0089066983898597636 0 -6.5952557066903424e-05 -0.0091629464859813974 0 9.8789875936086596e-05 -0.0089383243283318453 0 7.7142987263846969e-05 -0.0089586631742340616 0 -4.2431431864243308e-05 -0.0095703065859239697 0 0.00012423153483511119 -0.0088459539558177029 0 0.00016831401845596506 -0.0088792203673367705 0 2.1127525186911839e-05 -0.0095941928238932744 0 0.00015748595736914451 -0.0089708753241399507 0 7.91622345176066e-05 -0.010049557823321165 0 -4.2431431864243308e-05 -0.0095703065859239697 0 0.00016831401845596506 -0.0088792203673367705 0 -6.5952557066903424e-05 -0.0091629464859813974 0 0.00016831401845596506 -0.0088792203673367705 0 9.8789875936086596e-05 -0.0089383243283318453 0 2.513947544119091e-06 -0.0089943036046874984 0 3.6020596684416141e-05 -0.0088860704483418335 0 0.00012423153483511119 -0.0088459539558177029 0 9.9937427705401168e-05 -0.0091103836519120344 0 0.00011361449863702334 -0.0089488490546667503 0 -0.00011625245757841141 -0.0090925812443210154 0 -7.3774207750782237e-05 -0.0090004112327924119 0 2.513947544119091e-06 -0.0089943036046874984 0 2.513947544119091e-06 -0.0089943036046874984 0 -4.8994089439851513e-05 -0.0089203531899999782 0 3.6020596684416141e-05 -0.0088860704483418335 0 -7.3774207750782237e-05 -0.0090004112327924119 0 2.513947544119091e-06 -0.0089943036046874984 0 -4.8994089439851513e-05 -0.0089203531899999782 0 -0.00013074374003857887 -0.008991506562031043 0 -7.3774207750782237e-05 -0.0090004112327924119 0 -4.8994089439851513e-05 -0.0089203531899999782 0 -0.00015127134780945408 -0.0089150658708342899 0 -4.8994089439851513e-05 -0.0089203531899999782 0 -8.5404543953023491e-05 -0.0088686511192857132 0 -4.8994089439851513e-05 -0.0089203531899999782 0 -1.9562661705492124e-05 -0.0088319063961051856 0 -8.5404543953023491e-05 -0.0088686511192857132 0 -4.8994089439851513e-05 -0.0089203531899999782 0 3.6020596684416141e-05 -0.0088860704483418335 0 2.8114809435638086e-05 -0.0088328153603181338 0 -4.8994089439851513e-05 -0.0089203531899999782 0 -1.9562661705492124e-05 -0.0088319063961051856 0 2.8114809435638086e-05 -0.0088328153603181338 0 -3.8938754833129879e-05 -0.0087831021819370133 0 -1.9562661705492124e-05 -0.0088319063961051856 0 -7.1673226365905624e-05 -0.0088249321984349149 0 -1.9562661705492124e-05 -0.0088319063961051856 0 -7.1673226365905624e-05 -0.0088249321984349149 0 -8.5404543953023491e-05 -0.0088686511192857132 0 8.4291824381777533e-05 -0.0088197833094635688 0 3.6020596684416141e-05 -0.0088860704483418335 0 0.00012423153483511119 -0.0088459539558177029 0 8.4291824381777533e-05 -0.0088197833094635688 0 3.6020596684416141e-05 -0.0088860704483418335 0 2.8114809435638086e-05 -0.0088328153603181338 0 2.1690187547502238e-05 -0.008779564580717018 0 -1.9562661705492124e-05 -0.0088319063961051856 0 2.8114809435638086e-05 -0.0088328153603181338 0 2.1690187547502238e-05 -0.008779564580717018 0 7.7518716489403478e-05 -0.0087654350238964476 0 2.8114809435638086e-05 -0.0088328153603181338 0 7.7518716489403478e-05 -0.0087654350238964476 0 8.4291824381777533e-05 -0.0088197833094635688 0 2.8114809435638086e-05 -0.0088328153603181338 0 7.7518716489403478e-05 -0.0087654350238964476 0 8.4291824381777533e-05 -0.0088197833094635688 0 0.00011113176656079596 -0.008788870318505268 0 7.7518716489403478e-05 -0.0087654350238964476 0 0.00011113176656079596 -0.008788870318505268 0 0.00012084410181914902 -0.0087431424653502329 0 0.00011113176656079596 -0.008788870318505268 0 0.00013275561192745323 -0.008763299235372243 0 0.00014589985111778037 -0.0087915407286943449 0 0.00011113176656079596 -0.008788870318505268 0 0.00013275561192745323 -0.008763299235372243 0 0.00012084410181914902 -0.0087431424653502329 0 0.00014760846201344961 -0.0087390954854359715 0 0.00013275561192745323 -0.008763299235372243 0 0.00012084410181914902 -0.0087431424653502329 0 0.00014760846201344961 -0.0087390954854359715 0 0.00013275561192745323 -0.008763299235372243 0 0.00014589985111778037 -0.0087915407286943449 0 0.00014760846201344961 -0.0087390954854359715 0 0.00014589985111778037 -0.0087915407286943449 0 0.00015655319675447405 -0.008753204263027026 0 0.00014589985111778037 -0.0087915407286943449 0 0.00015655319675447405 -0.008753204263027026 0 0.00015179072506033483 -0.0088031445727383209 0 0.00014589985111778037 -0.0087915407286943449 0 0.00015227297405901572 -0.0088351188547685141 0 0.00015179072506033483 -0.0088031445727383209 0 0.00014589985111778037 -0.0087915407286943449 0 0.00014600862556725237 -0.0088317444547094063 0 0.00015227297405901572 -0.0088351188547685141 0 0.00014589985111778037 -0.0087915407286943449 0 0.00014600862556725237 -0.0088317444547094063 0 0.00012299741168328676 -0.0088136529319615201 0 0.00014600862556725237 -0.0088317444547094063 0 0.00012423153483511119 -0.0088459539558177029 0 0.00016831401845596506 -0.0088792203673367705 0 0.00014600862556725237 -0.0088317444547094063 0 0.00012423153483511119 -0.0088459539558177029 0 0.00012299741168328676 -0.0088136529319615201 0 8.4291824381777533e-05 -0.0088197833094635688 0 0.00012423153483511119 -0.0088459539558177029 0 0.00012299741168328676 -0.0088136529319615201 0 8.4291824381777533e-05 -0.0088197833094635688 0 0.00011113176656079596 -0.008788870318505268 0 0.00012299741168328676 -0.0088136529319615201 0 0.00011113176656079596 -0.008788870318505268 0 0.00014589985111778037 -0.0087915407286943449 0 0.00012299741168328676 -0.0088136529319615201 0 0.00015476896598969707 -0.008700632603238518 0 0.000158325013152682 -0.0087199717475285373 0 0.00015909132940389488 -0.0086728885482230296 0 0.00015476896598969707 -0.008700632603238518 0 0.00015909132940389488 -0.0086728885482230296 0 0.00014025772690310988 -0.0086627502300285885 0 0.00014760846201344961 -0.0087390954854359715 0 0.00015476896598969707 -0.008700632603238518 0 0.000158325013152682 -0.0087199717475285373 0 0.00014760846201344961 -0.0087390954854359715 0 0.00015476896598969707 -0.008700632603238518 0 0.00013987951586157899 -0.0087124251371375177 0 0.00014760846201344961 -0.0087390954854359715 0 0.00015655319675447405 -0.008753204263027026 0 0.000158325013152682 -0.0087199717475285373 0 0.00015655319675447405 -0.008753204263027026 0 0.00016311251296351618 -0.0087040352980931601 0 0.00015932081933093791 -0.0087411309001796684 0 0.00015655319675447405 -0.008753204263027026 0 0.00016311251296351618 -0.0087040352980931601 0 0.000158325013152682 -0.0087199717475285373 0 0.00016311251296351618 -0.0087040352980931601 0 0.00015909132940389488 -0.0086728885482230296 0 0.00016422369733788166 -0.0086578504641896589 0 0.00016311251296351618 -0.0087040352980931601 0 0.000158325013152682 -0.0087199717475285373 0 0.00015909132940389488 -0.0086728885482230296 0 0.00016311251296351618 -0.0087040352980931601 0 0.00016422369733788166 -0.0086578504641896589 0 0.00015932081933093791 -0.0087411309001796684 0 0.00016422369733788166 -0.0086578504641896589 0 0.00015932081933093791 -0.0087411309001796684 0 0.00015207760229688682 -0.0087286177612095738 0 0.00015932081933093791 -0.0087411309001796684 0 0.00015207760229688682 -0.0087286177612095738 0 0.00013444377922895573 -0.0088408804290796544 0 0.00016422369733788166 -0.0086578504641896589 0 0.00015207760229688682 -0.0087286177612095738 0 0.00015840497755399062 -0.0085826953954844902 0 0.00014247468313145252 -0.0088525793034429593 0 0.00016831401845596506 -0.0088792203673367705 0 9.8789875936086596e-05 -0.0089383243283318453 0 0.00014247468313145252 -0.0088525793034429593 0 0.00016831401845596506 -0.0088792203673367705 0 0.00015227297405901572 -0.0088351188547685141 0 0.00014600862556725237 -0.0088317444547094063 0 0.00016831401845596506 -0.0088792203673367705 0 0.00015227297405901572 -0.0088351188547685141 0 0.00015932081933093791 -0.0087411309001796684 0 0.00015179072506033483 -0.0088031445727383209 0 0.00013444377922895573 -0.0088408804290796544 0 0.00014247468313145252 -0.0088525793034429593 0 0.00015227297405901572 -0.0088351188547685141 0 0.00015179072506033483 -0.0088031445727383209 0 0.00014247468313145252 -0.0088525793034429593 0 0.00015179072506033483 -0.0088031445727383209 0 0.00013444377922895573 -0.0088408804290796544 0 0.00015655319675447405 -0.008753204263027026 0 0.00015932081933093791 -0.0087411309001796684 0 0.00015179072506033483 -0.0088031445727383209 0 0.00014247468313145252 -0.0088525793034429593 0 0.00013444377922895573 -0.0088408804290796544 0 9.8789875936086596e-05 -0.0089383243283318453 0 0.00013444377922895573 -0.0088408804290796544 0 9.8789875936086596e-05 -0.0089383243283318453 0 7.7142987263846969e-05 -0.0089586631742340616 0 0.00013444377922895573 -0.0088408804290796544 0 7.7142987263846969e-05 -0.0089586631742340616 0 0.00011041927944471227 -0.0089066983898597636 0 0.00015207760229688682 -0.0087286177612095738 0 0.00013444377922895573 -0.0088408804290796544 0 0.00011041927944471227 -0.0089066983898597636 0 0.00015207760229688682 -0.0087286177612095738 0 0.00011041927944471227 -0.0089066983898597636 0 0.0001145264883924247 -0.008660970341111851 0 0.00015207760229688682 -0.0087286177612095738 0 0.0001145264883924247 -0.008660970341111851 0 0.00015840497755399062 -0.0085826953954844902 0 0.0001145264883924247 -0.008660970341111851 0 1.7195363340089188e-07 -0.0085642929031503369 0 0.00013350645078141218 -0.0083562212049241077 0 3.9879501007660937e-07 -0.009462882072993695 0 0.0001145264883924247 -0.008660970341111851 0 1.7195363340089188e-07 -0.0085642929031503369 0 3.9879501007660937e-07 -0.009462882072993695 0 0.00011041927944471227 -0.0089066983898597636 0 0.0001145264883924247 -0.008660970341111851 0 4.2450557784292476e-07 -0.0076658371906195679 0 0.00013350645078141218 -0.0083562212049241077 0 5.706409458493651e-05 -0.008112148186753293 0 -1.7044722837332983e-05 -0.0076747882909144922 0 4.2450557784292476e-07 -0.0076658371906195679 0 5.706409458493651e-05 -0.008112148186753293 0 1.7195363340089188e-07 -0.0085642929031503369 0 4.2450557784292476e-07 -0.0076658371906195679 0 0.00013350645078141218 -0.0083562212049241077 0 0.0001145264883924247 -0.008660970341111851 0 0.00015840497755399062 -0.0085826953954844902 0 0.00013350645078141218 -0.0083562212049241077 0 0.00015840497755399062 -0.0085826953954844902 0 0.00013350645078141218 -0.0083562212049241077 0 0.00015261067312605681 -0.0085772963452788419 0 0.00013350645078141218 -0.0083562212049241077 0 5.706409458493651e-05 -0.008112148186753293 0 0.00010770163932030076 -0.0084150497882920228 0 5.5827889505237815e-06 -0.008522612554841786 0 5.706409458493651e-05 -0.008112148186753293 0 0.00010770163932030076 -0.0084150497882920228 0 5.5827889505237815e-06 -0.008522612554841786 0 0.00010770163932030076 -0.0084150497882920228 0 0.00010423061669602574 -0.0085817971791737231 0 0.00013350645078141218 -0.0083562212049241077 0 0.00010770163932030076 -0.0084150497882920228 0 0.00015261067312605681 -0.0085772963452788419 0 0.00016422369733788166 -0.0086578504641896589 0 0.00015840497755399062 -0.0085826953954844902 0 0.00015261067312605681 -0.0085772963452788419 0 0.00010770163932030076 -0.0084150497882920228 0 0.00015261067312605681 -0.0085772963452788419 0 0.00010423061669602574 -0.0085817971791737231 0 0.00015909132940389488 -0.0086728885482230296 0 0.00016422369733788166 -0.0086578504641896589 0 0.00015261067312605681 -0.0085772963452788419 0 0.00015909132940389488 -0.0086728885482230296 0 0.00015261067312605681 -0.0085772963452788419 0 0.00013886488984946602 -0.008628814386361738 0 0.00015261067312605681 -0.0085772963452788419 0 0.00013886488984946602 -0.008628814386361738 0 0.00010423061669602574 -0.0085817971791737231 0 0.00013886488984946602 -0.008628814386361738 0 0.00010423061669602574 -0.0085817971791737231 0 0.0001093466824249904 -0.0086365660238445045 0 0.00013886488984946602 -0.008628814386361738 0 0.00014025772690310988 -0.0086627502300285885 0 0.0001093466824249904 -0.0086365660238445045 0 0.00015909132940389488 -0.0086728885482230296 0 0.00013886488984946602 -0.008628814386361738 0 0.00014025772690310988 -0.0086627502300285885 0 5.5827889505237815e-06 -0.008522612554841786 0 0.00010423061669602574 -0.0085817971791737231 0 5.9687552128351963e-05 -0.0086290114091040777 0 0.00010423061669602574 -0.0085817971791737231 0 0.0001093466824249904 -0.0086365660238445045 0 5.9687552128351963e-05 -0.0086290114091040777 0 5.5082650700517312e-05 -0.0086261603747379272 0 8.5247223844212513e-05 -0.0086411472296209178 0 0.00011091465498461337 -0.0086517252662129274 0 5.5082650700517312e-05 -0.0086261603747379272 0 5.9687552128351963e-05 -0.0086290114091040777 0 8.5247223844212513e-05 -0.0086411472296209178 0 0.0001093466824249904 -0.0086365660238445045 0 5.9687552128351963e-05 -0.0086290114091040777 0 8.5247223844212513e-05 -0.0086411472296209178 0 0.0001093466824249904 -0.0086365660238445045 0 0.00011606769205026295 -0.008652858375754649 0 8.5247223844212513e-05 -0.0086411472296209178 0 0.00011606769205026295 -0.008652858375754649 0 8.5247223844212513e-05 -0.0086411472296209178 0 0.00011091465498461337 -0.0086517252662129274 0 6.645529262974395e-05 -0.0086222775831816569 0 0.0001120985797144623 -0.0085937867541343981 0 5.5082650700517312e-05 -0.0086261603747379272 0 0.00011091465498461337 -0.0086517252662129274 0 0.00014351475668099824 -0.0086670016218594048 0 0.00010533123249258349 -0.0085711602553978361 0 5.5082650700517312e-05 -0.0086261603747379272 0 8.5310951320415884e-05 -0.0085197530711286513 0 0.00011091465498461337 -0.0086517252662129274 0 0.0001389187544781299 -0.0086699026129072702 0 0.00014351475668099824 -0.0086670016218594048 0 0.0001389187544781299 -0.0086699026129072702 0 0.00013445276083492945 -0.0086544873021403134 0 0.00014351475668099824 -0.0086670016218594048 0 0.00014025772690310988 -0.0086627502300285885 0 0.00011606769205026295 -0.008652858375754649 0 0.0001389187544781299 -0.0086699026129072702 0 0.00014025772690310988 -0.0086627502300285885 0 0.0001389187544781299 -0.0086699026129072702 0 0.00014600750616858109 -0.0086866412702337019 0 0.00011606769205026295 -0.008652858375754649 0 0.00011091465498461337 -0.0086517252662129274 0 0.0001389187544781299 -0.0086699026129072702 0 0.00014025772690310988 -0.0086627502300285885 0 0.0001093466824249904 -0.0086365660238445045 0 0.00011606769205026295 -0.008652858375754649 0 0.00015476896598969707 -0.008700632603238518 0 0.00014025772690310988 -0.0086627502300285885 0 0.00014600750616858109 -0.0086866412702337019 0 0.00015476896598969707 -0.008700632603238518 0 0.00014600750616858109 -0.0086866412702337019 0 0.00013987951586157899 -0.0087124251371375177 0 0.00013987951586157899 -0.0087124251371375177 0 0.00010799206572209131 -0.0087145241534104731 0 0.00013412581840685904 -0.0086843515734847561 0 0.00014600750616858109 -0.0086866412702337019 0 0.00013987951586157899 -0.0087124251371375177 0 0.00013412581840685904 -0.0086843515734847561 0 0.0001389187544781299 -0.0086699026129072702 0 0.00014600750616858109 -0.0086866412702337019 0 0.00013412581840685904 -0.0086843515734847561 0 7.7518716489403478e-05 -0.0087654350238964476 0 0.00012084410181914902 -0.0087431424653502329 0 0.00010799206572209131 -0.0087145241534104731 0 0.00014760846201344961 -0.0087390954854359715 0 0.00013987951586157899 -0.0087124251371375177 0 0.00012084410181914902 -0.0087431424653502329 0 0.00013987951586157899 -0.0087124251371375177 0 0.00012084410181914902 -0.0087431424653502329 0 0.00010799206572209131 -0.0087145241534104731 0 3.183723065298416e-05 -0.0087198486721187206 0 0.00010140238903524025 -0.0086697611430999483 0 5.8803878975099668e-05 -0.0086313033017221489 0 3.183723065298416e-05 -0.0087198486721187206 0 0.00010799206572209131 -0.0087145241534104731 0 0.00010140238903524025 -0.0086697611430999483 0 0.00010799206572209131 -0.0087145241534104731 0 0.00010140238903524025 -0.0086697611430999483 0 0.00013412581840685904 -0.0086843515734847561 0 0.00010140238903524025 -0.0086697611430999483 0 0.00013412581840685904 -0.0086843515734847561 0 0.00013445276083492945 -0.0086544873021403134 0 0.0001389187544781299 -0.0086699026129072702 0 0.00013412581840685904 -0.0086843515734847561 0 0.00013445276083492945 -0.0086544873021403134 0 0.00013445276083492945 -0.0086544873021403134 0 0.0001012784815667161 -0.0086200266540034029 0 0.00015110781899731258 -0.0085733535183366277 0 0.00010140238903524025 -0.0086697611430999483 0 0.00013445276083492945 -0.0086544873021403134 0 0.0001012784815667161 -0.0086200266540034029 0 0.0001012784815667161 -0.0086200266540034029 0 5.8803878975099668e-05 -0.0086313033017221489 0 5.0897125048295046e-05 -0.0085513971223847539 0 0.00010140238903524025 -0.0086697611430999483 0 0.0001012784815667161 -0.0086200266540034029 0 5.8803878975099668e-05 -0.0086313033017221489 0 0.0001012784815667161 -0.0086200266540034029 0 5.0897125048295046e-05 -0.0085513971223847539 0 0.00015110781899731258 -0.0085733535183366277 0 5.0897125048295046e-05 -0.0085513971223847539 0 0.00015110781899731258 -0.0085733535183366277 0 4.9752826764009258e-05 -0.0084234586080505543 0 7.4046939164895174e-05 -0.0084452827271531347 0 0.00010969357313888991 -0.0084323393463022582 0 0.00010166765475505137 -0.0084732778300399356 0 8.3958813673622618e-05 -0.0073178486305329688 0 0.00013213250171577426 -0.0068705358639331183 0 1.853902152922727e-05 -0.0060271676995813893 0 1.7760984508283717e-05 -0.0060154334832174588 0 5.7163853987977002e-05 -0.006083341362475298 0 0.00014043678890878367 -0.0084587493813229261 0 0.00010969357313888991 -0.0084323393463022582 0 0.00014899744302931356 -0.0083854693555357549 0 0.00014043678890878367 -0.0084587493813229261 0 0.00010969357313888991 -0.0084323393463022582 0 0.00010166765475505137 -0.0084732778300399356 0 0.00010166765475505137 -0.0084732778300399356 0 0.00010727882869041608 -0.0085058784195987894 0 8.5310951320415884e-05 -0.0085197530711286513 0 0.00010533123249258349 -0.0085711602553978361 0 0.00010727882869041608 -0.0085058784195987894 0 8.5310951320415884e-05 -0.0085197530711286513 0 0.00014043678890878367 -0.0084587493813229261 0 0.00010166765475505137 -0.0084732778300399356 0 0.00010727882869041608 -0.0085058784195987894 0 7.4046939164895174e-05 -0.0084452827271531347 0 0.00010166765475505137 -0.0084732778300399356 0 8.5310951320415884e-05 -0.0085197530711286513 0 0.00013445276083492945 -0.0086544873021403134 0 0.00015110781899731258 -0.0085733535183366277 0 0.00014351475668099824 -0.0086670016218594048 0 0.0001079274033620453 -0.0085089137700654419 0 0.0001120985797144623 -0.0085937867541343981 0 0.00012776337214919815 -0.0083608702604324372 0 0.00010441089049650397 -0.0083483392468412347 0 9.6829527768028869e-05 -0.0083977125617115331 0 0.00012776337214919815 -0.0083608702604324372 0 0.00010441089049650397 -0.0083483392468412347 0 0.00013977589850080224 -0.0083307554818565291 0 0.00010441089049650397 -0.0083483392468412347 0 0.00013977589850080224 -0.0083307554818565291 0 0.00011587281424722152 -0.0083093745456724304 0 0.00012776337214919815 -0.0083608702604324372 0 0.0001483916662642379 -0.0083409067589711641 0 0.00014899744302931356 -0.0083854693555357549 0 0.00012776337214919815 -0.0083608702604324372 0 0.00013977589850080224 -0.0083307554818565291 0 0.0001483916662642379 -0.0083409067589711641 0 0.00073766642360566378 -0.0080334548450087563 0 0.00013213250171577426 -0.0068705358639331183 0 0.00047848994365909484 -0.0074393947551876158 0 0.00033588707715453351 -0.0073622503010729191 0 0.00021638386704962367 -0.0068282523362112576 0 0.00045028620528570889 -0.0080323516665923925 0 0.00073766642360566378 -0.0080334548450087563 0 0.00073766642360566378 -0.0080334548450087563 0 0.0004981694753124628 -0.0066279388613802188 0 0.0004981694753124628 -0.0066279388613802188 0 0.00013213250171577426 -0.0068705358639331183 0 0.00010969357313888991 -0.0084323393463022582 0 0.00014899744302931356 -0.0083854693555357549 0 9.6829527768028869e-05 -0.0083977125617115331 0 -7.4863720103640635e-05 -0.0057565560209747691 0 0.00013213250171577426 -0.0068705358639331183 0 7.4046939164895174e-05 -0.0084452827271531347 0 0.00010969357313888991 -0.0084323393463022582 0 9.6829527768028869e-05 -0.0083977125617115331 0 0.00012776337214919815 -0.0083608702604324372 0 0.00014899744302931356 -0.0083854693555357549 0 9.6829527768028869e-05 -0.0083977125617115331 0 7.4046939164895174e-05 -0.0084452827271531347 0 9.6829527768028869e-05 -0.0083977125617115331 0 4.9752826764009258e-05 -0.0084234586080505543 0 0.0001079274033620453 -0.0085089137700654419 0 5.2308684845386504e-05 -0.0084273312896849702 0 4.9752826764009258e-05 -0.0084234586080505543 0 -1.2368876373908262e-05 -0.0083740260126917501 0 -1.9089071697040533e-05 -0.0084763267783972019 0 5.0897125048295046e-05 -0.0085513971223847539 0 4.9752826764009258e-05 -0.0084234586080505543 0 -1.9089071697040533e-05 -0.0084763267783972019 0 4.9752826764009258e-05 -0.0084234586080505543 0 6.901494837311901e-05 -0.0083483261068608358 0 -1.2368876373908262e-05 -0.0083740260126917501 0 9.6829527768028869e-05 -0.0083977125617115331 0 4.9752826764009258e-05 -0.0084234586080505543 0 6.901494837311901e-05 -0.0083483261068608358 0 0.00010441089049650397 -0.0083483392468412347 0 9.6829527768028869e-05 -0.0083977125617115331 0 6.901494837311901e-05 -0.0083483261068608358 0 0.00010441089049650397 -0.0083483392468412347 0 6.901494837311901e-05 -0.0083483261068608358 0 7.8344753927344173e-05 -0.0082920154885645914 0 6.901494837311901e-05 -0.0083483261068608358 0 7.8344753927344173e-05 -0.0082920154885645914 0 4.3449847301334282e-05 -0.00818102337897458 0 4.3449847301334282e-05 -0.00818102337897458 0 4.5116363978854888e-05 -0.0082427768775157565 0 -5.2275719845348704e-05 -0.0081578710242110365 0 7.8344753927344173e-05 -0.0082920154885645914 0 4.3449847301334282e-05 -0.00818102337897458 0 4.5116363978854888e-05 -0.0082427768775157565 0 4.3449847301334282e-05 -0.00818102337897458 0 -3.270666727975798e-05 -0.0083197110452218215 0 -1.2368876373908262e-05 -0.0083740260126917501 0 6.901494837311901e-05 -0.0083483261068608358 0 4.3449847301334282e-05 -0.00818102337897458 0 -1.2368876373908262e-05 -0.0083740260126917501 0 7.7690231865153267e-05 -0.0081807117218832635 0 0.00029354821289840526 -0.0082047133844438611 0 4.3449847301334282e-05 -0.00818102337897458 0 0.00017035306333705905 -0.0082889410888385504 0 0.0005967749416034004 -0.0080696413550177693 0 4.5116363978854888e-05 -0.0082427768775157565 0 -5.2275719845348704e-05 -0.0081578710242110365 0 7.1529363015924557e-05 -0.0081161912725939422 0 4.3449847301334282e-05 -0.00818102337897458 0 0.00017035306333705905 -0.0082889410888385504 0 -5.2275719845348704e-05 -0.0081578710242110365 0 0.00017035306333705905 -0.0082889410888385504 0 -3.3752234677536313e-05 -0.0082019088637744243 0 -1.5908722538753418e-06 -0.008383830167608429 0 0.00017035306333705905 -0.0082889410888385504 0 -5.2275719845348704e-05 -0.0081578710242110365 0 -3.3752234677536313e-05 -0.0082019088637744243 0 -5.2275719845348704e-05 -0.0081578710242110365 0 -3.3889952075686024e-05 -0.0080343089490170858 0 7.1529363015924557e-05 -0.0081161912725939422 0 -5.2275719845348704e-05 -0.0081578710242110365 0 -3.3752234677536313e-05 -0.0082019088637744243 0 -0.00026565035646657417 -0.0080149736121194245 0 -5.2275719845348704e-05 -0.0081578710242110365 0 -3.3889952075686024e-05 -0.0080343089490170858 0 -0.00026565035646657417 -0.0080149736121194245 0 0.00097958306712048583 -0.0082487622604144745 0 0.0011211659480069808 -0.0089563779114860218 0 0.0002439047027381094 -0.007718006713304709 0 -3.3889952075686024e-05 -0.0080343089490170858 0 7.1529363015924557e-05 -0.0081161912725939422 0 0.0002439047027381094 -0.007718006713304709 0 7.1529363015924557e-05 -0.0081161912725939422 0 0.00016355234575226061 -0.008300226273882683 0 0.0002439047027381094 -0.007718006713304709 0 -3.3889952075686024e-05 -0.0080343089490170858 0 0.0002439047027381094 -0.007718006713304709 0 -0.00026565035646657417 -0.0080149736121194245 0 0.00097958306712048583 -0.0082487622604144745 0 0.0013230842873132097 -0.0088686416751585975 0 0.0013809678534185787 -0.0076197912210955177 0 0.00065212606756363974 -0.0086869292906868491 0 0.00025248683413318278 -0.0077231909478322732 0 0.00097958306712048583 -0.0082487622604144745 0 0.00083873403619089126 -0.0077374677386902848 0 0.0013809678534185787 -0.0076197912210955177 0 0.00097958306712048583 -0.0082487622604144745 0 0.0002439047027381094 -0.007718006713304709 0 0.00083873403619089126 -0.0077374677386902848 0 0.00097958306712048583 -0.0082487622604144745 0 0.0011211659480069808 -0.0089563779114860218 0 0.0013230842873132097 -0.0088686416751585975 0 4.5116363978854888e-05 -0.0082427768775157565 0 7.1529363015924557e-05 -0.0081161912725939422 0 0.00016355234575226061 -0.008300226273882683 0 0.00013977589850080224 -0.0083307554818565291 0 0.00016355234575226061 -0.008300226273882683 0 0.00011587281424722152 -0.0083093745456724304 0 4.5116363978854888e-05 -0.0082427768775157565 0 0.00016355234575226061 -0.008300226273882683 0 0.00011587281424722152 -0.0083093745456724304 0 0.0011211659480069808 -0.0089563779114860218 0 0.0012710206458924193 -0.0089343266742541762 0 0.0013230842873132097 -0.0088686416751585975 0 0.0011211659480069808 -0.0089563779114860218 0 0.0012397260181138507 -0.0089873404439439111 0 0.0012710206458924193 -0.0089343266742541762 0 0.00010441089049650397 -0.0083483392468412347 0 7.8344753927344173e-05 -0.0082920154885645914 0 0.00011587281424722152 -0.0083093745456724304 0 7.8344753927344173e-05 -0.0082920154885645914 0 4.5116363978854888e-05 -0.0082427768775157565 0 0.00011587281424722152 -0.0083093745456724304 0 0.00063256090752141934 -0.0036866377812473069 0 0.0012857975810309386 -0.00603255574512657 0 0.0004981694753124628 -0.0066279388613802188 0 0.0012857975810309386 -0.00603255574512657 0 0.0013112152440386729 -0.0091983027178449174 0 0.0011211659480069808 -0.0089563779114860218 0 0.0012397260181138507 -0.0089873404439439111 0 0.00073766642360566378 -0.0080334548450087563 0 0.00065212606756363974 -0.0086869292906868491 0 0.0013112152440386729 -0.0091983027178449174 0 0.0013624784354704237 -0.0092229846119621199 0 0.0012980871815553509 -0.0089124943049481795 0 0.0013112152440386729 -0.0091983027178449174 0 0.0012397260181138507 -0.0089873404439439111 0 0.0012980871815553509 -0.0089124943049481795 0 0.00013977589850080224 -0.0083307554818565291 0 0.00014334868999044129 -0.0083356763316553752 0 0.00016355234575226061 -0.008300226273882683 0 0.00096639300550382425 -0.0040914320773237445 0 0.0015830192002890605 -0.003842349268790264 0 0.0017341296125260033 -0.0045688028506279737 0 0.0012397260181138507 -0.0089873404439439111 0 0.0012980871815553509 -0.0089124943049481795 0 0.0012710206458924193 -0.0089343266742541762 0 0.0012980871815553509 -0.0089124943049481795 0 0.0012710206458924193 -0.0089343266742541762 0 0.0013230842873132097 -0.0088686416751585975 0 0.0005541105585064927 -0.0042511734959584466 0 0.00059302080363457564 -0.0040541514093991064 0 0.00067915693206173041 -0.0041359285749389728 0 0.001436270072112841 -0.0089410169491918618 0 0.0013230842873132097 -0.0088686416751585975 0 0.0013809678534185787 -0.0076197912210955177 0 0.00059302080363457564 -0.0040541514093991064 0 0.00080728820737248743 -0.0040510476992133395 0 0.00067915693206173041 -0.0041359285749389728 0 0.00080728820737248743 -0.0040510476992133395 0 0.00071972299484812131 -0.0042366852661690404 0 0.00089463536890372676 -0.0043852298129155587 0 0.0012857975810309386 -0.00603255574512657 0 0.0011053420207759697 -0.0060315257619890867 0 0.00080728820737248743 -0.0040510476992133395 0 0.00067915693206173041 -0.0041359285749389728 0 0.00071972299484812131 -0.0042366852661690404 0 0.0012857975810309386 -0.00603255574512657 0 0.0014245469357209487 -0.0062272939379070811 0 0.0005541105585064927 -0.0042511734959584466 0 0.00071972299484812131 -0.0042366852661690404 0 0.00067035049164979445 -0.0044434783348476919 0 0.0005541105585064927 -0.0042511734959584466 0 0.00067915693206173041 -0.0041359285749389728 0 0.00071972299484812131 -0.0042366852661690404 0 0.0005541105585064927 -0.0042511734959584466 0 0.00051582907476489521 -0.0044902871286036936 0 0.00067035049164979445 -0.0044434783348476919 0 0.00071972299484812131 -0.0042366852661690404 0 0.00067035049164979445 -0.0044434783348476919 0 0.00089463536890372676 -0.0043852298129155587 0 0.00067035049164979445 -0.0044434783348476919 0 0.0007519929944716637 -0.0046685843623641655 0 0.00089463536890372676 -0.0043852298129155587 0 0.00067035049164979445 -0.0044434783348476919 0 0.0007519929944716637 -0.0046685843623641655 0 0.00064434211510552462 -0.0046761182696514452 0 0.0007519929944716637 -0.0046685843623641655 0 0.00064434211510552462 -0.0046761182696514452 0 0.00073511542877846786 -0.0048473103149562777 0 0.00051582907476489521 -0.0044902871286036936 0 0.00067035049164979445 -0.0044434783348476919 0 0.00064434211510552462 -0.0046761182696514452 0 0.00055254560921780521 -0.0046855842173345293 0 0.00051582907476489521 -0.0044902871286036936 0 0.00064434211510552462 -0.0046761182696514452 0 0.0007519929944716637 -0.0046685843623641655 0 0.00089463536890372676 -0.0043852298129155587 0 0.00085718024956539963 -0.0051122793405965561 0 -0.00013845595429851551 -0.0069983512544128891 0 -0.00027547607873423037 -0.0079140804792356481 0 0.0013809678534185787 -0.0076197912210955177 0 0.0007000075662221783 -0.0063697586917012038 0 0.00085718024956539963 -0.0051122793405965561 0 0.0007000075662221783 -0.0063697586917012038 0 0.00034018279295379737 -0.0068268849948842584 0 0.00038845091073721978 -0.0048113930758097298 0 -0.00066747640948139027 -0.0090727697337338719 0 -0.00025374198931731046 -0.0085040929175079823 0 -0.00026565035646657417 -0.0080149736121194245 0 0.0011053420207759697 -0.0060315257619890867 0 0.00089900653716360997 -0.0051707349153113742 0 0.00034018279295379737 -0.0068268849948842584 0 0.00038845091073721978 -0.0048113930758097298 0 -0.00026565035646657417 -0.0080149736121194245 0 0.0002439047027381094 -0.007718006713304709 0 0.00034018279295379737 -0.0068268849948842584 0 -0.00026565035646657417 -0.0080149736121194245 0 0.0002439047027381094 -0.007718006713304709 0 0.00067429091927525956 -0.0072785982490735906 0 0.00083873403619089126 -0.0077374677386902848 0 0.0002439047027381094 -0.007718006713304709 0 0.00067429091927525956 -0.0072785982490735906 0 0.00034018279295379737 -0.0068268849948842584 0 0.00067429091927525956 -0.0072785982490735906 0 0.0013809678534185787 -0.0076197912210955177 0 0.0007000075662221783 -0.0063697586917012038 0 0.00067429091927525956 -0.0072785982490735906 0 0.00083873403619089126 -0.0077374677386902848 0 0.0013809678534185787 -0.0076197912210955177 0 0.00067429091927525956 -0.0072785982490735906 0 0.0007000075662221783 -0.0063697586917012038 0 0.00034018279295379737 -0.0068268849948842584 0 0.0007000075662221783 -0.0063697586917012038 0 0.00085718024956539963 -0.0051122793405965561 0 0.00038845091073721978 -0.0048113930758097298 0 0.00085718024956539963 -0.0051122793405965561 0 0.00064575170785840369 -0.0048071008783023665 0 0.00038845091073721978 -0.0048113930758097298 0 -0.00066747640948139027 -0.0090727697337338719 0 -0.00047772263859639232 -0.0095011313336670292 0 -0.00035399071779649508 -0.0091699214813482817 0 0.00055254560921780521 -0.0046855842173345293 0 0.00064434211510552462 -0.0046761182696514452 0 0.00068503322232519876 -0.0048407839761289437 0 0.00064434211510552462 -0.0046761182696514452 0 0.00073511542877846786 -0.0048473103149562777 0 0.00068503322232519876 -0.0048407839761289437 0 0.00085718024956539963 -0.0051122793405965561 0 0.00073511542877846786 -0.0048473103149562777 0 0.00068503322232519876 -0.0048407839761289437 0 0.0007519929944716637 -0.0046685843623641655 0 0.00085718024956539963 -0.0051122793405965561 0 0.00073511542877846786 -0.0048473103149562777 0 0.00085718024956539963 -0.0051122793405965561 0 0.00064575170785840369 -0.0048071008783023665 0 0.00068503322232519876 -0.0048407839761289437 0 0.00064575170785840369 -0.0048071008783023665 0 0.00068503322232519876 -0.0048407839761289437 0 0.0006354624061453998 -0.0047913851252366678 0 0.00050827605917379975 -0.0047327214786304726 0 0.00068503322232519876 -0.0048407839761289437 0 0.0006354624061453998 -0.0047913851252366678 0 0.00055254560921780521 -0.0046855842173345293 0 0.00050827605917379975 -0.0047327214786304726 0 0.00068503322232519876 -0.0048407839761289437 0 0.0006354624061453998 -0.0047913851252366678 0 0.00067053589569938054 -0.0047745887427616445 0 0.00056984623897766583 -0.0048401413404778404 0 0.00064575170785840369 -0.0048071008783023665 0 0.0006354624061453998 -0.0047913851252366678 0 0.00067053589569938054 -0.0047745887427616445 0 0.00050827605917379975 -0.0047327214786304726 0 0.0006354624061453998 -0.0047913851252366678 0 0.00056984623897766583 -0.0048401413404778404 0 0.00064575170785840369 -0.0048071008783023665 0 0.00038845091073721978 -0.0048113930758097298 0 0.00067053589569938054 -0.0047745887427616445 0 -0.00047772263859639232 -0.0095011313336670292 0 -0.00086644230796696143 -0.0098515891847644789 0 -0.00014067827244738728 -0.0099705844590868582 0 -0.00066747640948139027 -0.0090727697337338719 0 -0.00047772263859639232 -0.0095011313336670292 0 -0.00086644230796696143 -0.0098515891847644789 0 -0.00013845595429851551 -0.0069983512544128891 0 5.206791558572347e-05 -0.0073868608800800734 0 -0.00014693453469919363 -0.01010916206814283 0 -6.6700511009522234e-06 -0.010344911777080357 0 -0.00022370543136038585 -0.0103949298967993 0 -0.00014693453469919363 -0.01010916206814283 0 -6.6700511009522234e-06 -0.010344911777080357 0 0.00022227396014608871 -0.010168841337409232 0 5.206791558572347e-05 -0.0073868608800800734 0 -2.7955205225799549e-05 -0.010293337337473417 0 5.206791558572347e-05 -0.0073868608800800734 0 0.00014777061199056901 -0.0078297045492616325 0 0.00064341603099116358 -0.0048038325583946665 0 0.0004911780626619815 -0.0047671017001612919 0 0.00061186443531129693 -0.004948083235188981 0 0.0004911780626619815 -0.0047671017001612919 0 0.00061186443531129693 -0.004948083235188981 0 0.0004644089333674405 -0.0048898221518630519 0 5.206791558572347e-05 -0.0073868608800800734 0 0.00056712896349752934 -0.0048304052229077576 0 -0.00014067827244738728 -0.0099705844590868582 0 0.00031980486860887859 -0.0094669905877284733 0 0.00061476487373408732 -0.010136217551990345 0 0.00022227396014608871 -0.010168841337409232 0 0.00061476487373408732 -0.010136217551990345 0 0.00038531490365205557 -0.010461845321988912 0 -2.7955205225799549e-05 -0.010293337337473417 0 0.00061071212399743159 -0.010095521434451016 0 0.00022227396014608871 -0.010168841337409232 0 0.00018030039788392377 -0.01043646288951877 0 0.00038531490365205557 -0.010461845321988912 0 -6.6700511009522234e-06 -0.010344911777080357 0 0.00022227396014608871 -0.010168841337409232 0 0.00018030039788392377 -0.01043646288951877 0 -0.00047772263859639232 -0.0095011313336670292 0 -0.00014067827244738728 -0.0099705844590868582 0 -0.00014426927725824217 -0.0093774413885155377 0 -0.00014067827244738728 -0.0099705844590868582 0 -0.00014426927725824217 -0.0093774413885155377 0 0.00031980486860887859 -0.0094669905877284733 0 -0.00047772263859639232 -0.0095011313336670292 0 -0.00014426927725824217 -0.0093774413885155377 0 -0.00035399071779649508 -0.0091699214813482817 0 0.00031980486860887859 -0.0094669905877284733 0 0.00067384648352397029 -0.0096685851779991852 0 0.00061476487373408732 -0.010136217551990345 0 0.00031980486860887859 -0.0094669905877284733 0 0.00041864763915947916 -0.0089869989377019 0 0.00073058401733904789 -0.0092188415006996035 0 -0.00014426927725824217 -0.0093774413885155377 0 0.00031980486860887859 -0.0094669905877284733 0 0.00010186250563317145 -0.0090282553622975416 0 0.00031980486860887859 -0.0094669905877284733 0 0.00010186250563317145 -0.0090282553622975416 0 0.00041864763915947916 -0.0089869989377019 0 0.00010186250563317145 -0.0090282553622975416 0 0.00041864763915947916 -0.0089869989377019 0 0.000227146636048028 -0.0086620926588527013 0 0.00010186250563317145 -0.0090282553622975416 0 -6.5912103851186157e-05 -0.0087265650656394699 0 0.000227146636048028 -0.0086620926588527013 0 -0.00066747640948139027 -0.0090727697337338719 0 -0.00035399071779649508 -0.0091699214813482817 0 -0.00029600059385090978 -0.0088912129828440847 0 -0.00014426927725824217 -0.0093774413885155377 0 -0.00035399071779649508 -0.0091699214813482817 0 -0.00015877764859728474 -0.0090232885565459872 0 -0.00035399071779649508 -0.0091699214813482817 0 -0.00015877764859728474 -0.0090232885565459872 0 -0.00029600059385090978 -0.0088912129828440847 0 -0.00014426927725824217 -0.0093774413885155377 0 0.00010186250563317145 -0.0090282553622975416 0 -0.00015877764859728474 -0.0090232885565459872 0 0.00010186250563317145 -0.0090282553622975416 0 -0.00015877764859728474 -0.0090232885565459872 0 -6.5912103851186157e-05 -0.0087265650656394699 0 -0.00066747640948139027 -0.0090727697337338719 0 -0.00029600059385090978 -0.0088912129828440847 0 -0.00025374198931731046 -0.0085040929175079823 0 -0.00015877764859728474 -0.0090232885565459872 0 -0.00029600059385090978 -0.0088912129828440847 0 -6.5912103851186157e-05 -0.0087265650656394699 0 -0.00029600059385090978 -0.0088912129828440847 0 -0.00025374198931731046 -0.0085040929175079823 0 -6.5912103851186157e-05 -0.0087265650656394699 0 -6.5912103851186157e-05 -0.0087265650656394699 0 -1.5908722538753418e-06 -0.008383830167608429 0 0.000227146636048028 -0.0086620926588527013 0 -0.00025374198931731046 -0.0085040929175079823 0 -6.5912103851186157e-05 -0.0087265650656394699 0 -1.5908722538753418e-06 -0.008383830167608429 0 -0.00025374198931731046 -0.0085040929175079823 0 -1.5908722538753418e-06 -0.008383830167608429 0 -0.00026565035646657417 -0.0080149736121194245 0 -3.3752234677536313e-05 -0.0082019088637744243 0 -1.5908722538753418e-06 -0.008383830167608429 0 -0.00026565035646657417 -0.0080149736121194245 0 0.00017035306333705905 -0.0082889410888385504 0 0.000227146636048028 -0.0086620926588527013 0 0.00070540778633714158 -0.0086328480761449378 0 0.00041864763915947916 -0.0089869989377019 0 0.000227146636048028 -0.0086620926588527013 0 0.00070540778633714158 -0.0086328480761449378 0 0.00017035306333705905 -0.0082889410888385504 0 -1.5908722538753418e-06 -0.008383830167608429 0 0.000227146636048028 -0.0086620926588527013 0 0.00070540778633714158 -0.0086328480761449378 0 0.001321624809749059 -0.0088077486467179091 0 0.0012165406070236467 -0.008193486756277981 0 0.00070540778633714158 -0.0086328480761449378 0 0.00099793606776975578 -0.0090240483359999481 0 0.001321624809749059 -0.0088077486467179091 0 0.00099793606776975578 -0.0090240483359999481 0 0.0013193460617838798 -0.0092095040616068675 0 0.001321624809749059 -0.0088077486467179091 0 0.00099793606776975578 -0.0090240483359999481 0 0.0013193460617838798 -0.0092095040616068675 0 0.0010516516605982951 -0.0093643882401998526 0 0.00041864763915947916 -0.0089869989377019 0 0.00070540778633714158 -0.0086328480761449378 0 0.00073058401733904789 -0.0092188415006996035 0 0.00070540778633714158 -0.0086328480761449378 0 0.00099793606776975578 -0.0090240483359999481 0 0.00073058401733904789 -0.0092188415006996035 0 0.00099793606776975578 -0.0090240483359999481 0 0.00073058401733904789 -0.0092188415006996035 0 0.0010516516605982951 -0.0093643882401998526 0 0.00031980486860887859 -0.0094669905877284733 0 0.00073058401733904789 -0.0092188415006996035 0 0.00067384648352397029 -0.0096685851779991852 0 0.00089113092129313397 -0.0095493537912832785 0 0.0010716524826046533 -0.0096593780123377 0 0.00089572169148939562 -0.0098992192946654265 0 0.00067384648352397029 -0.0096685851779991852 0 0.00089113092129313397 -0.0095493537912832785 0 0.00089572169148939562 -0.0098992192946654265 0 0.00073058401733904789 -0.0092188415006996035 0 0.00067384648352397029 -0.0096685851779991852 0 0.00089113092129313397 -0.0095493537912832785 0 0.00073058401733904789 -0.0092188415006996035 0 0.00089113092129313397 -0.0095493537912832785 0 0.0010516516605982951 -0.0093643882401998526 0 0.00089113092129313397 -0.0095493537912832785 0 0.0010516516605982951 -0.0093643882401998526 0 0.0010716524826046533 -0.0096593780123377 0 0.0010516516605982951 -0.0093643882401998526 0 0.0012718548413092577 -0.0095391177708754257 0 0.0010716524826046533 -0.0096593780123377 0 0.0013193460617838798 -0.0092095040616068675 0 0.0010516516605982951 -0.0093643882401998526 0 0.0012718548413092577 -0.0095391177708754257 0 0.0012718548413092577 -0.0095391177708754257 0 0.0010716524826046533 -0.0096593780123377 0 0.0012219977842479839 -0.010010943313405537 0 0.00073935917792261889 -0.01157511636662842 0 0.00073146549350689468 -0.010709430865725234 0 0.00060402409991956306 -0.011095037823894018 0 0.0010716524826046533 -0.0096593780123377 0 0.0012219977842479839 -0.010010943313405537 0 0.00089572169148939562 -0.0098992192946654265 0 0.00061476487373408732 -0.010136217551990345 0 0.00089572169148939562 -0.0098992192946654265 0 0.00073146549350689468 -0.010709430865725234 0 0.00092937169183722533 -0.010824782806814185 0 0.00074246485463479324 -0.010760374826065303 0 0.0012219977842479839 -0.010010943313405537 0 0.00089572169148939562 -0.0098992192946654265 0 0.00073146549350689468 -0.010709430865725234 0 0.00067384648352397029 -0.0096685851779991852 0 0.00061476487373408732 -0.010136217551990345 0 0.00089572169148939562 -0.0098992192946654265 0 -0.00046914386954672086 -0.014233680332432002 0 -0.0005441806269038768 -0.01418845171325492 0 -0.00046528952275499882 -0.014278968915292052 0 -0.00046914386954672086 -0.014233680332432002 0 -0.00038761941331826109 -0.014177147756643974 0 -0.00042008967184518307 -0.014351051041866132 0 -0.00046914386954672086 -0.014233680332432002 0 -0.0005441806269038768 -0.01418845171325492 0 -0.00046550150931895881 -0.014144680804742673 0 -0.00046914386954672086 -0.014233680332432002 0 -0.00046550150931895881 -0.014144680804742673 0 -0.00038761941331826109 -0.014177147756643974 0 -0.0005441806269038768 -0.01418845171325492 0 -0.00046528952275499882 -0.014278968915292052 0 -0.00038628122183554921 -0.014281764977438615 0 0.00073935917792261889 -0.01157511636662842 0 -6.0315691666037305e-05 -0.012328831254021707 0 0.00060402409991956306 -0.011095037823894018 0 -0.00027044945521239889 -0.013241148509463736 0 0.00013405680833130314 -0.0126610330405741 0 0.00092937169183722533 -0.010824782806814185 0 0.00089183581111720238 -0.011088009685687399 0 0.0012718548413092577 -0.0095391177708754257 0 0.0012219977842479839 -0.010010943313405537 0 0.0016030760459753793 -0.0094514804887979587 0 0.00073935917792261889 -0.01157511636662842 0 0.00016572330740794044 -0.012746111730756916 0 -6.0315691666037305e-05 -0.012328831254021707 0 0.0013193460617838798 -0.0092095040616068675 0 0.0012718548413092577 -0.0095391177708754257 0 0.0016030760459753793 -0.0094514804887979587 0 -0.0005441806269038768 -0.01418845171325492 0 -0.00046550150931895881 -0.014144680804742673 0 -0.00043998406212911677 -0.01401744041255722 0 0.00016572330740794044 -0.012746111730756916 0 -6.0315691666037305e-05 -0.012328831254021707 0 -0.00047282682325068423 -0.013676804880724838 0 -0.00027044945521239889 -0.013241148509463736 0 -0.00044497667467426798 -0.013608918080791338 0 -0.0005441806269038768 -0.01418845171325492 0 -0.00047282682325068423 -0.013676804880724838 0 -0.00043998406212911677 -0.01401744041255722 0 0.0016030760459753793 -0.0094514804887979587 0 0.0019257895464564595 -0.0090361423933009374 0 0.0016243115238741117 -0.0090976165659871384 0 0.00016572330740794044 -0.012746111730756916 0 -0.00032965864868934598 -0.013731956969875296 0 -0.00047282682325068423 -0.013676804880724838 0 0.00089183581111720238 -0.011088009685687399 0 0.00068109028575311916 -0.011531783453819609 0 0.0019257895464564595 -0.0090361423933009374 0 0.0016243115238741117 -0.0090976165659871384 0 0.0016965083247565136 -0.0089576837794760299 0 0.0013193460617838798 -0.0092095040616068675 0 0.0016030760459753793 -0.0094514804887979587 0 0.0016243115238741117 -0.0090976165659871384 0 0.0013193460617838798 -0.0092095040616068675 0 0.0016243115238741117 -0.0090976165659871384 0 0.001321624809749059 -0.0088077486467179091 0 0.001321624809749059 -0.0088077486467179091 0 0.0016965083247565136 -0.0089576837794760299 0 0.0018512353843591293 -0.0088396402832387234 0 0.001321624809749059 -0.0088077486467179091 0 0.0016833528512485024 -0.0086313630186735466 0 0.0014927996543056903 -0.008529090946792944 0 0.0016243115238741117 -0.0090976165659871384 0 0.001321624809749059 -0.0088077486467179091 0 0.0016965083247565136 -0.0089576837794760299 0 0.0012493626562729639 -0.0088543477941245719 0 0.0019530249452265123 -0.0085578385215374659 0 0.0016833528512485024 -0.0086313630186735466 0 0.0017089145914419169 -0.0085038459960732286 0 0.0014927996543056903 -0.008529090946792944 0 0.0019257895464564595 -0.0090361423933009374 0 0.0016965083247565136 -0.0089576837794760299 0 0.0018512353843591293 -0.0088396402832387234 0 0.0016833528512485024 -0.0086313630186735466 0 0.0017089145914419169 -0.0085038459960732286 0 0.0017917757936097944 -0.0085437374359945781 0 -0.00012274954834157753 -0.0084473455195472561 0 -0.00012854622429632698 -0.0084556707798675353 0 -0.00010635151080661452 -0.0084762805300403442 0 0.0017089145914419169 -0.0085038459960732286 0 0.0016397904469840012 -0.0083713808371726744 0 0.0014927996543056903 -0.008529090946792944 0 -0.00012274954834157753 -0.0084473455195472561 0 -0.00012854622429632698 -0.0084556707798675353 0 -0.00010261676052071302 -0.0084590574739752365 0 -0.00012854622429632698 -0.0084556707798675353 0 -0.00013313169952868347 -0.008502836997611481 0 -0.00010261676052071302 -0.0084590574739752365 0 -0.00013313169952868347 -0.008502836997611481 0 -0.00020017487173235791 -0.0085504772619957904 0 -0.00016533747018950668 -0.0084992354858935519 0 -0.00012854622429632698 -0.0084556707798675353 0 -0.00013313169952868347 -0.008502836997611481 0 -0.00016533747018950668 -0.0084992354858935519 0 -0.00012274954834157753 -0.0084473455195472561 0 -0.00010261676052071302 -0.0084590574739752365 0 -7.4139641375795752e-05 -0.008401155063756105 0 -0.00010261676052071302 -0.0084590574739752365 0 -7.4139641375795752e-05 -0.008401155063756105 0 -8.6214461880797658e-05 -0.0084578170066048966 0 0.00084177382336973186 -0.0083554550574756192 0 0.00054692772928985832 -0.008301644629375356 0 0.0016397904469840012 -0.0083713808371726744 0 0.0014927996543056903 -0.008529090946792944 0 0.0012165406070236467 -0.008193486756277981 0 0.001321624809749059 -0.0088077486467179091 0 0.0014927996543056903 -0.008529090946792944 0 0.0012165406070236467 -0.008193486756277981 0 0.00070540778633714158 -0.0086328480761449378 0 0.0012165406070236467 -0.008193486756277981 0 0.0005967749416034004 -0.0080696413550177693 0 0.00017035306333705905 -0.0082889410888385504 0 0.00070540778633714158 -0.0086328480761449378 0 0.0005967749416034004 -0.0080696413550177693 0 -3.270666727975798e-05 -0.0083197110452218215 0 -5.5748726432474682e-05 -0.0083954765081622352 0 -1.2368876373908262e-05 -0.0083740260126917501 0 0.00054692772928985832 -0.008301644629375356 0 0.00029354821289840526 -0.0082047133844438611 0 -7.4139641375795752e-05 -0.008401155063756105 0 -3.270666727975798e-05 -0.0083197110452218215 0 -5.5748726432474682e-05 -0.0083954765081622352 0 -7.4139641375795752e-05 -0.008401155063756105 0 -5.5748726432474682e-05 -0.0083954765081622352 0 -8.6214461880797658e-05 -0.0084578170066048966 0 -5.5748726432474682e-05 -0.0083954765081622352 0 -5.9819835687915005e-05 -0.0084445788359692846 0 -8.6214461880797658e-05 -0.0084578170066048966 0 -5.9819835687915005e-05 -0.0084445788359692846 0 -9.2825936377334686e-05 -0.0084856840372921714 0 -8.6214461880797658e-05 -0.0084578170066048966 0 -5.9819835687915005e-05 -0.0084445788359692846 0 -1.2368876373908262e-05 -0.0083740260126917501 0 -1.9089071697040533e-05 -0.0084763267783972019 0 -5.5748726432474682e-05 -0.0083954765081622352 0 -5.9819835687915005e-05 -0.0084445788359692846 0 -1.2368876373908262e-05 -0.0083740260126917501 0 -5.9819835687915005e-05 -0.0084445788359692846 0 -1.9089071697040533e-05 -0.0084763267783972019 0 -7.0696907404145951e-05 -0.0085096774123420444 0 -5.9819835687915005e-05 -0.0084445788359692846 0 -7.0696907404145951e-05 -0.0085096774123420444 0 -9.2825936377334686e-05 -0.0084856840372921714 0 -0.00010317144285392772 -0.0085260337535991246 0 -7.0696907404145951e-05 -0.0085096774123420444 0 -9.2825936377334686e-05 -0.0084856840372921714 0 -0.00010317144285392772 -0.0085260337535991246 0 -9.2825936377334686e-05 -0.0084856840372921714 0 -0.00011969267346630209 -0.0084974658427156863 0 -9.2825936377334686e-05 -0.0084856840372921714 0 -0.000106269872597617 -0.0084963754245120145 0 -0.00011969267346630209 -0.0084974658427156863 0 -0.00010666878852447487 -0.0084895308236559216 0 -0.00011969267346630209 -0.0084974658427156863 0 -0.00011206058216039101 -0.008497469737237787 0 -1.8331356371874422e-05 -0.0087021953055474843 0 -9.8634070048710177e-05 -0.0086064620172293018 0 -0.00011478659618836384 -0.0088790232347528038 0 -8.1894268634359344e-05 -0.0087016248427844983 0 -0.00021150893165636442 -0.0087444147615067143 0 -8.1894268634359344e-05 -0.0087016248427844983 0 -9.3882962599903196e-05 -0.0085180153479847611 0 -0.00016849052267695999 -0.0086273376196248849 0 -8.1894268634359344e-05 -0.0087016248427844983 0 -0.00016849052267695999 -0.0086273376196248849 0 -0.00021150893165636442 -0.0087444147615067143 0 -9.8634070048710177e-05 -0.0086064620172293018 0 -9.1231896979516834e-05 -0.0085383132287925323 0 -0.000106269872597617 -0.0084963754245120145 0 -0.00011206058216039101 -0.008497469737237787 0 -9.3882962599903196e-05 -0.0085180153479847611 0 -0.000106269872597617 -0.0084963754245120145 0 -0.00011969267346630209 -0.0084974658427156863 0 -0.00011206058216039101 -0.008497469737237787 0 -0.00013313169952868347 -0.008502836997611481 0 -9.3882962599903196e-05 -0.0085180153479847611 0 -0.00016849052267695999 -0.0086273376196248849 0 -0.00013313169952868347 -0.008502836997611481 0 -0.00010261676052071302 -0.0084590574739752365 0 -9.3882962599903196e-05 -0.0085180153479847611 0 -0.00010261676052071302 -0.0084590574739752365 0 -9.3882962599903196e-05 -0.0085180153479847611 0 -8.6214461880797658e-05 -0.0084578170066048966 0 -9.2825936377334686e-05 -0.0084856840372921714 0 -0.000106269872597617 -0.0084963754245120145 0 -8.6214461880797658e-05 -0.0084578170066048966 0 -0.000106269872597617 -0.0084963754245120145 0 -9.3882962599903196e-05 -0.0085180153479847611 0 -8.6214461880797658e-05 -0.0084578170066048966 0 -0.00024278006110736147 -0.01072938604665946 0 -0.00014213495125643721 -0.011145250979032432 0 -0.00020017487173235791 -0.0085504772619957904 0 -0.00030986088368040871 -0.008673556586269688 0 -0.00029281264377695702 -0.0085430154258553104 0 0.00021784908358641052 -0.013521523028201882 0 -7.0621477718805595e-05 -0.013326346016843375 0 6.5089212834195715e-05 -0.01387053213342462 0 0.00021784908358641052 -0.013521523028201882 0 6.5089212834195715e-05 -0.01387053213342462 0 0.00021132650607059845 -0.013965411299806024 0 -0.00013313169952868347 -0.008502836997611481 0 -0.00020017487173235791 -0.0085504772619957904 0 -0.00016849052267695999 -0.0086273376196248849 0 -0.00020017487173235791 -0.0085504772619957904 0 -0.00016849052267695999 -0.0086273376196248849 0 -0.00030986088368040871 -0.008673556586269688 0 -0.00030543287504225503 -0.008894293062695369 0 -0.00021150893165636442 -0.0087444147615067143 0 -0.00030986088368040871 -0.008673556586269688 0 -0.00016849052267695999 -0.0086273376196248849 0 -0.00021150893165636442 -0.0087444147615067143 0 -0.00030986088368040871 -0.008673556586269688 0 -0.00018469795183230947 -0.012689521986692513 0 0.00021784908358641052 -0.013521523028201882 0 -7.0621477718805595e-05 -0.013326346016843375 0 0.00061967878633074197 -0.014738545885572244 0 0.00056047329967183186 -0.014530355360659965 0 0.00051740277803383205 -0.014682121587319567 0 8.3863725144988754e-05 -0.012290792015937541 0 0.00045647248475500217 -0.014342681267840194 0 8.3863725144988754e-05 -0.012290792015937541 0 -0.00024278006110736147 -0.01072938604665946 0 0.00056047329967183186 -0.014530355360659965 0 0.00051740277803383205 -0.014682121587319567 0 0.00048246390826687521 -0.014580362120484172 0 0.00038798260520433189 -0.014768347318754741 0 0.00051740277803383205 -0.014682121587319567 0 0.00040052414930629013 -0.014611040124489142 0 0.00051740277803383205 -0.014682121587319567 0 0.00040052414930629013 -0.014611040124489142 0 0.00048246390826687521 -0.014580362120484172 0 0.00040052414930629013 -0.014611040124489142 0 0.00027293432900577506 -0.01471236088137025 0 0.00023642328214427814 -0.014558450857709583 0 0.00038798260520433189 -0.014768347318754741 0 0.00040052414930629013 -0.014611040124489142 0 0.00027293432900577506 -0.01471236088137025 0 0.00040052414930629013 -0.014611040124489142 0 0.00023642328214427814 -0.014558450857709583 0 0.00035343108844324348 -0.01439441564294484 0 0.00023642328214427814 -0.014558450857709583 0 0.00028221292331572666 -0.014320473010817996 0 0.0002120606740183744 -0.014279068353901735 0 0.00023642328214427814 -0.014558450857709583 0 0.00035343108844324348 -0.01439441564294484 0 0.00028221292331572666 -0.014320473010817996 0 0.00056047329967183186 -0.014530355360659965 0 0.00043903168294141088 -0.014470548557092892 0 0.00037930468044809453 -0.014157532889299551 0 0.00040052414930629013 -0.014611040124489142 0 0.00035343108844324348 -0.01439441564294484 0 0.00043903168294141088 -0.014470548557092892 0 0.00056047329967183186 -0.014530355360659965 0 0.00048246390826687521 -0.014580362120484172 0 0.00043903168294141088 -0.014470548557092892 0 0.00040052414930629013 -0.014611040124489142 0 0.00048246390826687521 -0.014580362120484172 0 0.00043903168294141088 -0.014470548557092892 0 0.00037930468044809453 -0.014157532889299551 0 0.0002460898025556116 -0.014196619003528194 0 0.00021132650607059845 -0.013965411299806024 0 0.00021784908358641052 -0.013521523028201882 0 0.00037930468044809453 -0.014157532889299551 0 0.00021132650607059845 -0.013965411299806024 0 0.00045647248475500217 -0.014342681267840194 0 0.00033971377482225253 -0.014007045392351864 0 0.00035343108844324348 -0.01439441564294484 0 0.00043903168294141088 -0.014470548557092892 0 0.00037930468044809453 -0.014157532889299551 0 0.00035343108844324348 -0.01439441564294484 0 0.00037930468044809453 -0.014157532889299551 0 0.00033688435474320234 -0.01423660708424687 0 0.00028221292331572666 -0.014320473010817996 0 0.00024729161357168826 -0.014259294329883977 0 0.0002120606740183744 -0.014279068353901735 0 0.00019363964772602964 -0.014553907420327434 0 0.0001631950413779727 -0.014589337103160483 0 0.00035343108844324348 -0.01439441564294484 0 0.00028221292331572666 -0.014320473010817996 0 0.00033688435474320234 -0.01423660708424687 0 0.00037930468044809453 -0.014157532889299551 0 0.00033688435474320234 -0.01423660708424687 0 0.00036424127422022998 -0.014157345975437609 0 0.00033688435474320234 -0.01423660708424687 0 0.00030048634600669203 -0.014224151289543739 0 0.00036424127422022998 -0.014157345975437609 0 0.00030048634600669203 -0.014224151289543739 0 0.00029926490081397917 -0.014188580826376597 0 0.00036424127422022998 -0.014157345975437609 0 0.00024729161357168826 -0.014259294329883977 0 0.00029926490081397917 -0.014188580826376597 0 0.00023004842361793105 -0.014269583045296087 0 0.00030048634600669203 -0.014224151289543739 0 0.00024729161357168826 -0.014259294329883977 0 0.00029926490081397917 -0.014188580826376597 0 0.00028221292331572666 -0.014320473010817996 0 0.00030048634600669203 -0.014224151289543739 0 0.00024729161357168826 -0.014259294329883977 0 0.00028221292331572666 -0.014320473010817996 0 0.00033688435474320234 -0.01423660708424687 0 0.00030048634600669203 -0.014224151289543739 0 0.00029926490081397917 -0.014188580826376597 0 0.00028491388628702579 -0.01413776537877179 0 0.00023004842361793105 -0.014269583045296087 0 0.00029926490081397917 -0.014188580826376597 0 0.00035856645424171374 -0.014140950195104767 0 0.00028491388628702579 -0.01413776537877179 0 0.00029926490081397917 -0.014188580826376597 0 0.00036424127422022998 -0.014157345975437609 0 0.00035856645424171374 -0.014140950195104767 0 0.00039200788944934386 -0.01411359018241006 0 0.00036900676743068184 -0.014095620263791507 0 0.00039023305315919767 -0.014061022453537901 0 0.00039200788944934386 -0.01411359018241006 0 0.00036900676743068184 -0.014095620263791507 0 0.00035856645424171374 -0.014140950195104767 0 0.00036900676743068184 -0.014095620263791507 0 0.00035856645424171374 -0.014140950195104767 0 0.00033146367962070969 -0.014076083232336441 0 0.00035856645424171374 -0.014140950195104767 0 0.00033146367962070969 -0.014076083232336441 0 0.00028491388628702579 -0.01413776537877179 0 0.00036424127422022998 -0.014157345975437609 0 0.00035856645424171374 -0.014140950195104767 0 0.0002460898025556116 -0.014196619003528194 0 0.00039200788944934386 -0.01411359018241006 0 0.00035856645424171374 -0.014140950195104767 0 0.00048801064746750418 -0.01407573534813026 0 0.00039200788944934386 -0.01411359018241006 0 0.00045906373800519326 -0.014060756391424756 0 0.00048801064746750418 -0.01407573534813026 0 0.00037930468044809453 -0.014157532889299551 0 0.00036424127422022998 -0.014157345975437609 0 0.0002460898025556116 -0.014196619003528194 0 0.00035864397231834033 -0.014724127388361104 0 0.00043793789624562346 -0.011845127439396806 0 0.00039200788944934386 -0.01411359018241006 0 0.00047097014365718622 -0.014087953199638415 0 0.00039023305315919767 -0.014061022453537901 0 0.0003226600842525419 -0.013991595412667243 0 0.00046193726331900797 -0.013011602808403968 0 0.00046193726331900797 -0.013011602808403968 0 0.00069908670879369769 -0.012289309395617596 0 0.00061617307513867612 -0.012474724304370962 0 0.00070759113000548981 -0.012454543298986355 0 0.00072027433613079043 -0.01251624707778925 0 0.0019231072862039953 -0.0085833027944330897 0 0.0019000674948393759 -0.0085718241644356132 0 0.0018671935586451703 -0.0085795759313564875 0 0.0019231072862039953 -0.0085833027944330897 0 0.0019000674948393759 -0.0085718241644356132 0 0.0019208903026798811 -0.0085654170183485229 0 0.00046193726331900797 -0.013011602808403968 0 0.00072330639112599233 -0.011821767670739504 0 0.00069908670879369769 -0.012289309395617596 0 0.00072330639112599233 -0.011821767670739504 0 0.00045906373800519326 -0.014060756391424756 0 0.00048143616813111511 -0.01406109040876981 0 0.00048801064746750418 -0.01407573534813026 0 0.00072330639112599233 -0.011821767670739504 0 0.00043793789624562346 -0.011845127439396806 0 0.00072330639112599233 -0.011821767670739504 0 0.00040242917388927499 -0.0091082848159205858 0 0.0019000674948393759 -0.0085718241644356132 0 0.0019208903026798811 -0.0085654170183485229 0 0.001845918773798885 -0.0084878477025381403 0 0.0019000674948393759 -0.0085718241644356132 0 0.0018550455347338883 -0.008543368897765637 0 0.0018766236263276696 -0.0085721260903839341 0 0.0019000674948393759 -0.0085718241644356132 0 0.0018550455347338883 -0.008543368897765637 0 0.001845918773798885 -0.0084878477025381403 0 0.0018550455347338883 -0.008543368897765637 0 0.0018766236263276696 -0.0085721260903839341 0 0.0018734436499250051 -0.0085768614766590576 0 0.0019000674948393759 -0.0085718241644356132 0 0.0018766236263276696 -0.0085721260903839341 0 0.0018671935586451703 -0.0085795759313564875 0 0.00043793789624562346 -0.011845127439396806 0 0.00040242917388927499 -0.0091082848159205858 0 0.00095009262433265809 -0.010904686889871429 0 0.00089108189626732484 -0.010610876545015017 0 6.8519450232865881e-05 -0.010515995555230816 0 0.00043793789624562346 -0.011845127439396806 0 -0.00014213495125643721 -0.011145250979032432 0 -0.0002876283674998622 -0.0084741874013396865 0 -0.00029281264377695702 -0.0085430154258553104 0 -0.00023503260714150513 -0.0084559349923436639 0 0.0002460898025556116 -0.014196619003528194 0 6.5089212834195715e-05 -0.01387053213342462 0 0.00021132650607059845 -0.013965411299806024 0 -0.00020017487173235791 -0.0085504772619957904 0 -0.00029281264377695702 -0.0085430154258553104 0 -0.00020333389629033458 -0.0084917617546454716 0 -0.00012854622429632698 -0.0084556707798675353 0 -0.00020333389629033458 -0.0084917617546454716 0 -0.00023503260714150513 -0.0084559349923436639 0 -0.00029281264377695702 -0.0085430154258553104 0 -0.00020333389629033458 -0.0084917617546454716 0 -0.00023503260714150513 -0.0084559349923436639 0 -0.00020017487173235791 -0.0085504772619957904 0 -0.00016533747018950668 -0.0084992354858935519 0 -0.00020333389629033458 -0.0084917617546454716 0 -0.00012854622429632698 -0.0084556707798675353 0 -0.00016533747018950668 -0.0084992354858935519 0 -0.00020333389629033458 -0.0084917617546454716 0 0.0017089145914419169 -0.0085038459960732286 0 0.001845918773798885 -0.0084878477025381403 0 0.0017917757936097944 -0.0085437374359945781 0 0.0017089145914419169 -0.0085038459960732286 0 0.0016397904469840012 -0.0083713808371726744 0 0.001845918773798885 -0.0084878477025381403 0 -0.00038841284605608823 -0.0083045758098312227 0 0.00040242917388927499 -0.0091082848159205858 0 0.00084177382336973186 -0.0083554550574756192 0 0.00040242917388927499 -0.0091082848159205858 0 0.0018550455347338883 -0.008543368897765637 0 0.0017917757936097944 -0.0085437374359945781 0 0.0018734436499250051 -0.0085768614766590576 0 0.0018550455347338883 -0.008543368897765637 0 0.001845918773798885 -0.0084878477025381403 0 0.0017917757936097944 -0.0085437374359945781 0 0.0019530249452265123 -0.0085578385215374659 0 0.0012446543656884606 -0.01020995621911612 0 0.00068109028575311916 -0.011531783453819609 0 0.0012446543656884606 -0.01020995621911612 0 -0.00032965864868934598 -0.013731956969875296 0 -0.00033816567993402914 -0.013635179070752837 0 -0.0003223385584488034 -0.01350597946231949 0 0.0016833528512485024 -0.0086313630186735466 0 0.0017917757936097944 -0.0085437374359945781 0 0.0018734436499250051 -0.0085768614766590576 0 0.0019257895464564595 -0.0090361423933009374 0 0.0018512353843591293 -0.0088396402832387234 0 0.0021510883105064237 -0.0088130943769769831 0 -0.00033816567993402914 -0.013635179070752837 0 -0.00030853865045272003 -0.01366315171678026 0 -0.00038370520792154568 -0.013677621135112377 0 -0.00033816567993402914 -0.013635179070752837 0 -0.00028787875666613143 -0.013608678541334652 0 -0.00030853865045272003 -0.01366315171678026 0 -0.00013120893961139862 -0.013432899743643768 0 -0.00019819492637435221 -0.013684620158202498 0 -6.9541817479947373e-05 -0.013905133083479817 0 0.00069908670879369769 -0.012289309395617596 0 0.0012446543656884606 -0.01020995621911612 0 -0.00013120893961139862 -0.013432899743643768 0 -0.0002426842204085438 -0.013556732112434569 0 -0.00019819492637435221 -0.013684620158202498 0 -0.00013120893961139862 -0.013432899743643768 0 -0.0002426842204085438 -0.013556732112434569 0 -0.0003223385584488034 -0.01350597946231949 0 -0.0002426842204085438 -0.013556732112434569 0 -0.0003223385584488034 -0.01350597946231949 0 -0.00028787875666613143 -0.013608678541334652 0 0.0014488186518702988 -0.0099651915982654129 0 0.0012446543656884606 -0.01020995621911612 0 -0.0002426842204085438 -0.013556732112434569 0 -0.00028787875666613143 -0.013608678541334652 0 -0.00019819492637435221 -0.013684620158202498 0 -0.00028787875666613143 -0.013608678541334652 0 -0.00030853865045272003 -0.01366315171678026 0 -0.00019819492637435221 -0.013684620158202498 0 -0.00033816567993402914 -0.013635179070752837 0 -0.0003223385584488034 -0.01350597946231949 0 -0.00028787875666613143 -0.013608678541334652 0 -0.00019819492637435221 -0.013684620158202498 0 -0.00029455935255876176 -0.013745178414570998 0 -6.9541817479947373e-05 -0.013905133083479817 0 -0.00029455935255876176 -0.013745178414570998 0 -0.00027533393276217506 -0.014017105430918398 0 -6.9541817479947373e-05 -0.013905133083479817 0 -0.00030853865045272003 -0.01366315171678026 0 -0.00019819492637435221 -0.013684620158202498 0 -0.00029455935255876176 -0.013745178414570998 0 -0.00032965864868934598 -0.013731956969875296 0 -0.00033816567993402914 -0.013635179070752837 0 -0.00038370520792154568 -0.013677621135112377 0 -0.00032965864868934598 -0.013731956969875296 0 -0.00038370520792154568 -0.013677621135112377 0 -0.00047282682325068423 -0.013676804880724838 0 -0.00029455935255876176 -0.013745178414570998 0 -0.00038370520792154568 -0.013677621135112377 0 -0.00047282682325068423 -0.013676804880724838 0 -0.00030853865045272003 -0.01366315171678026 0 -0.00029455935255876176 -0.013745178414570998 0 -0.00038370520792154568 -0.013677621135112377 0 -0.00029455935255876176 -0.013745178414570998 0 -0.00047282682325068423 -0.013676804880724838 0 -0.00027533393276217506 -0.014017105430918398 0 -0.00046550150931895881 -0.014144680804742673 0 -0.00043998406212911677 -0.01401744041255722 0 -0.00038761941331826109 -0.014177147756643974 0 -0.00043998406212911677 -0.01401744041255722 0 -0.00027533393276217506 -0.014017105430918398 0 -0.00038761941331826109 -0.014177147756643974 0 -0.00047282682325068423 -0.013676804880724838 0 -0.00043998406212911677 -0.01401744041255722 0 -0.00027533393276217506 -0.014017105430918398 0 -0.00027533393276217506 -0.014017105430918398 0 -7.6772957892854178e-05 -0.014286746631658347 0 -6.9541817479947373e-05 -0.013905133083479817 0 -0.00027533393276217506 -0.014017105430918398 0 -0.00023580633013766991 -0.014346298495898717 0 -7.6772957892854178e-05 -0.014286746631658347 0 -0.00027533393276217506 -0.014017105430918398 0 -0.00023580633013766991 -0.014346298495898717 0 -0.00038761941331826109 -0.014177147756643974 0 -0.00023580633013766991 -0.014346298495898717 0 -0.00038761941331826109 -0.014177147756643974 0 -0.00042008967184518307 -0.014351051041866132 0 8.794597955312065e-05 -0.014198878485729552 0 0.00024242455434630376 -0.014470826732954082 0 7.3249593805794198e-05 -0.014506287830917784 0 -7.6772957892854178e-05 -0.014286746631658347 0 8.794597955312065e-05 -0.014198878485729552 0 7.3249593805794198e-05 -0.014506287830917784 0 -7.6772957892854178e-05 -0.014286746631658347 0 8.794597955312065e-05 -0.014198878485729552 0 -6.9541817479947373e-05 -0.013905133083479817 0 8.794597955312065e-05 -0.014198878485729552 0 0.00031681970251024337 -0.014034823289736981 0 0.00024242455434630376 -0.014470826732954082 0 8.794597955312065e-05 -0.014198878485729552 0 0.00014480691820121049 -0.013890315573332059 0 0.00031681970251024337 -0.014034823289736981 0 0.00014480691820121049 -0.013890315573332059 0 0.00030579248434403362 -0.013726314160471273 0 0.00031681970251024337 -0.014034823289736981 0 8.794597955312065e-05 -0.014198878485729552 0 0.00014480691820121049 -0.013890315573332059 0 -6.9541817479947373e-05 -0.013905133083479817 0 0.00014480691820121049 -0.013890315573332059 0 -6.9541817479947373e-05 -0.013905133083479817 0 0.00010358228500542845 -0.013644910733693271 0 -7.1116571784549939e-05 -0.013563458895875737 0 -6.9541817479947373e-05 -0.013905133083479817 0 0.00010358228500542845 -0.013644910733693271 0 0.00069908670879369769 -0.012289309395617596 0 -0.00024868030285482698 -0.014372296483883601 0 -7.1116571784549939e-05 -0.013563458895875737 0 -0.00012537347042685575 -0.013573443857698226 0 -6.9541817479947373e-05 -0.013905133083479817 0 0.00046193726331900797 -0.013011602808403968 0 0.00023948976448215085 -0.013839516444672673 0 0.00033146367962070969 -0.014076083232336441 0 0.00029107795504112403 -0.01401635717525246 0 0.00028491388628702579 -0.01413776537877179 0 0.00014480691820121049 -0.013890315573332059 0 0.00010358228500542845 -0.013644910733693271 0 0.00030579248434403362 -0.013726314160471273 0 0.00036900676743068184 -0.014095620263791507 0 0.00039023305315919767 -0.014061022453537901 0 0.00033146367962070969 -0.014076083232336441 0 0.00039023305315919767 -0.014061022453537901 0 0.00033146367962070969 -0.014076083232336441 0 0.00029107795504112403 -0.01401635717525246 0 0.00023948976448215085 -0.013839516444672673 0 0.0002424805396168003 -0.01439654261467525 0 8.0768943261125414e-05 -0.014958811573908123 0 0.0001019598930958179 -0.014941861810861779 0 9.7821084582564704e-05 -0.014967238562488938 0 8.0768943261125414e-05 -0.014958811573908123 0 0.0001019598930958179 -0.014941861810861779 0 8.708629437643657e-05 -0.014932499377065362 0 0.0002424805396168003 -0.01439654261467525 0 0.00018770818213820762 -0.014576512014661975 0 0.0002424805396168003 -0.01439654261467525 0 0.00016866014090289629 -0.014929836741152877 0 8.0768943261125414e-05 -0.014958811573908123 0 6.6131050951704411e-05 -0.014953182339779601 0 8.708629437643657e-05 -0.014932499377065362 0 8.0768943261125414e-05 -0.014958811573908123 0 6.6131050951704411e-05 -0.014953182339779601 0 4.3954923152069869e-05 -0.014982310961638884 0 6.6131050951704411e-05 -0.014953182339779601 0 8.708629437643657e-05 -0.014932499377065362 0 7.856588540876561e-05 -0.01489618624486205 0 0.00016866014090289629 -0.014929836741152877 0 7.0752045623656846e-05 -0.014892037425445891 0 0.00019321288970875917 -0.014906883350897293 0 0.00016611776430818916 -0.014782163783942759 0 7.856588540876561e-05 -0.01489618624486205 0 0.00016611776430818916 -0.014782163783942759 0 0.0001106339569715843 -0.014778963401831822 0 7.856588540876561e-05 -0.01489618624486205 0 0.0002424805396168003 -0.01439654261467525 0 0.00031279240870236085 -0.014394097884042679 0 0.00019321288970875917 -0.014906883350897293 0 0.00032394747107497487 -0.014772343924444844 0 0.00016611776430818916 -0.014782163783942759 0 0.00032994809252754513 -0.014957525683555904 0 0.00019321288970875917 -0.014906883350897293 0 0.00032394747107497487 -0.014772343924444844 0 0.00031279240870236085 -0.014394097884042679 0 0.0002637965747862183 -0.014467735169744143 0 0.00032394747107497487 -0.014772343924444844 0 0.00020030145602810599 -0.014627924662810545 0 0.00016611776430818916 -0.014782163783942759 0 0.00032394747107497487 -0.014772343924444844 0 0.00020030145602810599 -0.014627924662810545 0 0.00024242455434630376 -0.014470826732954082 0 0.00016611776430818916 -0.014782163783942759 0 0.00015098589793249219 -0.014665971227925583 0 0.0001106339569715843 -0.014778963401831822 0 0.00015098589793249219 -0.014665971227925583 0 0.00010395598133877726 -0.014709262072090397 0 0.0001106339569715843 -0.014778963401831822 0 0.00020030145602810599 -0.014627924662810545 0 0.00016611776430818916 -0.014782163783942759 0 0.00015098589793249219 -0.014665971227925583 0 0.00020030145602810599 -0.014627924662810545 0 0.00015098589793249219 -0.014665971227925583 0 0.00017908682251818359 -0.014569936132634378 0 0.00015098589793249219 -0.014665971227925583 0 0.00013874532029496735 -0.014623890971636045 0 0.00017908682251818359 -0.014569936132634378 0 0.00020030145602810599 -0.014627924662810545 0 0.00024242455434630376 -0.014470826732954082 0 0.00017908682251818359 -0.014569936132634378 0 1.1793738449212238e-08 -0.015000015656972836 0 7.0320779895729844e-06 -0.01500535072463241 0 -6.1942370175436523e-09 -0.01499999075825029 0 3.7316453035523287e-05 -0.014659257488075865 0 0.00013874532029496735 -0.014623890971636045 0 0.00010395598133877726 -0.014709262072090397 0 0.00015098589793249219 -0.014665971227925583 0 0.00013874532029496735 -0.014623890971636045 0 0.00010395598133877726 -0.014709262072090397 0 3.7316453035523287e-05 -0.014659257488075865 0 0.00010395598133877726 -0.014709262072090397 0 5.8328880660401545e-05 -0.014839996543978117 0 0.00010395598133877726 -0.014709262072090397 0 0.0001106339569715843 -0.014778963401831822 0 5.8328880660401545e-05 -0.014839996543978117 0 0.0001106339569715843 -0.014778963401831822 0 5.8328880660401545e-05 -0.014839996543978117 0 7.856588540876561e-05 -0.01489618624486205 0 1.1793738449212238e-08 -0.015000015656972836 0 7.0320779895729844e-06 -0.01500535072463241 0 -1.0297299449074598e-05 -0.014980763974192049 0 3.7316453035523287e-05 -0.014659257488075865 0 5.8328880660401545e-05 -0.014839996543978117 0 -1.0297299449074598e-05 -0.014980763974192049 0 1.1793738449212238e-08 -0.015000015656972836 0 -1.0297299449074598e-05 -0.014980763974192049 0 -4.1245167861174897e-08 -0.014999819368977469 0 3.1015868529432402e-05 -0.014839807786574621 0 -1.0913511503388887e-05 -0.014961500547082299 0 2.3749005968360459e-05 -0.014945158320709797 0 -4.1245167861174897e-08 -0.014999819368977469 0 2.5212369689670893e-05 -0.014973486500272713 0 5.8328880660401545e-05 -0.014839996543978117 0 -1.0297299449074598e-05 -0.014980763974192049 0 2.3749005968360459e-05 -0.014945158320709797 0 -1.0297299449074598e-05 -0.014980763974192049 0 2.3749005968360459e-05 -0.014945158320709797 0 -4.1245167861174897e-08 -0.014999819368977469 0 5.8328880660401545e-05 -0.014839996543978117 0 2.3749005968360459e-05 -0.014945158320709797 0 7.856588540876561e-05 -0.01489618624486205 0 2.3749005968360459e-05 -0.014945158320709797 0 7.856588540876561e-05 -0.01489618624486205 0 2.5212369689670893e-05 -0.014973486500272713 0 6.6131050951704411e-05 -0.014953182339779601 0 7.856588540876561e-05 -0.01489618624486205 0 2.5212369689670893e-05 -0.014973486500272713 0 6.6131050951704411e-05 -0.014953182339779601 0 2.5212369689670893e-05 -0.014973486500272713 0 4.3954923152069869e-05 -0.014982310961638884 0 -4.1245167861174897e-08 -0.014999819368977469 0 2.5212369689670893e-05 -0.014973486500272713 0 2.5738768788352078e-08 -0.015000015976285723 0 2.5212369689670893e-05 -0.014973486500272713 0 2.5738768788352078e-08 -0.015000015976285723 0 4.3954923152069869e-05 -0.014982310961638884 0 2.5738768788352078e-08 -0.015000015976285723 0 2.5573131368096991e-05 -0.015000090740262303 0 1.1165795213065759e-08 -0.015000003034039243 0 2.5738768788352078e-08 -0.015000015976285723 0 2.5573131368096991e-05 -0.015000090740262303 0 4.3954923152069869e-05 -0.014982310961638884 0 8.0768943261125414e-05 -0.014958811573908123 0 4.3954923152069869e-05 -0.014982310961638884 0 6.489211656572314e-05 -0.014986987085528073 0 8.0768943261125414e-05 -0.014958811573908123 0 9.7821084582564704e-05 -0.014967238562488938 0 6.489211656572314e-05 -0.014986987085528073 0 0.00018770818213820762 -0.014576512014661975 0 0.0001631950413779727 -0.014589337103160483 0 9.7821084582564704e-05 -0.014967238562488938 0 9.3578609536586478e-05 -0.014993635426268892 0 6.489211656572314e-05 -0.014986987085528073 0 9.3578609536586478e-05 -0.014993635426268892 0 6.489211656572314e-05 -0.014986987085528073 0 5.3745518141287127e-05 -0.015011169785590686 0 2.5573131368096991e-05 -0.015000090740262303 0 4.3954923152069869e-05 -0.014982310961638884 0 6.489211656572314e-05 -0.014986987085528073 0 2.5573131368096991e-05 -0.015000090740262303 0 6.489211656572314e-05 -0.014986987085528073 0 5.3745518141287127e-05 -0.015011169785590686 0 0.00023642328214427814 -0.014558450857709583 0 0.00012330808865936547 -0.014586339833461604 0 0.00018008251542364829 -0.014675487071895676 0 0.00023293953067103531 -0.014465944010708186 0 0.0001631950413779727 -0.014589337103160483 0 0.00023642328214427814 -0.014558450857709583 0 0.00023219751213189536 -0.014476916909999459 0 0.00012330808865936547 -0.014586339833461604 0 0.0001631950413779727 -0.014589337103160483 0 8.41393538833652e-05 -0.014820681074019878 0 0.00027293432900577506 -0.01471236088137025 0 0.00023642328214427814 -0.014558450857709583 0 0.00018008251542364829 -0.014675487071895676 0 0.00017421462737316566 -0.014799599273621991 0 0.00027293432900577506 -0.01471236088137025 0 0.00018008251542364829 -0.014675487071895676 0 0.00012330808865936547 -0.014586339833461604 0 0.00018008251542364829 -0.014675487071895676 0 0.00010990702320167569 -0.014756545273053008 0 0.00012330808865936547 -0.014586339833461604 0 0.00010990702320167569 -0.014756545273053008 0 1.5911457071962541e-05 -0.014775522630370635 0 0.00017421462737316566 -0.014799599273621991 0 0.00018008251542364829 -0.014675487071895676 0 0.00010990702320167569 -0.014756545273053008 0 7.5185161642569927e-05 -0.014870394142379317 0 0.00010990702320167569 -0.014756545273053008 0 1.5911457071962541e-05 -0.014775522630370635 0 1.4826714134031872e-08 -0.014999950970018614 0 3.0491311309459639e-05 -0.014886498397777601 0 4.2574208860181544e-09 -0.015000023766039504 0 1.8130055952004532e-05 -0.015011441889100762 0 1.1165795213065759e-08 -0.015000003034039243 0 2.5573131368096991e-05 -0.015000090740262303 0 1.8130055952004532e-05 -0.015011441889100762 0 1.1165795213065759e-08 -0.015000003034039243 0 2.5573131368096991e-05 -0.015000090740262303 0 5.3745518141287127e-05 -0.015011169785590686 0 1.8130055952004532e-05 -0.015011441889100762 0 8.41393538833652e-05 -0.014820681074019878 0 3.0491311309459639e-05 -0.014886498397777601 0 1.1883092269303771e-05 -0.014963899273719126 0 -2.9044222585900137e-08 -0.014999934352238823 0 -2.9088025403451217e-05 -0.014956923842226046 0 -2.9044222585900137e-08 -0.014999934352238823 0 -2.9088025403451217e-05 -0.014956923842226046 0 -2.7540478527822322e-08 -0.014999913938098243 0 1.1883092269303771e-05 -0.014963899273719126 0 -2.9088025403451217e-05 -0.014956923842226046 0 -2.4458023281700608e-06 -0.0149451126294188 0 -2.4458023281700608e-06 -0.0149451126294188 0 2.5174460255408126e-05 -0.014933832115289272 0 1.0904418855796006e-05 -0.014901314025392512 0 -2.4458023281700608e-06 -0.0149451126294188 0 2.5174460255408126e-05 -0.014933832115289272 0 2.2180194753670826e-05 -0.014944367153656072 0 2.5174460255408126e-05 -0.014933832115289272 0 1.0904418855796006e-05 -0.014901314025392512 0 3.5493485464021325e-05 -0.014910952263371149 0 2.5174460255408126e-05 -0.014933832115289272 0 2.9849265921962295e-05 -0.014930502908297699 0 3.5493485464021325e-05 -0.014910952263371149 0 2.5174460255408126e-05 -0.014933832115289272 0 2.2180194753670826e-05 -0.014944367153656072 0 2.0990112370973807e-05 -0.014936441042637591 0 2.2180194753670826e-05 -0.014944367153656072 0 2.1430032073105365e-05 -0.014930037244855476 0 2.0990112370973807e-05 -0.014936441042637591 0 1.1883092269303771e-05 -0.014963899273719126 0 -2.4458023281700608e-06 -0.0149451126294188 0 2.2180194753670826e-05 -0.014944367153656072 0 1.1883092269303771e-05 -0.014963899273719126 0 3.4406776123620723e-05 -0.014933291261367021 0 4.4116252510328465e-05 -0.014936887428826512 0 1.1883092269303771e-05 -0.014963899273719126 0 2.2180194753670826e-05 -0.014944367153656072 0 3.4406776123620723e-05 -0.014933291261367021 0 2.2180194753670826e-05 -0.014944367153656072 0 3.4406776123620723e-05 -0.014933291261367021 0 2.1430032073105365e-05 -0.014930037244855476 0 3.4406776123620723e-05 -0.014933291261367021 0 2.9798302477437915e-05 -0.014903180324475563 0 2.1430032073105365e-05 -0.014930037244855476 0 5.2688916373545338e-05 -0.014904221211198053 0 2.9798302477437915e-05 -0.014903180324475563 0 4.4114638530458046e-05 -0.014845086671559237 0 3.4406776123620723e-05 -0.014933291261367021 0 5.2688916373545338e-05 -0.014904221211198053 0 2.9798302477437915e-05 -0.014903180324475563 0 3.4406776123620723e-05 -0.014933291261367021 0 5.2688916373545338e-05 -0.014904221211198053 0 4.4116252510328465e-05 -0.014936887428826512 0 1.1883092269303771e-05 -0.014963899273719126 0 4.4116252510328465e-05 -0.014936887428826512 0 3.3300013896257004e-08 -0.014999942719714202 0 1.1883092269303771e-05 -0.014963899273719126 0 -2.9044222585900137e-08 -0.014999934352238823 0 3.3300013896257004e-08 -0.014999942719714202 0 4.4116252510328465e-05 -0.014936887428826512 0 3.3300013896257004e-08 -0.014999942719714202 0 3.564435416328113e-08 -0.014999893674115495 0 4.4116252510328465e-05 -0.014936887428826512 0 3.1081793085764117e-05 -0.014943901809394018 0 3.564435416328113e-08 -0.014999893674115495 0 4.4116252510328465e-05 -0.014936887428826512 0 3.1081793085764117e-05 -0.014943901809394018 0 0.00011110996364451323 -0.014853383007985102 0 3.1081793085764117e-05 -0.014943901809394018 0 3.564435416328113e-08 -0.014999893674115495 0 -6.1942370175436523e-09 -0.01499999075825029 0 3.1081793085764117e-05 -0.014943901809394018 0 -6.1942370175436523e-09 -0.01499999075825029 0 4.4530008432262405e-05 -0.014994509058440075 0 3.1081793085764117e-05 -0.014943901809394018 0 4.4530008432262405e-05 -0.014994509058440075 0 0.00011110996364451323 -0.014853383007985102 0 3.1015868529432402e-05 -0.014839807786574621 0 0.00010821613066846441 -0.014808591313516509 0 3.7316453035523287e-05 -0.014659257488075865 0 0.00013874532029496735 -0.014623890971636045 0 0.00018880053588327505 -0.014615555182886788 0 7.0320779895729844e-06 -0.01500535072463241 0 -6.1942370175436523e-09 -0.01499999075825029 0 4.4530008432262405e-05 -0.014994509058440075 0 0.00024242455434630376 -0.014470826732954082 0 0.00017908682251818359 -0.014569936132634378 0 0.00011210713818585514 -0.014631000766120878 0 0.00018880053588327505 -0.014615555182886788 0 0.00017908682251818359 -0.014569936132634378 0 0.00011210713818585514 -0.014631000766120878 0 0.00013874532029496735 -0.014623890971636045 0 0.00018880053588327505 -0.014615555182886788 0 0.00017908682251818359 -0.014569936132634378 0 0.00010821613066846441 -0.014808591313516509 0 0.00011094125264366558 -0.014850520688947729 0 0.00018880053588327505 -0.014615555182886788 0 0.00011210713818585514 -0.014631000766120878 0 0.00011110996364451323 -0.014853383007985102 0 0.00011210713818585514 -0.014631000766120878 0 0.00011110996364451323 -0.014853383007985102 0 5.2987650258856078e-05 -0.014747043763529111 0 0.00011110996364451323 -0.014853383007985102 0 4.4114638530458046e-05 -0.014845086671559237 0 5.2987650258856078e-05 -0.014747043763529111 0 5.2688916373545338e-05 -0.014904221211198053 0 4.4116252510328465e-05 -0.014936887428826512 0 0.00011110996364451323 -0.014853383007985102 0 5.2688916373545338e-05 -0.014904221211198053 0 0.00011110996364451323 -0.014853383007985102 0 4.4114638530458046e-05 -0.014845086671559237 0 4.4114638530458046e-05 -0.014845086671559237 0 -2.0009120752003941e-05 -0.014768309591569023 0 -4.4310471416537936e-06 -0.014861424158236363 0 2.9798302477437915e-05 -0.014903180324475563 0 4.4114638530458046e-05 -0.014845086671559237 0 -4.4310471416537936e-06 -0.014861424158236363 0 -6.9496998474311722e-05 -0.014818635915846822 0 -2.0009120752003941e-05 -0.014768309591569023 0 -4.4310471416537936e-06 -0.014861424158236363 0 -6.9496998474311722e-05 -0.014818635915846822 0 -2.0009120752003941e-05 -0.014768309591569023 0 -0.00016410185501617466 -0.014726761684602629 0 -2.0009120752003941e-05 -0.014768309591569023 0 -3.859944760156054e-05 -0.014593639463860719 0 -0.00016410185501617466 -0.014726761684602629 0 4.4114638530458046e-05 -0.014845086671559237 0 -2.0009120752003941e-05 -0.014768309591569023 0 5.2987650258856078e-05 -0.014747043763529111 0 -2.0009120752003941e-05 -0.014768309591569023 0 5.2987650258856078e-05 -0.014747043763529111 0 -3.859944760156054e-05 -0.014593639463860719 0 0.00011210713818585514 -0.014631000766120878 0 5.2987650258856078e-05 -0.014747043763529111 0 -3.859944760156054e-05 -0.014593639463860719 0 -7.6772957892854178e-05 -0.014286746631658347 0 -3.859944760156054e-05 -0.014593639463860719 0 7.3249593805794198e-05 -0.014506287830917784 0 0.00011210713818585514 -0.014631000766120878 0 -3.859944760156054e-05 -0.014593639463860719 0 7.3249593805794198e-05 -0.014506287830917784 0 0.00024242455434630376 -0.014470826732954082 0 0.00011210713818585514 -0.014631000766120878 0 7.3249593805794198e-05 -0.014506287830917784 0 -0.00023580633013766991 -0.014346298495898717 0 -0.00021595697728424952 -0.014533055024019999 0 -0.00042008967184518307 -0.014351051041866132 0 -0.00023580633013766991 -0.014346298495898717 0 -7.6772957892854178e-05 -0.014286746631658347 0 -3.859944760156054e-05 -0.014593639463860719 0 -0.00023580633013766991 -0.014346298495898717 0 -3.859944760156054e-05 -0.014593639463860719 0 -0.00021595697728424952 -0.014533055024019999 0 -3.859944760156054e-05 -0.014593639463860719 0 -0.00021595697728424952 -0.014533055024019999 0 -0.00016410185501617466 -0.014726761684602629 0 -0.00021595697728424952 -0.014533055024019999 0 -0.00029898184954297414 -0.014610532872358993 0 -0.00016410185501617466 -0.014726761684602629 0 -0.00021595697728424952 -0.014533055024019999 0 -0.00029898184954297414 -0.014610532872358993 0 -0.00042008967184518307 -0.014351051041866132 0 -0.00029898184954297414 -0.014610532872358993 0 -0.00016410185501617466 -0.014726761684602629 0 -0.00031614172639917571 -0.014719318411260122 0 -6.9496998474311722e-05 -0.014818635915846822 0 -0.00016410185501617466 -0.014726761684602629 0 -0.00011983771509263852 -0.014856315190914867 0 -0.00016410185501617466 -0.014726761684602629 0 -0.00024554036227694915 -0.014816541133580285 0 -0.00031614172639917571 -0.014719318411260122 0 -0.00016410185501617466 -0.014726761684602629 0 -0.00024554036227694915 -0.014816541133580285 0 -0.00011983771509263852 -0.014856315190914867 0 -0.00024554036227694915 -0.014816541133580285 0 -0.00016744914296805462 -0.014895742811569105 0 -0.00011983771509263852 -0.014856315190914867 0 -0.00016744914296805462 -0.014895742811569105 0 -9.1484953480273258e-05 -0.014941699643602912 0 -0.00019408546443067237 -0.014974742037952578 0 -0.00016744914296805462 -0.014895742811569105 0 -9.1484953480273258e-05 -0.014941699643602912 0 -6.6411985907759117e-05 -0.014912443487838196 0 -9.1484953480273258e-05 -0.014941699643602912 0 -6.6411985907759117e-05 -0.014912443487838196 0 -3.3621846921710587e-05 -0.014941666521474753 0 -6.9496998474311722e-05 -0.014818635915846822 0 -0.00011983771509263852 -0.014856315190914867 0 -3.9034791103089219e-05 -0.014888109160663443 0 -0.00016744914296805462 -0.014895742811569105 0 -6.6411985907759117e-05 -0.014912443487838196 0 -0.00011983771509263852 -0.014856315190914867 0 -6.6411985907759117e-05 -0.014912443487838196 0 -0.00011983771509263852 -0.014856315190914867 0 -3.9034791103089219e-05 -0.014888109160663443 0 -6.9496998474311722e-05 -0.014818635915846822 0 -3.9034791103089219e-05 -0.014888109160663443 0 -4.4310471416537936e-06 -0.014861424158236363 0 -3.9034791103089219e-05 -0.014888109160663443 0 -4.4310471416537936e-06 -0.014861424158236363 0 3.3656985014147969e-06 -0.014908681765282913 0 2.9798302477437915e-05 -0.014903180324475563 0 -4.4310471416537936e-06 -0.014861424158236363 0 3.3656985014147969e-06 -0.014908681765282913 0 2.9798302477437915e-05 -0.014903180324475563 0 2.1430032073105365e-05 -0.014930037244855476 0 3.3656985014147969e-06 -0.014908681765282913 0 2.1430032073105365e-05 -0.014930037244855476 0 3.3656985014147969e-06 -0.014908681765282913 0 -6.0670854093031927e-06 -0.014932058617611448 0 -6.6411985907759117e-05 -0.014912443487838196 0 -6.0670854093031927e-06 -0.014932058617611448 0 -3.3621846921710587e-05 -0.014941666521474753 0 -3.9034791103089219e-05 -0.014888109160663443 0 3.3656985014147969e-06 -0.014908681765282913 0 -6.0670854093031927e-06 -0.014932058617611448 0 -6.6411985907759117e-05 -0.014912443487838196 0 -3.9034791103089219e-05 -0.014888109160663443 0 -6.0670854093031927e-06 -0.014932058617611448 0 -6.0670854093031927e-06 -0.014932058617611448 0 1.5760327994067985e-06 -0.014930198830529666 0 -3.3621846921710587e-05 -0.014941666521474753 0 -6.0670854093031927e-06 -0.014932058617611448 0 1.3801114315858065e-05 -0.014932246181312284 0 1.5760327994067985e-06 -0.014930198830529666 0 2.1430032073105365e-05 -0.014930037244855476 0 -6.0670854093031927e-06 -0.014932058617611448 0 2.0990112370973807e-05 -0.014936441042637591 0 -6.0670854093031927e-06 -0.014932058617611448 0 1.3801114315858065e-05 -0.014932246181312284 0 2.0990112370973807e-05 -0.014936441042637591 0 1.3801114315858065e-05 -0.014932246181312284 0 2.0990112370973807e-05 -0.014936441042637591 0 2.9849265921962295e-05 -0.014930502908297699 0 1.3801114315858065e-05 -0.014932246181312284 0 2.9849265921962295e-05 -0.014930502908297699 0 4.2963522573610898e-05 -0.01492221143007615 0 2.5174460255408126e-05 -0.014933832115289272 0 2.0990112370973807e-05 -0.014936441042637591 0 2.9849265921962295e-05 -0.014930502908297699 0 2.9849265921962295e-05 -0.014930502908297699 0 4.2963522573610898e-05 -0.01492221143007615 0 3.5493485464021325e-05 -0.014910952263371149 0 1.5760327994067985e-06 -0.014930198830529666 0 5.3889778052755313e-05 -0.014694012472216522 0 2.1072170480193318e-05 -0.014585956168869348 0 2.7395647992110752e-05 -0.014916446377514903 0 2.6585232195434704e-05 -0.014763497742215357 0 1.5760327994067985e-06 -0.014930198830529666 0 5.3889778052755313e-05 -0.014694012472216522 0 -1.5751669539297616e-05 -0.014977086892023915 0 1.3801114315858065e-05 -0.014932246181312284 0 1.5760327994067985e-06 -0.014930198830529666 0 4.2963522573610898e-05 -0.01492221143007615 0 5.3889778052755313e-05 -0.014694012472216522 0 0.00050793076671267498 -0.014871996780305501 0 0.00027957488681835415 -0.014587076650567767 0 4.1980409989351362e-05 -0.014710220101838908 0 0.0002332278941350936 -0.014904632520834965 0 0.00050793076671267498 -0.014871996780305501 0 0.00047853968729951558 -0.01454578052929272 0 0.00027957488681835415 -0.014587076650567767 0 0.00069327846718868083 -0.01472187310656012 0 0.00050793076671267498 -0.014871996780305501 0 0.00047853968729951558 -0.01454578052929272 0 0.00069327846718868083 -0.01472187310656012 0 0.0007028865543866476 -0.014503124521390067 0 0.00047853968729951558 -0.01454578052929272 0 0.00069327846718868083 -0.01472187310656012 0 0.00088754589036792609 -0.015020884660043147 0 0.00093644935064494776 -0.014646917642540707 0 0.00069327846718868083 -0.01472187310656012 0 0.00093644935064494776 -0.014646917642540707 0 0.0007028865543866476 -0.014503124521390067 0 0.00069327846718868083 -0.01472187310656012 0 0.00088754589036792609 -0.015020884660043147 0 0.00050793076671267498 -0.014871996780305501 0 -9.1484953480273258e-05 -0.014941699643602912 0 -0.00019408546443067237 -0.014974742037952578 0 -1.5751669539297616e-05 -0.014977086892023915 0 0.00033625227884168243 -0.014980728173729863 0 0.0002332278941350936 -0.014904632520834965 0 -9.1484953480273258e-05 -0.014941699643602912 0 -3.3621846921710587e-05 -0.014941666521474753 0 -1.5751669539297616e-05 -0.014977086892023915 0 1.5760327994067985e-06 -0.014930198830529666 0 -3.3621846921710587e-05 -0.014941666521474753 0 -1.5751669539297616e-05 -0.014977086892023915 0 0.0012270142141251356 -0.014836474974874942 0 0.0014782693916741605 -0.014704045467873376 0 0.0015203716579848916 -0.014925543635544929 0 0.00088754589036792609 -0.015020884660043147 0 0.0012270142141251356 -0.014836474974874942 0 0.00093644935064494776 -0.014646917642540707 0 0.0012270142141251356 -0.014836474974874942 0 0.00093644935064494776 -0.014646917642540707 0 0.0012397500643518103 -0.014538056829314741 0 0.0012397500643518103 -0.014538056829314741 0 0.0014782693916741605 -0.014704045467873376 0 0.0016387128995875998 -0.014530891069332275 0 0.0012270142141251356 -0.014836474974874942 0 0.0012397500643518103 -0.014538056829314741 0 0.0014782693916741605 -0.014704045467873376 0 0.0016387128995875998 -0.014530891069332275 0 0.0018108544703081173 -0.014634597548771593 0 0.0018295767166414264 -0.01442196983771506 0 0.0016387128995875998 -0.014530891069332275 0 0.0018108544703081173 -0.014634597548771593 0 0.0016978524334627489 -0.014715701931824891 0 0.0014782693916741605 -0.014704045467873376 0 0.0016387128995875998 -0.014530891069332275 0 0.0016978524334627489 -0.014715701931824891 0 0.0019610835717707481 -0.014573332083015363 0 0.0020424114115081813 -0.014429703579113657 0 0.0018295767166414264 -0.01442196983771506 0 0.0019610835717707481 -0.014573332083015363 0 0.0018108544703081173 -0.014634597548771593 0 0.0018295767166414264 -0.01442196983771506 0 0.0019610835717707481 -0.014573332083015363 0 0.0018108544703081173 -0.014634597548771593 0 0.0018846130637524521 -0.01477026222964284 0 0.0019228556547964909 -0.014655102676588962 0 0.0017554335255430119 -0.014804411555418883 0 0.0017659865898874813 -0.015103272830095537 0 0.0018846130637524521 -0.01477026222964284 0 0.0019228556547964909 -0.014655102676588962 0 0.0015519669429530729 -0.014579255321147743 0 0.0018846130637524521 -0.01477026222964284 0 0.0018363694149355471 -0.01472069494391613 0 0.0019228556547964909 -0.014655102676588962 0 0.0018108544703081173 -0.014634597548771593 0 0.0018846130637524521 -0.01477026222964284 0 0.0018363694149355471 -0.01472069494391613 0 0.0018108544703081173 -0.014634597548771593 0 0.0018363694149355471 -0.01472069494391613 0 0.0016978524334627489 -0.014715701931824891 0 0.0018363694149355471 -0.01472069494391613 0 0.0019228556547964909 -0.014655102676588962 0 0.0017554335255430119 -0.014804411555418883 0 0.0019228556547964909 -0.014655102676588962 0 0.0017409721995312072 -0.014048227023054133 0 0.0015519669429530729 -0.014579255321147743 0 0.0014782693916741605 -0.014704045467873376 0 0.0016978524334627489 -0.014715701931824891 0 0.0015203716579848916 -0.014925543635544929 0 0.0018363694149355471 -0.01472069494391613 0 0.0016978524334627489 -0.014715701931824891 0 0.0017554335255430119 -0.014804411555418883 0 0.0016978524334627489 -0.014715701931824891 0 0.0017554335255430119 -0.014804411555418883 0 0.0015203716579848916 -0.014925543635544929 0 0.0017659865898874813 -0.015103272830095537 0 0.0015260536953764668 -0.01514912883986343 0 0.0015863582894898802 -0.015385594474992152 0 0.0015203716579848916 -0.014925543635544929 0 0.0017659865898874813 -0.015103272830095537 0 0.0015260536953764668 -0.01514912883986343 0 0.0017554335255430119 -0.014804411555418883 0 0.0015203716579848916 -0.014925543635544929 0 0.0017659865898874813 -0.015103272830095537 0 0.0019228556547964909 -0.014655102676588962 0 0.0024256631498971583 -0.013832369796009861 0 0.0017409721995312072 -0.014048227023054133 0 0.001920767674286366 -0.014689215814132371 0 0.0021772069914372631 -0.0143578884062816 0 0.0024256631498971583 -0.013832369796009861 0 0.0017409721995312072 -0.014048227023054133 0 0.0018612534361883326 -0.013477880272957762 0 0.0020871233923897585 -0.012922419434674931 0 0.0028655800826595068 -0.013088294901181647 0 0.0018365741138195537 -0.012389207211109785 0 0.0024256631498971583 -0.013832369796009861 0 0.0018612534361883326 -0.013477880272957762 0 0.0020871233923897585 -0.012922419434674931 0 0.0018612534361883326 -0.013477880272957762 0 0.0020871233923897585 -0.012922419434674931 0 0.0016125249378055137 -0.013067268259199249 0 0.0020871233923897585 -0.012922419434674931 0 0.0014164143025587423 -0.012421280683726511 0 0.0016125249378055137 -0.013067268259199249 0 0.0024256631498971583 -0.013832369796009861 0 0.0020871233923897585 -0.012922419434674931 0 0.0028655800826595068 -0.013088294901181647 0 0.0021772069914372631 -0.0143578884062816 0 0.00077420026594604801 -0.01426119993910077 0 0.00077420026594604801 -0.01426119993910077 0 0.00045606808606147957 -0.015144615641907362 0 0.0015260536953764668 -0.01514912883986343 0 0.0015863582894898802 -0.015385594474992152 0 0.0012361992801239712 -0.015179367075691369 0 -0.00045130288149904113 -0.014839229989774758 0 -0.00036536496791342711 -0.014814738723355363 0 -0.00033958902460733977 -0.014913574599879709 0 0.0015203716579848916 -0.014925543635544929 0 0.0015260536953764668 -0.01514912883986343 0 0.0012361992801239712 -0.015179367075691369 0 0.0012270142141251356 -0.014836474974874942 0 0.0015203716579848916 -0.014925543635544929 0 0.0012361992801239712 -0.015179367075691369 0 0.00033625227884168243 -0.014980728173729863 0 0.00045606808606147957 -0.015144615641907362 0 0.00088754589036792609 -0.015020884660043147 0 0.0012270142141251356 -0.014836474974874942 0 0.0012361992801239712 -0.015179367075691369 0 -0.00016744914296805462 -0.014895742811569105 0 -0.00019408546443067237 -0.014974742037952578 0 -0.00033958902460733977 -0.014913574599879709 0 -0.00024554036227694915 -0.014816541133580285 0 -0.00016744914296805462 -0.014895742811569105 0 -0.00033958902460733977 -0.014913574599879709 0 -0.00024554036227694915 -0.014816541133580285 0 -0.00036536496791342711 -0.014814738723355363 0 -0.00033958902460733977 -0.014913574599879709 0 -0.00024554036227694915 -0.014816541133580285 0 -0.00036536496791342711 -0.014814738723355363 0 -0.00031614172639917571 -0.014719318411260122 0 -0.00036536496791342711 -0.014814738723355363 0 -0.00041272794051274564 -0.014733316772353981 0 -0.00031614172639917571 -0.014719318411260122 0 0.00077420026594604801 -0.01426119993910077 0 -0.00056507731140438685 -0.014436125445315128 0 -0.00045130288149904113 -0.014839229989774758 0 -0.00036536496791342711 -0.014814738723355363 0 -0.00041272794051274564 -0.014733316772353981 0 -0.00041270141441079416 -0.013996055081905356 0 -0.00048116424192581718 -0.014182913677238918 0 -0.00035123599777652647 -0.014145261895424156 0 -0.00056507731140438685 -0.014436125445315128 0 -0.00041354294252224556 -0.014359195905807079 0 -0.00029898184954297414 -0.014610532872358993 0 -0.00031614172639917571 -0.014719318411260122 0 -0.00041130012615525695 -0.01460207133094233 0 -0.00041272794051274564 -0.014733316772353981 0 -0.00031614172639917571 -0.014719318411260122 0 -0.00041130012615525695 -0.01460207133094233 0 -0.00029898184954297414 -0.014610532872358993 0 -0.00041130012615525695 -0.01460207133094233 0 -0.00042008967184518307 -0.014351051041866132 0 -0.00041354294252224556 -0.014359195905807079 0 -0.00042292095751416466 -0.014351142550284574 0 -0.00048116424192581718 -0.014182913677238918 0 -0.00040993034805980561 -0.014228627612853626 0 -0.00035123599777652647 -0.014145261895424156 0 -0.00046528952275499882 -0.014278968915292052 0 -0.00040993034805980561 -0.014228627612853626 0 -0.00038628122183554921 -0.014281764977438615 0 -0.00048116424192581718 -0.014182913677238918 0 -0.00046528952275499882 -0.014278968915292052 0 -0.00040993034805980561 -0.014228627612853626 0 -0.00046914386954672086 -0.014233680332432002 0 -0.00046528952275499882 -0.014278968915292052 0 -0.00042008967184518307 -0.014351051041866132 0 -0.00048116424192581718 -0.014182913677238918 0 -0.00046528952275499882 -0.014278968915292052 0 -0.00042008967184518307 -0.014351051041866132 0 0.00073146549350689468 -0.010709430865725234 0 0.00060402409991956306 -0.011095037823894018 0 0.00070159156158703555 -0.010703671303690843 0 0.00013405680833130314 -0.0126610330405741 0 0.00021536993622830279 -0.012551555421600035 0 0.00073146549350689468 -0.010709430865725234 0 0.00070159156158703555 -0.010703671303690843 0 0.00054704766310318916 -0.010673044118437561 0 -0.00038628122183554921 -0.014281764977438615 0 -0.0003318414364875407 -0.014204498705144751 0 -0.00017128245478177808 -0.014172294552670094 0 -0.00040993034805980561 -0.014228627612853626 0 -0.00038628122183554921 -0.014281764977438615 0 -0.0003318414364875407 -0.014204498705144751 0 -0.0003318414364875407 -0.014204498705144751 0 -0.00035123599777652647 -0.014145261895424156 0 -0.00027880747746397418 -0.014157601194082596 0 -0.00040993034805980561 -0.014228627612853626 0 -0.0003318414364875407 -0.014204498705144751 0 -0.00035123599777652647 -0.014145261895424156 0 -0.00035123599777652647 -0.014145261895424156 0 -0.00027880747746397418 -0.014157601194082596 0 -0.00023359341816821328 -0.014091688770830661 0 -0.00027880747746397418 -0.014157601194082596 0 -0.00017128245478177808 -0.014172294552670094 0 -0.00023359341816821328 -0.014091688770830661 0 -0.00017128245478177808 -0.014172294552670094 0 -0.00023359341816821328 -0.014091688770830661 0 -0.00013074288105519656 -0.014040492269429954 0 -0.0003318414364875407 -0.014204498705144751 0 -0.00027880747746397418 -0.014157601194082596 0 -0.00017128245478177808 -0.014172294552670094 0 -0.00023359341816821328 -0.014091688770830661 0 -0.00020239323572287401 -0.013999829744861237 0 -0.00013074288105519656 -0.014040492269429954 0 -0.00023359341816821328 -0.014091688770830661 0 -0.00020239323572287401 -0.013999829744861237 0 -0.00028986898615339054 -0.014029519992250833 0 -0.00020239323572287401 -0.013999829744861237 0 -0.00013959742079449992 -0.013990992850380858 0 -0.00013074288105519656 -0.014040492269429954 0 -0.00041270141441079416 -0.013996055081905356 0 -0.00035123599777652647 -0.014145261895424156 0 -0.00028986898615339054 -0.014029519992250833 0 -0.00035123599777652647 -0.014145261895424156 0 -0.00023359341816821328 -0.014091688770830661 0 -0.00028986898615339054 -0.014029519992250833 0 -0.00020239323572287401 -0.013999829744861237 0 -0.00028986898615339054 -0.014029519992250833 0 -0.00027142661546513606 -0.013944890006548548 0 -0.000312240686992951 -0.013832347511438607 0 -0.00041270141441079416 -0.013996055081905356 0 -0.00027142661546513606 -0.013944890006548548 0 -0.00041270141441079416 -0.013996055081905356 0 -0.00028986898615339054 -0.014029519992250833 0 -0.00027142661546513606 -0.013944890006548548 0 -0.000312240686992951 -0.013832347511438607 0 -0.00027142661546513606 -0.013944890006548548 0 -0.000160005412763272 -0.013921750171259434 0 0.00077420026594604801 -0.01426119993910077 0 0.00093735830267407244 -0.013181461256992207 0 -0.00013959742079449992 -0.013990992850380858 0 -0.000160005412763272 -0.013921750171259434 0 -9.3873204904863626e-05 -0.01399299197890615 0 -0.00020239323572287401 -0.013999829744861237 0 -0.00013959742079449992 -0.013990992850380858 0 -0.000160005412763272 -0.013921750171259434 0 -0.00020239323572287401 -0.013999829744861237 0 -0.00027142661546513606 -0.013944890006548548 0 -0.000160005412763272 -0.013921750171259434 0 0.0020871233923897585 -0.012922419434674931 0 0.0018365741138195537 -0.012389207211109785 0 0.0013195182995571699 -0.012387194648417945 0 0.0019705497593430505 -0.012836148086720315 0 0.0014748717967461127 -0.012516928055953671 0 0.00093735830267407244 -0.013181461256992207 0 0.00031319377672291268 -0.012010651044971891 0 0.0018365741138195537 -0.012389207211109785 0 0.0013195182995571699 -0.012387194648417945 0 0.00072794154267776402 -0.011640620815462932 0 0.0014164143025587423 -0.012421280683726511 0 0.0010249787462000169 -0.012630157205040543 0 0.0012017766087931477 -0.013033067224127108 0 0.0014164143025587423 -0.012421280683726511 0 0.0010249787462000169 -0.012630157205040543 0 0.00074096570501046245 -0.011914901621316625 0 0.0014748717967461127 -0.012516928055953671 0 0.0010342304593351269 -0.01002337059295313 0 0.00057872808553385553 -0.01250283620206853 0 0.00074096570501046245 -0.011914901621316625 0 -0.00026618431292068192 -0.012822288132198798 0 0.00057872808553385553 -0.01250283620206853 0 -0.00026618431292068192 -0.012822288132198798 0 0.00067545494662879979 -0.012872429948295768 0 0.0010249787462000169 -0.012630157205040543 0 0.00057872808553385553 -0.01250283620206853 0 0.00067545494662879979 -0.012872429948295768 0 0.0010249787462000169 -0.012630157205040543 0 0.00057872808553385553 -0.01250283620206853 0 0.00074096570501046245 -0.011914901621316625 0 0.00023791428630729969 -0.010988211603819024 0 4.5655384107042596e-05 -0.010778312721992443 0 -3.8710636515662288e-05 -0.010800133278893148 0 0.0025696644680791112 -0.0063639675467561142 0 0.0017841690894604741 -0.0057658383087791669 0 0.0019765350295951512 -0.006157690967864741 0 0.0010342304593351269 -0.01002337059295313 0 0.00082551805387200562 -0.0082296280452119931 0 0.0025696644680791112 -0.0063639675467561142 0 0.0019765350295951512 -0.006157690967864741 0 0.0020408192785311297 -0.0065222261010041043 0 0.0010342304593351269 -0.01002337059295313 0 0.00031319377672291268 -0.012010651044971891 0 0.00033275254044009054 -0.011107623832343242 0 0.00035919687337490261 -0.010865143888177043 0 0.00025578848420317664 -0.010905733406132351 0 0.00023791428630729969 -0.010988211603819024 0 0.0002982781535072403 -0.010935403408284854 0 4.5655384107042596e-05 -0.010778312721992443 0 0.00031319377672291268 -0.012010651044971891 0 -2.7810996919496414e-05 -0.010779099298336651 0 0.00033275254044009054 -0.011107623832343242 0 0.00025578848420317664 -0.010905733406132351 0 5.1733654699470792e-05 -0.010902123017573101 0 -0.000160005412763272 -0.013921750171259434 0 7.9444189289414591e-06 -0.014004173060019 0 -9.3873204904863626e-05 -0.01399299197890615 0 -0.00017128245478177808 -0.014172294552670094 0 7.9444189289414591e-06 -0.014004173060019 0 -0.00013074288105519656 -0.014040492269429954 0 7.9444189289414591e-06 -0.014004173060019 0 -9.3873204904863626e-05 -0.01399299197890615 0 -0.00013074288105519656 -0.014040492269429954 0 0.00033275254044009054 -0.011107623832343242 0 0.0005380709122975296 -0.010783770932991156 0 0.00035919687337490261 -0.010865143888177043 0 -0.00013959742079449992 -0.013990992850380858 0 -9.3873204904863626e-05 -0.01399299197890615 0 -0.00013074288105519656 -0.014040492269429954 0 0.0013195182995571699 -0.012387194648417945 0 0.0005343316201232084 -0.011814842688661958 0 0.00072794154267776402 -0.011640620815462932 0 0.00070159156158703555 -0.010703671303690843 0 0.00033275254044009054 -0.011107623832343242 0 0.0005380709122975296 -0.010783770932991156 0 0.00021536993622830279 -0.012551555421600035 0 0.00031319377672291268 -0.012010651044971891 0 0.00040538228755959135 -0.010752590523402557 0 0.00023266397743468124 -0.01062658853256308 0 0.00054704766310318916 -0.010673044118437561 0 0.00070159156158703555 -0.010703671303690843 0 0.0005380709122975296 -0.010783770932991156 0 0.00054704766310318916 -0.010673044118437561 0 0.0005380709122975296 -0.010783770932991156 0 0.00040538228755959135 -0.010752590523402557 0 0.00054704766310318916 -0.010673044118437561 0 0.0005380709122975296 -0.010783770932991156 0 0.00040538228755959135 -0.010752590523402557 0 0.00035919687337490261 -0.010865143888177043 0 0.00035919687337490261 -0.010865143888177043 0 0.00025578848420317664 -0.010905733406132351 0 0.00027052753153346737 -0.010785192550332487 0 0.00025578848420317664 -0.010905733406132351 0 0.00027052753153346737 -0.010785192550332487 0 0.0001476961033971213 -0.010752738330895227 0 0.00040538228755959135 -0.010752590523402557 0 0.00035919687337490261 -0.010865143888177043 0 0.00027052753153346737 -0.010785192550332487 0 0.00025578848420317664 -0.010905733406132351 0 0.0001476961033971213 -0.010752738330895227 0 5.1733654699470792e-05 -0.010902123017573101 0 0.0001476961033971213 -0.010752738330895227 0 0.00023266397743468124 -0.01062658853256308 0 6.9799414069081676e-05 -0.010568838732737097 0 0.00027052753153346737 -0.010785192550332487 0 0.0001476961033971213 -0.010752738330895227 0 0.00023266397743468124 -0.01062658853256308 0 0.00040538228755959135 -0.010752590523402557 0 0.00027052753153346737 -0.010785192550332487 0 0.00023266397743468124 -0.01062658853256308 0 0.00023266397743468124 -0.01062658853256308 0 0.00018030039788392377 -0.01043646288951877 0 6.9799414069081676e-05 -0.010568838732737097 0 -6.6700511009522234e-06 -0.010344911777080357 0 0.00018030039788392377 -0.01043646288951877 0 6.9799414069081676e-05 -0.010568838732737097 0 0.00023266397743468124 -0.01062658853256308 0 0.00018030039788392377 -0.01043646288951877 0 0.00038531490365205557 -0.010461845321988912 0 0.00061476487373408732 -0.010136217551990345 0 0.00073146549350689468 -0.010709430865725234 0 0.00038531490365205557 -0.010461845321988912 0 0.00073146549350689468 -0.010709430865725234 0 0.00038531490365205557 -0.010461845321988912 0 0.00054704766310318916 -0.010673044118437561 0 0.00023266397743468124 -0.01062658853256308 0 0.00038531490365205557 -0.010461845321988912 0 0.00054704766310318916 -0.010673044118437561 0 -0.00022370543136038585 -0.0103949298967993 0 -0.00011198474227042299 -0.010557241091379843 0 -0.00028920533946136685 -0.010661457964076391 0 0.00014777061199056901 -0.0078297045492616325 0 0.00079107648318004875 -0.007071950605555999 0 0.00054440571059037905 -0.0050409296514919138 0 0.00061186443531129693 -0.004948083235188981 0 0.00060021117832537759 -0.0050921375339936922 0 0.00054440571059037905 -0.0050409296514919138 0 0.00061186443531129693 -0.004948083235188981 0 0.0004644089333674405 -0.0048898221518630519 0 -6.6700511009522234e-06 -0.010344911777080357 0 -0.00022370543136038585 -0.0103949298967993 0 -0.00011198474227042299 -0.010557241091379843 0 -6.6700511009522234e-06 -0.010344911777080357 0 6.9799414069081676e-05 -0.010568838732737097 0 -0.00011198474227042299 -0.010557241091379843 0 6.9799414069081676e-05 -0.010568838732737097 0 -0.00011198474227042299 -0.010557241091379843 0 -6.6019358705701185e-06 -0.010687576035658019 0 -0.00018863058839646601 -0.01067484656959459 0 -0.00028920533946136685 -0.010661457964076391 0 -3.8710636515662288e-05 -0.010800133278893148 0 0.00079107648318004875 -0.007071950605555999 0 0.00082551805387200562 -0.0082296280452119931 0 -0.00011198474227042299 -0.010557241091379843 0 -6.6019358705701185e-06 -0.010687576035658019 0 -0.00018863058839646601 -0.01067484656959459 0 0.0013135075387461792 -0.0056883882802966851 0 0.0009783644863019783 -0.0051739468731476128 0 0.0017841690894604741 -0.0057658383087791669 0 0.0001476961033971213 -0.010752738330895227 0 6.9799414069081676e-05 -0.010568838732737097 0 -6.6019358705701185e-06 -0.010687576035658019 0 -6.6019358705701185e-06 -0.010687576035658019 0 5.1733654699470792e-05 -0.010902123017573101 0 -0.00018863058839646601 -0.01067484656959459 0 0.0001476961033971213 -0.010752738330895227 0 -6.6019358705701185e-06 -0.010687576035658019 0 5.1733654699470792e-05 -0.010902123017573101 0 4.5655384107042596e-05 -0.010778312721992443 0 -0.00018863058839646601 -0.01067484656959459 0 -3.8710636515662288e-05 -0.010800133278893148 0 -2.7810996919496414e-05 -0.010779099298336651 0 -0.00012898242037453339 -0.010717294739977953 0 0.0013135075387461792 -0.0056883882802966851 0 0.0010387592295071945 -0.0055291999732882185 0 0.0009783644863019783 -0.0051739468731476128 0 0.0010387592295071945 -0.0055291999732882185 0 0.00089400969786265349 -0.0054456075154396422 0 0.00097368028131910971 -0.0057995859999629184 0 0.0013135075387461792 -0.0056883882802966851 0 0.0010387592295071945 -0.0055291999732882185 0 0.00097368028131910971 -0.0057995859999629184 0 0.0010387592295071945 -0.0055291999732882185 0 0.0009783644863019783 -0.0051739468731476128 0 0.00089400969786265349 -0.0054456075154396422 0 -0.00011198474227042299 -0.010557241091379843 0 -0.00018863058839646601 -0.01067484656959459 0 -0.00028920533946136685 -0.010661457964076391 0 0.00054440571059037905 -0.0050409296514919138 0 0.00092514596177621861 -0.0052188267510165426 0 0.00060804214966354506 -0.0052940283470390087 0 0.00017737653865876893 -0.0055117633729249585 0 0.00079107648318004875 -0.007071950605555999 0 0.00092514596177621861 -0.0052188267510165426 0 0.00089400969786265349 -0.0054456075154396422 0 0.00060804214966354506 -0.0052940283470390087 0 0.00089400969786265349 -0.0054456075154396422 0 0.00060804214966354506 -0.0052940283470390087 0 0.00058931368750195375 -0.0057034597489688636 0 0.00089400969786265349 -0.0054456075154396422 0 0.00097368028131910971 -0.0057995859999629184 0 0.00058931368750195375 -0.0057034597489688636 0 0.00079107648318004875 -0.007071950605555999 0 0.0010326902546539236 -0.0058829970051687856 0 0.00097368028131910971 -0.0057995859999629184 0 0.00079862596413761726 -0.0062417818292973349 0 0.00058931368750195375 -0.0057034597489688636 0 0.0013135075387461792 -0.0056883882802966851 0 0.00097368028131910971 -0.0057995859999629184 0 0.0012999281265702036 -0.0059304301472841324 0 0.00097368028131910971 -0.0057995859999629184 0 0.0012999281265702036 -0.0059304301472841324 0 0.0011845932027043035 -0.0061589090055216896 0 0.0011845932027043035 -0.0061589090055216896 0 0.00079862596413761726 -0.0062417818292973349 0 0.0011318436699081459 -0.0065199030566162027 0 0.00097368028131910971 -0.0057995859999629184 0 0.0011845932027043035 -0.0061589090055216896 0 0.00079862596413761726 -0.0062417818292973349 0 0.0012999281265702036 -0.0059304301472841324 0 0.0011845932027043035 -0.0061589090055216896 0 0.0015141091512606679 -0.0061239682769333725 0 0.0011845932027043035 -0.0061589090055216896 0 0.0014829264487533681 -0.0065376884138586885 0 0.0011318436699081459 -0.0065199030566162027 0 0.0017841690894604741 -0.0057658383087791669 0 0.0017218676927748865 -0.0060414678839994934 0 0.0019765350295951512 -0.006157690967864741 0 0.0013135075387461792 -0.0056883882802966851 0 0.0017841690894604741 -0.0057658383087791669 0 0.0015335922480433479 -0.0059005162101682853 0 0.0017841690894604741 -0.0057658383087791669 0 0.0017218676927748865 -0.0060414678839994934 0 0.0015335922480433479 -0.0059005162101682853 0 0.0017218676927748865 -0.0060414678839994934 0 0.0015335922480433479 -0.0059005162101682853 0 0.0015141091512606679 -0.0061239682769333725 0 0.0013135075387461792 -0.0056883882802966851 0 0.0012999281265702036 -0.0059304301472841324 0 0.0015335922480433479 -0.0059005162101682853 0 0.0012999281265702036 -0.0059304301472841324 0 0.0015335922480433479 -0.0059005162101682853 0 0.0015141091512606679 -0.0061239682769333725 0 0.0015141091512606679 -0.0061239682769333725 0 0.0017284275816094076 -0.0062702038073691327 0 0.0014829264487533681 -0.0065376884138586885 0 0.0011845932027043035 -0.0061589090055216896 0 0.0015141091512606679 -0.0061239682769333725 0 0.0014829264487533681 -0.0065376884138586885 0 0.0017284275816094076 -0.0062702038073691327 0 0.0018043179985917793 -0.0065137388435162862 0 0.0014829264487533681 -0.0065376884138586885 0 0.0017218676927748865 -0.0060414678839994934 0 0.0015141091512606679 -0.0061239682769333725 0 0.0017284275816094076 -0.0062702038073691327 0 0.0017218676927748865 -0.0060414678839994934 0 0.0017284275816094076 -0.0062702038073691327 0 0.0019765350295951512 -0.006157690967864741 0 0.0017284275816094076 -0.0062702038073691327 0 0.0019765350295951512 -0.006157690967864741 0 0.0018043179985917793 -0.0065137388435162862 0 0.0019765350295951512 -0.006157690967864741 0 0.0020408192785311297 -0.0065222261010041043 0 0.0018043179985917793 -0.0065137388435162862 0 0.0020408192785311297 -0.0065222261010041043 0 0.0018043179985917793 -0.0065137388435162862 0 0.0015289624478106293 -0.0073117179949104558 0 0.0014829264487533681 -0.0065376884138586885 0 0.0013217337064218891 -0.006872342941261822 0 0.0015289624478106293 -0.0073117179949104558 0 0.0025696644680791112 -0.0063639675467561142 0 0.0020408192785311297 -0.0065222261010041043 0 0.0015289624478106293 -0.0073117179949104558 0 0.0010342304593351269 -0.01002337059295313 0 0.0010454579898099112 -0.0092711432162429566 0 0.0018043179985917793 -0.0065137388435162862 0 0.0014829264487533681 -0.0065376884138586885 0 0.0015289624478106293 -0.0073117179949104558 0 0.00085315081413032598 -0.0071021339284171878 0 0.0010454579898099112 -0.0092711432162429566 0 0.00086569723948331351 -0.0069261748698945195 0 0.00058872527660434036 -0.0079974380247596205 0 0.00028496607536403136 -0.0065483056549519372 0 0.00079862596413761726 -0.0062417818292973349 0 0.00086569723948331351 -0.0069261748698945195 0 0.00028496607536403136 -0.0065483056549519372 0 0.00079862596413761726 -0.0062417818292973349 0 0.0011318436699081459 -0.0065199030566162027 0 0.00086569723948331351 -0.0069261748698945195 0 0.0011318436699081459 -0.0065199030566162027 0 0.0013217337064218891 -0.006872342941261822 0 0.00086569723948331351 -0.0069261748698945195 0 0.0014829264487533681 -0.0065376884138586885 0 0.0011318436699081459 -0.0065199030566162027 0 0.0013217337064218891 -0.006872342941261822 0 0.0013217337064218891 -0.006872342941261822 0 0.0010743262884021776 -0.0073863361040566525 0 0.0015626301551878885 -0.0073479894523793797 0 0.0013217337064218891 -0.006872342941261822 0 0.00086569723948331351 -0.0069261748698945195 0 0.0010743262884021776 -0.0073863361040566525 0 0.00086569723948331351 -0.0069261748698945195 0 0.0010743262884021776 -0.0073863361040566525 0 0.00058872527660434036 -0.0079974380247596205 0 0.0010382584316439396 -0.0078214218126999354 0 0.0020422206913509903 -0.0086319529557356139 0 0.0008848111689516799 -0.0092406475578145492 0 0.0010382584316439396 -0.0078214218126999354 0 0.00058872527660434036 -0.0079974380247596205 0 0.0008848111689516799 -0.0092406475578145492 0 0.0010743262884021776 -0.0073863361040566525 0 0.0010382584316439396 -0.0078214218126999354 0 0.0015626301551878885 -0.0073479894523793797 0 0.0015403790444540354 -0.0076358578357837176 0 0.0010454579898099112 -0.0092711432162429566 0 0.0010743262884021776 -0.0073863361040566525 0 0.0010382584316439396 -0.0078214218126999354 0 0.00058872527660434036 -0.0079974380247596205 0 0.00065056572782126081 -0.0070517588611520516 0 0.00087545054537696467 -0.0080578294633383372 0 0.0010382584316439396 -0.0078214218126999354 0 0.0014688199961456745 -0.0074430446107909892 0 0.0020422206913509903 -0.0086319529557356139 0 0.0010454579898099112 -0.0092711432162429566 0 0.0011836777338368177 -0.011584936349470798 0 -0.00026618431292068192 -0.012822288132198798 0 0.00034295299996025495 -0.014068477911959899 0 0.00072658806300532645 -0.013506783711995431 0 -0.00026618431292068192 -0.012822288132198798 0 0.00067545494662879979 -0.012872429948295768 0 0.00072658806300532645 -0.013506783711995431 0 0.0010249787462000169 -0.012630157205040543 0 0.00067545494662879979 -0.012872429948295768 0 0.0012017766087931477 -0.013033067224127108 0 0.00067545494662879979 -0.012872429948295768 0 0.0012017766087931477 -0.013033067224127108 0 0.00072658806300532645 -0.013506783711995431 0 0.0014164143025587423 -0.012421280683726511 0 0.0016125249378055137 -0.013067268259199249 0 0.0012017766087931477 -0.013033067224127108 0 0.0012017766087931477 -0.013033067224127108 0 0.0014053760477987399 -0.013589704909681723 0 0.00072658806300532645 -0.013506783711995431 0 0.0016125249378055137 -0.013067268259199249 0 0.0012017766087931477 -0.013033067224127108 0 0.0014053760477987399 -0.013589704909681723 0 0.0018612534361883326 -0.013477880272957762 0 0.0016125249378055137 -0.013067268259199249 0 0.0014053760477987399 -0.013589704909681723 0 0.0017409721995312072 -0.014048227023054133 0 0.0018612534361883326 -0.013477880272957762 0 0.0014053760477987399 -0.013589704909681723 0 0.0014053760477987399 -0.013589704909681723 0 0.001144754932840594 -0.014179116537153376 0 0.00072658806300532645 -0.013506783711995431 0 0.0017409721995312072 -0.014048227023054133 0 0.0014053760477987399 -0.013589704909681723 0 0.001144754932840594 -0.014179116537153376 0 0.001144754932840594 -0.014179116537153376 0 0.00034295299996025495 -0.014068477911959899 0 0.00072658806300532645 -0.013506783711995431 0 0.001144754932840594 -0.014179116537153376 0 0.00034295299996025495 -0.014068477911959899 0 0.00097005462486789357 -0.015238589485035816 0 0.0011836777338368177 -0.011584936349470798 0 0.0016457542920526866 -0.012158391483343555 0 0.0020422206913509903 -0.0086319529557356139 0 0.0025977954867105512 -0.009792690394382771 0 0.0018749451688146212 -0.010112125484109559 0 0.001144754932840594 -0.014179116537153376 0 0.0015519669429530729 -0.014579255321147743 0 0.00097005462486789357 -0.015238589485035816 0 0.0018846130637524521 -0.01477026222964284 0 0.0015519669429530729 -0.014579255321147743 0 0.00097005462486789357 -0.015238589485035816 0 0.0017409721995312072 -0.014048227023054133 0 0.001144754932840594 -0.014179116537153376 0 0.0015519669429530729 -0.014579255321147743 0 0.0019610835717707481 -0.014573332083015363 0 0.0022998674603798681 -0.014564739036017309 0 0.0020424114115081813 -0.014429703579113657 0 0.0019610835717707481 -0.014573332083015363 0 0.0018846130637524521 -0.01477026222964284 0 0.0022998674603798681 -0.014564739036017309 0 0.0016248351478180497 -0.01537827456436535 0 0.0016457542920526866 -0.012158391483343555 0 0.0011826659135228527 -0.0093716503526456874 0 0.0012909039853116473 -0.0092922175952309671 0 0.0011890142550126947 -0.0092537175286511661 0 0.0016457542920526866 -0.012158391483343555 0 0.0017164637010076227 -0.0096174890430283811 0 0.0020422206913509903 -0.0086319529557356139 0 0.0018749451688146212 -0.010112125484109559 0 0.0008848111689516799 -0.0092406475578145492 0 0.0018749451688146212 -0.010112125484109559 0 0.0008848111689516799 -0.0092406475578145492 0 0.0011562271025033009 -0.01042712656932079 0 0.0008824732391827572 -0.0067657263860672135 0 0.0010365387599302097 -0.0073769902318713892 0 0.00059506102938035343 -0.0072169999815301219 0 0.00087545054537696467 -0.0080578294633383372 0 0.0011866125831057842 -0.0086487628610760064 0 0.0012957897871335323 -0.0091702588227506997 0 0.0013721518076552574 -0.0090818408296879129 0 0.0014082231799790572 -0.0092287856518316128 0 0.0012957897871335323 -0.0091702588227506997 0 0.0012644406818329589 -0.0090429132303377034 0 0.0013721518076552574 -0.0090818408296879129 0 0.0012957897871335323 -0.0091702588227506997 0 0.0012644406818329589 -0.0090429132303377034 0 0.0012392176598531037 -0.0091237596242093738 0 0.0012355090796157908 -0.0085911258606101576 0 0.0011866125831057842 -0.0086487628610760064 0 0.0011455836164806776 -0.0081426112829655652 0 0.00079782046981579377 -0.0081124610209836207 0 0.0010329238740290009 -0.0076656712805088772 0 0.00079782046981579377 -0.0081124610209836207 0 0.0010329238740290009 -0.0076656712805088772 0 0.00062260253230223602 -0.0078525105821078862 0 0.0011455836164806776 -0.0081426112829655652 0 0.00079782046981579377 -0.0081124610209836207 0 0.00080668218844874313 -0.0085593540704265482 0 0.0010365387599302097 -0.0073769902318713892 0 0.00059506102938035343 -0.0072169999815301219 0 0.00071088154505556732 -0.0075275713575501538 0 0.0011866125831057842 -0.0086487628610760064 0 0.00070630082518286256 -0.0076689126521697131 0 0.0012909039853116473 -0.0092922175952309671 0 0.0012957897871335323 -0.0091702588227506997 0 0.0014082231799790572 -0.0092287856518316128 0 0.0017164637010076227 -0.0096174890430283811 0 0.0011866125831057842 -0.0086487628610760064 0 0.0012909039853116473 -0.0092922175952309671 0 0.0012957897871335323 -0.0091702588227506997 0 0.0012264839882910512 -0.0092060434985729335 0 0.0012909039853116473 -0.0092922175952309671 0 0.0011890142550126947 -0.0092537175286511661 0 0.0012264839882910512 -0.0092060434985729335 0 0.0011890142550126947 -0.0092537175286511661 0 0.0012264839882910512 -0.0092060434985729335 0 0.0011774382839381315 -0.0092091026025501836 0 0.0012264839882910512 -0.0092060434985729335 0 0.0011774382839381315 -0.0092091026025501836 0 0.0012030012258515373 -0.0091839747267403581 0 0.0016457542920526866 -0.012158391483343555 0 0.0016313282719845304 -0.011669208857872307 0 0.0022998674603798681 -0.014564739036017309 0 0.0020424114115081813 -0.014429703579113657 0 0.0021233244330762769 -0.014203241890846499 0 0.0011826659135228527 -0.0093716503526456874 0 0.0011890142550126947 -0.0092537175286511661 0 0.0011301402641375226 -0.0091714797841975903 0 0.0020424114115081813 -0.014429703579113657 0 0.0021233244330762769 -0.014203241890846499 0 0.0019838972161973951 -0.014315721867954776 0 0.0011890142550126947 -0.0092537175286511661 0 0.0011774382839381315 -0.0092091026025501836 0 0.0011301402641375226 -0.0091714797841975903 0 0.0011774382839381315 -0.0092091026025501836 0 0.0011301402641375226 -0.0091714797841975903 0 0.0011603320806410694 -0.0092305358374369425 0 0.0016313282719845304 -0.011669208857872307 0 0.0016809224780184105 -0.011855232994829089 0 0.0011301402641375226 -0.0091714797841975903 0 0.0011504158588402998 -0.0093308130587085054 0 0.0013545634082589315 -0.009910070365591276 0 0.0011504158588402998 -0.0093308130587085054 0 0.0012284655450763781 -0.0091494464826262761 0 0.0013000339357250564 -0.0090030047331544488 0 0.0011301402641375226 -0.0091714797841975903 0 0.0011504158588402998 -0.0093308130587085054 0 0.0011603320806410694 -0.0092305358374369425 0 0.0011504158588402998 -0.0093308130587085054 0 0.0011603320806410694 -0.0092305358374369425 0 0.0012284655450763781 -0.0091494464826262761 0 0.0011603320806410694 -0.0092305358374369425 0 0.0012030012258515373 -0.0091839747267403581 0 0.0012284655450763781 -0.0091494464826262761 0 0.0011774382839381315 -0.0092091026025501836 0 0.0011603320806410694 -0.0092305358374369425 0 0.0012030012258515373 -0.0091839747267403581 0 0.0012957897871335323 -0.0091702588227506997 0 0.0012264839882910512 -0.0092060434985729335 0 0.0012392176598531037 -0.0091237596242093738 0 0.0012264839882910512 -0.0092060434985729335 0 0.0012030012258515373 -0.0091839747267403581 0 0.0012392176598531037 -0.0091237596242093738 0 0.0012030012258515373 -0.0091839747267403581 0 0.0012284655450763781 -0.0091494464826262761 0 0.0012392176598531037 -0.0091237596242093738 0 0.0012284655450763781 -0.0091494464826262761 0 0.0012392176598531037 -0.0091237596242093738 0 0.0012642238064138858 -0.0090022252962753888 0 0.0012644406818329589 -0.0090429132303377034 0 0.0012392176598531037 -0.0091237596242093738 0 0.0012642238064138858 -0.0090022252962753888 0 0.0012642238064138858 -0.0090022252962753888 0 0.0013000339357250564 -0.0090030047331544488 0 0.0012672132510466914 -0.0090683246136252487 0 0.0012284655450763781 -0.0091494464826262761 0 0.0012642238064138858 -0.0090022252962753888 0 0.0013000339357250564 -0.0090030047331544488 0 0.0011497975505662928 -0.0093407132740400065 0 0.0011248007090752909 -0.0095790877062131505 0 0.0011504158588402998 -0.0093308130587085054 0 0.00091321151314995702 -0.010138991946037131 0 0.0013545634082589315 -0.009910070365591276 0 0.00091321151314995702 -0.010138991946037131 0 0.0011081652958488963 -0.010498228165868142 0 0.00095140788220331282 -0.01059828517412334 0 0.00091321151314995702 -0.010138991946037131 0 0.0011081652958488963 -0.010498228165868142 0 0.0013545634082589315 -0.009910070365591276 0 0.0011248007090752909 -0.0095790877062131505 0 0.0011751251855553369 -0.010008970190232547 0 0.0013000339357250564 -0.0090030047331544488 0 0.0012672132510466914 -0.0090683246136252487 0 0.0014494235416636816 -0.0094174453068752197 0 0.0012672132510466914 -0.0090683246136252487 0 0.0009706425739132976 -0.0093179409808469456 0 0.0014494235416636816 -0.0094174453068752197 0 0.0012672132510466914 -0.0090683246136252487 0 0.0011979930446824681 -0.0088477501995946391 0 0.0009706425739132976 -0.0093179409808469456 0 0.0012642238064138858 -0.0090022252962753888 0 0.0012672132510466914 -0.0090683246136252487 0 0.0011979930446824681 -0.0088477501995946391 0 0.0012355090796157908 -0.0085911258606101576 0 0.0012306283181027671 -0.0088270288467021327 0 0.0012644406818329589 -0.0090429132303377034 0 0.0013721518076552574 -0.0090818408296879129 0 0.0011979930446824681 -0.0088477501995946391 0 0.0012644406818329589 -0.0090429132303377034 0 0.0012642238064138858 -0.0090022252962753888 0 0.0011979930446824681 -0.0088477501995946391 0 0.00080668218844874313 -0.0085593540704265482 0 0.00069649012868993915 -0.0090330385949895474 0 0.00051173299450300348 -0.0087280562576884241 0 0.0011979930446824681 -0.0088477501995946391 0 0.00080668218844874313 -0.0085593540704265482 0 0.00069649012868993915 -0.0090330385949895474 0 0.0011455836164806776 -0.0081426112829655652 0 0.0011979930446824681 -0.0088477501995946391 0 0.00080668218844874313 -0.0085593540704265482 0 0.00079782046981579377 -0.0081124610209836207 0 0.00080668218844874313 -0.0085593540704265482 0 0.00058490268432549221 -0.0083738422500649647 0 0.0011979930446824681 -0.0088477501995946391 0 0.00069649012868993915 -0.0090330385949895474 0 0.0009706425739132976 -0.0093179409808469456 0 0.00069649012868993915 -0.0090330385949895474 0 0.0009706425739132976 -0.0093179409808469456 0 0.00045476333678104523 -0.0094679705711829178 0 0.0009706425739132976 -0.0093179409808469456 0 0.0006292415638902573 -0.0098645299800109616 0 0.00045476333678104523 -0.0094679705711829178 0 0.0010001740155813259 -0.0097561875069048509 0 0.0009706425739132976 -0.0093179409808469456 0 0.0014494235416636816 -0.0094174453068752197 0 0.0010001740155813259 -0.0097561875069048509 0 0.0009706425739132976 -0.0093179409808469456 0 0.0006292415638902573 -0.0098645299800109616 0 0.0010001740155813259 -0.0097561875069048509 0 0.0010454170279287057 -0.010448027848495649 0 0.0006292415638902573 -0.0098645299800109616 0 0.0006292415638902573 -0.0098645299800109616 0 0.00062028480552459139 -0.010557702362287069 0 0.0003148992889075557 -0.0099719826311683822 0 0.0010454170279287057 -0.010448027848495649 0 0.0006292415638902573 -0.0098645299800109616 0 0.00062028480552459139 -0.010557702362287069 0 0.0010454170279287057 -0.010448027848495649 0 0.00062028480552459139 -0.010557702362287069 0 0.00098387134173912299 -0.010869783901352721 0 0.00062028480552459139 -0.010557702362287069 0 0.00098387134173912299 -0.010869783901352721 0 0.00086056483834660781 -0.01105903341330257 0 0.0010957701914135786 -0.010936759063370587 0 0.0011142624094026691 -0.011141683061479161 0 0.0010380257171746163 -0.011078830460546802 0 0.00098387134173912299 -0.010869783901352721 0 0.0010957701914135786 -0.010936759063370587 0 0.0010380257171746163 -0.011078830460546802 0 0.0010454170279287057 -0.010448027848495649 0 0.00098387134173912299 -0.010869783901352721 0 0.0010957701914135786 -0.010936759063370587 0 0.0010454170279287057 -0.010448027848495649 0 0.0010957701914135786 -0.010936759063370587 0 0.0010869574191091703 -0.010782976664791992 0 0.0010602604196834617 -0.010419739000462893 0 0.0011751251855553369 -0.010008970190232547 0 0.0010454170279287057 -0.010448027848495649 0 0.0010869574191091703 -0.010782976664791992 0 0.00095140788220331282 -0.01059828517412334 0 0.0010001740155813259 -0.0097561875069048509 0 0.0010454170279287057 -0.010448027848495649 0 0.0014494235416636816 -0.0094174453068752197 0 0.0011081652958488963 -0.010498228165868142 0 0.0010869574191091703 -0.010782976664791992 0 0.00095140788220331282 -0.01059828517412334 0 0.0011081652958488963 -0.010498228165868142 0 0.0010869574191091703 -0.010782976664791992 0 0.001423082246021203 -0.010441867093742349 0 0.0010869574191091703 -0.010782976664791992 0 0.0014643766958327706 -0.010850962657098982 0 0.001423082246021203 -0.010441867093742349 0 0.0016146338294514137 -0.011787731077512386 0 0.0016775233860007591 -0.011886357558690828 0 0.0018220943297852761 -0.012753790256706457 0 0.001514434644637558 -0.013502449617965916 0 0.001937330180666787 -0.013367600050944589 0 0.0014643766958327706 -0.010850962657098982 0 0.0012378244958678904 -0.011118240254768031 0 0.0014351628890338826 -0.011697742084377152 0 0.0010869574191091703 -0.010782976664791992 0 0.0014643766958327706 -0.010850962657098982 0 0.0012378244958678904 -0.011118240254768031 0 0.0010957701914135786 -0.010936759063370587 0 0.0010869574191091703 -0.010782976664791992 0 0.0012378244958678904 -0.011118240254768031 0 0.0010957701914135786 -0.010936759063370587 0 0.0012378244958678904 -0.011118240254768031 0 0.0011958748105331889 -0.011222601197340568 0 0.0012378244958678904 -0.011118240254768031 0 0.0011958748105331889 -0.011222601197340568 0 0.0014351628890338826 -0.011697742084377152 0 0.001263006047736348 -0.011439357361840964 0 0.0011958748105331889 -0.011222601197340568 0 0.0011459189685145686 -0.011294657261308258 0 0.001263006047736348 -0.011439357361840964 0 0.0011742331517725045 -0.011390874224998411 0 0.0011459189685145686 -0.011294657261308258 0 0.001263006047736348 -0.011439357361840964 0 0.0011958748105331889 -0.011222601197340568 0 0.0014351628890338826 -0.011697742084377152 0 0.0011142624094026691 -0.011141683061479161 0 0.0011958748105331889 -0.011222601197340568 0 0.0011459189685145686 -0.011294657261308258 0 0.0010957701914135786 -0.010936759063370587 0 0.0011142624094026691 -0.011141683061479161 0 0.0011958748105331889 -0.011222601197340568 0 0.0011333903244303504 -0.011555923311439561 0 0.0014351628890338826 -0.011697742084377152 0 0.00095495849852346947 -0.012049188323373447 0 0.0011333903244303504 -0.011555923311439561 0 0.00095495849852346947 -0.012049188323373447 0 0.00070634257327672275 -0.011857620622573001 0 0.001263006047736348 -0.011439357361840964 0 0.0011333903244303504 -0.011555923311439561 0 0.0014351628890338826 -0.011697742084377152 0 0.001263006047736348 -0.011439357361840964 0 0.0011333903244303504 -0.011555923311439561 0 0.0011742331517725045 -0.011390874224998411 0 0.0014351628890338826 -0.011697742084377152 0 0.00095495849852346947 -0.012049188323373447 0 0.0011689279433451062 -0.01253304995964895 0 0.00095495849852346947 -0.012049188323373447 0 0.0011689279433451062 -0.01253304995964895 0 0.00074266358077004259 -0.012761764345392524 0 0.0018220943297852761 -0.012753790256706457 0 0.0014351628890338826 -0.011697742084377152 0 0.0011689279433451062 -0.01253304995964895 0 0.0016146338294514137 -0.011787731077512386 0 0.0014563860138186076 -0.011668712862914949 0 0.0018220943297852761 -0.012753790256706457 0 0.0011689279433451062 -0.01253304995964895 0 0.0011489115609641786 -0.013225469244996202 0 0.0018220943297852761 -0.012753790256706457 0 0.0011489115609641786 -0.013225469244996202 0 0.001514434644637558 -0.013502449617965916 0 0.0011689279433451062 -0.01253304995964895 0 0.0011489115609641786 -0.013225469244996202 0 0.00074266358077004259 -0.012761764345392524 0 0.0011489115609641786 -0.013225469244996202 0 0.000978016549886979 -0.013649097004815484 0 0.001514434644637558 -0.013502449617965916 0 0.0011489115609641786 -0.013225469244996202 0 0.000978016549886979 -0.013649097004815484 0 0.00068390699748106765 -0.01338988807793071 0 0.000978016549886979 -0.013649097004815484 0 0.0011824207312171717 -0.013934438559691365 0 0.00078054029053083011 -0.014020183468649704 0 0.000978016549886979 -0.013649097004815484 0 0.0011824207312171717 -0.013934438559691365 0 0.001514434644637558 -0.013502449617965916 0 0.0011824207312171717 -0.013934438559691365 0 0.001514434644637558 -0.013502449617965916 0 0.0016700432769009331 -0.013895877961188368 0 0.001514434644637558 -0.013502449617965916 0 0.001937330180666787 -0.013367600050944589 0 0.0016700432769009331 -0.013895877961188368 0 0.0011081652958488963 -0.010498228165868142 0 0.001423082246021203 -0.010441867093742349 0 0.0013545634082589315 -0.009910070365591276 0 0.001937330180666787 -0.013367600050944589 0 0.0020254235953198062 -0.013828900245469816 0 0.0016700432769009331 -0.013895877961188368 0 0.0016775233860007591 -0.011886357558690828 0 0.0016809224780184105 -0.011855232994829089 0 0.0016700432769009331 -0.013895877961188368 0 0.0016801481121678258 -0.01426345902185017 0 0.0013729160229102551 -0.014190150797901304 0 0.0016700432769009331 -0.013895877961188368 0 0.001873624565046129 -0.014139759137393109 0 0.0016801481121678258 -0.01426345902185017 0 0.0020254235953198062 -0.013828900245469816 0 0.001873624565046129 -0.014139759137393109 0 0.0020008071579843438 -0.014123601454005675 0 0.0020254235953198062 -0.013828900245469816 0 0.0016700432769009331 -0.013895877961188368 0 0.001873624565046129 -0.014139759137393109 0 0.0021233244330762769 -0.014203241890846499 0 0.0020254235953198062 -0.013828900245469816 0 0.0020008071579843438 -0.014123601454005675 0 0.001873624565046129 -0.014139759137393109 0 0.0018295767166414264 -0.01442196983771506 0 0.0016801481121678258 -0.01426345902185017 0 0.001873624565046129 -0.014139759137393109 0 0.0019838972161973951 -0.014315721867954776 0 0.0018295767166414264 -0.01442196983771506 0 0.001873624565046129 -0.014139759137393109 0 0.0020008071579843438 -0.014123601454005675 0 0.0019838972161973951 -0.014315721867954776 0 0.0021233244330762769 -0.014203241890846499 0 0.0020008071579843438 -0.014123601454005675 0 0.0019838972161973951 -0.014315721867954776 0 0.0020424114115081813 -0.014429703579113657 0 0.0019838972161973951 -0.014315721867954776 0 0.0018295767166414264 -0.01442196983771506 0 0.0016387128995875998 -0.014530891069332275 0 0.0018295767166414264 -0.01442196983771506 0 0.0016801481121678258 -0.01426345902185017 0 0.0016387128995875998 -0.014530891069332275 0 0.0016801481121678258 -0.01426345902185017 0 0.0014925491488003027 -0.014365394140346927 0 0.0016801481121678258 -0.01426345902185017 0 0.0014925491488003027 -0.014365394140346927 0 0.0013729160229102551 -0.014190150797901304 0 0.0012397500643518103 -0.014538056829314741 0 0.0014925491488003027 -0.014365394140346927 0 0.0013729160229102551 -0.014190150797901304 0 0.0012397500643518103 -0.014538056829314741 0 0.0016387128995875998 -0.014530891069332275 0 0.0014925491488003027 -0.014365394140346927 0 0.00093644935064494776 -0.014646917642540707 0 0.0012397500643518103 -0.014538056829314741 0 0.0009581221143730972 -0.014300445078473847 0 0.0012397500643518103 -0.014538056829314741 0 0.0009581221143730972 -0.014300445078473847 0 0.0013729160229102551 -0.014190150797901304 0 0.0011824207312171717 -0.013934438559691365 0 0.0009581221143730972 -0.014300445078473847 0 0.0013729160229102551 -0.014190150797901304 0 0.0011824207312171717 -0.013934438559691365 0 0.0009581221143730972 -0.014300445078473847 0 0.00078054029053083011 -0.014020183468649704 0 0.0011824207312171717 -0.013934438559691365 0 0.0016700432769009331 -0.013895877961188368 0 0.0013729160229102551 -0.014190150797901304 0 0.0005756506453978758 -0.014311503915030957 0 0.00042233779263693521 -0.01407351967649632 0 0.00078054029053083011 -0.014020183468649704 0 0.0005756506453978758 -0.014311503915030957 0 0.00025812383390625158 -0.014358860724129931 0 0.00042233779263693521 -0.01407351967649632 0 0.0009581221143730972 -0.014300445078473847 0 0.0005756506453978758 -0.014311503915030957 0 0.00078054029053083011 -0.014020183468649704 0 0.0009581221143730972 -0.014300445078473847 0 0.0005756506453978758 -0.014311503915030957 0 0.0007028865543866476 -0.014503124521390067 0 0.00093644935064494776 -0.014646917642540707 0 0.0009581221143730972 -0.014300445078473847 0 0.0007028865543866476 -0.014503124521390067 0 0.0005756506453978758 -0.014311503915030957 0 0.00047853968729951558 -0.01454578052929272 0 0.00025812383390625158 -0.014358860724129931 0 0.0005756506453978758 -0.014311503915030957 0 0.0007028865543866476 -0.014503124521390067 0 0.00047853968729951558 -0.01454578052929272 0 0.00047853968729951558 -0.01454578052929272 0 0.00027957488681835415 -0.014587076650567767 0 0.00025812383390625158 -0.014358860724129931 0 0.00012484773109463707 -0.014510258831429717 0 2.2181500545687954e-06 -0.014376699486393077 0 0.00025812383390625158 -0.014358860724129931 0 5.3889778052755313e-05 -0.014694012472216522 0 0.00027957488681835415 -0.014587076650567767 0 0.00012484773109463707 -0.014510258831429717 0 0.00027957488681835415 -0.014587076650567767 0 0.00012484773109463707 -0.014510258831429717 0 0.00025812383390625158 -0.014358860724129931 0 5.3889778052755313e-05 -0.014694012472216522 0 0.00012484773109463707 -0.014510258831429717 0 2.1072170480193318e-05 -0.014585956168869348 0 2.1072170480193318e-05 -0.014585956168869348 0 2.2181500545687954e-06 -0.014376699486393077 0 -0.00016172714164519445 -0.014350016731296869 0 4.2963522573610898e-05 -0.01492221143007615 0 5.572622792591517e-05 -0.014823991549419222 0 3.5493485464021325e-05 -0.014910952263371149 0 2.6585232195434704e-05 -0.014763497742215357 0 -6.1360901055861918e-05 -0.014589335448586005 0 0.00012484773109463707 -0.014510258831429717 0 2.1072170480193318e-05 -0.014585956168869348 0 2.2181500545687954e-06 -0.014376699486393077 0 -8.1174894134767222e-05 -0.014275989407383696 0 2.2181500545687954e-06 -0.014376699486393077 0 -0.00016172714164519445 -0.014350016731296869 0 -8.1174894134767222e-05 -0.014275989407383696 0 2.2181500545687954e-06 -0.014376699486393077 0 7.0328239527863278e-05 -0.014122111006921517 0 0.00025812383390625158 -0.014358860724129931 0 7.0328239527863278e-05 -0.014122111006921517 0 0.00042233779263693521 -0.01407351967649632 0 2.2181500545687954e-06 -0.014376699486393077 0 0.00025812383390625158 -0.014358860724129931 0 7.0328239527863278e-05 -0.014122111006921517 0 7.0328239527863278e-05 -0.014122111006921517 0 0.00032644911482381569 -0.013793807303356742 0 0.00042233779263693521 -0.01407351967649632 0 -8.1174894134767222e-05 -0.014275989407383696 0 7.0328239527863278e-05 -0.014122111006921517 0 -0.00017023444152351421 -0.014260255300695395 0 7.0328239527863278e-05 -0.014122111006921517 0 -7.3356415578341956e-05 -0.014008761833587867 0 -0.00017023444152351421 -0.014260255300695395 0 7.0328239527863278e-05 -0.014122111006921517 0 -7.3356415578341956e-05 -0.014008761833587867 0 0.00010803201456931481 -0.013741396820684475 0 -7.3356415578341956e-05 -0.014008761833587867 0 -0.00024886321250872946 -0.014087397416993127 0 -0.00017023444152351421 -0.014260255300695395 0 -7.3356415578341956e-05 -0.014008761833587867 0 0.00010803201456931481 -0.013741396820684475 0 -0.00010800255798320001 -0.013749667282925732 0 -7.3356415578341956e-05 -0.014008761833587867 0 -0.00010800255798320001 -0.013749667282925732 0 -0.00024886321250872946 -0.014087397416993127 0 7.0328239527863278e-05 -0.014122111006921517 0 0.00010803201456931481 -0.013741396820684475 0 0.00032644911482381569 -0.013793807303356742 0 0.00010803201456931481 -0.013741396820684475 0 0.00032644911482381569 -0.013793807303356742 0 0.00037796203691953841 -0.013300626737062053 0 0.00032644911482381569 -0.013793807303356742 0 0.00068390699748106765 -0.01338988807793071 0 0.00037796203691953841 -0.013300626737062053 0 0.00032644911482381569 -0.013793807303356742 0 0.00062017132610806696 -0.013789533477870135 0 0.00068390699748106765 -0.01338988807793071 0 0.00032644911482381569 -0.013793807303356742 0 0.00042233779263693521 -0.01407351967649632 0 0.00062017132610806696 -0.013789533477870135 0 0.00042233779263693521 -0.01407351967649632 0 0.00062017132610806696 -0.013789533477870135 0 0.00078054029053083011 -0.014020183468649704 0 0.000978016549886979 -0.013649097004815484 0 0.00062017132610806696 -0.013789533477870135 0 0.00078054029053083011 -0.014020183468649704 0 0.000978016549886979 -0.013649097004815484 0 0.00062017132610806696 -0.013789533477870135 0 0.00068390699748106765 -0.01338988807793071 0 0.0011489115609641786 -0.013225469244996202 0 0.00068390699748106765 -0.01338988807793071 0 0.00074266358077004259 -0.012761764345392524 0 0.00068390699748106765 -0.01338988807793071 0 0.00037796203691953841 -0.013300626737062053 0 0.00074266358077004259 -0.012761764345392524 0 0.00037398287792900063 -0.012863851254302372 0 0.00074266358077004259 -0.012761764345392524 0 0.00046869073047613359 -0.012384612932777029 0 0.00037796203691953841 -0.013300626737062053 0 0.00037398287792900063 -0.012863851254302372 0 0.00074266358077004259 -0.012761764345392524 0 0.00095495849852346947 -0.012049188323373447 0 0.00074266358077004259 -0.012761764345392524 0 0.00046869073047613359 -0.012384612932777029 0 0.00095495849852346947 -0.012049188323373447 0 0.00046869073047613359 -0.012384612932777029 0 0.00070634257327672275 -0.011857620622573001 0 0.00046869073047613359 -0.012384612932777029 0 0.00070634257327672275 -0.011857620622573001 0 0.00024856321387195876 -0.0120541658431062 0 -0.00024252344652521158 -0.01207963891280564 0 4.8087499813643377e-05 -0.012445707987545674 0 -0.00032096619240115854 -0.012504009028638345 0 -0.00024252344652521158 -0.01207963891280564 0 0.00024856321387195876 -0.0120541658431062 0 4.8087499813643377e-05 -0.012445707987545674 0 0.00046869073047613359 -0.012384612932777029 0 0.00024856321387195876 -0.0120541658431062 0 4.8087499813643377e-05 -0.012445707987545674 0 0.00046869073047613359 -0.012384612932777029 0 4.8087499813643377e-05 -0.012445707987545674 0 0.00015725640579694118 -0.012789753307049888 0 4.8087499813643377e-05 -0.012445707987545674 0 -0.00010596536326530704 -0.012864737290081609 0 0.00015725640579694118 -0.012789753307049888 0 4.8087499813643377e-05 -0.012445707987545674 0 -0.00010596536326530704 -0.012864737290081609 0 -0.00032096619240115854 -0.012504009028638345 0 -0.00010596536326530704 -0.012864737290081609 0 -0.00021603046478118942 -0.013309428371488432 0 -0.00051684225196296535 -0.012879577884246186 0 -0.00010596536326530704 -0.012864737290081609 0 -0.00021603046478118942 -0.013309428371488432 0 9.7214294105830369e-05 -0.013233321948099133 0 0.00037796203691953841 -0.013300626737062053 0 0.00037398287792900063 -0.012863851254302372 0 9.7214294105830369e-05 -0.013233321948099133 0 0.00037398287792900063 -0.012863851254302372 0 0.00015725640579694118 -0.012789753307049888 0 9.7214294105830369e-05 -0.013233321948099133 0 0.00037398287792900063 -0.012863851254302372 0 0.00046869073047613359 -0.012384612932777029 0 0.00015725640579694118 -0.012789753307049888 0 -0.00010596536326530704 -0.012864737290081609 0 0.00015725640579694118 -0.012789753307049888 0 9.7214294105830369e-05 -0.013233321948099133 0 0.00010803201456931481 -0.013741396820684475 0 0.00037796203691953841 -0.013300626737062053 0 9.7214294105830369e-05 -0.013233321948099133 0 -0.00021603046478118942 -0.013309428371488432 0 9.7214294105830369e-05 -0.013233321948099133 0 -0.00010800255798320001 -0.013749667282925732 0 0.00010803201456931481 -0.013741396820684475 0 9.7214294105830369e-05 -0.013233321948099133 0 -0.00010800255798320001 -0.013749667282925732 0 -0.00021603046478118942 -0.013309428371488432 0 -0.00010800255798320001 -0.013749667282925732 0 -0.00028418219321250796 -0.013800006956602339 0 -0.00010800255798320001 -0.013749667282925732 0 -0.00028418219321250796 -0.013800006956602339 0 -0.00024886321250872946 -0.014087397416993127 0 -0.00028418219321250796 -0.013800006956602339 0 -0.0004698069158902043 -0.014152947013535517 0 -0.00024886321250872946 -0.014087397416993127 0 -0.0004698069158902043 -0.014152947013535517 0 -0.00042574883839019753 -0.013520248181788999 0 -0.00087383066947083101 -0.013458634429018798 0 -0.00028418219321250796 -0.013800006956602339 0 -0.0004698069158902043 -0.014152947013535517 0 -0.00042574883839019753 -0.013520248181788999 0 -0.00021603046478118942 -0.013309428371488432 0 -0.00028418219321250796 -0.013800006956602339 0 -0.00042574883839019753 -0.013520248181788999 0 -0.00025861474342546556 -0.014427315808719188 0 -0.00014542956828394104 -0.014702937551789298 0 -0.00016200936410848364 -0.014552042137824978 0 -0.0004698069158902043 -0.014152947013535517 0 -0.00025861474342546556 -0.014427315808719188 0 -0.00034214924677793682 -0.014539327091910723 0 -0.00025861474342546556 -0.014427315808719188 0 -0.00034214924677793682 -0.014539327091910723 0 -0.00014542956828394104 -0.014702937551789298 0 -0.00048371377642038408 -0.014177973815292849 0 -0.00046159439384540953 -0.014091877064442612 0 -0.0004698069158902043 -0.014152947013535517 0 -0.00034214924677793682 -0.014539327091910723 0 -0.00033850913031127004 -0.014885803099302848 0 -0.00034214924677793682 -0.014539327091910723 0 -0.00014542956828394104 -0.014702937551789298 0 -0.00030929930839336138 -0.014707608149664174 0 -0.00037081178180854355 -0.014437232373243531 0 -0.00046159439384540953 -0.014091877064442612 0 -0.00014542956828394104 -0.014702937551789298 0 -0.00030929930839336138 -0.014707608149664174 0 -0.00013233327388011812 -0.014979526625524582 0 -0.00046159439384540953 -0.014091877064442612 0 -0.00024240572888359612 -0.014393327378173218 0 -0.00035813661408739812 -0.013840007633882082 0 -0.00038284448768245667 -0.013725322698453623 0 -0.00039890845883132445 -0.013740452337710271 0 -0.00087383066947083101 -0.013458634429018798 0 -0.00051684225196296535 -0.012879577884246186 0 -0.0010053978846460115 -0.012615390056845385 0 -0.00046159439384540953 -0.014091877064442612 0 -0.00072353173255842833 -0.013072704188162193 0 -0.00021603046478118942 -0.013309428371488432 0 -0.00042574883839019753 -0.013520248181788999 0 -0.00051684225196296535 -0.012879577884246186 0 -0.00042574883839019753 -0.013520248181788999 0 -0.00087383066947083101 -0.013458634429018798 0 -0.00051684225196296535 -0.012879577884246186 0 -0.00010596536326530704 -0.012864737290081609 0 -0.00051684225196296535 -0.012879577884246186 0 -0.00032096619240115854 -0.012504009028638345 0 -0.00051684225196296535 -0.012879577884246186 0 -0.00032096619240115854 -0.012504009028638345 0 -0.00072373150753826491 -0.012194072675519941 0 -0.00051684225196296535 -0.012879577884246186 0 -0.0010053978846460115 -0.012615390056845385 0 -0.00072373150753826491 -0.012194072675519941 0 -0.00072353173255842833 -0.013072704188162193 0 -0.00070632114692484825 -0.012895562542313133 0 -0.0010053978846460115 -0.012615390056845385 0 -0.00072373150753826491 -0.012194072675519941 0 -0.0010528771255190245 -0.011974963989494779 0 -0.00024252344652521158 -0.01207963891280564 0 -0.00032096619240115854 -0.012504009028638345 0 -0.00072373150753826491 -0.012194072675519941 0 -0.00024252344652521158 -0.01207963891280564 0 -0.00072373150753826491 -0.012194072675519941 0 -0.00056521670987965235 -0.011833159563995652 0 -3.6810194043858762e-05 -0.014991899126518051 0 -1.540775815609282e-08 -0.014999976659517328 0 -1.878884159136481e-08 -0.015000025391194608 0 -3.9061007522422963e-05 -0.015008401198679295 0 -3.6810194043858762e-05 -0.014991899126518051 0 -1.878884159136481e-08 -0.015000025391194608 0 -0.00038284448768245667 -0.013725322698453623 0 -0.00041985162127489704 -0.013673435494278154 0 -0.00040303418943684482 -0.013655115105131696 0 -0.00024240572888359612 -0.014393327378173218 0 -0.00023681415134256802 -0.014330836928341164 0 -0.00038284448768245667 -0.013725322698453623 0 -0.00039890845883132445 -0.013740452337710271 0 -0.00041985162127489704 -0.013673435494278154 0 -0.00013233327388011812 -0.014979526625524582 0 -3.6810194043858762e-05 -0.014991899126518051 0 -2.7036319659689899e-05 -0.014910796344539051 0 -0.00013233327388011812 -0.014979526625524582 0 -3.9061007522422963e-05 -0.015008401198679295 0 -3.6810194043858762e-05 -0.014991899126518051 0 -3.6810194043858762e-05 -0.014991899126518051 0 -1.540775815609282e-08 -0.014999976659517328 0 -2.7036319659689899e-05 -0.014910796344539051 0 -1.540775815609282e-08 -0.014999976659517328 0 -2.7036319659689899e-05 -0.014910796344539051 0 2.2827151454805882e-08 -0.014999694029364628 0 -0.00014542956828394104 -0.014702937551789298 0 -0.00013233327388011812 -0.014979526625524582 0 -2.7036319659689899e-05 -0.014910796344539051 0 -0.00014542956828394104 -0.014702937551789298 0 -2.7036319659689899e-05 -0.014910796344539051 0 -5.6775817366204929e-05 -0.014795058296268277 0 -0.00014542956828394104 -0.014702937551789298 0 -5.6775817366204929e-05 -0.014795058296268277 0 -0.00016200936410848364 -0.014552042137824978 0 -2.7036319659689899e-05 -0.014910796344539051 0 2.2827151454805882e-08 -0.014999694029364628 0 -5.6775817366204929e-05 -0.014795058296268277 0 2.2827151454805882e-08 -0.014999694029364628 0 -1.4906402657503461e-07 -0.014999609764857235 0 -5.6775817366204929e-05 -0.014795058296268277 0 -1.4906402657503461e-07 -0.014999609764857235 0 -9.0469484454516478e-05 -0.014740512729431908 0 -5.6775817366204929e-05 -0.014795058296268277 0 -1.4906402657503461e-07 -0.014999609764857235 0 -9.0469484454516478e-05 -0.014740512729431908 0 -8.9972772075218427e-05 -0.014853626293145687 0 -9.0469484454516478e-05 -0.014740512729431908 0 -0.0001308948161703674 -0.014555595024751736 0 -8.9972772075218427e-05 -0.014853626293145687 0 -9.0469484454516478e-05 -0.014740512729431908 0 -0.00016200936410848364 -0.014552042137824978 0 -0.0001308948161703674 -0.014555595024751736 0 -9.0469484454516478e-05 -0.014740512729431908 0 -5.6775817366204929e-05 -0.014795058296268277 0 -0.00016200936410848364 -0.014552042137824978 0 -0.00016200936410848364 -0.014552042137824978 0 -0.00026923110489369473 -0.014335170946566255 0 -0.0001308948161703674 -0.014555595024751736 0 -0.00025861474342546556 -0.014427315808719188 0 -0.00016200936410848364 -0.014552042137824978 0 -0.00026923110489369473 -0.014335170946566255 0 -0.0004698069158902043 -0.014152947013535517 0 -0.00025861474342546556 -0.014427315808719188 0 -0.00026923110489369473 -0.014335170946566255 0 -0.00026923110489369473 -0.014335170946566255 0 -0.00024886321250872946 -0.014087397416993127 0 -0.00017023444152351421 -0.014260255300695395 0 -0.0004698069158902043 -0.014152947013535517 0 -0.00026923110489369473 -0.014335170946566255 0 -0.00024886321250872946 -0.014087397416993127 0 -0.00017023444152351421 -0.014260255300695395 0 -0.0001308948161703674 -0.014555595024751736 0 -0.00016172714164519445 -0.014350016731296869 0 -8.1174894134767222e-05 -0.014275989407383696 0 -0.00017023444152351421 -0.014260255300695395 0 -0.00016172714164519445 -0.014350016731296869 0 -0.00026923110489369473 -0.014335170946566255 0 -0.00017023444152351421 -0.014260255300695395 0 -0.0001308948161703674 -0.014555595024751736 0 -0.0001308948161703674 -0.014555595024751736 0 5.572622792591517e-05 -0.014823991549419222 0 -8.9972772075218427e-05 -0.014853626293145687 0 -0.00012912831430769633 -0.014545856975825363 0 -6.1360901055861918e-05 -0.014589335448586005 0 5.572622792591517e-05 -0.014823991549419222 0 1.0904418855796006e-05 -0.014901314025392512 0 3.5493485464021325e-05 -0.014910952263371149 0 -2.4458023281700608e-06 -0.0149451126294188 0 1.0904418855796006e-05 -0.014901314025392512 0 -8.9972772075218427e-05 -0.014853626293145687 0 5.572622792591517e-05 -0.014823991549419222 0 1.0904418855796006e-05 -0.014901314025392512 0 -8.9972772075218427e-05 -0.014853626293145687 0 -2.9088025403451217e-05 -0.014956923842226046 0 -2.4458023281700608e-06 -0.0149451126294188 0 -8.9972772075218427e-05 -0.014853626293145687 0 -2.9088025403451217e-05 -0.014956923842226046 0 -2.7540478527822322e-08 -0.014999913938098243 0 -8.9972772075218427e-05 -0.014853626293145687 0 -1.4906402657503461e-07 -0.014999609764857235 0 -2.7540478527822322e-08 -0.014999913938098243 0 -8.9972772075218427e-05 -0.014853626293145687 0 -0.00032669093045265251 -5.2783332887715493e-05 0 -0.00037364337901486301 -9.6435014269148113e-05 0 -0.00042191902040325014 -8.5814420324501511e-05 0 -0.00032669093045265251 -5.2783332887715493e-05 0 -0.00034757352788192101 -0.00011949098849486045 0 -0.00037364337901486301 -9.6435014269148113e-05 0 -0.00023316551659334568 0.00078640706647267614 0 -0.00048732615455284589 0.00071480444816978501 0 -0.00050030284306027729 0.00090327459336961291 0 -0.00032669093045265251 -5.2783332887715493e-05 0 -0.00027857404195676892 -7.9869060838115487e-05 0 -0.00027491693677361045 -6.5032735191931961e-05 0 -0.00033365947017772351 0.0008482439259893343 0 -0.00037113657153816829 0.00035221809560010298 0 -0.00032669093045265251 -5.2783332887715493e-05 0 -0.00027857404195676892 -7.9869060838115487e-05 0 -0.00030873716635436215 -0.00010227739731047198 0 -0.00027857404195676892 -7.9869060838115487e-05 0 -0.00030873716635436215 -0.00010227739731047198 0 -0.00028283416601353694 -0.00011399143240635806 0 -0.00030873716635436215 -0.00010227739731047198 0 -0.00034757352788192101 -0.00011949098849486045 0 -0.00032622906533909219 -0.00015034215798761353 0 -0.00032669093045265251 -5.2783332887715493e-05 0 -0.00030873716635436215 -0.00010227739731047198 0 -0.00034757352788192101 -0.00011949098849486045 0 -0.00030873716635436215 -0.00010227739731047198 0 -0.00032622906533909219 -0.00015034215798761353 0 -0.00028283416601353694 -0.00011399143240635806 0 -0.00034757352788192101 -0.00011949098849486045 0 -0.00037364337901486301 -9.6435014269148113e-05 0 -0.00040296546280442892 -0.00012967510906146057 0 -0.00034757352788192101 -0.00011949098849486045 0 -0.00037990785457434496 -0.00017290998721242385 0 -0.00032622906533909219 -0.00015034215798761353 0 -0.00037990785457434496 -0.00017290998721242385 0 -0.00045691769582416396 -0.00019257670028236594 0 -0.00040296546280442892 -0.00012967510906146057 0 -0.00034757352788192101 -0.00011949098849486045 0 -0.00037990785457434496 -0.00017290998721242385 0 -0.00040296546280442892 -0.00012967510906146057 0 -0.00045691769582416396 -0.00019257670028236594 0 -0.00045808815498512098 -0.00012501202504233821 0 -0.00052666035802473017 -0.00015218245145687706 0 -0.00045808815498512098 -0.00012501202504233821 0 -0.00040296546280442892 -0.00012967510906146057 0 -0.00042191902040325014 -8.5814420324501511e-05 0 -0.00045691769582416396 -0.00019257670028236594 0 -0.00045808815498512098 -0.00012501202504233821 0 -0.00040296546280442892 -0.00012967510906146057 0 -0.00037364337901486301 -9.6435014269148113e-05 0 -0.00040296546280442892 -0.00012967510906146057 0 -0.00042191902040325014 -8.5814420324501511e-05 0 -0.0012679655731562998 -0.0054969590710435825 0 -0.0012607996676201045 -0.0056097337712894425 0 -0.0011714497602629539 -0.0056265277975043717 0 -0.0012679655731562998 -0.0054969590710435825 0 -0.0013779933589562309 -0.0055958618042939289 0 -0.0013352636827124694 -0.0053808767812380028 0 -0.0012679655731562998 -0.0054969590710435825 0 -0.0013779933589562309 -0.0055958618042939289 0 -0.0012607996676201045 -0.0056097337712894425 0 -0.00045808815498512098 -0.00012501202504233821 0 -0.00052666035802473017 -0.00015218245145687706 0 -0.00047309070845323473 -9.9748099958391304e-05 0 -0.0013779933589562309 -0.0055958618042939289 0 -0.0012285520329625968 -0.0057172114519778647 0 -0.0012607996676201045 -0.0056097337712894425 0 -0.0012285520329625968 -0.0057172114519778647 0 -0.0012607996676201045 -0.0056097337712894425 0 -0.0011714497602629539 -0.0056265277975043717 0 -0.0012285520329625968 -0.0057172114519778647 0 -0.0011555383866576092 -0.0058547225134237685 0 -0.0013301756512175626 -0.0059600260419841742 0 -0.001013588019352052 -0.0029854941296239908 0 -0.00039484073459895147 -0.0031305234083303904 0 -0.00052666035802473017 -0.00015218245145687706 0 -0.00047309070845323473 -9.9748099958391304e-05 0 -0.00048526039918754939 -3.2883864601860243e-05 0 -0.0013779933589562309 -0.0055958618042939289 0 -0.0012285520329625968 -0.0057172114519778647 0 -0.0013301756512175626 -0.0059600260419841742 0 -0.0011677499947888009 -0.0059497728607477863 0 -0.0011555383866576092 -0.0058547225134237685 0 -0.001189684512455544 -0.0059563913754435522 0 -0.0011677499947888009 -0.0059497728607477863 0 -0.0011555383866576092 -0.0058547225134237685 0 -0.0010537101471490354 -0.0059881867580091081 0 -0.0018137986566971586 -0.0059428261684050208 0 -0.00039484073459895147 -0.0031305234083303904 0 -0.00023316551659334568 0.00078640706647267614 0 -0.0001277009094965375 0.00067808807872435286 0 7.1664851226770418e-07 0.00066231358826375952 0 -0.00032669093045265251 -5.2783332887715493e-05 0 -0.00042191902040325014 -8.5814420324501511e-05 0 -0.00048526039918754939 -3.2883864601860243e-05 0 -0.00033365947017772351 0.0008482439259893343 0 -0.00039484073459895147 -0.0031305234083303904 0 -0.00042191902040325014 -8.5814420324501511e-05 0 -0.00047309070845323473 -9.9748099958391304e-05 0 -0.00048526039918754939 -3.2883864601860243e-05 0 -0.00045808815498512098 -0.00012501202504233821 0 -0.00042191902040325014 -8.5814420324501511e-05 0 -0.00047309070845323473 -9.9748099958391304e-05 0 0.00018074190316949242 -0.0051568151250988127 0 0.00019438616680071826 -0.0050992375818259853 0 0.00016253411255869924 -0.0051744845129763012 0 -0.0001277009094965375 0.00067808807872435286 0 7.1664851226770418e-07 0.00066231358826375952 0 -0.00017745233214987283 0.0005616857381293875 0 -0.00039484073459895147 -0.0031305234083303904 0 0.00012027412361430988 -0.0019595814954471548 0 0.00018074190316949242 -0.0051568151250988127 0 0.00019438616680071826 -0.0050992375818259853 0 0.00019988905609184585 -0.0051613422236331322 0 -0.0010100040373550482 -0.0059971915386196417 0 -0.0010537101471490354 -0.0059881867580091081 0 -0.00096341766960677015 -0.0060211526442251152 0 -0.0010537101471490354 -0.0059881867580091081 0 -0.00096341766960677015 -0.0060211526442251152 0 -0.0009949527874477703 -0.0060071610947074654 0 -0.00090807085748126142 -0.004536001924507916 0 -0.00088291393027405617 -0.005020872615433495 0 -5.8716129716328206e-05 -0.0039879207142133862 0 -0.00052886991327462515 -0.0040065898805651482 0 -0.00062666172521582948 -0.0055832224230803066 0 -0.00090807085748126142 -0.004536001924507916 0 -0.0004695087423142379 -0.0058464174663951009 0 -0.00039484073459895147 -0.0031305234083303904 0 -0.0004695087423142379 -0.0058464174663951009 0 -0.00090807085748126142 -0.004536001924507916 0 -0.00039484073459895147 -0.0031305234083303904 0 -0.0010100040373550482 -0.0059971915386196417 0 -0.00090963538230742433 -0.0060326037368537934 0 -0.00096341766960677015 -0.0060211526442251152 0 -0.00090963538230742433 -0.0060326037368537934 0 -0.00079401032721274978 -0.0060155650216820664 0 -0.0007127449910830628 -0.0060062700020653715 0 -0.0004695087423142379 -0.0058464174663951009 0 -0.00060372982969300799 -0.0061478580412115723 0 -0.00090963538230742433 -0.0060326037368537934 0 -0.00079401032721274978 -0.0060155650216820664 0 -0.00086830605109405586 -0.0060338412535211649 0 -0.00090963538230742433 -0.0060326037368537934 0 -0.00096341766960677015 -0.0060211526442251152 0 -0.00086830605109405586 -0.0060338412535211649 0 -0.00079401032721274978 -0.0060155650216820664 0 -0.00086830605109405586 -0.0060338412535211649 0 -0.00079145150488022257 -0.0059885196787307316 0 -0.00086830605109405586 -0.0060338412535211649 0 -0.00086033449051711318 -0.0060234645874671514 0 -0.00079145150488022257 -0.0059885196787307316 0 -0.00047307480297337798 -0.0064553743220596184 0 -0.00037449743994469596 -0.0062097549290173913 0 -0.00046218258688597455 -0.0061841457192562633 0 0.00019988905609184585 -0.0051613422236331322 0 0.00017042182531696527 -0.0051892747571927259 0 0.00016125998551467681 -0.0052042141647139998 0 -0.0004695087423142379 -0.0058464174663951009 0 -7.7549543849827069e-05 -0.005678010273710044 0 0.00018074190316949242 -0.0051568151250988127 0 0.00016763005175346587 -0.0051861786538951148 0 0.00016253411255869924 -0.0051744845129763012 0 0.00019988905609184585 -0.0051613422236331322 0 0.00016763005175346587 -0.0051861786538951148 0 0.00017042182531696527 -0.0051892747571927259 0 0.00018074190316949242 -0.0051568151250988127 0 0.00019988905609184585 -0.0051613422236331322 0 0.00016763005175346587 -0.0051861786538951148 0 0.00016763005175346587 -0.0051861786538951148 0 0.00017042182531696527 -0.0051892747571927259 0 0.00016344302408486931 -0.0051982359776269263 0 0.00017042182531696527 -0.0051892747571927259 0 0.00016344302408486931 -0.0051982359776269263 0 0.00016125998551467681 -0.0052042141647139998 0 0.00016763005175346587 -0.0051861786538951148 0 0.00016895473965928886 -0.0052031201612045578 0 0.00016344302408486931 -0.0051982359776269263 0 -0.00017745233214987283 0.0005616857381293875 0 -0.00032959548637603425 0.00061451386549493366 0 -0.00037186386148852006 0.00042026229970930866 0 0.00016895473965928886 -0.0052031201612045578 0 0.00016253411255869924 -0.0051744845129763012 0 0.00015964789139954582 -0.0052034949391549156 0 2.1589072177014561e-05 -0.0052758718008041874 0 0.00027547864616237264 -0.0037714323589914398 0 0.00012027412361430988 -0.0019595814954471548 0 0.00027547864616237264 -0.0037714323589914398 0 0.00016763005175346587 -0.0051861786538951148 0 0.00016895473965928886 -0.0052031201612045578 0 0.00016253411255869924 -0.0051744845129763012 0 -0.00017745233214987283 0.0005616857381293875 0 -0.00021555194134407677 0.00065985549684032332 0 -0.00032959548637603425 0.00061451386549493366 0 -0.00023316551659334568 0.00078640706647267614 0 -0.00021555194134407677 0.00065985549684032332 0 -0.00032959548637603425 0.00061451386549493366 0 -0.00023316551659334568 0.00078640706647267614 0 -0.0001277009094965375 0.00067808807872435286 0 -0.00021555194134407677 0.00065985549684032332 0 -0.0001277009094965375 0.00067808807872435286 0 -0.00017745233214987283 0.0005616857381293875 0 -0.00021555194134407677 0.00065985549684032332 0 -0.00023316551659334568 0.00078640706647267614 0 -0.00032959548637603425 0.00061451386549493366 0 -0.00048732615455284589 0.00071480444816978501 0 -0.00032959548637603425 0.00061451386549493366 0 -0.00049076089223335894 0.00052652139053733929 0 -0.00048732615455284589 0.00071480444816978501 0 -0.00032959548637603425 0.00061451386549493366 0 -0.00037186386148852006 0.00042026229970930866 0 -0.00049076089223335894 0.00052652139053733929 0 -0.00049076089223335894 0.00052652139053733929 0 -0.0006397990323666336 0.00049996669246909185 0 -0.00067048307128436788 0.00066037339744073496 0 -0.00037186386148852006 0.00042026229970930866 0 -0.00049076089223335894 0.00052652139053733929 0 -0.00053120747346366087 0.00037674935289567596 0 -0.00049076089223335894 0.00052652139053733929 0 -0.00056960099543545951 0.00045308018602340314 0 -0.0006397990323666336 0.00049996669246909185 0 -0.00049076089223335894 0.00052652139053733929 0 -0.00056960099543545951 0.00045308018602340314 0 -0.00053120747346366087 0.00037674935289567596 0 -0.0006397990323666336 0.00049996669246909185 0 -0.00067048307128436788 0.00066037339744073496 0 -0.00080343014249229211 0.00049217371348165206 0 -0.00056960099543545951 0.00045308018602340314 0 -0.0006397990323666336 0.00049996669246909185 0 -0.00063125753654598199 0.00042399697417587083 0 -0.0006397990323666336 0.00049996669246909185 0 -0.00070870057613413675 0.00044264629817101451 0 -0.00063125753654598199 0.00042399697417587083 0 -0.0006397990323666336 0.00049996669246909185 0 -0.00080343014249229211 0.00049217371348165206 0 -0.00070870057613413675 0.00044264629817101451 0 -0.00067048307128436788 0.00066037339744073496 0 -0.00080343014249229211 0.00049217371348165206 0 -0.0008486880735319287 0.00078381356722844473 0 -0.00067048307128436788 0.00066037339744073496 0 -0.0008486880735319287 0.00078381356722844473 0 -0.00065770614512315631 0.00081581920122255009 0 -0.00067048307128436788 0.00066037339744073496 0 -0.00048732615455284589 0.00071480444816978501 0 -0.00065770614512315631 0.00081581920122255009 0 -0.00049076089223335894 0.00052652139053733929 0 -0.00067048307128436788 0.00066037339744073496 0 -0.00048732615455284589 0.00071480444816978501 0 -0.0012864669491108292 0.0023200338512949525 0 -0.0017328774500235595 0.002156663828047739 0 -0.0015312388658521357 0.0024666927919137758 0 -0.0014516585848678865 0.0017159275292641541 0 -0.0012864669491108292 0.0023200338512949525 0 -0.0017328774500235595 0.002156663828047739 0 -0.00095086869491783964 0.00058177144972863326 0 -0.00080343014249229211 0.00049217371348165206 0 -0.0008486880735319287 0.00078381356722844473 0 -0.0010991046316079199 0.00088249708632498307 0 -0.00095086869491783964 0.00058177144972863326 0 -0.0008486880735319287 0.00078381356722844473 0 -0.0012545049083710535 0.0012712790941642046 0 -0.0013602014906255984 0.0014590408476040412 0 -0.0010991046316079199 0.00088249708632498307 0 -0.0008486880735319287 0.00078381356722844473 0 -0.00095091209171447786 0.00094713718010434715 0 -0.0010991046316079199 0.00088249708632498307 0 -0.00095091209171447786 0.00094713718010434715 0 -0.0010580702810999412 0.001108919017031791 0 -0.0008486880735319287 0.00078381356722844473 0 -0.00095091209171447786 0.00094713718010434715 0 -0.00078412077003027752 0.0010157565859547854 0 -0.00036494937842103349 -4.0966996761416807e-05 0 -0.00064093059541899531 3.2692044475228518e-05 0 -0.00050256496808219302 9.513806660813487e-05 0 -0.00057883831947514483 0.0005007013038598702 0 -0.0008727805060885056 0.0005421245789806894 0 -0.00036494937842103349 -4.0966996761416807e-05 0 -0.0003486621224656056 2.2609203528684513e-05 0 -0.00040760682347361728 7.4722668327607632e-05 0 -0.00036494937842103349 -4.0966996761416807e-05 0 -0.00050256496808219302 9.513806660813487e-05 0 -0.00040760682347361728 7.4722668327607632e-05 0 -0.00095091209171447786 0.00094713718010434715 0 -0.00078412077003027752 0.0010157565859547854 0 -0.0010580702810999412 0.001108919017031791 0 -0.00048732615455284589 0.00071480444816978501 0 -0.00050030284306027729 0.00090327459336961291 0 -0.00065770614512315631 0.00081581920122255009 0 -0.00078412077003027752 0.0010157565859547854 0 -0.00050030284306027729 0.00090327459336961291 0 -0.00065770614512315631 0.00081581920122255009 0 -0.0008486880735319287 0.00078381356722844473 0 -0.00078412077003027752 0.0010157565859547854 0 -0.00065770614512315631 0.00081581920122255009 0 -0.00036494937842103349 -4.0966996761416807e-05 0 -0.00027491693677361045 -6.5032735191931961e-05 0 -0.00030343411222681237 -1.8876697668139226e-05 0 -0.00057883831947514483 0.0005007013038598702 0 -0.00037113657153816829 0.00035221809560010298 0 -0.00036494937842103349 -4.0966996761416807e-05 0 -0.0003486621224656056 2.2609203528684513e-05 0 -0.00030343411222681237 -1.8876697668139226e-05 0 -0.00027857404195676892 -7.9869060838115487e-05 0 -0.00030343411222681237 -1.8876697668139226e-05 0 -0.00028381475545075237 -2.7784779762552183e-05 0 -0.00027857404195676892 -7.9869060838115487e-05 0 -0.00027491693677361045 -6.5032735191931961e-05 0 -0.00030343411222681237 -1.8876697668139226e-05 0 -0.00030343411222681237 -1.8876697668139226e-05 0 -0.00028381475545075237 -2.7784779762552183e-05 0 -0.00033787124109956718 8.2840759705681759e-05 0 -0.00010722658656159581 0.00025963178401056352 0 -0.00024181950916623654 0.0002749362686640941 0 6.8015423330619547e-05 0.00051947213618829978 0 -8.761764707391089e-05 0.00049221157939894592 0 -2.57613187452101e-06 0.00061872840534454333 0 -0.0003486621224656056 2.2609203528684513e-05 0 -0.00033787124109956718 8.2840759705681759e-05 0 -0.00040760682347361728 7.4722668327607632e-05 0 -0.0003486621224656056 2.2609203528684513e-05 0 -0.00030343411222681237 -1.8876697668139226e-05 0 -0.00033787124109956718 8.2840759705681759e-05 0 -9.0040921316739857e-05 0.00056990467784636463 0 -2.57613187452101e-06 0.00061872840534454333 0 -6.1910150613733991e-05 0.00063554635335327054 0 -9.0040921316739857e-05 0.00056990467784636463 0 -6.1910150613733991e-05 0.00063554635335327054 0 -9.7639362505014387e-05 0.00065874239410309936 0 -9.0040921316739857e-05 0.00056990467784636463 0 -8.761764707391089e-05 0.00049221157939894592 0 -2.57613187452101e-06 0.00061872840534454333 0 -6.1910150613733991e-05 0.00063554635335327054 0 -9.7639362505014387e-05 0.00065874239410309936 0 -5.254935740736976e-05 0.00068359700903604544 0 -2.57613187452101e-06 0.00061872840534454333 0 -6.1910150613733991e-05 0.00063554635335327054 0 -5.254935740736976e-05 0.00068359700903604544 0 -2.57613187452101e-06 0.00061872840534454333 0 7.8228891323609034e-05 0.00063996320920018757 0 3.2857162706346667e-05 0.0007277835050131181 0 6.8015423330619547e-05 0.00051947213618829978 0 -2.57613187452101e-06 0.00061872840534454333 0 7.8228891323609034e-05 0.00063996320920018757 0 6.8015423330619547e-05 0.00051947213618829978 0 7.8228891323609034e-05 0.00063996320920018757 0 0.00011714519086512777 0.0005860506313643644 0 -0.00072201767248707398 0.00015575353368991196 0 -0.00060025539409684593 0.00014639341484013328 0 -0.00058605851455197403 0.0002466563964817598 0 -0.00072201767248707398 0.00015575353368991196 0 -0.00064093059541899531 3.2692044475228518e-05 0 -0.00060025539409684593 0.00014639341484013328 0 -0.00064093059541899531 3.2692044475228518e-05 0 -0.00060025539409684593 0.00014639341484013328 0 -0.00050256496808219302 9.513806660813487e-05 0 -0.00060025539409684593 0.00014639341484013328 0 -0.00050256496808219302 9.513806660813487e-05 0 -0.00051055110607621328 0.00023783937570414263 0 -0.00060025539409684593 0.00014639341484013328 0 -0.00051055110607621328 0.00023783937570414263 0 -0.00058605851455197403 0.0002466563964817598 0 -9.0040921316739857e-05 0.00056990467784636463 0 -0.00051055110607621328 0.00023783937570414263 0 -0.00058605851455197403 0.0002466563964817598 0 -0.00024181950916623654 0.0002749362686640941 0 -0.00051075726401099419 0.00025501557981228535 0 -0.00033787124109956718 8.2840759705681759e-05 0 -0.00051055110607621328 0.00023783937570414263 0 -0.00040760682347361728 7.4722668327607632e-05 0 -7.4487695905988766e-05 0.00055849966143299947 0 -0.000369966444888552 0.00045865493591224686 0 -9.0040921316739857e-05 0.00056990467784636463 0 -8.761764707391089e-05 0.00049221157939894592 0 -0.00051055110607621328 0.00023783937570414263 0 -0.00050256496808219302 9.513806660813487e-05 0 -0.00051055110607621328 0.00023783937570414263 0 -0.00040760682347361728 7.4722668327607632e-05 0 -9.0040921316739857e-05 0.00056990467784636463 0 -0.00014546199878413452 0.00068490055417362182 0 -0.00012649042938438706 0.00065533518218630884 0 -9.0040921316739857e-05 0.00056990467784636463 0 -0.00012309179362391203 0.00066741956682750143 0 -0.00012649042938438706 0.00065533518218630884 0 -9.0040921316739857e-05 0.00056990467784636463 0 -9.7639362505014387e-05 0.00065874239410309936 0 -0.00012309179362391203 0.00066741956682750143 0 -9.7639362505014387e-05 0.00065874239410309936 0 -0.00012309179362391203 0.00066741956682750143 0 -0.00012179284724468285 0.00070373550172174698 0 -0.00012309179362391203 0.00066741956682750143 0 -0.00013660000437872 0.00070683271408997 0 -0.00012179284724468285 0.00070373550172174698 0 -0.00012309179362391203 0.00066741956682750143 0 -0.00012649042938438706 0.00065533518218630884 0 -0.00014284511210510328 0.00069161313199530639 0 -0.00014546199878413452 0.00068490055417362182 0 -0.00012649042938438706 0.00065533518218630884 0 -0.00014284511210510328 0.00069161313199530639 0 -0.00014284511210510328 0.00069161313199530639 0 -0.00013660000437872 0.00070683271408997 0 -0.00015249649160796675 0.00072875249930104717 0 -0.00012309179362391203 0.00066741956682750143 0 -0.00014284511210510328 0.00069161313199530639 0 -0.00013660000437872 0.00070683271408997 0 -0.00016224124723641277 0.00071378482120724313 0 -0.00014284511210510328 0.00069161313199530639 0 -0.00015249649160796675 0.00072875249930104717 0 -0.00016224124723641277 0.00071378482120724313 0 -0.00014546199878413452 0.00068490055417362182 0 -0.00014284511210510328 0.00069161313199530639 0 -0.00015895185321423017 0.00077705495041597227 0 -0.00015249649160796675 0.00072875249930104717 0 -0.00013760500619275611 0.00073875510002723163 0 -0.00015895185321423017 0.00077705495041597227 0 -0.00013760500619275611 0.00073875510002723163 0 -0.00013191799645009058 0.00075040659493983753 0 -0.00013660000437872 0.00070683271408997 0 -0.00013760500619275611 0.00073875510002723163 0 -0.00012179284724468285 0.00070373550172174698 0 -0.00013660000437872 0.00070683271408997 0 -0.00015249649160796675 0.00072875249930104717 0 -0.00013760500619275611 0.00073875510002723163 0 -0.00013760500619275611 0.00073875510002723163 0 -0.00011708249471816779 0.00073801230375021337 0 -0.00013191799645009058 0.00075040659493983753 0 -0.00013760500619275611 0.00073875510002723163 0 -0.00011708249471816779 0.00073801230375021337 0 -0.00012179284724468285 0.00070373550172174698 0 -9.7639362505014387e-05 0.00065874239410309936 0 -0.00012179284724468285 0.00070373550172174698 0 -9.6421019045950869e-05 0.00071009712085219373 0 -0.00011708249471816779 0.00073801230375021337 0 -0.00012179284724468285 0.00070373550172174698 0 -9.6421019045950869e-05 0.00071009712085219373 0 -0.00011708249471816779 0.00073801230375021337 0 -9.6421019045950869e-05 0.00071009712085219373 0 -8.1501282591717189e-05 0.00076033282116694104 0 -0.00011708249471816779 0.00073801230375021337 0 -0.00013191799645009058 0.00075040659493983753 0 -8.1501282591717189e-05 0.00076033282116694104 0 -0.00012785790208094401 0.00074860726663916353 0 -9.9454946100753649e-05 0.0007358724665831064 0 -0.00012582842153675058 0.0007030302574938768 0 -0.00013191799645009058 0.00075040659493983753 0 -0.00012903994957606731 0.00071724848429188131 0 7.8228891323609034e-05 0.00063996320920018757 0 3.2857162706346667e-05 0.0007277835050131181 0 0.00015586505082262881 0.00067202308856739214 0 -7.1722837968102421e-05 0.00073952016599280947 0 -9.9454946100753649e-05 0.0007358724665831064 0 -9.6421019045950869e-05 0.00071009712085219373 0 -5.254935740736976e-05 0.00068359700903604544 0 -8.1501282591717189e-05 0.00076033282116694104 0 3.2857162706346667e-05 0.0007277835050131181 0 -5.254935740736976e-05 0.00068359700903604544 0 -8.1501282591717189e-05 0.00076033282116694104 0 -2.57613187452101e-06 0.00061872840534454333 0 3.2857162706346667e-05 0.0007277835050131181 0 -5.254935740736976e-05 0.00068359700903604544 0 -9.7639362505014387e-05 0.00065874239410309936 0 -9.6421019045950869e-05 0.00071009712085219373 0 -5.254935740736976e-05 0.00068359700903604544 0 -0.0001532367242742203 0.00071528080329449364 0 -0.00012903994957606731 0.00071724848429188131 0 -0.00014801558719643412 0.00070162379520998658 0 -0.00013114598091177443 0.00066361076415907545 0 -0.00012903994957606731 0.00071724848429188131 0 -0.00014801558719643412 0.00070162379520998658 0 -0.00016318239048171283 0.00068690486116998234 0 -0.00014801558719643412 0.00070162379520998658 0 -0.00016860199374570613 0.00070950007072422883 0 -0.0001532367242742203 0.00071528080329449364 0 -0.00014801558719643412 0.00070162379520998658 0 -0.00016860199374570613 0.00070950007072422883 0 -0.00018810093193930163 0.00070388088844682277 0 -0.00021567223617899404 0.0004190349734110694 0 -0.00016318239048171283 0.00068690486116998234 0 -0.00018012475292477281 0.00069817674283008055 0 -0.00016860199374570613 0.00070950007072422883 0 -0.00016659772452108052 0.00015418629395429399 0 -0.00024758212658061387 0.00012197780570303845 0 -0.00027736989171693165 0.00020715892676928147 0 -0.00021567223617899404 0.0004190349734110694 0 -0.00052463066520447754 -0.00079164943722126002 0 -0.00021210646493334523 2.4672462555254031e-05 0 -0.00021469049998379516 2.6817283651925804e-05 0 -0.0002202187481499928 2.2749129692775083e-05 0 -0.00021469049998379516 2.6817283651925804e-05 0 -0.00021039713464997297 3.0456191938645036e-05 0 -0.00021659208399330565 3.0252232836504106e-05 0 -0.00021469049998379516 2.6817283651925804e-05 0 -0.00021659208399330565 3.0252232836504106e-05 0 -0.0002202187481499928 2.2749129692775083e-05 0 -0.00014809289736075868 3.9346801294361347e-05 0 -0.00052463066520447754 -0.00079164943722126002 0 -0.0001532367242742203 0.00071528080329449364 0 -0.00016860199374570613 0.00070950007072422883 0 -0.00017582391866429535 0.00072025263721609359 0 -0.00021210646493334523 2.4672462555254031e-05 0 -0.00021469049998379516 2.6817283651925804e-05 0 -0.00021039713464997297 3.0456191938645036e-05 0 -7.1722837968102421e-05 0.00073952016599280947 0 -4.3265910759900199e-06 0.00046718269111965528 0 -0.00018012475292477281 0.00069817674283008055 0 -0.00016860199374570613 0.00070950007072422883 0 -0.00017582391866429535 0.00072025263721609359 0 -0.00021567223617899404 0.0004190349734110694 0 -4.3265910759900199e-06 0.00046718269111965528 0 -4.3265910759900199e-06 0.00046718269111965528 0 3.2904720376029027e-05 0.00056997138802948567 0 7.8228891323609034e-05 0.00063996320920018757 0 0.00013175410834564174 0.00062748904296337804 0 0.00011714519086512777 0.0005860506313643644 0 7.8228891323609034e-05 0.00063996320920018757 0 0.00015586505082262881 0.00067202308856739214 0 0.00013175410834564174 0.00062748904296337804 0 0.00013175410834564174 0.00062748904296337804 0 0.00011714519086512777 0.0005860506313643644 0 0.00015421216741517393 0.00059914202309117523 0 0.00018041117152279955 0.00058002557732606333 0 0.00015421216741517393 0.00059914202309117523 0 0.00014809468660760295 0.00055830482248754132 0 0.00011714519086512777 0.0005860506313643644 0 0.00015421216741517393 0.00059914202309117523 0 0.00014809468660760295 0.00055830482248754132 0 0.00018041117152279955 0.00058002557732606333 0 0.00015421216741517393 0.00059914202309117523 0 0.00018113683890057955 0.00062128368914971888 0 0.00015421216741517393 0.00059914202309117523 0 0.00015224801416273257 0.00064307617792921229 0 0.00018113683890057955 0.00062128368914971888 0 0.00013175410834564174 0.00062748904296337804 0 0.00015421216741517393 0.00059914202309117523 0 0.00015224801416273257 0.00064307617792921229 0 0.00015586505082262881 0.00067202308856739214 0 0.00013175410834564174 0.00062748904296337804 0 0.00015224801416273257 0.00064307617792921229 0 0.00015455092660751968 0.00066570529644881477 0 0.00015224801416273257 0.00064307617792921229 0 0.00018113683890057955 0.00062128368914971888 0 0.00024307266962779266 0.00062460010839270031 0 0.00020287620217188359 0.00059299079778317128 0 0.00018974604733811842 0.00051761899914163267 0 0.00015455092660751968 0.00066570529644881477 0 0.00018113683890057955 0.00062128368914971888 0 0.00024307266962779266 0.00062460010839270031 0 0.00018113683890057955 0.00062128368914971888 0 0.00024307266962779266 0.00062460010839270031 0 0.00020287620217188359 0.00059299079778317128 0 -0.00014809289736075868 3.9346801294361347e-05 0 -7.6582184763763648e-05 3.850829975598033e-05 0 -0.00030388928114782155 -0.00047296892923204053 0 -0.00033303287206143259 -0.00034775280245055441 0 -0.00018566055850798973 -0.00024268799517622347 0 -4.3265910759900199e-06 0.00046718269111965528 0 -0.00014809289736075868 3.9346801294361347e-05 0 -0.00014809289736075868 3.9346801294361347e-05 0 -0.00022253082917027459 -0.00013312538217338362 0 -0.00030388928114782155 -0.00047296892923204053 0 -0.00033303287206143259 -0.00034775280245055441 0 -0.00037456398188953242 -0.00044416913458249967 0 0.00018041117152279955 0.00058002557732606333 0 0.00020287620217188359 0.00059299079778317128 0 0.00018974604733811842 0.00051761899914163267 0 0.00018041117152279955 0.00058002557732606333 0 0.00018113683890057955 0.00062128368914971888 0 0.00020287620217188359 0.00059299079778317128 0 -0.00033303287206143259 -0.00034775280245055441 0 -0.00018566055850798973 -0.00024268799517622347 0 -0.00036784399671045806 -0.00023422401747316468 0 -7.6582184763763648e-05 3.850829975598033e-05 0 -0.00039477311149062214 -0.00018836465984096586 0 -0.00037990785457434496 -0.00017290998721242385 0 -0.00032622906533909219 -0.00015034215798761353 0 -0.00036784399671045806 -0.00023422401747316468 0 -0.00029492484229515318 -0.00017468068920336528 0 -0.00032622906533909219 -0.00015034215798761353 0 -0.00036784399671045806 -0.00023422401747316468 0 -0.00029492484229515318 -0.00017468068920336528 0 -0.00032622906533909219 -0.00015034215798761353 0 -0.00028283416601353694 -0.00011399143240635806 0 -7.6582184763763648e-05 3.850829975598033e-05 0 -0.00019911916424342899 -0.00011776015000677676 0 -0.00027857404195676892 -7.9869060838115487e-05 0 -0.00028381475545075237 -2.7784779762552183e-05 0 -0.00028283416601353694 -0.00011399143240635806 0 -0.00028381475545075237 -2.7784779762552183e-05 0 -0.00027870460347443173 -0.00010747760087971536 0 -0.00028283416601353694 -0.00011399143240635806 0 -0.00010722658656159581 0.00025963178401056352 0 -7.6582184763763648e-05 3.850829975598033e-05 0 6.8015423330619547e-05 0.00051947213618829978 0 0.00018974604733811842 0.00051761899914163267 0 0.00014809468660760295 0.00055830482248754132 0 6.8015423330619547e-05 0.00051947213618829978 0 0.00011714519086512777 0.0005860506313643644 0 0.00014809468660760295 0.00055830482248754132 0 0.00018041117152279955 0.00058002557732606333 0 0.00018974604733811842 0.00051761899914163267 0 0.00014809468660760295 0.00055830482248754132 0 -0.0002078987185396386 0.00035668310614216635 0 -0.00092302253278548317 -0.0021374459924747686 0 -0.00045691769582416396 -0.00019257670028236594 0 -0.00052666035802473017 -0.00015218245145687706 0 -0.00057883451754961077 -0.00042551647534967702 0 -0.0013779933589562309 -0.0055958618042939289 0 -0.0014511275285867429 -0.0052484199195250141 0 -0.0013352636827124694 -0.0053808767812380028 0 -0.001013588019352052 -0.0029854941296239908 0 -0.00092302253278548317 -0.0021374459924747686 0 -0.0014511275285867429 -0.0052484199195250141 0 -0.0013352636827124694 -0.0053808767812380028 0 -0.0013471848729692893 -0.0052178951752173243 0 -0.00045691769582416396 -0.00019257670028236594 0 -0.0005790797497900093 -0.00033819676902973467 0 -0.0004389096606461512 -0.00025221175191857587 0 -0.00037990785457434496 -0.00017290998721242385 0 -0.00045691769582416396 -0.00019257670028236594 0 -0.0004389096606461512 -0.00025221175191857587 0 -0.00037990785457434496 -0.00017290998721242385 0 -0.0004389096606461512 -0.00025221175191857587 0 -0.00036784399671045806 -0.00023422401747316468 0 -0.00033303287206143259 -0.00034775280245055441 0 -0.00036784399671045806 -0.00023422401747316468 0 -0.00043320712845969201 -0.00034192866076872622 0 -0.0004389096606461512 -0.00025221175191857587 0 -0.00036784399671045806 -0.00023422401747316468 0 -0.00043320712845969201 -0.00034192866076872622 0 -0.0005790797497900093 -0.00033819676902973467 0 -0.0004389096606461512 -0.00025221175191857587 0 -0.00043320712845969201 -0.00034192866076872622 0 -0.00037456398188953242 -0.00044416913458249967 0 -0.00048592531061801032 -0.00043959347665394722 0 -0.00038448409167893499 -0.00063375818730916275 0 -0.00030207016243222987 -0.00047173592471886917 0 -0.00037456398188953242 -0.00044416913458249967 0 -0.00038448409167893499 -0.00063375818730916275 0 -0.0005790797497900093 -0.00033819676902973467 0 -0.00043320712845969201 -0.00034192866076872622 0 -0.00048592531061801032 -0.00043959347665394722 0 -0.00043320712845969201 -0.00034192866076872622 0 -0.00037456398188953242 -0.00044416913458249967 0 -0.00048592531061801032 -0.00043959347665394722 0 -0.00033303287206143259 -0.00034775280245055441 0 -0.00043320712845969201 -0.00034192866076872622 0 -0.00037456398188953242 -0.00044416913458249967 0 -0.00092302253278548317 -0.0021374459924747686 0 -0.0013083845382369024 -0.0021766854092941513 0 -0.0005790797497900093 -0.00033819676902973467 0 -0.00048592531061801032 -0.00043959347665394722 0 -0.00060236720737405502 -0.00051146891989668005 0 -0.0014511275285867429 -0.0052484199195250141 0 -0.0013471848729692893 -0.0052178951752173243 0 -0.0014122345185212312 -0.0050753922095385902 0 -0.00092302253278548317 -0.0021374459924747686 0 -0.0012955105526357784 -0.0037627646008485238 0 -0.0013471848729692893 -0.0052178951752173243 0 -0.0014122345185212312 -0.0050753922095385902 0 -0.0013817259606863557 -0.0051041686760059674 0 -0.00098036443585224043 -0.0023515470748497456 0 -0.0010252136575402385 -0.0029930031639809232 0 -0.0012615744894428429 -0.0028575877632308648 0 -0.0012955105526357784 -0.0037627646008485238 0 -0.0011535388944151543 -0.0040671187756574512 0 -0.0013083845382369024 -0.0021766854092941513 0 -0.0012955105526357784 -0.0037627646008485238 0 -0.0013080150189697865 -0.0026759983126841396 0 -0.0011933314714239649 -0.0027440194019036422 0 -0.0012855109234444025 -0.0023815222994146451 0 -0.0011933314714239649 -0.0027440194019036422 0 -0.0012855109234444025 -0.0023815222994146451 0 -0.00098713262940775546 -0.0023682642462058276 0 -0.0013016147816266586 -0.0026257875026245614 0 -0.0012855109234444025 -0.0023815222994146451 0 -0.0016525196633613991 -0.0024191060809195734 0 -0.0013083845382369024 -0.0021766854092941513 0 -0.0013019279403356909 -0.0025489264251571738 0 -0.00048592531061801032 -0.00043959347665394722 0 -0.00060236720737405502 -0.00051146891989668005 0 -0.00038448409167893499 -0.00063375818730916275 0 -0.0013083845382369024 -0.0021766854092941513 0 -0.00052463066520447754 -0.00079164943722126002 0 -0.00052463066520447754 -0.00079164943722126002 0 -0.00097968436412723637 -0.0010320306739404269 0 -0.00024758212658061387 0.00012197780570303845 0 -0.00027736989171693165 0.00020715892676928147 0 -0.00033842289383247554 0.00012080450363638236 0 -0.0012855109234444025 -0.0023815222994146451 0 -0.0016525196633613991 -0.0024191060809195734 0 -0.0014740337412388741 -0.0020293178340653104 0 -0.0012855109234444025 -0.0023815222994146451 0 -0.0011263438771413913 -0.0020422892232667281 0 -0.00098713262940775546 -0.0023682642462058276 0 -0.0012855109234444025 -0.0023815222994146451 0 -0.0014740337412388741 -0.0020293178340653104 0 -0.0011263438771413913 -0.0020422892232667281 0 -0.0010483630777513016 -0.002764845116580828 0 -0.0012394944228562917 -0.0034694237045471317 0 -0.00077370999360941808 -0.0019978959019690723 0 -0.0011263438771413913 -0.0020422892232667281 0 -0.00098713262940775546 -0.0023682642462058276 0 -0.0014701890417375886 -0.0050634158267524529 0 -0.0014752137459570942 -0.0045712263744703821 0 -0.0012639719664159223 -0.0049187462288293087 0 -0.0014752137459570942 -0.0045712263744703821 0 -0.0012639719664159223 -0.0049187462288293087 0 -0.00088593993390873353 -0.0046281867629158488 0 -0.0012955105526357784 -0.0037627646008485238 0 -0.0012394944228562917 -0.0034694237045471317 0 -0.0012639719664159223 -0.0049187462288293087 0 -0.00088593993390873353 -0.0046281867629158488 0 -0.00080890606790664208 -0.0050644292893738526 0 -0.00064768642792904893 -0.0034484399322958904 0 -0.0014014486074515602 -0.0036212211304065683 0 -0.00088593993390873353 -0.0046281867629158488 0 -0.0014014486074515602 -0.0036212211304065683 0 -0.0014752137459570942 -0.0045712263744703821 0 -0.00088593993390873353 -0.0046281867629158488 0 -0.00064768642792904893 -0.0034484399322958904 0 -0.00088593993390873353 -0.0046281867629158488 0 -0.00020995060107023309 -0.0043687970123688956 0 -0.00020995060107023309 -0.0043687970123688956 0 -0.00021898064573286631 -0.0046086315525774354 0 -0.00018549357734398524 -0.0047745572585255391 0 -0.00018549357734398524 -0.0047745572585255391 0 -0.00039839978773871434 -0.0048829994479829275 0 -0.00024584798689307924 -0.0050868654218272653 0 -0.00020995060107023309 -0.0043687970123688956 0 -0.00018549357734398524 -0.0047745572585255391 0 -0.00039839978773871434 -0.0048829994479829275 0 -0.00088593993390873353 -0.0046281867629158488 0 -0.00039839978773871434 -0.0048829994479829275 0 -0.00080890606790664208 -0.0050644292893738526 0 -0.00088593993390873353 -0.0046281867629158488 0 -0.00020995060107023309 -0.0043687970123688956 0 -0.00039839978773871434 -0.0048829994479829275 0 -0.00039839978773871434 -0.0048829994479829275 0 -0.00055263469240391446 -0.005263154539386662 0 -0.00080890606790664208 -0.0050644292893738526 0 -0.00055263469240391446 -0.005263154539386662 0 -0.00083845033860926446 -0.0053215924644259031 0 -0.00080890606790664208 -0.0050644292893738526 0 -0.00039839978773871434 -0.0048829994479829275 0 -0.00055263469240391446 -0.005263154539386662 0 -0.00024584798689307924 -0.0050868654218272653 0 -0.00055263469240391446 -0.005263154539386662 0 -0.00040781270100781383 -0.0053943625383025733 0 -0.00024584798689307924 -0.0050868654218272653 0 -0.00055263469240391446 -0.005263154539386662 0 -0.00040781270100781383 -0.0053943625383025733 0 -0.00061025889155115888 -0.0055408215752270904 0 -0.00055263469240391446 -0.005263154539386662 0 -0.00073896011499488339 -0.0054559419998212498 0 -0.00061025889155115888 -0.0055408215752270904 0 -0.00055263469240391446 -0.005263154539386662 0 -0.00073896011499488339 -0.0054559419998212498 0 -0.00083845033860926446 -0.0053215924644259031 0 -0.00073896011499488339 -0.0054559419998212498 0 -0.00089708698630761995 -0.0054930685124181568 0 -0.00079771360616562596 -0.005619083056961822 0 -0.00073896011499488339 -0.0054559419998212498 0 -0.00089708698630761995 -0.0054930685124181568 0 -0.00083845033860926446 -0.0053215924644259031 0 -0.00083845033860926446 -0.0053215924644259031 0 -0.0010715841527319003 -0.0053657882752027779 0 -0.0010965691030231331 -0.0051703504321371123 0 -0.00089708698630761995 -0.0054930685124181568 0 -0.00083845033860926446 -0.0053215924644259031 0 -0.0010715841527319003 -0.0053657882752027779 0 -0.00089708698630761995 -0.0054930685124181568 0 -0.0010715841527319003 -0.0053657882752027779 0 -0.0010231221422440581 -0.0055247551062930058 0 -0.0011517389641100327 -0.0055029731842367834 0 -0.0012335744925732921 -0.0053428298602623565 0 -0.0010715841527319003 -0.0053657882752027779 0 -0.0011517389641100327 -0.0055029731842367834 0 -0.0010715841527319003 -0.0053657882752027779 0 -0.0010231221422440581 -0.0055247551062930058 0 -0.0012679655731562998 -0.0054969590710435825 0 -0.0011517389641100327 -0.0055029731842367834 0 -0.0012335744925732921 -0.0053428298602623565 0 -0.0012679655731562998 -0.0054969590710435825 0 -0.0013352636827124694 -0.0053808767812380028 0 -0.0012335744925732921 -0.0053428298602623565 0 -0.0013352636827124694 -0.0053808767812380028 0 -0.0013471848729692893 -0.0052178951752173243 0 -0.0012335744925732921 -0.0053428298602623565 0 -0.0013471848729692893 -0.0052178951752173243 0 -0.0012335744925732921 -0.0053428298602623565 0 -0.0012419616069915479 -0.0052051170404157545 0 -0.0012335744925732921 -0.0053428298602623565 0 -0.0010715841527319003 -0.0053657882752027779 0 -0.0012419616069915479 -0.0052051170404157545 0 -0.0012419616069915479 -0.0052051170404157545 0 -0.0012490197343657252 -0.0051007156156673041 0 -0.0010965691030231331 -0.0051703504321371123 0 -0.0010715841527319003 -0.0053657882752027779 0 -0.0012419616069915479 -0.0052051170404157545 0 -0.0010965691030231331 -0.0051703504321371123 0 -0.0012419616069915479 -0.0052051170404157545 0 -0.0013817259606863557 -0.0051041686760059674 0 -0.0012490197343657252 -0.0051007156156673041 0 -0.0013471848729692893 -0.0052178951752173243 0 -0.0012419616069915479 -0.0052051170404157545 0 -0.0013817259606863557 -0.0051041686760059674 0 -0.0012639719664159223 -0.0049187462288293087 0 -0.0013817259606863557 -0.0051041686760059674 0 -0.0012490197343657252 -0.0051007156156673041 0 -0.0014701890417375886 -0.0050634158267524529 0 -0.0012639719664159223 -0.0049187462288293087 0 -0.0013817259606863557 -0.0051041686760059674 0 -0.0012639719664159223 -0.0049187462288293087 0 -0.0012490197343657252 -0.0051007156156673041 0 -0.0010965691030231331 -0.0051703504321371123 0 -0.0012639719664159223 -0.0049187462288293087 0 -0.00080890606790664208 -0.0050644292893738526 0 -0.0010965691030231331 -0.0051703504321371123 0 -0.00083845033860926446 -0.0053215924644259031 0 -0.00080890606790664208 -0.0050644292893738526 0 -0.0010965691030231331 -0.0051703504321371123 0 0.0002706454869939549 -0.0051482007073165087 0 0.00060804214966354506 -0.0052940283470390087 0 0.00058931368750195375 -0.0057034597489688636 0 0.00054440571059037905 -0.0050409296514919138 0 0.0002706454869939549 -0.0051482007073165087 0 0.00060804214966354506 -0.0052940283470390087 0 0.00054440571059037905 -0.0050409296514919138 0 0.0002706454869939549 -0.0051482007073165087 0 0.00033473482346959898 -0.0049644076024702045 0 0.00054440571059037905 -0.0050409296514919138 0 0.0004644089333674405 -0.0048898221518630519 0 0.00033473482346959898 -0.0049644076024702045 0 0.0004644089333674405 -0.0048898221518630519 0 0.00033473482346959898 -0.0049644076024702045 0 0.00028614844663578767 -0.0048703217474930574 0 0.0002706454869939549 -0.0051482007073165087 0 0.00033473482346959898 -0.0049644076024702045 0 0.00015404488731675945 -0.0049351415323134066 0 0.00016510521332722142 -0.0047987469837750601 0 0.00028614844663578767 -0.0048703217474930574 0 0.00015404488731675945 -0.0049351415323134066 0 0.00033473482346959898 -0.0049644076024702045 0 0.00028614844663578767 -0.0048703217474930574 0 0.00015404488731675945 -0.0049351415323134066 0 1.4826208652619081e-05 -0.0047827966917778951 0 0.00016510521332722142 -0.0047987469837750601 0 0.00015404488731675945 -0.0049351415323134066 0 0.0002706454869939549 -0.0051482007073165087 0 9.2740010483082321e-05 -0.0051134472558358058 0 0.00026305296103901475 -0.0053267278351288262 0 0.0002706454869939549 -0.0051482007073165087 0 0.00015404488731675945 -0.0049351415323134066 0 9.2740010483082321e-05 -0.0051134472558358058 0 9.2740010483082321e-05 -0.0051134472558358058 0 -2.6044462347755825e-05 -0.0048874651236691102 0 -8.3752384297916129e-05 -0.0050135224722284415 0 0.00015404488731675945 -0.0049351415323134066 0 9.2740010483082321e-05 -0.0051134472558358058 0 -2.6044462347755825e-05 -0.0048874651236691102 0 1.4826208652619081e-05 -0.0047827966917778951 0 0.00015404488731675945 -0.0049351415323134066 0 -2.6044462347755825e-05 -0.0048874651236691102 0 1.4826208652619081e-05 -0.0047827966917778951 0 -2.6044462347755825e-05 -0.0048874651236691102 0 -0.00011697840782161807 -0.0047166404573008207 0 -0.00018549357734398524 -0.0047745572585255391 0 -2.6044462347755825e-05 -0.0048874651236691102 0 -0.00011697840782161807 -0.0047166404573008207 0 -0.00021898064573286631 -0.0046086315525774354 0 -0.00018549357734398524 -0.0047745572585255391 0 -0.00011697840782161807 -0.0047166404573008207 0 -0.00018549357734398524 -0.0047745572585255391 0 -8.3752384297916129e-05 -0.0050135224722284415 0 -0.00024584798689307924 -0.0050868654218272653 0 -0.00018549357734398524 -0.0047745572585255391 0 -2.6044462347755825e-05 -0.0048874651236691102 0 -8.3752384297916129e-05 -0.0050135224722284415 0 -8.3752384297916129e-05 -0.0050135224722284415 0 -0.00024584798689307924 -0.0050868654218272653 0 -6.6187712859867959e-05 -0.0052308582912216706 0 -0.00040781270100781383 -0.0053943625383025733 0 -0.00024584798689307924 -0.0050868654218272653 0 -0.00023204700799537781 -0.0052744213404344676 0 -0.00024584798689307924 -0.0050868654218272653 0 -0.00023204700799537781 -0.0052744213404344676 0 -6.6187712859867959e-05 -0.0052308582912216706 0 -0.00023204700799537781 -0.0052744213404344676 0 -0.00024347195920084482 -0.0054512388335825395 0 -6.6187712859867959e-05 -0.0052308582912216706 0 -0.00040781270100781383 -0.0053943625383025733 0 -0.00023204700799537781 -0.0052744213404344676 0 -0.00024347195920084482 -0.0054512388335825395 0 -0.00024347195920084482 -0.0054512388335825395 0 -6.6187712859867959e-05 -0.0052308582912216706 0 -7.0315664794629441e-05 -0.0055120704050138107 0 -6.6187712859867959e-05 -0.0052308582912216706 0 9.4773905074454343e-05 -0.0053704297136215728 0 -7.0315664794629441e-05 -0.0055120704050138107 0 9.2740010483082321e-05 -0.0051134472558358058 0 -6.6187712859867959e-05 -0.0052308582912216706 0 9.4773905074454343e-05 -0.0053704297136215728 0 9.2740010483082321e-05 -0.0051134472558358058 0 -8.3752384297916129e-05 -0.0050135224722284415 0 -6.6187712859867959e-05 -0.0052308582912216706 0 9.2740010483082321e-05 -0.0051134472558358058 0 0.00026305296103901475 -0.0053267278351288262 0 8.6886424781966147e-05 -0.0056522136940734997 0 8.7794779770451314e-05 -0.0051340368356736898 0 9.4782387071187956e-05 -0.0055104105769676138 0 0.00026305296103901475 -0.0053267278351288262 0 8.6886424781966147e-05 -0.0056522136940734997 0 0.00050521946406780318 -0.0055081179721053102 0 8.6886424781966147e-05 -0.0056522136940734997 0 0.00050521946406780318 -0.0055081179721053102 0 0.00039890796184879933 -0.0058626930425335491 0 0.0002706454869939549 -0.0051482007073165087 0 0.00026305296103901475 -0.0053267278351288262 0 0.00050521946406780318 -0.0055081179721053102 0 0.0002706454869939549 -0.0051482007073165087 0 0.00028496607536403136 -0.0065483056549519372 0 0.00058931368750195375 -0.0057034597489688636 0 0.00027142122008275453 -0.005212463032254238 0 0.00040609373658560295 -0.0060357488527913667 0 0.00079862596413761726 -0.0062417818292973349 0 0.00028496607536403136 -0.0065483056549519372 0 0.00058931368750195375 -0.0057034597489688636 0 0.00051498926283726095 -0.0064919015530408696 0 0.00044396561372789023 -0.0061918025995753084 0 0.00014862752078429893 -0.00628111922171382 0 0.00071573793478633377 -0.0061312162902935306 0 0.0008824732391827572 -0.0067657263860672135 0 0.00051498926283726095 -0.0064919015530408696 0 0.00071573793478633377 -0.0061312162902935306 0 0.00051498926283726095 -0.0064919015530408696 0 0.00044396561372789023 -0.0061918025995753084 0 0.00071573793478633377 -0.0061312162902935306 0 0.00050521946406780318 -0.0055081179721053102 0 0.00039890796184879933 -0.0058626930425335491 0 0.00065056572782126081 -0.0070517588611520516 0 0.00040609373658560295 -0.0060357488527913667 0 0.00071573793478633377 -0.0061312162902935306 0 0.00044396561372789023 -0.0061918025995753084 0 0.00039890796184879933 -0.0058626930425335491 0 8.6886424781966147e-05 -0.0056522136940734997 0 0.00039890796184879933 -0.0058626930425335491 0 0.00014862752078429893 -0.00628111922171382 0 9.4782387071187956e-05 -0.0055104105769676138 0 0.00014726817104151124 -0.0060275965815576142 0 9.4773905074454343e-05 -0.0053704297136215728 0 0.00013940508936823622 -0.0057741417915271693 0 -7.0315664794629441e-05 -0.0055120704050138107 0 0.00044396561372789023 -0.0061918025995753084 0 0.00039890796184879933 -0.0058626930425335491 0 0.00014862752078429893 -0.00628111922171382 0 0.00013940508936823622 -0.0057741417915271693 0 -0.00024432525108108213 -0.0057420348471726506 0 -0.00033029575692822001 -0.006180020956856329 0 -0.00024347195920084482 -0.0054512388335825395 0 -0.00024432525108108213 -0.0057420348471726506 0 -7.0315664794629441e-05 -0.0055120704050138107 0 0.00013940508936823622 -0.0057741417915271693 0 -0.00024432525108108213 -0.0057420348471726506 0 -7.0315664794629441e-05 -0.0055120704050138107 0 -0.00024347195920084482 -0.0054512388335825395 0 -0.00024432525108108213 -0.0057420348471726506 0 -0.00049411153104193632 -0.0056946818233035478 0 -0.00040781270100781383 -0.0053943625383025733 0 -0.00024347195920084482 -0.0054512388335825395 0 -0.00049411153104193632 -0.0056946818233035478 0 -0.00024432525108108213 -0.0057420348471726506 0 -0.000544194944364837 -0.0059620445735926852 0 -0.00049411153104193632 -0.0056946818233035478 0 -0.00024432525108108213 -0.0057420348471726506 0 -0.000544194944364837 -0.0059620445735926852 0 -0.00033029575692822001 -0.006180020956856329 0 -0.000544194944364837 -0.0059620445735926852 0 -0.00033029575692822001 -0.006180020956856329 0 -0.00075662753611031343 -0.006250107298671888 0 -0.00033029575692822001 -0.006180020956856329 0 -0.00075662753611031343 -0.006250107298671888 0 -0.00077322518885600375 -0.0066257571547732822 0 -0.00033029575692822001 -0.006180020956856329 0 -0.0001614994902763353 -0.006966042667268745 0 -0.00077322518885600375 -0.0066257571547732822 0 -0.00033029575692822001 -0.006180020956856329 0 0.00025159631545006281 -0.0063857354442804232 0 -0.0001614994902763353 -0.006966042667268745 0 0.00051498926283726095 -0.0064919015530408696 0 0.00014862752078429893 -0.00628111922171382 0 0.00023944644930350953 -0.0069184527537235561 0 0.00013940508936823622 -0.0057741417915271693 0 -0.00033029575692822001 -0.006180020956856329 0 0.00025159631545006281 -0.0063857354442804232 0 0.00014726817104151124 -0.0060275965815576142 0 0.00024167918243557011 -0.0066673062311755045 0 0.0008824732391827572 -0.0067657263860672135 0 0.00023944644930350953 -0.0069184527537235561 0 0.00059506102938035343 -0.0072169999815301219 0 0.0008824732391827572 -0.0067657263860672135 0 0.00051498926283726095 -0.0064919015530408696 0 0.00023944644930350953 -0.0069184527537235561 0 -0.00093222757383139786 -0.0058673862123089201 0 -0.0010617011871924186 -0.0058018355507162825 0 -0.00096560528858048137 -0.0057435792566087832 0 -0.0008688779682224807 -0.0057671430859769206 0 -0.00093222757383139786 -0.0058673862123089201 0 -0.00096560528858048137 -0.0057435792566087832 0 -0.0008688779682224807 -0.0057671430859769206 0 -0.00086124849004197001 -0.0059295776501388248 0 -0.00093222757383139786 -0.0058673862123089201 0 -0.00086124849004197001 -0.0059295776501388248 0 -0.00093222757383139786 -0.0058673862123089201 0 -0.00093659620808834261 -0.0060121120168310808 0 -0.00093222757383139786 -0.0058673862123089201 0 -0.00098662802781066612 -0.0059230851144994844 0 -0.00093659620808834261 -0.0060121120168310808 0 -0.00093222757383139786 -0.0058673862123089201 0 -0.00098662802781066612 -0.0059230851144994844 0 -0.0010617011871924186 -0.0058018355507162825 0 -0.00098662802781066612 -0.0059230851144994844 0 -0.0010503038026950658 -0.0059169372718272497 0 -0.001001354680677174 -0.0059816949825124361 0 -0.00098662802781066612 -0.0059230851144994844 0 -0.0010503038026950658 -0.0059169372718272497 0 -0.0010617011871924186 -0.0058018355507162825 0 -0.0011555383866576092 -0.0058547225134237685 0 -0.0010503038026950658 -0.0059169372718272497 0 -0.0010617011871924186 -0.0058018355507162825 0 -0.0011555383866576092 -0.0058547225134237685 0 -0.0010537101471490354 -0.0059881867580091081 0 -0.0010503038026950658 -0.0059169372718272497 0 -0.0012285520329625968 -0.0057172114519778647 0 -0.0011555383866576092 -0.0058547225134237685 0 -0.0010617011871924186 -0.0058018355507162825 0 -0.0010617011871924186 -0.0058018355507162825 0 -0.0010528709097041963 -0.0056403232027994613 0 -0.0011714497602629539 -0.0056265277975043717 0 -0.0010617011871924186 -0.0058018355507162825 0 -0.0010528709097041963 -0.0056403232027994613 0 -0.00096560528858048137 -0.0057435792566087832 0 -0.0012285520329625968 -0.0057172114519778647 0 -0.0010617011871924186 -0.0058018355507162825 0 -0.0011714497602629539 -0.0056265277975043717 0 -0.0012679655731562998 -0.0054969590710435825 0 -0.0011517389641100327 -0.0055029731842367834 0 -0.0011714497602629539 -0.0056265277975043717 0 -0.0011517389641100327 -0.0055029731842367834 0 -0.0010528709097041963 -0.0056403232027994613 0 -0.0010231221422440581 -0.0055247551062930058 0 -0.0011517389641100327 -0.0055029731842367834 0 -0.0010528709097041963 -0.0056403232027994613 0 -0.0011714497602629539 -0.0056265277975043717 0 -0.0010528709097041963 -0.0056403232027994613 0 -0.0009326736235288675 -0.005637314212489546 0 -0.0010231221422440581 -0.0055247551062930058 0 -0.00089708698630761995 -0.0054930685124181568 0 -0.0009326736235288675 -0.005637314212489546 0 -0.0010231221422440581 -0.0055247551062930058 0 -0.0010528709097041963 -0.0056403232027994613 0 -0.0009326736235288675 -0.005637314212489546 0 -0.00096560528858048137 -0.0057435792566087832 0 -0.0008688779682224807 -0.0057671430859769206 0 -0.0009326736235288675 -0.005637314212489546 0 -0.00096560528858048137 -0.0057435792566087832 0 -0.0008688779682224807 -0.0057671430859769206 0 -0.0009326736235288675 -0.005637314212489546 0 -0.00079771360616562596 -0.005619083056961822 0 -0.00089708698630761995 -0.0054930685124181568 0 -0.0009326736235288675 -0.005637314212489546 0 -0.00079771360616562596 -0.005619083056961822 0 -0.00079771360616562596 -0.005619083056961822 0 -0.00061025889155115888 -0.0055408215752270904 0 -0.00072868626895506198 -0.005785749701684887 0 -0.00073896011499488339 -0.0054559419998212498 0 -0.00079771360616562596 -0.005619083056961822 0 -0.00061025889155115888 -0.0055408215752270904 0 -0.0008688779682224807 -0.0057671430859769206 0 -0.00079771360616562596 -0.005619083056961822 0 -0.00072868626895506198 -0.005785749701684887 0 -0.00061025889155115888 -0.0055408215752270904 0 -0.00049411153104193632 -0.0056946818233035478 0 -0.00072868626895506198 -0.005785749701684887 0 -0.00040781270100781383 -0.0053943625383025733 0 -0.00061025889155115888 -0.0055408215752270904 0 -0.00049411153104193632 -0.0056946818233035478 0 -0.00063408033946478579 -0.0058661386155020182 0 -0.00072868626895506198 -0.005785749701684887 0 -0.00076354248620923214 -0.0060155139059669249 0 -0.000544194944364837 -0.0059620445735926852 0 -0.00063408033946478579 -0.0058661386155020182 0 -0.00076354248620923214 -0.0060155139059669249 0 -0.000544194944364837 -0.0059620445735926852 0 -0.00049411153104193632 -0.0056946818233035478 0 -0.00063408033946478579 -0.0058661386155020182 0 -0.00049411153104193632 -0.0056946818233035478 0 -0.00063408033946478579 -0.0058661386155020182 0 -0.00072868626895506198 -0.005785749701684887 0 -0.00086124849004197001 -0.0059295776501388248 0 -0.00072868626895506198 -0.005785749701684887 0 -0.00076354248620923214 -0.0060155139059669249 0 -0.0008688779682224807 -0.0057671430859769206 0 -0.00086124849004197001 -0.0059295776501388248 0 -0.00072868626895506198 -0.005785749701684887 0 -0.00086124849004197001 -0.0059295776501388248 0 -0.00076354248620923214 -0.0060155139059669249 0 -0.00085530378904548896 -0.0060385055014303508 0 -0.00076354248620923214 -0.0060155139059669249 0 -0.00085530378904548896 -0.0060385055014303508 0 -0.00085822418430342841 -0.0061465759261541911 0 -0.00085530378904548896 -0.0060385055014303508 0 -0.00085822418430342841 -0.0061465759261541911 0 -0.00089717085184539162 -0.0060825944166989715 0 -0.00076354248620923214 -0.0060155139059669249 0 -0.00075662753611031343 -0.006250107298671888 0 -0.00085822418430342841 -0.0061465759261541911 0 -0.000544194944364837 -0.0059620445735926852 0 -0.00076354248620923214 -0.0060155139059669249 0 -0.00075662753611031343 -0.006250107298671888 0 -0.00075662753611031343 -0.006250107298671888 0 -0.00085822418430342841 -0.0061465759261541911 0 -0.00091698391963329206 -0.0062277718591368493 0 -0.00075662753611031343 -0.006250107298671888 0 -0.00091698391963329206 -0.0062277718591368493 0 -0.00077322518885600375 -0.0066257571547732822 0 -0.00085822418430342841 -0.0061465759261541911 0 -0.00090579778668815241 -0.0061067981922488489 0 -0.00091698391963329206 -0.0062277718591368493 0 -0.00085822418430342841 -0.0061465759261541911 0 -0.00090579778668815241 -0.0061067981922488489 0 -0.00089717085184539162 -0.0060825944166989715 0 -0.00090579778668815241 -0.0061067981922488489 0 -0.00092187536013806364 -0.0060615596229277079 0 -0.00089875912525120378 -0.0060582416970111509 0 -0.00090579778668815241 -0.0061067981922488489 0 -0.00092187536013806364 -0.0060615596229277079 0 -0.00089717085184539162 -0.0060825944166989715 0 -0.00085530378904548896 -0.0060385055014303508 0 -0.00089717085184539162 -0.0060825944166989715 0 -0.00093659620808834261 -0.0060121120168310808 0 -0.00086124849004197001 -0.0059295776501388248 0 -0.00085530378904548896 -0.0060385055014303508 0 -0.00093659620808834261 -0.0060121120168310808 0 -0.00092187536013806364 -0.0060615596229277079 0 -0.00089717085184539162 -0.0060825944166989715 0 -0.00093659620808834261 -0.0060121120168310808 0 -0.0010537101471490354 -0.0059881867580091081 0 -0.0010503038026950658 -0.0059169372718272497 0 -0.001001354680677174 -0.0059816949825124361 0 -0.0010537101471490354 -0.0059881867580091081 0 -0.0009949527874477703 -0.0060071610947074654 0 -0.001001354680677174 -0.0059816949825124361 0 -0.0009949527874477703 -0.0060071610947074654 0 -0.001001354680677174 -0.0059816949825124361 0 -0.00096050464226296399 -0.0060285306176706237 0 -0.00098662802781066612 -0.0059230851144994844 0 -0.00093659620808834261 -0.0060121120168310808 0 -0.001001354680677174 -0.0059816949825124361 0 -0.00093659620808834261 -0.0060121120168310808 0 -0.001001354680677174 -0.0059816949825124361 0 -0.00096050464226296399 -0.0060285306176706237 0 -0.00092187536013806364 -0.0060615596229277079 0 -0.00093659620808834261 -0.0060121120168310808 0 -0.00096050464226296399 -0.0060285306176706237 0 -0.00096341766960677015 -0.0060211526442251152 0 -0.00096050464226296399 -0.0060285306176706237 0 -0.00091393556257765086 -0.0060476854931978512 0 -0.00096341766960677015 -0.0060211526442251152 0 -0.0009949527874477703 -0.0060071610947074654 0 -0.00096050464226296399 -0.0060285306176706237 0 -0.00096341766960677015 -0.0060211526442251152 0 -0.00086830605109405586 -0.0060338412535211649 0 -0.00091393556257765086 -0.0060476854931978512 0 -0.00092187536013806364 -0.0060615596229277079 0 -0.00096050464226296399 -0.0060285306176706237 0 -0.00091393556257765086 -0.0060476854931978512 0 -0.00092187536013806364 -0.0060615596229277079 0 -0.00091393556257765086 -0.0060476854931978512 0 -0.00089875912525120378 -0.0060582416970111509 0 -0.00091393556257765086 -0.0060476854931978512 0 -0.00089875912525120378 -0.0060582416970111509 0 -0.00086033449051711318 -0.0060234645874671514 0 -0.00086830605109405586 -0.0060338412535211649 0 -0.00091393556257765086 -0.0060476854931978512 0 -0.00086033449051711318 -0.0060234645874671514 0 -0.00086033449051711318 -0.0060234645874671514 0 -0.00080357519970062122 -0.0059102974269071079 0 -0.00079145150488022257 -0.0059885196787307316 0 -0.00089875912525120378 -0.0060582416970111509 0 -0.00086033449051711318 -0.0060234645874671514 0 -0.0008821027711478209 -0.0060117815586747383 0 -0.00086033449051711318 -0.0060234645874671514 0 -0.00080357519970062122 -0.0059102974269071079 0 -0.0008821027711478209 -0.0060117815586747383 0 -0.00080357519970062122 -0.0059102974269071079 0 -0.00086608132126344021 -0.0058673309368768951 0 -0.0008821027711478209 -0.0060117815586747383 0 -0.00080357519970062122 -0.0059102974269071079 0 -0.00078041951041543732 -0.0057501701944464214 0 -0.00067672297602853386 -0.0057367355632150898 0 -0.00078041951041543732 -0.0057501701944464214 0 -0.00086608132126344021 -0.0058673309368768951 0 -0.00081854041770156505 -0.005590413134360042 0 -0.00080357519970062122 -0.0059102974269071079 0 -0.00078041951041543732 -0.0057501701944464214 0 -0.00086608132126344021 -0.0058673309368768951 0 -0.00086608132126344021 -0.0058673309368768951 0 -0.00095255085531331435 -0.0059040607153869095 0 -0.00091402323876274376 -0.0056730793047012401 0 -0.00086608132126344021 -0.0058673309368768951 0 -0.00090996131272686799 -0.0060348033637525056 0 -0.00095255085531331435 -0.0059040607153869095 0 -0.00090579778668815241 -0.0061067981922488489 0 -0.00090996131272686799 -0.0060348033637525056 0 -0.0008821027711478209 -0.0060117815586747383 0 -0.00086608132126344021 -0.0058673309368768951 0 -0.00090996131272686799 -0.0060348033637525056 0 -0.0008821027711478209 -0.0060117815586747383 0 -0.00090579778668815241 -0.0061067981922488489 0 -0.00089875912525120378 -0.0060582416970111509 0 -0.0008821027711478209 -0.0060117815586747383 0 -0.00090579778668815241 -0.0061067981922488489 0 -0.00090996131272686799 -0.0060348033637525056 0 -0.00091698391963329206 -0.0062277718591368493 0 -0.00091698391963329206 -0.0062277718591368493 0 -0.0010409923176093639 -0.0060367344771601293 0 -0.00077322518885600375 -0.0066257571547732822 0 -0.0011666373791619411 -0.0068757896882166497 0 -0.00080408419188789256 -0.0066103110228877566 0 -0.00090996131272686799 -0.0060348033637525056 0 -0.00091698391963329206 -0.0062277718591368493 0 -0.00095255085531331435 -0.0059040607153869095 0 -0.00091698391963329206 -0.0062277718591368493 0 -0.0010409923176093639 -0.0060367344771601293 0 -0.00095255085531331435 -0.0059040607153869095 0 -0.0010409923176093639 -0.0060367344771601293 0 -0.00095255085531331435 -0.0059040607153869095 0 -0.0010336668919680441 -0.0055818021758284458 0 -0.00095255085531331435 -0.0059040607153869095 0 -0.0010336668919680441 -0.0055818021758284458 0 -0.00091402323876274376 -0.0056730793047012401 0 -0.0011666373791619411 -0.0068757896882166497 0 -0.0013903433808263946 -0.00717709200335868 0 -0.0013930735652828866 -0.00781294065953172 0 -0.0012079670323113943 -0.008649653938932347 0 -0.00083614242717625368 -0.008283885365344839 0 -0.0013930735652828866 -0.00781294065953172 0 -0.0012079670323113943 -0.008649653938932347 0 -0.0016838100742821284 -0.0085601752811678977 0 -0.0012079670323113943 -0.008649653938932347 0 -0.00096225058919895406 -0.0089896894199193063 0 -0.0007247582005702808 -0.0088085621805899846 0 -0.0012079670323113943 -0.008649653938932347 0 -0.0015063262154129387 -0.0089450273630691905 0 -0.0012162049448715719 -0.0090765025139660019 0 -0.0012079670323113943 -0.008649653938932347 0 -0.00096225058919895406 -0.0089896894199193063 0 -0.0012162049448715719 -0.0090765025139660019 0 -0.0012079670323113943 -0.008649653938932347 0 -0.0016838100742821284 -0.0085601752811678977 0 -0.0015063262154129387 -0.0089450273630691905 0 -0.0016838100742821284 -0.0085601752811678977 0 -0.0015063262154129387 -0.0089450273630691905 0 -0.0018240033911765324 -0.0090946029928240888 0 -0.0013903433808263946 -0.00717709200335868 0 -0.0013801888458064876 -0.0066779697408607605 0 -0.0010336668919680441 -0.0055818021758284458 0 -0.00089832058575356477 -0.0054874573052862427 0 -0.00090243862773046102 -0.0053395936794192224 0 -0.0016838100742821284 -0.0085601752811678977 0 -0.0020119841389300776 -0.0091380579684620048 0 -0.0018240033911765324 -0.0090946029928240888 0 -0.00089832058575356477 -0.0054874573052862427 0 -0.00079543872148464642 -0.0053945368776265341 0 -0.00090243862773046102 -0.0053395936794192224 0 -0.0008542801750640246 -0.0049368101761952587 0 -0.0013801888458064876 -0.0066779697408607605 0 -0.00079543872148464642 -0.0053945368776265341 0 -0.00070728445895539081 -0.0051692861540101175 0 -0.0006766753071427256 -0.0053535213088384097 0 -0.00079543872148464642 -0.0053945368776265341 0 -0.00070728445895539081 -0.0051692861540101175 0 -0.0010305990065783129 -0.0050731699982236849 0 -0.00089832058575356477 -0.0054874573052862427 0 -0.00079543872148464642 -0.0053945368776265341 0 -0.00081854041770156505 -0.005590413134360042 0 -0.00079543872148464642 -0.0053945368776265341 0 -0.00081854041770156505 -0.005590413134360042 0 -0.0006766753071427256 -0.0053535213088384097 0 -0.00081854041770156505 -0.005590413134360042 0 -0.0006766753071427256 -0.0053535213088384097 0 -0.00070914657669098025 -0.0055843786128532743 0 -0.00078041951041543732 -0.0057501701944464214 0 -0.00081854041770156505 -0.005590413134360042 0 -0.00070914657669098025 -0.0055843786128532743 0 -0.00086608132126344021 -0.0058673309368768951 0 -0.00081854041770156505 -0.005590413134360042 0 -0.00091402323876274376 -0.0056730793047012401 0 -0.0010336668919680441 -0.0055818021758284458 0 -0.00089832058575356477 -0.0054874573052862427 0 -0.00091402323876274376 -0.0056730793047012401 0 -0.00089832058575356477 -0.0054874573052862427 0 -0.00081854041770156505 -0.005590413134360042 0 -0.00091402323876274376 -0.0056730793047012401 0 0.00070630082518286256 -0.0076689126521697131 0 0.00032419599325556601 -0.0078322407317887362 0 0.00071088154505556732 -0.0075275713575501538 0 0.0003119946039406913 -0.007517069493725383 0 0.0003194204827309855 -0.0078262488383831711 0 0.00053199485392531256 -0.0080712877020042064 0 0.00062260253230223602 -0.0078525105821078862 0 0.0003194204827309855 -0.0078262488383831711 0 0.00079782046981579377 -0.0081124610209836207 0 0.00053199485392531256 -0.0080712877020042064 0 0.00058490268432549221 -0.0083738422500649647 0 0.00053199485392531256 -0.0080712877020042064 0 0.0003194204827309855 -0.0078262488383831711 0 0.0003259426865180912 -0.0082678775232560842 0 0.00079782046981579377 -0.0081124610209836207 0 0.00053199485392531256 -0.0080712877020042064 0 0.00062260253230223602 -0.0078525105821078862 0 0.00059506102938035343 -0.0072169999815301219 0 0.00071088154505556732 -0.0075275713575501538 0 0.0003119946039406913 -0.007517069493725383 0 0.00024167918243557011 -0.0066673062311755045 0 0.00031021605831930992 -0.0074679457534260725 0 0.0003119946039406913 -0.007517069493725383 0 -1.688749039591846e-05 -0.0076942558111607051 0 -0.0001614994902763353 -0.006966042667268745 0 0.00025159631545006281 -0.0063857354442804232 0 0.0003119946039406913 -0.007517069493725383 0 -0.0001614994902763353 -0.006966042667268745 0 0.00023944644930350953 -0.0069184527537235561 0 0.00059506102938035343 -0.0072169999815301219 0 0.0003119946039406913 -0.007517069493725383 0 0.0003119946039406913 -0.007517069493725383 0 -1.688749039591846e-05 -0.0076942558111607051 0 0.00019342951531140507 -0.0077642589306357078 0 -1.688749039591846e-05 -0.0076942558111607051 0 0.00019342951531140507 -0.0077642589306357078 0 0.0001618921802713967 -0.0080033557457525242 0 0.0003119946039406913 -0.007517069493725383 0 0.0003194204827309855 -0.0078262488383831711 0 0.00019342951531140507 -0.0077642589306357078 0 0.0003194204827309855 -0.0078262488383831711 0 0.00019342951531140507 -0.0077642589306357078 0 0.0001618921802713967 -0.0080033557457525242 0 0.0003194204827309855 -0.0078262488383831711 0 0.0001618921802713967 -0.0080033557457525242 0 0.0003259426865180912 -0.0082678775232560842 0 -1.688749039591846e-05 -0.0076942558111607051 0 0.0001618921802713967 -0.0080033557457525242 0 -3.4099104010757425e-05 -0.0082000832023745567 0 -0.00034634267383423746 -0.0076195836598338448 0 -0.00041002779044477917 -0.0081643048615089708 0 -3.4099104010757425e-05 -0.0082000832023745567 0 -1.688749039591846e-05 -0.0076942558111607051 0 -0.00034634267383423746 -0.0076195836598338448 0 -3.4099104010757425e-05 -0.0082000832023745567 0 -0.00034634267383423746 -0.0076195836598338448 0 -0.00078976373920604378 -0.0076850372744795897 0 -0.00041002779044477917 -0.0081643048615089708 0 -0.00034634267383423746 -0.0076195836598338448 0 -0.0001614994902763353 -0.006966042667268745 0 -0.00077322518885600375 -0.0066257571547732822 0 -1.688749039591846e-05 -0.0076942558111607051 0 -0.00034634267383423746 -0.0076195836598338448 0 -0.0001614994902763353 -0.006966042667268745 0 -0.00034634267383423746 -0.0076195836598338448 0 -0.00077322518885600375 -0.0066257571547732822 0 -0.00078976373920604378 -0.0076850372744795897 0 -0.0013930735652828866 -0.00781294065953172 0 -0.00078976373920604378 -0.0076850372744795897 0 -0.00083614242717625368 -0.008283885365344839 0 -0.0013930735652828866 -0.00781294065953172 0 -0.00077322518885600375 -0.0066257571547732822 0 -0.00078976373920604378 -0.0076850372744795897 0 -0.00083614242717625368 -0.008283885365344839 0 -0.0007247582005702808 -0.0088085621805899846 0 -0.00048636970491966171 -0.008556102159494941 0 -0.00078976373920604378 -0.0076850372744795897 0 -0.00083614242717625368 -0.008283885365344839 0 -0.00041002779044477917 -0.0081643048615089708 0 -0.00083614242717625368 -0.008283885365344839 0 -0.00048636970491966171 -0.008556102159494941 0 -0.00041002779044477917 -0.0081643048615089708 0 -0.0012079670323113943 -0.008649653938932347 0 -0.00083614242717625368 -0.008283885365344839 0 -0.0007247582005702808 -0.0088085621805899846 0 -0.00096225058919895406 -0.0089896894199193063 0 -0.0007247582005702808 -0.0088085621805899846 0 -0.00074446285198394128 -0.0091327026185722086 0 -0.0007247582005702808 -0.0088085621805899846 0 -0.00036590936217734262 -0.0088691601453204719 0 -0.00048636970491966171 -0.008556102159494941 0 -0.0007247582005702808 -0.0088085621805899846 0 -0.00036590936217734262 -0.0088691601453204719 0 -0.00043020377703011152 -0.0091939032723577369 0 -0.00036590936217734262 -0.0088691601453204719 0 -7.7995901982509964e-05 -0.0090007158477604116 0 -0.00043020377703011152 -0.0091939032723577369 0 -0.00036590936217734262 -0.0088691601453204719 0 -0.00048636970491966171 -0.008556102159494941 0 -0.00010336315636501614 -0.0085979105776563102 0 -0.00036590936217734262 -0.0088691601453204719 0 -0.00010336315636501614 -0.0085979105776563102 0 -7.7995901982509964e-05 -0.0090007158477604116 0 -0.00048636970491966171 -0.008556102159494941 0 -0.00041002779044477917 -0.0081643048615089708 0 -0.00010336315636501614 -0.0085979105776563102 0 -0.00041002779044477917 -0.0081643048615089708 0 -3.4099104010757425e-05 -0.0082000832023745567 0 -0.00010336315636501614 -0.0085979105776563102 0 -3.4099104010757425e-05 -0.0082000832023745567 0 0.0003259426865180912 -0.0082678775232560842 0 0.00021610224438483488 -0.0086421921392201787 0 0.0001618921802713967 -0.0080033557457525242 0 -3.4099104010757425e-05 -0.0082000832023745567 0 0.0003259426865180912 -0.0082678775232560842 0 -3.4099104010757425e-05 -0.0082000832023745567 0 0.00021610224438483488 -0.0086421921392201787 0 -0.00010336315636501614 -0.0085979105776563102 0 0.00021610224438483488 -0.0086421921392201787 0 -0.00010336315636501614 -0.0085979105776563102 0 -7.7995901982509964e-05 -0.0090007158477604116 0 -7.7995901982509964e-05 -0.0090007158477604116 0 0.00032563288540657067 -0.0090370254269182358 0 0.00011001792856758574 -0.0093409894274953595 0 0.00021610224438483488 -0.0086421921392201787 0 -7.7995901982509964e-05 -0.0090007158477604116 0 0.00032563288540657067 -0.0090370254269182358 0 0.00021610224438483488 -0.0086421921392201787 0 0.00032563288540657067 -0.0090370254269182358 0 0.00051173299450300348 -0.0087280562576884241 0 0.00069649012868993915 -0.0090330385949895474 0 0.00032563288540657067 -0.0090370254269182358 0 0.00045476333678104523 -0.0094679705711829178 0 0.00069649012868993915 -0.0090330385949895474 0 0.00032563288540657067 -0.0090370254269182358 0 0.00051173299450300348 -0.0087280562576884241 0 0.00080668218844874313 -0.0085593540704265482 0 0.00051173299450300348 -0.0087280562576884241 0 0.00058490268432549221 -0.0083738422500649647 0 0.0003259426865180912 -0.0082678775232560842 0 0.00021610224438483488 -0.0086421921392201787 0 0.00051173299450300348 -0.0087280562576884241 0 0.00053199485392531256 -0.0080712877020042064 0 0.0003259426865180912 -0.0082678775232560842 0 0.00058490268432549221 -0.0083738422500649647 0 0.0003259426865180912 -0.0082678775232560842 0 0.00051173299450300348 -0.0087280562576884241 0 0.00058490268432549221 -0.0083738422500649647 0 0.0003148992889075557 -0.0099719826311683822 0 0.00045476333678104523 -0.0094679705711829178 0 2.3308579582737189e-05 -0.0097566285846524357 0 0.0006292415638902573 -0.0098645299800109616 0 0.0003148992889075557 -0.0099719826311683822 0 0.00045476333678104523 -0.0094679705711829178 0 0.00045476333678104523 -0.0094679705711829178 0 0.00011001792856758574 -0.0093409894274953595 0 2.3308579582737189e-05 -0.0097566285846524357 0 0.00032563288540657067 -0.0090370254269182358 0 0.00045476333678104523 -0.0094679705711829178 0 0.00011001792856758574 -0.0093409894274953595 0 -7.7995901982509964e-05 -0.0090007158477604116 0 0.00011001792856758574 -0.0093409894274953595 0 -0.00018214628518635294 -0.0094619104131789412 0 0.00011001792856758574 -0.0093409894274953595 0 2.3308579582737189e-05 -0.0097566285846524357 0 -0.00018214628518635294 -0.0094619104131789412 0 2.3308579582737189e-05 -0.0097566285846524357 0 -0.000355276897757208 -0.0097036032575927023 0 -0.00018214628518635294 -0.0094619104131789412 0 2.3308579582737189e-05 -0.0097566285846524357 0 -0.000355276897757208 -0.0097036032575927023 0 -0.00020151786778504403 -0.010008487864877239 0 -0.000355276897757208 -0.0097036032575927023 0 -0.00060369685121791801 -0.0097619783004418911 0 -0.00043593025581853759 -0.0099346436168219632 0 -0.000355276897757208 -0.0097036032575927023 0 -0.00039919721860524421 -0.0094571319040486351 0 -0.00063276396723864698 -0.0094577346637061202 0 -0.000355276897757208 -0.0097036032575927023 0 -0.00018214628518635294 -0.0094619104131789412 0 -0.00039919721860524421 -0.0094571319040486351 0 -7.7995901982509964e-05 -0.0090007158477604116 0 -0.00018214628518635294 -0.0094619104131789412 0 -0.00043020377703011152 -0.0091939032723577369 0 -0.00043020377703011152 -0.0091939032723577369 0 -0.00039919721860524421 -0.0094571319040486351 0 -0.00063276396723864698 -0.0094577346637061202 0 -0.00018214628518635294 -0.0094619104131789412 0 -0.00043020377703011152 -0.0091939032723577369 0 -0.00039919721860524421 -0.0094571319040486351 0 -0.00043020377703011152 -0.0091939032723577369 0 -0.00063276396723864698 -0.0094577346637061202 0 -0.00074446285198394128 -0.0091327026185722086 0 -0.0007247582005702808 -0.0088085621805899846 0 -0.00043020377703011152 -0.0091939032723577369 0 -0.00074446285198394128 -0.0091327026185722086 0 -0.00096225058919895406 -0.0089896894199193063 0 -0.00074446285198394128 -0.0091327026185722086 0 -0.00091524143824254058 -0.0092645236484634758 0 -0.00063276396723864698 -0.0094577346637061202 0 -0.0007842114317213267 -0.0095827280003452173 0 -0.00091524143824254058 -0.0092645236484634758 0 -0.00063276396723864698 -0.0094577346637061202 0 -0.00074446285198394128 -0.0091327026185722086 0 -0.00091524143824254058 -0.0092645236484634758 0 -0.00063276396723864698 -0.0094577346637061202 0 -0.0007842114317213267 -0.0095827280003452173 0 -0.00060369685121791801 -0.0097619783004418911 0 -0.000355276897757208 -0.0097036032575927023 0 -0.00063276396723864698 -0.0094577346637061202 0 -0.00060369685121791801 -0.0097619783004418911 0 -0.0007842114317213267 -0.0095827280003452173 0 -0.00060369685121791801 -0.0097619783004418911 0 -0.00080114238652244331 -0.0098046135830597032 0 -0.0006415014342255836 -0.0099841208740139454 0 -0.00080114238652244331 -0.0098046135830597032 0 -0.00082278066014699366 -0.0099751955819106907 0 -0.00060369685121791801 -0.0097619783004418911 0 -0.0006415014342255836 -0.0099841208740139454 0 -0.00080114238652244331 -0.0098046135830597032 0 -0.00060369685121791801 -0.0097619783004418911 0 -0.0006415014342255836 -0.0099841208740139454 0 -0.00043593025581853759 -0.0099346436168219632 0 -0.0006415014342255836 -0.0099841208740139454 0 -0.00037533061142262829 -0.010142743808278867 0 -0.00043593025581853759 -0.0099346436168219632 0 -0.00059135458200107135 -0.01008413837938286 0 -0.00037533061142262829 -0.010142743808278867 0 -0.00039587000046737976 -0.010347048335962741 0 -0.0006415014342255836 -0.0099841208740139454 0 -0.00059135458200107135 -0.01008413837938286 0 -0.00074942488485928648 -0.0099864656004294006 0 -0.00059135458200107135 -0.01008413837938286 0 -0.00071544148486219969 -0.0099114580653424326 0 -0.00057331140613900509 -0.010250352823253745 0 -0.0006415014342255836 -0.0099841208740139454 0 -0.00059135458200107135 -0.01008413837938286 0 -0.00037533061142262829 -0.010142743808278867 0 -0.00037533061142262829 -0.010142743808278867 0 -8.0495688463610456e-05 -0.010242288652874144 0 -9.8474167614666903e-05 -0.010421494376949586 0 -0.00037533061142262829 -0.010142743808278867 0 -0.00020151786778504403 -0.010008487864877239 0 -8.0495688463610456e-05 -0.010242288652874144 0 -0.00037533061142262829 -0.010142743808278867 0 -0.00043593025581853759 -0.0099346436168219632 0 -0.00020151786778504403 -0.010008487864877239 0 -0.000355276897757208 -0.0097036032575927023 0 -0.00043593025581853759 -0.0099346436168219632 0 -0.00020151786778504403 -0.010008487864877239 0 2.3308579582737189e-05 -0.0097566285846524357 0 -0.00020151786778504403 -0.010008487864877239 0 0.00011633565953312881 -0.010173574998272187 0 -0.00020151786778504403 -0.010008487864877239 0 0.00011633565953312881 -0.010173574998272187 0 -8.0495688463610456e-05 -0.010242288652874144 0 0.00011633565953312881 -0.010173574998272187 0 -8.0495688463610456e-05 -0.010242288652874144 0 0.00016022251717009105 -0.010433168375643566 0 -8.0495688463610456e-05 -0.010242288652874144 0 0.00016022251717009105 -0.010433168375643566 0 -9.8474167614666903e-05 -0.010421494376949586 0 0.00062028480552459139 -0.010557702362287069 0 0.00011633565953312881 -0.010173574998272187 0 0.00016022251717009105 -0.010433168375643566 0 0.00062028480552459139 -0.010557702362287069 0 0.00016022251717009105 -0.010433168375643566 0 0.00016561305176468344 -0.010562240627353994 0 0.00062028480552459139 -0.010557702362287069 0 0.0003148992889075557 -0.0099719826311683822 0 0.00011633565953312881 -0.010173574998272187 0 0.0003148992889075557 -0.0099719826311683822 0 2.3308579582737189e-05 -0.0097566285846524357 0 0.00011633565953312881 -0.010173574998272187 0 -0.00070029259768211131 -0.0060478529542360594 0 -0.00071097280553068895 -0.0061834155421430946 0 -0.0010078080939624368 -0.0060824951341434362 0 -0.00070029259768211131 -0.0060478529542360594 0 -0.0010078080939624368 -0.0060824951341434362 0 -0.00087924429981612413 -0.0059033366057089929 0 -0.00045120958813038835 -0.0039775490587705443 0 -0.00029819900036713831 -0.0040045876481305982 0 -0.00034105794688067659 -0.0039004167555816479 0 -0.00073263783286977647 -0.0070272774493965341 0 -0.00065997681714032898 -0.0045865689186823629 0 -0.001162773972071777 -0.0075566469850064447 0 -0.0011240750801869734 -0.0055688130068868103 0 -0.00083826211600741027 -0.0072194959414631022 0 -0.00085940787678629935 -0.007473704382619603 0 -0.0017116090645824321 -0.0068094435613775574 0 -0.0014957496281806297 -0.0079968239492509748 0 -0.0015153042091978072 -0.0082386228956259581 0 -0.0011160602736674816 -0.0085456332659807586 0 -0.0013962354328219608 -0.0084616882921551822 0 -0.0011100769651588745 -0.0087046816288760698 0 -0.0013962354328219608 -0.0084616882921551822 0 -0.001162773972071777 -0.0075566469850064447 0 -0.0011872483496852785 -0.0077287641561293585 0 -0.0012359319409564445 -0.00831684547895278 0 -0.00080574722489673328 -0.0080249384751205095 0 -0.001162773972071777 -0.0075566469850064447 0 -0.00073263783286977647 -0.0070272774493965341 0 -0.001162773972071777 -0.0075566469850064447 0 -0.0011100769651588745 -0.0087046816288760698 0 -0.0003349908517184517 -0.0040177837528262506 0 -0.00025542017059331683 -0.003918803976834623 0 -0.00017783972486180817 -0.003967081987932386 0 -0.00065997681714032898 -0.0045865689186823629 0 -0.00017807798429808814 -0.0038349309252308423 0 -0.00065997681714032898 -0.0045865689186823629 0 -0.0011240750801869734 -0.0055688130068868103 0 -0.0011615583713647844 -0.0040326215935347198 0 -0.0009764307907453644 -0.0043584116330454437 0 -0.0013746918388607601 -0.0043381774158060193 0 -0.00070728445895539081 -0.0051692861540101175 0 -0.0010305990065783129 -0.0050731699982236849 0 -0.00096872343519869035 -0.0049868197181060373 0 -0.00088748905860449093 -0.00481991891660076 0 -0.0011240750801869734 -0.0055688130068868103 0 -0.00095264553504317861 -0.0046725706382754776 0 -0.0009764307907453644 -0.0043584116330454437 0 -0.0013746918388607601 -0.0043381774158060193 0 -0.0013801888458064876 -0.0066779697408607605 0 -0.0011240750801869734 -0.0055688130068868103 0 -0.00083826211600741027 -0.0072194959414631022 0 -0.0014094143396201192 -0.0063842961998969621 0 -0.0017116090645824321 -0.0068094435613775574 0 -0.0013962354328219608 -0.0084616882921551822 0 -0.0017622475911112259 -0.0093699101083629961 0 -0.0018461326678969065 -0.0093544028757345521 0 -0.0020119841389300776 -0.0091380579684620048 0 -0.0018240033911765324 -0.0090946029928240888 0 -0.0013962354328219608 -0.0084616882921551822 0 -0.0013801888458064876 -0.0066779697408607605 0 -0.0018464848029652236 -0.0094545849077843063 0 -0.0018240033911765324 -0.0090946029928240888 0 -0.0016434688563471795 -0.0092714569961202722 0 -0.0015063262154129387 -0.0089450273630691905 0 -0.0018240033911765324 -0.0090946029928240888 0 -0.0016434688563471795 -0.0092714569961202722 0 -0.0015063262154129387 -0.0089450273630691905 0 -0.001407133310656823 -0.0092940588998535606 0 -0.0016434688563471795 -0.0092714569961202722 0 -0.0015063262154129387 -0.0089450273630691905 0 -0.001407133310656823 -0.0092940588998535606 0 -0.0012162049448715719 -0.0090765025139660019 0 -0.001407133310656823 -0.0092940588998535606 0 -0.0016434688563471795 -0.0092714569961202722 0 -0.0015768522133707548 -0.0094675464295866096 0 -0.00096225058919895406 -0.0089896894199193063 0 -0.0012162049448715719 -0.0090765025139660019 0 -0.00091524143824254058 -0.0092645236484634758 0 -0.001407133310656823 -0.0092940588998535606 0 -0.0012162049448715719 -0.0090765025139660019 0 -0.0011296574742675461 -0.0093689649544268627 0 -0.0012162049448715719 -0.0090765025139660019 0 -0.0011296574742675461 -0.0093689649544268627 0 -0.00091524143824254058 -0.0092645236484634758 0 -0.0007842114317213267 -0.0095827280003452173 0 -0.0011296574742675461 -0.0093689649544268627 0 -0.00091524143824254058 -0.0092645236484634758 0 -0.0007842114317213267 -0.0095827280003452173 0 -0.0011296574742675461 -0.0093689649544268627 0 -0.0010118978002070008 -0.0096144172132200181 0 -0.0011296574742675461 -0.0093689649544268627 0 -0.0010118978002070008 -0.0096144172132200181 0 -0.0013428001605823097 -0.0096165773086377675 0 -0.001407133310656823 -0.0092940588998535606 0 -0.0011296574742675461 -0.0093689649544268627 0 -0.0013428001605823097 -0.0096165773086377675 0 -0.0013428001605823097 -0.0096165773086377675 0 -0.0012923573292226253 -0.0099439431453204694 0 -0.0010310734854522394 -0.0098129991352122921 0 -0.0010118978002070008 -0.0096144172132200181 0 -0.0013428001605823097 -0.0096165773086377675 0 -0.0010310734854522394 -0.0098129991352122921 0 -0.0010118978002070008 -0.0096144172132200181 0 -0.00080114238652244331 -0.0098046135830597032 0 -0.0010310734854522394 -0.0098129991352122921 0 -0.0007842114317213267 -0.0095827280003452173 0 -0.0010118978002070008 -0.0096144172132200181 0 -0.00080114238652244331 -0.0098046135830597032 0 -0.0018464848029652236 -0.0094545849077843063 0 -0.0015768522133707548 -0.0094675464295866096 0 -0.0016945207695129693 -0.009667582131040995 0 -0.0015768522133707548 -0.0094675464295866096 0 -0.0013428001605823097 -0.0096165773086377675 0 -0.0016945207695129693 -0.009667582131040995 0 -0.0018464848029652236 -0.0094545849077843063 0 -0.0016434688563471795 -0.0092714569961202722 0 -0.0015768522133707548 -0.0094675464295866096 0 -0.001407133310656823 -0.0092940588998535606 0 -0.0015768522133707548 -0.0094675464295866096 0 -0.0013428001605823097 -0.0096165773086377675 0 -0.0013428001605823097 -0.0096165773086377675 0 -0.0016945207695129693 -0.009667582131040995 0 -0.0012923573292226253 -0.0099439431453204694 0 -0.0011100769651588745 -0.0087046816288760698 0 -0.00082939950134715095 -0.0097325995504222145 0 -0.0012359319409564445 -0.00831684547895278 0 -0.00080574722489673328 -0.0080249384751205095 0 -0.000437859673603296 -0.0085635028757298001 0 -0.0011100769651588745 -0.0087046816288760698 0 -0.00048035155860532699 -0.0094490880408159336 0 -0.00073263783286977647 -0.0070272774493965341 0 -0.00048035155860532699 -0.0094490880408159336 0 0.00048920006601873992 -0.010732317869905715 0 -0.00040602553076731076 -0.010463117800889998 0 -6.7471140753574084e-05 -0.0095915550802902899 0 -0.0011181437688214809 -0.009033191351391516 0 -0.00088059262409637031 -0.009385327402473876 0 -0.00053545736167267557 -0.0094928530176091545 0 -0.00074757798012538474 -0.0099919198394089973 0 -0.00075271704187144888 -0.0099922927701537271 0 -0.00075151234967161271 -0.0099843817146664775 0 -0.00048035155860532699 -0.0094490880408159336 0 -0.00082939950134715095 -0.0097325995504222145 0 -0.00048035155860532699 -0.0094490880408159336 0 -0.00080971706861558722 -0.0097851801088805358 0 -0.00040602553076731076 -0.010463117800889998 0 -0.00059853979681614706 -0.0094902225405952608 0 -0.0010639545928608084 -0.0093086990945776601 0 -0.00040602553076731076 -0.010463117800889998 0 -0.00059853979681614706 -0.0094902225405952608 0 -6.7471140753574084e-05 -0.0095915550802902899 0 -0.00080114238652244331 -0.0098046135830597032 0 -0.0010310734854522394 -0.0098129991352122921 0 -0.00082278066014699366 -0.0099751955819106907 0 -0.0007301027850363693 -0.010016615449108921 0 -0.00075684995195016928 -0.0099918856027433351 0 -0.00082278066014699366 -0.0099751955819106907 0 -0.0012923573292226253 -0.0099439431453204694 0 -0.0010310734854522394 -0.0098129991352122921 0 -0.00082278066014699366 -0.0099751955819106907 0 -0.00082939950134715095 -0.0097325995504222145 0 -0.00087781415496662415 -0.0099265813367973438 0 -0.00082939950134715095 -0.0097325995504222145 0 -0.00075323535497752317 -0.0098290313390149656 0 -0.00075271704187144888 -0.0099922927701537271 0 -0.00075684995195016928 -0.0099918856027433351 0 -0.00075151234967161271 -0.0099843817146664775 0 -0.00077091723273973176 -0.0099785238143240036 0 -0.00075151234967161271 -0.0099843817146664775 0 -0.00074942488485928648 -0.0099864656004294006 0 -0.00075684995195016928 -0.0099918856027433351 0 -0.00077091723273973176 -0.0099785238143240036 0 -0.00075151234967161271 -0.0099843817146664775 0 -0.00075684995195016928 -0.0099918856027433351 0 -0.00077091723273973176 -0.0099785238143240036 0 -0.00082278066014699366 -0.0099751955819106907 0 -0.00077091723273973176 -0.0099785238143240036 0 -0.00082278066014699366 -0.0099751955819106907 0 -0.00074942488485928648 -0.0099864656004294006 0 -0.0006415014342255836 -0.0099841208740139454 0 -0.00082278066014699366 -0.0099751955819106907 0 -0.00074942488485928648 -0.0099864656004294006 0 -0.00071544148486219969 -0.0099114580653424326 0 -0.0010709616459134244 -0.0093250068932143951 0 -0.0008253091918814481 -0.010389662212572133 0 -0.0010714379325712103 -0.0092834783184325125 0 -0.0011523404391963815 -0.0086404020381104715 0 -0.00080971706861558722 -0.0097851801088805358 0 -0.00077816701633462784 -0.0098254072389862921 0 -0.0010639545928608084 -0.0093086990945776601 0 -0.00071544148486219969 -0.0099114580653424326 0 -0.0010709616459134244 -0.0093250068932143951 0 -0.00075151234967161271 -0.0099843817146664775 0 -0.00074942488485928648 -0.0099864656004294006 0 -0.00071544148486219969 -0.0099114580653424326 0 -0.00059135458200107135 -0.01008413837938286 0 -0.00074942488485928648 -0.0099864656004294006 0 -0.00071544148486219969 -0.0099114580653424326 0 -0.00059853979681614706 -0.0094902225405952608 0 -6.7471140753574084e-05 -0.0095915550802902899 0 -0.00027290022428954627 -0.0090203338042523541 0 -6.7471140753574084e-05 -0.0095915550802902899 0 -0.00027290022428954627 -0.0090203338042523541 0 0.00073401406331393109 -0.00891229415259478 0 -0.00059853979681614706 -0.0094902225405952608 0 -0.00027290022428954627 -0.0090203338042523541 0 -0.0010709616459134244 -0.0093250068932143951 0 -0.00059853979681614706 -0.0094902225405952608 0 -0.0010639545928608084 -0.0093086990945776601 0 -0.0010709616459134244 -0.0093250068932143951 0 -0.00027290022428954627 -0.0090203338042523541 0 -0.0010709616459134244 -0.0093250068932143951 0 -0.00027842870132981426 -0.0077128325393918179 0 -0.00027290022428954627 -0.0090203338042523541 0 0.00073401406331393109 -0.00891229415259478 0 -0.00027842870132981426 -0.0077128325393918179 0 -0.00073263783286977647 -0.0070272774493965341 0 0.00021582787082845444 -0.0063829405015030909 0 -0.00045120958813038835 -0.0039775490587705443 0 -0.000411530535073941 -0.0037506739636990619 0 -0.00034105794688067659 -0.0039004167555816479 0 0.00048920006601873992 -0.010732317869905715 0 -6.7471140753574084e-05 -0.0095915550802902899 0 0.00073401406331393109 -0.00891229415259478 0 -0.000411530535073941 -0.0037506739636990619 0 -0.00034105794688067659 -0.0039004167555816479 0 -0.00026855657557223504 -0.0038013001482063145 0 -0.00029819900036713831 -0.0040045876481305982 0 -0.00025542017059331683 -0.003918803976834623 0 -0.00034105794688067659 -0.0039004167555816479 0 -0.00025542017059331683 -0.003918803976834623 0 -0.00034105794688067659 -0.0039004167555816479 0 -0.00026855657557223504 -0.0038013001482063145 0 -0.000411530535073941 -0.0037506739636990619 0 -0.00026855657557223504 -0.0038013001482063145 0 -0.00020135881821978883 -0.003627157353149185 0 -0.00020135881821978883 -0.003627157353149185 0 -4.6466679565721524e-05 -0.0036457066160594204 0 -0.00013830716596035348 -0.003823102765945656 0 -0.00026855657557223504 -0.0038013001482063145 0 -0.00020135881821978883 -0.003627157353149185 0 -0.00013830716596035348 -0.003823102765945656 0 -4.6466679565721524e-05 -0.0036457066160594204 0 -8.8288283239029638e-06 -0.0039226396930315639 0 6.7668175034462418e-05 -0.0037167314152669233 0 -8.8288283239029638e-06 -0.0039226396930315639 0 -0.00013830716596035348 -0.003823102765945656 0 -0.00017783972486180817 -0.003967081987932386 0 -4.6466679565721524e-05 -0.0036457066160594204 0 -8.8288283239029638e-06 -0.0039226396930315639 0 -0.00013830716596035348 -0.003823102765945656 0 -0.00025542017059331683 -0.003918803976834623 0 -0.00026855657557223504 -0.0038013001482063145 0 -0.00013830716596035348 -0.003823102765945656 0 -0.00025542017059331683 -0.003918803976834623 0 -0.00013830716596035348 -0.003823102765945656 0 -0.00017783972486180817 -0.003967081987932386 0 0.000290666686611699 -0.0035172886480289681 0 0.00022832801957710656 -0.0037719558515307687 0 0.00013084746881167721 -0.0035197152342370521 0 0.000290666686611699 -0.0035172886480289681 0 0.00022832801957710656 -0.0037719558515307687 0 0.00049845018038530554 -0.0036163177853941715 0 -4.6466679565721524e-05 -0.0036457066160594204 0 6.7668175034462418e-05 -0.0037167314152669233 0 0.00013084746881167721 -0.0035197152342370521 0 6.7668175034462418e-05 -0.0037167314152669233 0 0.00022832801957710656 -0.0037719558515307687 0 0.00013084746881167721 -0.0035197152342370521 0 -8.8288283239029638e-06 -0.0039226396930315639 0 6.7668175034462418e-05 -0.0037167314152669233 0 0.00022832801957710656 -0.0037719558515307687 0 -8.8288283239029638e-06 -0.0039226396930315639 0 0.00022832801957710656 -0.0037719558515307687 0 0.00023905652856945049 -0.004065731304283721 0 0.00022832801957710656 -0.0037719558515307687 0 0.00023905652856945049 -0.004065731304283721 0 0.00051837878590939637 -0.0039332761603506341 0 0.00023905652856945049 -0.004065731304283721 0 6.3420314414964698e-05 -0.0043441533103998975 0 0.00045832354339402087 -0.004339634346962158 0 0.00023905652856945049 -0.004065731304283721 0 0.00045832354339402087 -0.004339634346962158 0 0.00051837878590939637 -0.0039332761603506341 0 -8.8288283239029638e-06 -0.0039226396930315639 0 0.00023905652856945049 -0.004065731304283721 0 6.3420314414964698e-05 -0.0043441533103998975 0 6.3420314414964698e-05 -0.0043441533103998975 0 0.00025173178641068429 -0.0048039026781221544 0 0.00045832354339402087 -0.004339634346962158 0 -0.00065997681714032898 -0.0045865689186823629 0 -0.00036857451136920364 -0.0041139789783985158 0 -0.0003349908517184517 -0.0040177837528262506 0 -0.00015753555527534398 -0.0041297360972598444 0 -0.00017783972486180817 -0.003967081987932386 0 -0.0011615583713647844 -0.0040326215935347198 0 -0.0009764307907453644 -0.0043584116330454437 0 -0.00052628390046368116 -0.0042103924860870858 0 -8.8288283239029638e-06 -0.0039226396930315639 0 -0.00015753555527534398 -0.0041297360972598444 0 -0.00017783972486180817 -0.003967081987932386 0 -8.8288283239029638e-06 -0.0039226396930315639 0 6.3420314414964698e-05 -0.0043441533103998975 0 -0.00015753555527534398 -0.0041297360972598444 0 6.3420314414964698e-05 -0.0043441533103998975 0 -0.00052628390046368116 -0.0042103924860870858 0 -0.0005345662165512949 -0.0046040227977590317 0 6.3420314414964698e-05 -0.0043441533103998975 0 -0.0005345662165512949 -0.0046040227977590317 0 -9.2293246892629651e-05 -0.0048025043008329141 0 6.751290301865852e-05 -0.0043439200083758844 0 -0.00036857451136920364 -0.0041139789783985158 0 -0.0009764307907453644 -0.0043584116330454437 0 -0.00052628390046368116 -0.0042103924860870858 0 -0.0005345662165512949 -0.0046040227977590317 0 -0.00095264553504317861 -0.0046725706382754776 0 -0.0009764307907453644 -0.0043584116330454437 0 -0.0005345662165512949 -0.0046040227977590317 0 -0.00088748905860449093 -0.00481991891660076 0 -0.00047682797638159269 -0.005130794223033708 0 -0.00070728445895539081 -0.0051692861540101175 0 -0.00048505182058817219 -0.0050937307071694847 0 -0.0006766753071427256 -0.0053535213088384097 0 -0.00095264553504317861 -0.0046725706382754776 0 -0.0005345662165512949 -0.0046040227977590317 0 -0.00048505182058817219 -0.0050937307071694847 0 -0.00048505182058817219 -0.0050937307071694847 0 -0.0006766753071427256 -0.0053535213088384097 0 -0.00056472129907401123 -0.0054777147920307421 0 -0.00056472129907401123 -0.0054777147920307421 0 -0.00070914657669098025 -0.0055843786128532743 0 -0.00067672297602853386 -0.0057367355632150898 0 -0.0006766753071427256 -0.0053535213088384097 0 -0.00056472129907401123 -0.0054777147920307421 0 -0.00070914657669098025 -0.0055843786128532743 0 -0.00048505182058817219 -0.0050937307071694847 0 -0.00056472129907401123 -0.0054777147920307421 0 -0.00031491059388599681 -0.0054106478489525101 0 -0.00048505182058817219 -0.0050937307071694847 0 -0.00031491059388599681 -0.0054106478489525101 0 4.8821123047490504e-05 -0.0051092437165935565 0 -0.00031491059388599681 -0.0054106478489525101 0 4.8821123047490504e-05 -0.0051092437165935565 0 -0.00017609687923149928 -0.0058119128562325465 0 -0.00056472129907401123 -0.0054777147920307421 0 -0.00031491059388599681 -0.0054106478489525101 0 -0.00048450527147423207 -0.0057213376918935225 0 -0.00048505182058817219 -0.0050937307071694847 0 -9.2293246892629651e-05 -0.0048025043008329141 0 4.8821123047490504e-05 -0.0051092437165935565 0 -0.0005345662165512949 -0.0046040227977590317 0 -0.00048505182058817219 -0.0050937307071694847 0 -9.2293246892629651e-05 -0.0048025043008329141 0 -9.2293246892629651e-05 -0.0048025043008329141 0 0.00025173178641068429 -0.0048039026781221544 0 4.8821123047490504e-05 -0.0051092437165935565 0 6.3420314414964698e-05 -0.0043441533103998975 0 -9.2293246892629651e-05 -0.0048025043008329141 0 0.00025173178641068429 -0.0048039026781221544 0 0.00025173178641068429 -0.0048039026781221544 0 0.0004848181100975135 -0.0047198181164435802 0 0.00045832354339402087 -0.004339634346962158 0 0.00025173178641068429 -0.0048039026781221544 0 0.00040981422868963753 -0.0049793891538796519 0 0.0004848181100975135 -0.0047198181164435802 0 0.00025173178641068429 -0.0048039026781221544 0 0.00017695238192208445 -0.0050971731700957265 0 0.00040981422868963753 -0.0049793891538796519 0 0.00025173178641068429 -0.0048039026781221544 0 4.8821123047490504e-05 -0.0051092437165935565 0 0.00017695238192208445 -0.0050971731700957265 0 4.8821123047490504e-05 -0.0051092437165935565 0 0.00017695238192208445 -0.0050971731700957265 0 0.00012491109031932394 -0.0051518859870380209 0 0.00017695238192208445 -0.0050971731700957265 0 0.0001814022495351722 -0.0051607241820474502 0 0.00012491109031932394 -0.0051518859870380209 0 0.00017695238192208445 -0.0050971731700957265 0 0.0001814022495351722 -0.0051607241820474502 0 0.00025535052986491827 -0.0051500315866928126 0 0.00025535052986491827 -0.0051500315866928126 0 0.00037116731009253796 -0.0051397168909760723 0 0.00040981422868963753 -0.0049793891538796519 0 0.00017695238192208445 -0.0050971731700957265 0 0.00025535052986491827 -0.0051500315866928126 0 0.00040981422868963753 -0.0049793891538796519 0 0.00027350539250211312 -0.0052592438228234841 0 0.00025535052986491827 -0.0051500315866928126 0 0.00037116731009253796 -0.0051397168909760723 0 0.00027350539250211312 -0.0052592438228234841 0 0.00025535052986491827 -0.0051500315866928126 0 0.0002012889676951407 -0.0052042036893542917 0 0.00027350539250211312 -0.0052592438228234841 0 0.00037116731009253796 -0.0051397168909760723 0 0.00045119922130250009 -0.0052129684917595794 0 0.00027547864616237264 -0.0037714323589914398 0 0.00052179967677316939 -0.0051651239653320788 0 0.00016895473965928886 -0.0052031201612045578 0 0.00027350539250211312 -0.0052592438228234841 0 0.0002012889676951407 -0.0052042036893542917 0 0.0001814022495351722 -0.0051607241820474502 0 0.00016424946143598119 -0.0051918571212237535 0 0.00012491109031932394 -0.0051518859870380209 0 0.0001814022495351722 -0.0051607241820474502 0 0.00025535052986491827 -0.0051500315866928126 0 0.0002012889676951407 -0.0052042036893542917 0 0.0001814022495351722 -0.0051607241820474502 0 0.00016424946143598119 -0.0051918571212237535 0 0.0002012889676951407 -0.0052042036893542917 0 0.00016895473965928886 -0.0052031201612045578 0 0.00016424946143598119 -0.0051918571212237535 0 0.00016344302408486931 -0.0051982359776269263 0 0.00016895473965928886 -0.0052031201612045578 0 0.00016424946143598119 -0.0051918571212237535 0 0.0002012889676951407 -0.0052042036893542917 0 -0.00037349130141772389 -0.0059866127406430205 0 -0.00037449743994469596 -0.0062097549290173913 0 -0.00017609687923149928 -0.0058119128562325465 0 -0.00037349130141772389 -0.0059866127406430205 0 -0.00046218258688597455 -0.0061841457192562633 0 -0.00048450527147423207 -0.0057213376918935225 0 -7.7549543849827069e-05 -0.005678010273710044 0 -3.0478736256252984e-05 -0.0054684824854167946 0 0.00016424946143598119 -0.0051918571212237535 0 0.00016125998551467681 -0.0052042141647139998 0 0.00012491109031932394 -0.0051518859870380209 0 0.00016424946143598119 -0.0051918571212237535 0 0.00016344302408486931 -0.0051982359776269263 0 0.00016125998551467681 -0.0052042141647139998 0 -0.00037349130141772389 -0.0059866127406430205 0 -0.00037449743994469596 -0.0062097549290173913 0 -0.00046218258688597455 -0.0061841457192562633 0 -0.0007127449910830628 -0.0060062700020653715 0 -0.00068854750968385607 -0.0058783038679650797 0 -0.00048450527147423207 -0.0057213376918935225 0 -0.00060372982969300799 -0.0061478580412115723 0 -0.00050184013412362847 -0.0057076569047067932 0 -0.00079401032721274978 -0.0060155650216820664 0 -0.0007127449910830628 -0.0060062700020653715 0 -0.00074722075621064309 -0.0059805474202986961 0 -0.00079401032721274978 -0.0060155650216820664 0 -0.00074722075621064309 -0.0059805474202986961 0 -0.00079145150488022257 -0.0059885196787307316 0 -0.00074722075621064309 -0.0059805474202986961 0 -0.00079145150488022257 -0.0059885196787307316 0 -0.00068854750968385607 -0.0058783038679650797 0 -0.00080357519970062122 -0.0059102974269071079 0 -0.00079145150488022257 -0.0059885196787307316 0 -0.00068854750968385607 -0.0058783038679650797 0 -0.0007127449910830628 -0.0060062700020653715 0 -0.00074722075621064309 -0.0059805474202986961 0 -0.00068854750968385607 -0.0058783038679650797 0 -0.00068854750968385607 -0.0058783038679650797 0 -0.00067672297602853386 -0.0057367355632150898 0 -0.00048450527147423207 -0.0057213376918935225 0 -0.00080357519970062122 -0.0059102974269071079 0 -0.00068854750968385607 -0.0058783038679650797 0 -0.00067672297602853386 -0.0057367355632150898 0 -0.00078041951041543732 -0.0057501701944464214 0 -0.00070914657669098025 -0.0055843786128532743 0 -0.00067672297602853386 -0.0057367355632150898 0 -0.00056472129907401123 -0.0054777147920307421 0 -0.00067672297602853386 -0.0057367355632150898 0 -0.00048450527147423207 -0.0057213376918935225 0 5.353024425250569e-05 -0.0051425213098645253 0 -3.0478736256252984e-05 -0.0054684824854167946 0 -0.00031491059388599681 -0.0054106478489525101 0 -0.00048450527147423207 -0.0057213376918935225 0 -0.00017609687923149928 -0.0058119128562325465 0 -0.00037349130141772389 -0.0059866127406430205 0 -0.00048450527147423207 -0.0057213376918935225 0 -0.00017609687923149928 -0.0058119128562325465 0 -0.0018190629932146949 0.0026733040553080616 0 -0.0019613010176012663 0.002597036632785724 0 -0.0017901909836011997 0.0029822055017234344 0 -0.00090807925914756355 -0.00050675987994911679 0 -0.00043382738174443963 -0.0010248416251838529 0 -0.0016759968644078907 0.0026445813381737113 0 -0.0018190629932146949 0.0026733040553080616 0 -0.0017901909836011997 0.0029822055017234344 0 -0.0016759968644078907 0.0026445813381737113 0 -0.0018190629932146949 0.0026733040553080616 0 -0.0019090953205196928 0.0025357828736863549 0 -0.0016759968644078907 0.0026445813381737113 0 -0.0014685878229027543 0.0027529606446589755 0 -0.0015075679524709591 0.0030135105914793868 0 -0.0017698044807758493 0.0026521220950516942 0 -0.0014685878229027543 0.0027529606446589755 0 -0.0015312388658521357 0.0024666927919137758 0 -0.0017016436573166276 0.0025918135768591027 0 -0.0015038782602434925 0.0027294023725134937 0 -0.0017328774500235595 0.002156663828047739 0 -0.0017698044807758493 0.0026521220950516942 0 -0.0015312388658521357 0.0024666927919137758 0 -0.001303271404777543 0.0026711907544499044 0 -0.0014685878229027543 0.0027529606446589755 0 -0.0015312388658521357 0.0024666927919137758 0 -0.0017328774500235595 0.002156663828047739 0 -0.0017698044807758493 0.0026521220950516942 0 -0.0020358165467837114 0.0025506606668923878 0 -0.0013602014906255984 0.0014590408476040412 0 -0.001421025164114953 0.00093818194907535396 0 -0.00095086869491783964 0.00058177144972863326 0 -0.00080343014249229211 0.00049217371348165206 0 -0.00076899783844093387 0.0003093040154635188 0 -0.0017016436573166276 0.0025918135768591027 0 -0.001421025164114953 0.00093818194907535396 0 0.00067319622105578071 -0.0050317612879891335 0 0.00072686902503849558 -0.0049726596411519813 0 0.00070208622774873511 -0.0050176279793282871 0 -0.00096920392636311889 -0.00067476950409117069 0 0.00022785356166246822 -0.0022515881077049471 0 -0.00080343014249229211 0.00049217371348165206 0 -0.00072814096440161039 0.00038790359468757641 0 -0.00076899783844093387 0.0003093040154635188 0 -0.00080343014249229211 0.00049217371348165206 0 -0.00072814096440161039 0.00038790359468757641 0 -0.00070870057613413675 0.00044264629817101451 0 -0.00065104230969759429 0.00037172593465939464 0 -0.00070504245594808421 0.00032778966489989679 0 -0.00053120747346366087 0.00037674935289567596 0 -0.00072814096440161039 0.00038790359468757641 0 -0.00068401016746576541 0.00039731080500260245 0 -0.00069516269726282672 0.00035085735108359481 0 -0.00072814096440161039 0.00038790359468757641 0 -0.00070870057613413675 0.00044264629817101451 0 -0.00068401016746576541 0.00039731080500260245 0 -0.00070870057613413675 0.00044264629817101451 0 -0.00063125753654598199 0.00042399697417587083 0 -0.00068401016746576541 0.00039731080500260245 0 -0.00063125753654598199 0.00042399697417587083 0 -0.00065104230969759429 0.00037172593465939464 0 -0.00068401016746576541 0.00039731080500260245 0 -0.00065104230969759429 0.00037172593465939464 0 -0.00068401016746576541 0.00039731080500260245 0 -0.00069516269726282672 0.00035085735108359481 0 -0.00065104230969759429 0.00037172593465939464 0 -0.00069516269726282672 0.00035085735108359481 0 -0.00070504245594808421 0.00032778966489989679 0 0.00068565568450328247 -0.0050370118069619583 0 0.00067319622105578071 -0.0050317612879891335 0 0.00070208622774873511 -0.0050176279793282871 0 0.00068512335543062259 -0.0050421553648175872 0 0.00070208622774873511 -0.0050176279793282871 0 0.00066965298323681365 -0.0050592499436028348 0 0.00068565568450328247 -0.0050370118069619583 0 0.00068512335543062259 -0.0050421553648175872 0 0.00070208622774873511 -0.0050176279793282871 0 0.00068565568450328247 -0.0050370118069619583 0 0.00068959136740069714 -0.0050536629687335903 0 0.00067319622105578071 -0.0050317612879891335 0 0.00068565568450328247 -0.0050370118069619583 0 0.00068512335543062259 -0.0050421553648175872 0 0.00068959136740069714 -0.0050536629687335903 0 -0.00096920392636311889 -0.00067476950409117069 0 -0.00090807925914756355 -0.00050675987994911679 0 0.00068959136740069714 -0.0050536629687335903 0 0.00067319622105578071 -0.0050317612879891335 0 0.00071115359440072684 -0.0050709508687689642 0 -0.00079375425376863374 3.6608065151539449e-07 0 -0.0010260888110348104 -7.998388033385457e-05 0 -0.00092638542769816427 0.00016182641497452887 0 -0.001421025164114953 0.00093818194907535396 0 -0.00090807925914756355 -0.00050675987994911679 0 -0.00072814096440161039 0.00038790359468757641 0 -0.00076899783844093387 0.0003093040154635188 0 -0.00070583315575389156 0.00032750470728070926 0 -0.00072814096440161039 0.00038790359468757641 0 -0.00069516269726282672 0.00035085735108359481 0 -0.00070583315575389156 0.00032750470728070926 0 -0.001421025164114953 0.00093818194907535396 0 -0.00096920392636311889 -0.00067476950409117069 0 -0.000899496145262666 -0.00049469723245738071 0 -0.00096920392636311889 -0.00067476950409117069 0 0.00027547864616237264 -0.0037714323589914398 0 0.00022785356166246822 -0.0022515881077049471 0 0.00083009977656670921 -0.004905083112091921 0 0.00072686902503849558 -0.0049726596411519813 0 0.0007403360189840477 -0.0050089097241261486 0 -0.00056960099543545951 0.00045308018602340314 0 -0.00063125753654598199 0.00042399697417587083 0 -0.00053120747346366087 0.00037674935289567596 0 -0.00063125753654598199 0.00042399697417587083 0 -0.00065104230969759429 0.00037172593465939464 0 -0.00053120747346366087 0.00037674935289567596 0 0.00072686902503849558 -0.0049726596411519813 0 0.00070208622774873511 -0.0050176279793282871 0 0.0007403360189840477 -0.0050089097241261486 0 0.00070208622774873511 -0.0050176279793282871 0 0.0007403360189840477 -0.0050089097241261486 0 0.00066965298323681365 -0.0050592499436028348 0 0.00052179967677316939 -0.0051651239653320788 0 0.00068697776663840528 -0.0050456082467505575 0 0.00037116731009253796 -0.0051397168909760723 0 0.00045119922130250009 -0.0052129684917595794 0 0.00046374994709444335 -0.0051268801012209313 0 0.00037116731009253796 -0.0051397168909760723 0 0.00047993569294723856 -0.0050529857726940236 0 0.00040981422868963753 -0.0049793891538796519 0 0.00037116731009253796 -0.0051397168909760723 0 0.00046374994709444335 -0.0051268801012209313 0 0.00047993569294723856 -0.0050529857726940236 0 0.00045119922130250009 -0.0052129684917595794 0 0.00054259276836943063 -0.0050824851787554691 0 0.00066965298323681365 -0.0050592499436028348 0 0.00045119922130250009 -0.0052129684917595794 0 0.00046374994709444335 -0.0051268801012209313 0 0.00054259276836943063 -0.0050824851787554691 0 0.00046374994709444335 -0.0051268801012209313 0 0.00054259276836943063 -0.0050824851787554691 0 0.00047993569294723856 -0.0050529857726940236 0 0.00054259276836943063 -0.0050824851787554691 0 0.00060914777803257759 -0.0049678992309335358 0 0.00047993569294723856 -0.0050529857726940236 0 0.00060914777803257759 -0.0049678992309335358 0 0.00047993569294723856 -0.0050529857726940236 0 0.00040981422868963753 -0.0049793891538796519 0 0.00071115359440072684 -0.0050709508687689642 0 0.00066965298323681365 -0.0050592499436028348 0 0.00091069713315348794 -0.0048289190833651109 0 0.00060914777803257759 -0.0049678992309335358 0 0.00066965298323681365 -0.0050592499436028348 0 0.00091069713315348794 -0.0048289190833651109 0 -0.0018190629932146949 0.0026733040553080616 0 -0.0019090953205196928 0.0025357828736863549 0 -0.0019613010176012663 0.002597036632785724 0 0.00068959136740069714 -0.0050536629687335903 0 0.00071115359440072684 -0.0050709508687689642 0 0.00066965298323681365 -0.0050592499436028348 0 0.00068512335543062259 -0.0050421553648175872 0 0.00068959136740069714 -0.0050536629687335903 0 0.00066965298323681365 -0.0050592499436028348 0 0.00054259276836943063 -0.0050824851787554691 0 0.00060914777803257759 -0.0049678992309335358 0 0.00066965298323681365 -0.0050592499436028348 0 0.00060914777803257759 -0.0049678992309335358 0 0.00062164592466416705 -0.0048201434048815387 0 0.00091069713315348794 -0.0048289190833651109 0 0.00062164592466416705 -0.0048201434048815387 0 0.00068451780357248648 -0.0045802147096018148 0 0.00091069713315348794 -0.0048289190833651109 0 0.00040981422868963753 -0.0049793891538796519 0 0.00062164592466416705 -0.0048201434048815387 0 0.0004848181100975135 -0.0047198181164435802 0 0.00060914777803257759 -0.0049678992309335358 0 0.00040981422868963753 -0.0049793891538796519 0 0.00062164592466416705 -0.0048201434048815387 0 0.0004848181100975135 -0.0047198181164435802 0 0.00068451780357248648 -0.0045802147096018148 0 0.00045832354339402087 -0.004339634346962158 0 0.00062164592466416705 -0.0048201434048815387 0 0.0004848181100975135 -0.0047198181164435802 0 0.00068451780357248648 -0.0045802147096018148 0 0.00068451780357248648 -0.0045802147096018148 0 0.00089033475214728261 -0.0044843603916061665 0 0.00091069713315348794 -0.0048289190833651109 0 -0.00022924157702692118 -0.00067566500905025457 0 -0.00043382738174443963 -0.0010248416251838529 0 0.00089033475214728261 -0.0044843603916061665 0 0.0011074776038511366 -0.0044580943413439923 0 0.00091069713315348794 -0.0048289190833651109 0 -0.001597242643403693 0.0033524511847185896 0 -0.0017901909836011997 0.0029822055017234344 0 -0.0015075679524709591 0.0030135105914793868 0 -0.0016759968644078907 0.0026445813381737113 0 -0.0017901909836011997 0.0029822055017234344 0 -0.0015075679524709591 0.0030135105914793868 0 -0.0013289263428580258 0.002924401917470711 0 -0.0014685878229027543 0.0027529606446589755 0 -0.0015075679524709591 0.0030135105914793868 0 -0.0012675711075578111 0.0031337044510371245 0 -0.0015075679524709591 0.0030135105914793868 0 -0.0014096049379331557 0.0032768509207771767 0 -0.001597242643403693 0.0033524511847185896 0 -0.0015075679524709591 0.0030135105914793868 0 -0.0014096049379331557 0.0032768509207771767 0 -0.00022924157702692118 -0.00067566500905025457 0 -0.00043379035939953285 0.00056643754791107701 0 0.0011074776038511366 -0.0044580943413439923 0 0.0010450289233027296 -0.0042514720042264031 0 0.0012727133208623685 -0.0040668580072709126 0 -0.001597242643403693 0.0033524511847185896 0 -0.0014361427860526482 0.003462231225484468 0 -0.0014168455533095203 0.0036085554667731265 0 -0.0013805704908660193 0.0043671546861456158 0 -0.00043379035939953285 0.00056643754791107701 0 -0.001597242643403693 0.0033524511847185896 0 -0.0014096049379331557 0.0032768509207771767 0 -0.0014361427860526482 0.003462231225484468 0 0.00089033475214728261 -0.0044843603916061665 0 0.0011074776038511366 -0.0044580943413439923 0 0.0010450289233027296 -0.0042514720042264031 0 0.00089033475214728261 -0.0044843603916061665 0 0.0010450289233027296 -0.0042514720042264031 0 0.00088601625716971054 -0.0041661663258823868 0 0.0010450289233027296 -0.0042514720042264031 0 0.0010691199854026665 -0.0040832655557356129 0 0.00088601625716971054 -0.0041661663258823868 0 0.00088601625716971054 -0.0041661663258823868 0 0.00078592352285522353 -0.0039475820074243899 0 0.00098397536109996069 -0.0039563961833488231 0 0.0010691199854026665 -0.0040832655557356129 0 0.00088601625716971054 -0.0041661663258823868 0 0.00098397536109996069 -0.0039563961833488231 0 0.0010691199854026665 -0.0040832655557356129 0 0.0011364743022423515 -0.0039365365932242944 0 0.00098397536109996069 -0.0039563961833488231 0 -0.0013056032438927387 0.003598591602728342 0 -0.0014218761585904859 0.0036655533529170109 0 -0.0013441995582886637 0.0038193192639914509 0 0.0010691199854026665 -0.0040832655557356129 0 0.0012727133208623685 -0.0040668580072709126 0 0.0011364743022423515 -0.0039365365932242944 0 -0.00043379035939953285 0.00056643754791107701 0 -0.00036458331304582969 0.0026090575490073393 0 -0.0013056032438927387 0.003598591602728342 0 -0.0014361427860526482 0.003462231225484468 0 -0.0014218761585904859 0.0036655533529170109 0 0.0010450289233027296 -0.0042514720042264031 0 0.0010691199854026665 -0.0040832655557356129 0 0.0012727133208623685 -0.0040668580072709126 0 0.00045832354339402087 -0.004339634346962158 0 0.0007123063838866975 -0.0043240864039801501 0 0.00067654482498067563 -0.004092792301362648 0 0.00068451780357248648 -0.0045802147096018148 0 0.00045832354339402087 -0.004339634346962158 0 0.0007123063838866975 -0.0043240864039801501 0 0.00089033475214728261 -0.0044843603916061665 0 0.00088601625716971054 -0.0041661663258823868 0 0.0007123063838866975 -0.0043240864039801501 0 0.00068451780357248648 -0.0045802147096018148 0 0.00089033475214728261 -0.0044843603916061665 0 0.0007123063838866975 -0.0043240864039801501 0 0.00067654482498067563 -0.004092792301362648 0 0.00051837878590939637 -0.0039332761603506341 0 0.00078592352285522353 -0.0039475820074243899 0 0.00088601625716971054 -0.0041661663258823868 0 0.0007123063838866975 -0.0043240864039801501 0 0.00067654482498067563 -0.004092792301362648 0 0.00088601625716971054 -0.0041661663258823868 0 0.00067654482498067563 -0.004092792301362648 0 0.00078592352285522353 -0.0039475820074243899 0 0.00045832354339402087 -0.004339634346962158 0 0.00067654482498067563 -0.004092792301362648 0 0.00051837878590939637 -0.0039332761603506341 0 0.00022832801957710656 -0.0037719558515307687 0 0.00051837878590939637 -0.0039332761603506341 0 0.00049845018038530554 -0.0036163177853941715 0 0.00051837878590939637 -0.0039332761603506341 0 0.00080517753968904488 -0.003716930007808047 0 0.00049845018038530554 -0.0036163177853941715 0 0.00051837878590939637 -0.0039332761603506341 0 0.00078592352285522353 -0.0039475820074243899 0 0.00080517753968904488 -0.003716930007808047 0 0.00078592352285522353 -0.0039475820074243899 0 0.00080517753968904488 -0.003716930007808047 0 0.00098397536109996069 -0.0039563961833488231 0 0.00080517753968904488 -0.003716930007808047 0 0.00068952656319708748 -0.003527069863395006 0 0.0008818604343632365 -0.0033702252108756682 0 0.00080517753968904488 -0.003716930007808047 0 0.00068952656319708748 -0.003527069863395006 0 0.00049845018038530554 -0.0036163177853941715 0 0.000290666686611699 -0.0035172886480289681 0 0.00049845018038530554 -0.0036163177853941715 0 0.00052173992620728861 -0.0033818360632366521 0 0.00068952656319708748 -0.003527069863395006 0 0.00049845018038530554 -0.0036163177853941715 0 0.00052173992620728861 -0.0033818360632366521 0 7.8941606450959656e-05 0.0010361371035392702 0 0.00013268908733767758 0.00024569309810861835 0 -0.0001390574032676261 0.00051899383678232457 0 -0.00043379035939953285 0.00056643754791107701 0 0.00096616711720725636 -0.0012408243371313083 0 0.0012727133208623685 -0.0040668580072709126 0 0.0012595595173703878 -0.0037681149946069401 0 0.0011364743022423515 -0.0039365365932242944 0 0.0012595595173703878 -0.0037681149946069401 0 0.001079143014064872 -0.0037791663405043908 0 0.0010855507081263145 -0.0035897623916045919 0 0.00048709775351395569 0.0029098092589925511 0 0.00047470338955083217 0.0020787356753579752 0 0.0013059170990322231 0.0031509274872428632 0 0.00048709775351395569 0.0029098092589925511 0 0.00036853578661753871 0.0034337393229520331 0 0.0013059170990322231 0.0031509274872428632 0 0.00036853578661753871 0.0034337393229520331 0 0.0013059170990322231 0.0031509274872428632 0 0.00053716925691235477 0.0038196077181205765 0 0.00096616711720725636 -0.0012408243371313083 0 -0.00036458331304582969 0.0026090575490073393 0 0.0012595595173703878 -0.0037681149946069401 0 0.0011364743022423515 -0.0039365365932242944 0 0.001079143014064872 -0.0037791663405043908 0 0.00080517753968904488 -0.003716930007808047 0 0.00098397536109996069 -0.0039563961833488231 0 0.001079143014064872 -0.0037791663405043908 0 0.0011364743022423515 -0.0039365365932242944 0 0.00098397536109996069 -0.0039563961833488231 0 0.001079143014064872 -0.0037791663405043908 0 0.00080517753968904488 -0.003716930007808047 0 0.001079143014064872 -0.0037791663405043908 0 0.0010855507081263145 -0.0035897623916045919 0 0.00080517753968904488 -0.003716930007808047 0 0.0010855507081263145 -0.0035897623916045919 0 0.0008818604343632365 -0.0033702252108756682 0 0.0013371047783804278 -0.0037539543990187923 0 0.0008390331688742247 -0.0033133273816612222 0 0.00096616711720725636 -0.0012408243371313083 0 0.0013773459358309172 -0.0013391992865331344 0 0.0012791768681618151 -0.0036768470007004319 0 0.0011027468685804215 -0.0035138987726000669 0 0.001289876543125686 -0.0032547323128241917 0 0.00047470338955083217 0.0020787356753579752 0 0.0013059170990322231 0.0031509274872428632 0 0.0014554540924185116 0.00011491381685595278 0 0.00096616711720725636 -0.0012408243371313083 0 0.0013371047783804278 -0.0037539543990187923 0 0.0011027468685804215 -0.0035138987726000669 0 0.001289876543125686 -0.0032547323128241917 0 0.0010715790473952752 -0.0032339991006445595 0 0.0010715790473952752 -0.0032339991006445595 0 0.0008818604343632365 -0.0033702252108756682 0 0.0010215673169809809 -0.0029808816736179235 0 0.0011027468685804215 -0.0035138987726000669 0 0.0010715790473952752 -0.0032339991006445595 0 0.0008818604343632365 -0.0033702252108756682 0 0.0008818604343632365 -0.0033702252108756682 0 0.0010215673169809809 -0.0029808816736179235 0 0.00068263728890310428 -0.0031237950983705521 0 0.001289876543125686 -0.0032547323128241917 0 0.0010715790473952752 -0.0032339991006445595 0 0.0010215673169809809 -0.0029808816736179235 0 0.0010215673169809809 -0.0029808816736179235 0 0.00089607379762484979 -0.002875035166016528 0 0.00068263728890310428 -0.0031237950983705521 0 0.0010215673169809809 -0.0029808816736179235 0 0.00089607379762484979 -0.002875035166016528 0 0.0011589922903878207 -0.0025758805448558007 0 0.0013773459358309172 -0.0013391992865331344 0 0.0012018650516052464 -0.0026003032874984257 0 0.0014554540924185116 0.00011491381685595278 0 0.0011589922903878207 -0.0025758805448558007 0 0.00042092436069147401 -0.0020612748724241178 0 0.001289876543125686 -0.0032547323128241917 0 0.0010215673169809809 -0.0029808816736179235 0 0.0011589922903878207 -0.0025758805448558007 0 0.000290666686611699 -0.0035172886480289681 0 0.00052173992620728861 -0.0033818360632366521 0 0.0002606504420363985 -0.0032792863414856598 0 0.00052173992620728861 -0.0033818360632366521 0 0.00043041223172602181 -0.0032016968019581283 0 0.0002606504420363985 -0.0032792863414856598 0 0.00052173992620728861 -0.0033818360632366521 0 0.00068263728890310428 -0.0031237950983705521 0 0.00043041223172602181 -0.0032016968019581283 0 0.00068952656319708748 -0.003527069863395006 0 0.0008818604343632365 -0.0033702252108756682 0 0.00052173992620728861 -0.0033818360632366521 0 0.0008818604343632365 -0.0033702252108756682 0 0.00052173992620728861 -0.0033818360632366521 0 0.00068263728890310428 -0.0031237950983705521 0 0.00089607379762484979 -0.002875035166016528 0 0.00068263728890310428 -0.0031237950983705521 0 0.00027785935224963266 -0.0030112033805992787 0 0.00068263728890310428 -0.0031237950983705521 0 0.00043041223172602181 -0.0032016968019581283 0 0.00027785935224963266 -0.0030112033805992787 0 0.00043041223172602181 -0.0032016968019581283 0 0.00027785935224963266 -0.0030112033805992787 0 0.0002606504420363985 -0.0032792863414856598 0 0.00027785935224963266 -0.0030112033805992787 0 0.00014980289968197826 -0.0028232021118775137 0 0.0003507364332547206 -0.0027879000371097652 0 0.0003507364332547206 -0.0027879000371097652 0 0.00014073616464982091 -0.0023450164829828543 0 0.00092949469591416245 -0.002915656309462378 0 0.00033551731110075049 -0.0028658739577900566 0 0.00099253520920388806 -0.0032307896134234123 0 0.00027785935224963266 -0.0030112033805992787 0 0.0003507364332547206 -0.0027879000371097652 0 0.00092949469591416245 -0.002915656309462378 0 0.00089607379762484979 -0.002875035166016528 0 0.00027785935224963266 -0.0030112033805992787 0 0.00097392416228691972 -0.0026228437976829862 0 0.00014073616464982091 -0.0023450164829828543 0 0.00092949469591416245 -0.002915656309462378 0 0.001114765693370852 -0.0018450627102135398 0 0.00014980289968197826 -0.0028232021118775137 0 0.00014073616464982091 -0.0023450164829828543 0 1.2248336833166186e-05 -0.0028532561585065288 0 0.00014980289968197826 -0.0028232021118775137 0 0.0003507364332547206 -0.0027879000371097652 0 0.00014073616464982091 -0.0023450164829828543 0 0.0011589922903878207 -0.0025758805448558007 0 0.0010856086591037723 -0.0029653339085827075 0 0.00042092436069147401 -0.0020612748724241178 0 0.0011589922903878207 -0.0025758805448558007 0 0.00097392416228691972 -0.0026228437976829862 0 0.0010856086591037723 -0.0029653339085827075 0 0.00095776851619102483 0.00037021301364069528 0 0.00011848066376913905 0.00077946438196485374 0 0.00089607379762484979 -0.002875035166016528 0 0.0011589922903878207 -0.0025758805448558007 0 0.00097392416228691972 -0.0026228437976829862 0 0.00099253520920388806 -0.0032307896134234123 0 0.00095776851619102483 0.00037021301364069528 0 0.00092949469591416245 -0.002915656309462378 0 0.0022729344975420474 -0.0023888435100026108 0 0.001114765693370852 -0.0018450627102135398 0 0.0022729344975420474 -0.0023888435100026108 0 0.0019756484200448218 -0.00086212294858938553 0 0.001114765693370852 -0.0018450627102135398 0 0.00095776851619102483 0.00037021301364069528 0 0.001484405077134933 0.00096050431748943811 0 0.00090819026029052082 0.0027161189108661659 0 0.00056937550757861228 0.0018513560337146801 0 0.00016157087065541976 0.0023384017006958511 0 0.0019756484200448218 -0.00086212294858938553 0 0.00081600382038720081 1.4383994300453005e-05 0 0.0010737926361448235 -0.00092808331973637118 0 0.0019756484200448218 -0.00086212294858938553 0 0.0010737926361448235 -0.00092808331973637118 0 0.001114765693370852 -0.0018450627102135398 0 0.00014073616464982091 -0.0023450164829828543 0 0.001114765693370852 -0.0018450627102135398 0 0.00038412095487467488 -0.00079098383169074935 0 0.0010737926361448235 -0.00092808331973637118 0 0.001114765693370852 -0.0018450627102135398 0 0.00038412095487467488 -0.00079098383169074935 0 0.00014073616464982091 -0.0023450164829828543 0 0.00038412095487467488 -0.00079098383169074935 0 -0.00064878076990066314 -0.0011213208837112176 0 0.00012442151901058133 -0.0023545530256829194 0 -0.00028028370227246646 -0.0019851533783702691 0 0.00038412095487467488 -0.00079098383169074935 0 -0.00032612393107180347 -5.843766141522183e-05 0 -0.00064878076990066314 -0.0011213208837112176 0 0.00081600382038720081 1.4383994300453005e-05 0 0.00038412095487467488 -0.00079098383169074935 0 0.00027674532335978291 0.00038971254566303587 0 0.00081600382038720081 1.4383994300453005e-05 0 0.0010737926361448235 -0.00092808331973637118 0 0.00038412095487467488 -0.00079098383169074935 0 0.00081600382038720081 1.4383994300453005e-05 0 0.00027674532335978291 0.00038971254566303587 0 0.00072465083695160977 0.00081384665975978284 0 0.00027674532335978291 0.00038971254566303587 0 -0.00032612393107180347 -5.843766141522183e-05 0 1.9455585853211998e-05 0.00064313002403976758 0 -0.00032612393107180347 -5.843766141522183e-05 0 1.9455585853211998e-05 0.00064313002403976758 0 -0.00053557927634155392 0.00047127908897622603 0 0.00038412095487467488 -0.00079098383169074935 0 0.00027674532335978291 0.00038971254566303587 0 -0.00032612393107180347 -5.843766141522183e-05 0 1.9455585853211998e-05 0.00064313002403976758 0 -0.00053557927634155392 0.00047127908897622603 0 -0.00025641057526772977 0.00094877014633058918 0 1.9455585853211998e-05 0.00064313002403976758 0 0.00051804501738300114 0.00086287132037867148 0 0.00035356226889166195 0.00098255299904895167 0 0.00027674532335978291 0.00038971254566303587 0 1.9455585853211998e-05 0.00064313002403976758 0 0.00051804501738300114 0.00086287132037867148 0 0.00027674532335978291 0.00038971254566303587 0 0.00051804501738300114 0.00086287132037867148 0 0.00072465083695160977 0.00081384665975978284 0 0.00051804501738300114 0.00086287132037867148 0 0.0007626407750851988 0.0010904901155094785 0 0.00063930360895237033 0.00094868330737874049 0 0.00051804501738300114 0.00086287132037867148 0 0.0007626407750851988 0.0010904901155094785 0 0.00072465083695160977 0.00081384665975978284 0 0.0007626407750851988 0.0010904901155094785 0 0.00072465083695160977 0.00081384665975978284 0 0.001134418911167711 0.0011165721189399197 0 0.0007626407750851988 0.0010904901155094785 0 0.00079310124315730402 0.0011830436395716302 0 0.001134418911167711 0.0011165721189399197 0 0.00079310124315730402 0.0011830436395716302 0 0.001134418911167711 0.0011165721189399197 0 0.00049808814059221337 0.0015029806679670815 0 0.00079310124315730402 0.0011830436395716302 0 0.00060854332265411883 0.0012176440325386228 0 0.00049808814059221337 0.0015029806679670815 0 0.00090819026029052082 0.0027161189108661659 0 0.00056937550757861228 0.0018513560337146801 0 0.001134418911167711 0.0011165721189399197 0 0.00056937550757861228 0.0018513560337146801 0 0.001134418911167711 0.0011165721189399197 0 0.00049808814059221337 0.0015029806679670815 0 0.001484405077134933 0.00096050431748943811 0 0.0011653937800605917 0.0010902334737556694 0 0.0019756484200448218 -0.00086212294858938553 0 0.00081600382038720081 1.4383994300453005e-05 0 0.001134418911167711 0.0011165721189399197 0 0.00081600382038720081 1.4383994300453005e-05 0 0.00072465083695160977 0.00081384665975978284 0 0.001134418911167711 0.0011165721189399197 0 -4.4708562779617111e-05 -0.0031120783240244977 0 -4.0542169711662989e-05 -0.0030339505172229603 0 -4.2309277636946776e-05 -0.0031169232424929573 0 -4.4708562779617111e-05 -0.0031120783240244977 0 -7.1123376288974335e-05 -0.0031590950180084079 0 -4.2309277636946776e-05 -0.0031169232424929573 0 -7.1123376288974335e-05 -0.0031590950180084079 0 -8.691578399695048e-05 -0.0032474586909829904 0 -0.00016517471191194755 -0.0031722982551631103 0 -7.1123376288974335e-05 -0.0031590950180084079 0 -8.9933091260314661e-05 -0.0030605613785511243 0 -0.00016517471191194755 -0.0031722982551631103 0 -0.00049807944877296455 -0.0019211968165784631 0 -0.00021128005036708371 -0.0034760348097805462 0 -0.00082481235704558978 -0.0013077180069359512 0 -0.00049807944877296455 -0.0019211968165784631 0 -0.001382074613538067 0.00022805004762087316 0 -0.0018106891496299999 0.00069619228872740537 0 -0.0012528948106418094 0.00074907412212261775 0 -4.4708562779617111e-05 -0.0031120783240244977 0 -7.1123376288974335e-05 -0.0031590950180084079 0 -8.9933091260314661e-05 -0.0030605613785511243 0 -0.001382074613538067 0.00022805004762087316 0 -0.0012528948106418094 0.00074907412212261775 0 -0.0010019259949779714 0.00042072735254866379 0 -0.0012528948106418094 0.00074907412212261775 0 -0.0010019259949779714 0.00042072735254866379 0 -0.00078775830281338293 0.00090818607387160009 0 -0.00053557927634155392 0.00047127908897622603 0 -0.00025641057526772977 0.00094877014633058918 0 -0.00078775830281338293 0.00090818607387160009 0 -0.0010019259949779714 0.00042072735254866379 0 -0.00053557927634155392 0.00047127908897622603 0 -0.00078775830281338293 0.00090818607387160009 0 -0.00032612393107180347 -5.843766141522183e-05 0 -0.00053557927634155392 0.00047127908897622603 0 -0.0010396979720588835 -0.00031484951013582786 0 -0.00082481235704558978 -0.0013077180069359512 0 -0.00050509376746828312 -0.0017151951947721373 0 -0.0010019259949779714 0.00042072735254866379 0 -0.00053557927634155392 0.00047127908897622603 0 -0.0010396979720588835 -0.00031484951013582786 0 -0.001382074613538067 0.00022805004762087316 0 -0.0010019259949779714 0.00042072735254866379 0 -0.0010396979720588835 -0.00031484951013582786 0 -4.0542169711662989e-05 -0.0030339505172229603 0 -2.9469429675583052e-05 -0.0029944046310895582 0 -4.2309277636946776e-05 -0.0031169232424929573 0 -0.00032612393107180347 -5.843766141522183e-05 0 -0.0010396979720588835 -0.00031484951013582786 0 -0.00064878076990066314 -0.0011213208837112176 0 -0.00050509376746828312 -0.0017151951947721373 0 -0.00028028370227246646 -0.0019851533783702691 0 9.1767917551794005e-06 -0.0028073550635090917 0 -2.9469429675583052e-05 -0.0029944046310895582 0 1.2248336833166186e-05 -0.0028532561585065288 0 -4.0542169711662989e-05 -0.0030339505172229603 0 9.1767917551794005e-06 -0.0028073550635090917 0 -2.9469429675583052e-05 -0.0029944046310895582 0 -2.9469429675583052e-05 -0.0029944046310895582 0 -4.2309277636946776e-05 -0.0031169232424929573 0 -6.1361202551558423e-05 -0.0031891105255731655 0 -7.1123376288974335e-05 -0.0031590950180084079 0 -4.2309277636946776e-05 -0.0031169232424929573 0 -8.691578399695048e-05 -0.0032474586909829904 0 -4.2309277636946776e-05 -0.0031169232424929573 0 -6.1361202551558423e-05 -0.0031891105255731655 0 -8.691578399695048e-05 -0.0032474586909829904 0 -6.1361202551558423e-05 -0.0031891105255731655 0 -8.691578399695048e-05 -0.0032474586909829904 0 -4.7450313360600199e-05 -0.0033781833640936895 0 -6.1361202551558423e-05 -0.0031891105255731655 0 -8.1232082846378667e-05 -0.0031925335092762475 0 -6.9914349457593053e-05 -0.0033207905529814633 0 -6.1361202551558423e-05 -0.0031891105255731655 0 -8.1232082846378667e-05 -0.0031925335092762475 0 -6.6518227744617804e-05 -0.0030548813322675205 0 -2.9469429675583052e-05 -0.0029944046310895582 0 -6.1361202551558423e-05 -0.0031891105255731655 0 -6.6518227744617804e-05 -0.0030548813322675205 0 -8.1232082846378667e-05 -0.0031925335092762475 0 -6.6518227744617804e-05 -0.0030548813322675205 0 -8.899652324227698e-05 -0.0031447457852640864 0 -6.6518227744617804e-05 -0.0030548813322675205 0 -8.899652324227698e-05 -0.0031447457852640864 0 -6.8697171794031728e-05 -0.0030949727230593816 0 -8.270305508918942e-05 -0.003254245436559511 0 -0.00011581841060641433 -0.0032951791308783083 0 -8.1232082846378667e-05 -0.0031925335092762475 0 -8.899652324227698e-05 -0.0031447457852640864 0 -0.00011066644157105963 -0.0033109180295324224 0 0.00014073616464982091 -0.0023450164829828543 0 9.1767917551794005e-06 -0.0028073550635090917 0 1.2248336833166186e-05 -0.0028532561585065288 0 -2.9469429675583052e-05 -0.0029944046310895582 0 -6.6518227744617804e-05 -0.0030548813322675205 0 1.2248336833166186e-05 -0.0028532561585065288 0 -6.6518227744617804e-05 -0.0030548813322675205 0 1.2248336833166186e-05 -0.0028532561585065288 0 -6.8697171794031728e-05 -0.0030949727230593816 0 0.00014980289968197826 -0.0028232021118775137 0 1.2248336833166186e-05 -0.0028532561585065288 0 0.00010540953584543395 -0.0030071623013627011 0 1.2248336833166186e-05 -0.0028532561585065288 0 0.00010540953584543395 -0.0030071623013627011 0 -6.8697171794031728e-05 -0.0030949727230593816 0 0.00027785935224963266 -0.0030112033805992787 0 0.00014980289968197826 -0.0028232021118775137 0 0.00010540953584543395 -0.0030071623013627011 0 0.00010540953584543395 -0.0030071623013627011 0 -6.8697171794031728e-05 -0.0030949727230593816 0 0.0002606504420363985 -0.0032792863414856598 0 2.1403422352666961e-05 -0.0032355947553807697 0 0.00025253988746290398 -0.0032846962993699877 0 0.00027785935224963266 -0.0030112033805992787 0 0.00010540953584543395 -0.0030071623013627011 0 0.0002606504420363985 -0.0032792863414856598 0 8.4255791687135918e-05 -0.0033670725404266189 0 0.00013084746881167721 -0.0035197152342370521 0 -9.2139238623153529e-07 -0.0034686290253293272 0 8.4255791687135918e-05 -0.0033670725404266189 0 0.00013084746881167721 -0.0035197152342370521 0 0.0002606504420363985 -0.0032792863414856598 0 0.000290666686611699 -0.0035172886480289681 0 0.00013084746881167721 -0.0035197152342370521 0 0.0002606504420363985 -0.0032792863414856598 0 -6.2423885732720914e-05 -0.0033625603943606879 0 -9.6357498751080867e-05 -0.0034947143029145857 0 -0.0001642435562380051 -0.0034122470268620718 0 -8.270305508918942e-05 -0.003254245436559511 0 2.1403422352666961e-05 -0.0032355947553807697 0 -6.2423885732720914e-05 -0.0033625603943606879 0 8.4255791687135918e-05 -0.0033670725404266189 0 -9.2139238623153529e-07 -0.0034686290253293272 0 -6.2423885732720914e-05 -0.0033625603943606879 0 -9.2139238623153529e-07 -0.0034686290253293272 0 -9.6357498751080867e-05 -0.0034947143029145857 0 -4.6466679565721524e-05 -0.0036457066160594204 0 -9.2139238623153529e-07 -0.0034686290253293272 0 -9.6357498751080867e-05 -0.0034947143029145857 0 -4.6466679565721524e-05 -0.0036457066160594204 0 0.00013084746881167721 -0.0035197152342370521 0 -9.2139238623153529e-07 -0.0034686290253293272 0 -0.00020135881821978883 -0.003627157353149185 0 -4.6466679565721524e-05 -0.0036457066160594204 0 -9.6357498751080867e-05 -0.0034947143029145857 0 -0.00020135881821978883 -0.003627157353149185 0 -9.6357498751080867e-05 -0.0034947143029145857 0 -0.0001642435562380051 -0.0034122470268620718 0 -0.00020135881821978883 -0.003627157353149185 0 -0.0001642435562380051 -0.0034122470268620718 0 -0.00031757753734216223 -0.0035133203139583787 0 0.00024759562654495571 -0.0051468697458532889 0 0.00022026924779199638 -0.0041756579716601709 0 0.00084716264331440212 -0.0067549942216702649 0 -0.00035560775651203306 -0.005715691761471622 0 0.00061580777411413196 -0.0049344468645551223 0 -0.0001642435562380051 -0.0034122470268620718 0 -0.00031757753734216223 -0.0035133203139583787 0 -0.0001357634733693556 -0.0033211075672785117 0 0.00021582787082845444 -0.0063829405015030909 0 0.00024759562654495571 -0.0051468697458532889 0 0.00073401406331393109 -0.00891229415259478 0 0.00084716264331440212 -0.0067549942216702649 0 -0.00027842870132981426 -0.0077128325393918179 0 -0.000411530535073941 -0.0037506739636990619 0 -0.00020135881821978883 -0.003627157353149185 0 -0.00031757753734216223 -0.0035133203139583787 0 -0.0010709616459134244 -0.0093250068932143951 0 -0.00027842870132981426 -0.0077128325393918179 0 -0.0015437563600526564 -0.0068522336388034486 0 -0.00027842870132981426 -0.0077128325393918179 0 -0.00032847748142878093 -0.0067555957804603011 0 -0.0015437563600526564 -0.0068522336388034486 0 0.00084716264331440212 -0.0067549942216702649 0 -0.00027842870132981426 -0.0077128325393918179 0 -0.00032847748142878093 -0.0067555957804603011 0 -0.0008253091918814481 -0.010389662212572133 0 -0.00057331140613900509 -0.010250352823253745 0 -0.00048749510911793784 -0.010503015112085144 0 -0.00071544148486219969 -0.0099114580653424326 0 -0.0008253091918814481 -0.010389662212572133 0 -0.00057331140613900509 -0.010250352823253745 0 -0.0008253091918814481 -0.010389662212572133 0 -0.00056707973719340328 -0.01062660201183919 0 -0.00048749510911793784 -0.010503015112085144 0 -0.0011523404391963815 -0.0086404020381104715 0 -0.0010530100083651435 -0.0078251588295437068 0 -0.0015437563600526564 -0.0068522336388034486 0 -0.00080904827501163947 -0.0050024563219032113 0 -0.0015413473503342067 -0.0050386877357566206 0 -0.0015437563600526564 -0.0068522336388034486 0 -0.00035560775651203306 -0.005715691761471622 0 -0.00080904827501163947 -0.0050024563219032113 0 0.00084716264331440212 -0.0067549942216702649 0 -0.00032847748142878093 -0.0067555957804603011 0 -0.00035560775651203306 -0.005715691761471622 0 -0.00032847748142878093 -0.0067555957804603011 0 -0.0015437563600526564 -0.0068522336388034486 0 -0.00035560775651203306 -0.005715691761471622 0 -0.00035560775651203306 -0.005715691761471622 0 -0.00014385214451904122 -0.0047751599129443045 0 -0.00080904827501163947 -0.0050024563219032113 0 -0.00080904827501163947 -0.0050024563219032113 0 -0.00096246610195008069 -0.0043283747185537931 0 -0.00046079413640182901 -0.0042009453564961496 0 -0.00014385214451904122 -0.0047751599129443045 0 -0.00080904827501163947 -0.0050024563219032113 0 -0.00046079413640182901 -0.0042009453564961496 0 -0.0010530100083651435 -0.0078251588295437068 0 -0.00078501573364463367 -0.0075182341916823292 0 -0.0015413473503342067 -0.0050386877357566206 0 -0.00096246610195008069 -0.0043283747185537931 0 -0.0012096960485298179 -0.0039072015254865743 0 -0.00080904827501163947 -0.0050024563219032113 0 -0.0015413473503342067 -0.0050386877357566206 0 -0.00096246610195008069 -0.0043283747185537931 0 -0.00096246610195008069 -0.0043283747185537931 0 -0.00073133434258453142 -0.0037849277257029652 0 -0.0012096960485298179 -0.0039072015254865743 0 -0.00046079413640182901 -0.0042009453564961496 0 -0.00034469116993237622 -0.0036984749614753054 0 6.6511946868778697e-05 -0.0035396811808057456 0 -0.00096246610195008069 -0.0043283747185537931 0 -0.00073133434258453142 -0.0037849277257029652 0 -0.00046079413640182901 -0.0042009453564961496 0 -0.00073133434258453142 -0.0037849277257029652 0 -0.00046079413640182901 -0.0042009453564961496 0 -0.00034469116993237622 -0.0036984749614753054 0 -0.00014385214451904122 -0.0047751599129443045 0 -0.00046079413640182901 -0.0042009453564961496 0 6.6511946868778697e-05 -0.0035396811808057456 0 -8.1232082846378667e-05 -0.0031925335092762475 0 -6.9914349457593053e-05 -0.0033207905529814633 0 -0.00011066644157105963 -0.0033109180295324224 0 6.6511946868778697e-05 -0.0035396811808057456 0 -6.9914349457593053e-05 -0.0033207905529814633 0 -4.7450313360600199e-05 -0.0033781833640936895 0 6.6511946868778697e-05 -0.0035396811808057456 0 -6.9914349457593053e-05 -0.0033207905529814633 0 -0.00011066644157105963 -0.0033109180295324224 0 -6.2423885732720914e-05 -0.0033625603943606879 0 -0.0001642435562380051 -0.0034122470268620718 0 -0.00011066644157105963 -0.0033109180295324224 0 -0.0001642435562380051 -0.0034122470268620718 0 -0.00011066644157105963 -0.0033109180295324224 0 -0.0001357634733693556 -0.0033211075672785117 0 0.00011149594496329148 -0.0036305552241384762 0 0.00022026924779199638 -0.0041756579716601709 0 -0.00035560775651203306 -0.005715691761471622 0 -0.00014385214451904122 -0.0047751599129443045 0 0.00061580777411413196 -0.0049344468645551223 0 -0.00014385214451904122 -0.0047751599129443045 0 6.6511946868778697e-05 -0.0035396811808057456 0 0.00061580777411413196 -0.0049344468645551223 0 6.6511946868778697e-05 -0.0035396811808057456 0 -0.00011066644157105963 -0.0033109180295324224 0 -0.0001357634733693556 -0.0033211075672785117 0 0.00071520834509768161 -0.011042112039617802 0 0.0010405785296282745 -0.011170371491117069 0 0.00083720008523968702 -0.011111380636610354 0 0.00046239935513991601 -0.010795995329612841 0 0.00048235619910511632 -0.010840057218327809 0 0.00016022251717009105 -0.010433168375643566 0 0.00016561305176468344 -0.010562240627353994 0 -9.8474167614666903e-05 -0.010421494376949586 0 0.00016561305176468344 -0.010562240627353994 0 -9.8474167614666903e-05 -0.010421494376949586 0 -0.0002182267426924221 -0.010562625025079226 0 0.00016561305176468344 -0.010562240627353994 0 -0.0002182267426924221 -0.010562625025079226 0 -9.5593834098697857e-05 -0.01070606022740273 0 -0.0002182267426924221 -0.010562625025079226 0 -0.00048749510911793784 -0.010503015112085144 0 -0.00032054714841944521 -0.010688625487883262 0 -0.0002182267426924221 -0.010562625025079226 0 -0.00039587000046737976 -0.010347048335962741 0 -0.00048749510911793784 -0.010503015112085144 0 -0.00037533061142262829 -0.010142743808278867 0 -9.8474167614666903e-05 -0.010421494376949586 0 -0.00039587000046737976 -0.010347048335962741 0 -9.8474167614666903e-05 -0.010421494376949586 0 -0.0002182267426924221 -0.010562625025079226 0 -0.00039587000046737976 -0.010347048335962741 0 -0.00059135458200107135 -0.01008413837938286 0 -0.00039587000046737976 -0.010347048335962741 0 -0.00057331140613900509 -0.010250352823253745 0 -0.00039587000046737976 -0.010347048335962741 0 -0.00057331140613900509 -0.010250352823253745 0 -0.00048749510911793784 -0.010503015112085144 0 -0.00056707973719340328 -0.01062660201183919 0 -0.00048749510911793784 -0.010503015112085144 0 -0.00032054714841944521 -0.010688625487883262 0 -0.00056707973719340328 -0.01062660201183919 0 -0.00042076022477563973 -0.010739970688702572 0 -0.00032054714841944521 -0.010688625487883262 0 -0.00042076022477563973 -0.010739970688702572 0 -0.00034414531978102633 -0.010754122595324994 0 -0.00032054714841944521 -0.010688625487883262 0 -0.00032054714841944521 -0.010688625487883262 0 -9.5593834098697857e-05 -0.01070606022740273 0 -0.00027924893538716741 -0.010786273787834654 0 -0.00034414531978102633 -0.010754122595324994 0 -0.00032054714841944521 -0.010688625487883262 0 -0.00027924893538716741 -0.010786273787834654 0 -0.0002182267426924221 -0.010562625025079226 0 -0.00032054714841944521 -0.010688625487883262 0 -9.5593834098697857e-05 -0.01070606022740273 0 0.0010405785296282745 -0.011170371491117069 0 0.0010640317163869632 -0.010976863556804722 0 0.0016588187832855389 -0.010923811218895362 0 0.00048235619910511632 -0.010840057218327809 0 0.00081105279265912642 -0.011206382272205093 0 0.0010640317163869632 -0.010976863556804722 0 0.00087185990203566773 -0.011048890813243346 0 0.00081114849991499301 -0.010799614456147464 0 0.0010405785296282745 -0.011170371491117069 0 0.0010640317163869632 -0.010976863556804722 0 0.00087185990203566773 -0.011048890813243346 0 0.0010405785296282745 -0.011170371491117069 0 0.00083720008523968702 -0.011111380636610354 0 0.00087185990203566773 -0.011048890813243346 0 0.00074831445127578121 -0.010316666247003009 0 0.0011106200706331921 -0.010694182320927286 0 0.0014416547120050893 -0.010269379261675437 0 0.00074831445127578121 -0.010316666247003009 0 0.0011106200706331921 -0.010694182320927286 0 0.00081114849991499301 -0.010799614456147464 0 0.0010640317163869632 -0.010976863556804722 0 0.0011106200706331921 -0.010694182320927286 0 0.00081114849991499301 -0.010799614456147464 0 0.0011106200706331921 -0.010694182320927286 0 0.0014416547120050893 -0.010269379261675437 0 0.0016588187832855389 -0.010923811218895362 0 0.0010640317163869632 -0.010976863556804722 0 0.0011106200706331921 -0.010694182320927286 0 0.0016588187832855389 -0.010923811218895362 0 0.0014416547120050893 -0.010269379261675437 0 0.0019417849808676662 -0.010070528143777943 0 0.0016588187832855389 -0.010923811218895362 0 0.00074831445127578121 -0.010316666247003009 0 0.0014416547120050893 -0.010269379261675437 0 0.0015568294866603453 -0.0095597793048780542 0 0.0014416547120050893 -0.010269379261675437 0 0.0019417849808676662 -0.010070528143777943 0 0.0015568294866603453 -0.0095597793048780542 0 0.00081105279265912642 -0.011206382272205093 0 0.00010370877509985887 -0.0083865230425170731 0 -0.00027924893538716741 -0.010786273787834654 0 -0.00034331683641541938 -0.010754858495141488 0 -0.00033133503267891918 -0.010741706356639744 0 0.0019417849808676662 -0.010070528143777943 0 0.0016588187832855389 -0.010923811218895362 0 0.002602823621646419 -0.0098917508264930818 0 -0.00034414531978102633 -0.010754122595324994 0 -0.00027924893538716741 -0.010786273787834654 0 -0.00034331683641541938 -0.010754858495141488 0 -0.0012096960485298179 -0.0039072015254865743 0 -0.00086616484755200156 -0.0034516989162470904 0 -0.00085180182872360321 -0.0035760031684765473 0 -0.00078501573364463367 -0.0075182341916823292 0 -0.00066118123556955675 -0.0063171220710575796 0 -0.0012096960485298179 -0.0039072015254865743 0 -0.00086616484755200156 -0.0034516989162470904 0 -0.00083988819827927462 -0.0034005743634627369 0 -0.00042076022477563973 -0.010739970688702572 0 -0.00034414531978102633 -0.010754122595324994 0 -0.00034331683641541938 -0.010754858495141488 0 -0.00086616484755200156 -0.0034516989162470904 0 -0.00080709777405520914 -0.003450043984563925 0 -0.00085180182872360321 -0.0035760031684765473 0 -0.00076981063825785586 -0.0034140626272044362 0 -0.00072562184961483397 -0.0033861433822899782 0 -0.00063063377638451301 -0.0033352036311541889 0 -0.00076981063825785586 -0.0034140626272044362 0 -0.00063063377638451301 -0.0033352036311541889 0 -0.00064317612608851655 -0.0033526221221663846 0 -0.00080709777405520914 -0.003450043984563925 0 -0.0007920198604633742 -0.0034176698532750864 0 -0.00082048697116515496 -0.003429673893541828 0 -0.00080709777405520914 -0.003450043984563925 0 -0.00075905932167672787 -0.0034108810323056401 0 -0.0007920198604633742 -0.0034176698532750864 0 -0.00075905932167672787 -0.0034108810323056401 0 -0.00075399187026204079 -0.0034003734188879121 0 -0.00071915263259297283 -0.0033825427325106065 0 -0.00075905932167672787 -0.0034108810323056401 0 -0.00075399187026204079 -0.0034003734188879121 0 -0.0007920198604633742 -0.0034176698532750864 0 -0.00075399187026204079 -0.0034003734188879121 0 -0.00071915263259297283 -0.0033825427325106065 0 -0.00072562184961483397 -0.0033861433822899782 0 -0.00076611635711920732 -0.0034074671921607348 0 -0.00076981063825785586 -0.0034140626272044362 0 -0.00072562184961483397 -0.0033861433822899782 0 -0.00075399187026204079 -0.0034003734188879121 0 -0.00076611635711920732 -0.0034074671921607348 0 -0.00072562184961483397 -0.0033861433822899782 0 -0.00075399187026204079 -0.0034003734188879121 0 -0.00076611635711920732 -0.0034074671921607348 0 -0.0007920198604633742 -0.0034176698532750864 0 -0.00086616484755200156 -0.0034516989162470904 0 -0.00080709777405520914 -0.003450043984563925 0 -0.00082048697116515496 -0.003429673893541828 0 -0.00076611635711920732 -0.0034074671921607348 0 -0.0007920198604633742 -0.0034176698532750864 0 -0.00080139269109537662 -0.0034217296154165893 0 -0.00076611635711920732 -0.0034074671921607348 0 -0.00080139269109537662 -0.0034217296154165893 0 -0.00076981063825785586 -0.0034140626272044362 0 -0.0007920198604633742 -0.0034176698532750864 0 -0.00082048697116515496 -0.003429673893541828 0 -0.00080139269109537662 -0.0034217296154165893 0 -0.00091953030458044203 -0.0057282016580417127 0 -0.00066118123556955675 -0.0063171220710575796 0 -0.00086616484755200156 -0.0034516989162470904 0 -0.00082048697116515496 -0.003429673893541828 0 -0.00080139269109537662 -0.0034217296154165893 0 -0.00078078514738065313 -0.0034201627980791323 0 -0.00076981063825785586 -0.0034140626272044362 0 -0.00064317612608851655 -0.0033526221221663846 0 -0.00066118123556955675 -0.0063171220710575796 0 -0.00070695670986117235 -0.006091435861927382 0 -0.00066118123556955675 -0.0063171220710575796 0 0.00010370877509985887 -0.0083865230425170731 0 -0.000682237018102048 -0.0033575129864144887 0 -0.00072562184961483397 -0.0033861433822899782 0 -0.00063063377638451301 -0.0033352036311541889 0 -0.000682237018102048 -0.0033575129864144887 0 -0.00066136382646742454 -0.0033551077947684828 0 -0.00061923559134354801 -0.0033208130621076104 0 -0.000682237018102048 -0.0033575129864144887 0 -0.00071915263259297283 -0.0033825427325106065 0 -0.00066136382646742454 -0.0033551077947684828 0 -0.000682237018102048 -0.0033575129864144887 0 -0.00071915263259297283 -0.0033825427325106065 0 -0.00072562184961483397 -0.0033861433822899782 0 -0.0006382990290680321 -0.0033312120792706361 0 -0.00060114974530184686 -0.0033107121003320985 0 -0.00061923559134354801 -0.0033208130621076104 0 -0.000682237018102048 -0.0033575129864144887 0 -0.0006382990290680321 -0.0033312120792706361 0 -0.00061923559134354801 -0.0033208130621076104 0 -0.000682237018102048 -0.0033575129864144887 0 -0.0006382990290680321 -0.0033312120792706361 0 -0.00063063377638451301 -0.0033352036311541889 0 -0.0006382990290680321 -0.0033312120792706361 0 -0.00063063377638451301 -0.0033352036311541889 0 -0.00060114974530184686 -0.0033107121003320985 0 -0.00063063377638451301 -0.0033352036311541889 0 -0.00059153705698406921 -0.0033131384829863837 0 -0.00060114974530184686 -0.0033107121003320985 0 -0.00060114974530184686 -0.0033107121003320985 0 -0.00056114576313858453 -0.0032910761829216596 0 -0.00054673010628631291 -0.0032806074567790539 0 -0.00056114576313858453 -0.0032910761829216596 0 -0.00052173533083218994 -0.0032684609704706747 0 -0.00052250437285175015 -0.0032735642194154603 0 -0.00056114576313858453 -0.0032910761829216596 0 -0.00056064369952383273 -0.0033058918996551959 0 -0.00054573187607925529 -0.0033027243763746731 0 -0.00059153705698406921 -0.0033131384829863837 0 -0.00060114974530184686 -0.0033107121003320985 0 -0.00056114576313858453 -0.0032910761829216596 0 -0.00059153705698406921 -0.0033131384829863837 0 -0.00056114576313858453 -0.0032910761829216596 0 -0.00056064369952383273 -0.0033058918996551959 0 0.00064429589296847436 -0.0064883521693196548 0 0.00072224072824398136 -0.0055945084784836153 0 -0.00056064369952383273 -0.0033058918996551959 0 -0.00058836525649061855 -0.0033237553211418846 0 -0.00048963373035166701 -0.0033051062470078594 0 -0.00056064369952383273 -0.0033058918996551959 0 -0.00048963373035166701 -0.0033051062470078594 0 -0.00054573187607925529 -0.0033027243763746731 0 0.0019417849808676662 -0.010070528143777943 0 0.0024259618367813568 -0.0094379374219710661 0 0.0015568294866603453 -0.0095597793048780542 0 -0.00063063377638451301 -0.0033352036311541889 0 -0.00059153705698406921 -0.0033131384829863837 0 -0.00058836525649061855 -0.0033237553211418846 0 -0.00059153705698406921 -0.0033131384829863837 0 -0.00056064369952383273 -0.0033058918996551959 0 -0.00058836525649061855 -0.0033237553211418846 0 -0.00063063377638451301 -0.0033352036311541889 0 -0.00058836525649061855 -0.0033237553211418846 0 -0.00064317612608851655 -0.0033526221221663846 0 0.00064429589296847436 -0.0064883521693196548 0 0.00010370877509985887 -0.0083865230425170731 0 0.0019417849808676662 -0.010070528143777943 0 0.0024259618367813568 -0.0094379374219710661 0 0.002602823621646419 -0.0098917508264930818 0 0.0024259618367813568 -0.0094379374219710661 0 0.0015568294866603453 -0.0095597793048780542 0 0.0018854524856929229 -0.0079241985139457613 0 0.0015568294866603453 -0.0095597793048780542 0 0.00074566880961535035 -0.0093238268173328701 0 0.0018854524856929229 -0.0079241985139457613 0 0.00074566880961535035 -0.0093238268173328701 0 0.0018854524856929229 -0.0079241985139457613 0 0.00012777579015689632 -0.00853447983720515 0 0.00020904436072153681 -0.0072457789607907929 0 0.0018854524856929229 -0.0079241985139457613 0 0.00012777579015689632 -0.00853447983720515 0 0.00074831445127578121 -0.010316666247003009 0 0.00074566880961535035 -0.0093238268173328701 0 -0.0004909439847487066 -0.0093808868656239316 0 0.00074831445127578121 -0.010316666247003009 0 0.0015568294866603453 -0.0095597793048780542 0 0.00074566880961535035 -0.0093238268173328701 0 -0.00018733404779293489 -0.0033499516815491985 0 -0.00030304928310174219 -0.0033107683778623104 0 -0.00040019907008500703 -0.0033775713341766224 0 -0.00018733404779293489 -0.0033499516815491985 0 -0.00030304928310174219 -0.0033107683778623104 0 -0.00024643847236701315 -0.0032476225043811925 0 -0.00030304928310174219 -0.0033107683778623104 0 -0.00038789354744005997 -0.0032870278406264557 0 -0.00024643847236701315 -0.0032476225043811925 0 -0.00018733404779293489 -0.0033499516815491985 0 -8.691578399695048e-05 -0.0032474586909829904 0 -0.00024643847236701315 -0.0032476225043811925 0 -0.00018733404779293489 -0.0033499516815491985 0 -8.691578399695048e-05 -0.0032474586909829904 0 -4.7450313360600199e-05 -0.0033781833640936895 0 -6.1361202551558423e-05 -0.0031891105255731655 0 -6.9914349457593053e-05 -0.0033207905529814633 0 -4.7450313360600199e-05 -0.0033781833640936895 0 -0.00018733404779293489 -0.0033499516815491985 0 -4.7450313360600199e-05 -0.0033781833640936895 0 -0.00021548236632509851 -0.0034757045969699713 0 -0.00018733404779293489 -0.0033499516815491985 0 -0.00021548236632509851 -0.0034757045969699713 0 -0.00040019907008500703 -0.0033775713341766224 0 6.6511946868778697e-05 -0.0035396811808057456 0 -4.7450313360600199e-05 -0.0033781833640936895 0 -0.00021548236632509851 -0.0034757045969699713 0 -0.00034469116993237622 -0.0036984749614753054 0 6.6511946868778697e-05 -0.0035396811808057456 0 -0.00021548236632509851 -0.0034757045969699713 0 -0.00034469116993237622 -0.0036984749614753054 0 -0.00021548236632509851 -0.0034757045969699713 0 -0.00046199501026394511 -0.0035535827421093796 0 -0.00073133434258453142 -0.0037849277257029652 0 -0.00034469116993237622 -0.0036984749614753054 0 -0.00046199501026394511 -0.0035535827421093796 0 -0.00073133434258453142 -0.0037849277257029652 0 -0.00046199501026394511 -0.0035535827421093796 0 -0.00063472237883367959 -0.0035021675298812487 0 -0.00046199501026394511 -0.0035535827421093796 0 -0.00063472237883367959 -0.0035021675298812487 0 -0.00040019907008500703 -0.0033775713341766224 0 -0.00021548236632509851 -0.0034757045969699713 0 -0.00046199501026394511 -0.0035535827421093796 0 -0.00040019907008500703 -0.0033775713341766224 0 -0.00073133434258453142 -0.0037849277257029652 0 -0.0012096960485298179 -0.0039072015254865743 0 -0.00085180182872360321 -0.0035760031684765473 0 -0.00073133434258453142 -0.0037849277257029652 0 -0.00063472237883367959 -0.0035021675298812487 0 -0.00085180182872360321 -0.0035760031684765473 0 -0.00080709777405520914 -0.003450043984563925 0 -0.00085180182872360321 -0.0035760031684765473 0 -0.00073000964618508233 -0.0034393275505884909 0 -0.00063472237883367959 -0.0035021675298812487 0 -0.00085180182872360321 -0.0035760031684765473 0 -0.00073000964618508233 -0.0034393275505884909 0 -0.00073000964618508233 -0.0034393275505884909 0 -0.000688785336920213 -0.0033865953905020453 0 -0.00060520861930732275 -0.0033936113520668084 0 -0.00075905932167672787 -0.0034108810323056401 0 -0.00071915263259297283 -0.0033825427325106065 0 -0.000688785336920213 -0.0033865953905020453 0 -0.00075905932167672787 -0.0034108810323056401 0 -0.00073000964618508233 -0.0034393275505884909 0 -0.000688785336920213 -0.0033865953905020453 0 -0.00080709777405520914 -0.003450043984563925 0 -0.00075905932167672787 -0.0034108810323056401 0 -0.00073000964618508233 -0.0034393275505884909 0 -0.000688785336920213 -0.0033865953905020453 0 -0.00060520861930732275 -0.0033936113520668084 0 -0.00061333756210536024 -0.003354232687763907 0 -0.00063472237883367959 -0.0035021675298812487 0 -0.00073000964618508233 -0.0034393275505884909 0 -0.00060520861930732275 -0.0033936113520668084 0 -0.00060520861930732275 -0.0033936113520668084 0 -0.00061333756210536024 -0.003354232687763907 0 -0.00050552795435138836 -0.0033260782694023499 0 -0.00061333756210536024 -0.003354232687763907 0 -0.00050552795435138836 -0.0033260782694023499 0 -0.00057572078506010487 -0.0033160711326294572 0 -0.000688785336920213 -0.0033865953905020453 0 -0.00061333756210536024 -0.003354232687763907 0 -0.00066136382646742454 -0.0033551077947684828 0 -0.00061333756210536024 -0.003354232687763907 0 -0.00066136382646742454 -0.0033551077947684828 0 -0.00057572078506010487 -0.0033160711326294572 0 -0.00071915263259297283 -0.0033825427325106065 0 -0.000688785336920213 -0.0033865953905020453 0 -0.00066136382646742454 -0.0033551077947684828 0 -0.00063472237883367959 -0.0035021675298812487 0 -0.00060520861930732275 -0.0033936113520668084 0 -0.00040019907008500703 -0.0033775713341766224 0 -0.00060520861930732275 -0.0033936113520668084 0 -0.00040019907008500703 -0.0033775713341766224 0 -0.00050552795435138836 -0.0033260782694023499 0 -0.00040019907008500703 -0.0033775713341766224 0 -0.00050552795435138836 -0.0033260782694023499 0 -0.00038789354744005997 -0.0032870278406264557 0 -0.00030304928310174219 -0.0033107683778623104 0 -0.00040019907008500703 -0.0033775713341766224 0 -0.00038789354744005997 -0.0032870278406264557 0 -0.00038789354744005997 -0.0032870278406264557 0 -0.00039025750163610237 -0.0032460528357927195 0 -0.00024643847236701315 -0.0032476225043811925 0 -0.00038789354744005997 -0.0032870278406264557 0 -0.00048217012994190611 -0.0032782531095513138 0 -0.00039025750163610237 -0.0032460528357927195 0 -0.00050552795435138836 -0.0033260782694023499 0 -0.00038789354744005997 -0.0032870278406264557 0 -0.00048217012994190611 -0.0032782531095513138 0 -0.00048217012994190611 -0.0032782531095513138 0 -0.00039025750163610237 -0.0032460528357927195 0 -0.00046416749331516544 -0.0032541839482347653 0 -0.00061923559134354801 -0.0033208130621076104 0 -0.00057572078506010487 -0.0033160711326294572 0 -0.00054673010628631291 -0.0032806074567790539 0 -0.00066136382646742454 -0.0033551077947684828 0 -0.00061923559134354801 -0.0033208130621076104 0 -0.00057572078506010487 -0.0033160711326294572 0 -0.00050552795435138836 -0.0033260782694023499 0 -0.00048217012994190611 -0.0032782531095513138 0 -0.00057572078506010487 -0.0033160711326294572 0 -0.00048217012994190611 -0.0032782531095513138 0 -0.00057572078506010487 -0.0033160711326294572 0 -0.00054673010628631291 -0.0032806074567790539 0 -0.00048217012994190611 -0.0032782531095513138 0 -0.00054673010628631291 -0.0032806074567790539 0 -0.00046416749331516544 -0.0032541839482347653 0 -0.00060114974530184686 -0.0033107121003320985 0 -0.00061923559134354801 -0.0033208130621076104 0 -0.00054673010628631291 -0.0032806074567790539 0 -0.00056114576313858453 -0.0032910761829216596 0 -0.00054673010628631291 -0.0032806074567790539 0 -0.00052173533083218994 -0.0032684609704706747 0 -0.00054673010628631291 -0.0032806074567790539 0 -0.00048392645804072609 -0.0032523407633036827 0 -0.00052173533083218994 -0.0032684609704706747 0 -0.00054673010628631291 -0.0032806074567790539 0 -0.00048392645804072609 -0.0032523407633036827 0 -0.00046416749331516544 -0.0032541839482347653 0 -0.00048392645804072609 -0.0032523407633036827 0 -0.00041301610542283094 -0.0032263817802978285 0 -0.00047045285429827806 -0.0032424672860051434 0 -0.00048392645804072609 -0.0032523407633036827 0 -0.00052173533083218994 -0.0032684609704706747 0 -0.00047045285429827806 -0.0032424672860051434 0 -0.00039025750163610237 -0.0032460528357927195 0 -0.00041301610542283094 -0.0032263817802978285 0 -0.00032143245503255961 -0.0032132301418340632 0 -0.00048392645804072609 -0.0032523407633036827 0 -0.00046416749331516544 -0.0032541839482347653 0 -0.00041301610542283094 -0.0032263817802978285 0 -0.00039025750163610237 -0.0032460528357927195 0 -0.00046416749331516544 -0.0032541839482347653 0 -0.00041301610542283094 -0.0032263817802978285 0 -0.00041301610542283094 -0.0032263817802978285 0 -0.00041827785180814371 -0.0032196599332888921 0 -0.00047045285429827806 -0.0032424672860051434 0 -0.00041301610542283094 -0.0032263817802978285 0 -0.00032143245503255961 -0.0032132301418340632 0 -0.00032578621816955588 -0.0031880486578567445 0 -0.00023674335326606802 -0.0031924761560252215 0 -0.00022850416962429777 -0.0031729575561079879 0 -0.00032578621816955588 -0.0031880486578567445 0 -0.00032143245503255961 -0.0032132301418340632 0 -0.00023674335326606802 -0.0031924761560252215 0 -0.00032578621816955588 -0.0031880486578567445 0 -0.00039025750163610237 -0.0032460528357927195 0 -0.00032143245503255961 -0.0032132301418340632 0 -0.00024643847236701315 -0.0032476225043811925 0 -0.00032143245503255961 -0.0032132301418340632 0 -0.00024643847236701315 -0.0032476225043811925 0 -0.00023674335326606802 -0.0031924761560252215 0 -8.691578399695048e-05 -0.0032474586909829904 0 -0.00024643847236701315 -0.0032476225043811925 0 -0.00016517471191194755 -0.0031722982551631103 0 -0.00024643847236701315 -0.0032476225043811925 0 -0.00016517471191194755 -0.0031722982551631103 0 -0.00023674335326606802 -0.0031924761560252215 0 -0.00018165015036794501 -0.0031629106864050258 0 -0.00016517471191194755 -0.0031722982551631103 0 -0.00022850416962429777 -0.0031729575561079879 0 -0.00016517471191194755 -0.0031722982551631103 0 -0.00023674335326606802 -0.0031924761560252215 0 -0.00022850416962429777 -0.0031729575561079879 0 -0.00022850416962429777 -0.0031729575561079879 0 -0.00026571890179191265 -0.0031514853194941034 0 -0.00020402969901608077 -0.0031480207022208822 0 0.00022290564996858849 -0.0031225530819280157 0 -0.00033376673787545539 -0.0031510860260015702 0 -0.00020825126122964125 -0.0030811492041294083 0 -0.00029365989270373357 -0.0031102791205357321 0 -0.00029363994683856615 -0.0031388210191161743 0 -0.00026571890179191265 -0.0031514853194941034 0 -0.00020825126122964125 -0.0030811492041294083 0 -0.00020402969901608077 -0.0031480207022208822 0 -9.3257813374759938e-05 -0.0032090350631117427 0 -0.00024309556892513476 -0.0031982436173609657 0 -0.00024212333775064978 -0.0031488496620651731 0 -0.00026571890179191265 -0.0031514853194941034 0 -0.00020825126122964125 -0.0030811492041294083 0 -0.00029363994683856615 -0.0031388210191161743 0 -0.00033376673787545539 -0.0031510860260015702 0 -0.00031975129944965025 -0.0031699963514781925 0 -0.00032080599855923038 -0.0031454607311570729 0 -0.00029365989270373357 -0.0031102791205357321 0 -0.00035980464346854432 -0.0031754287469321152 0 -0.00032080599855923038 -0.0031454607311570729 0 -0.00032896692550158215 -0.0031618621698936409 0 -0.00035980464346854432 -0.0031754287469321152 0 -0.00032080599855923038 -0.0031454607311570729 0 -0.00029365989270373357 -0.0031102791205357321 0 -0.00029363994683856615 -0.0031388210191161743 0 -0.00026571890179191265 -0.0031514853194941034 0 -0.00029363994683856615 -0.0031388210191161743 0 -0.00032896692550158215 -0.0031618621698936409 0 -0.00032080599855923038 -0.0031454607311570729 0 -0.00029363994683856615 -0.0031388210191161743 0 -0.00032896692550158215 -0.0031618621698936409 0 -0.00032896692550158215 -0.0031618621698936409 0 -0.00032578621816955588 -0.0031880486578567445 0 -0.00038819319916461021 -0.0031968584504288725 0 -0.00022850416962429777 -0.0031729575561079879 0 -0.00026571890179191265 -0.0031514853194941034 0 -0.00032578621816955588 -0.0031880486578567445 0 -0.00026571890179191265 -0.0031514853194941034 0 -0.00032896692550158215 -0.0031618621698936409 0 -0.00032578621816955588 -0.0031880486578567445 0 -0.00032578621816955588 -0.0031880486578567445 0 -0.00041827785180814371 -0.0032196599332888921 0 -0.00038819319916461021 -0.0031968584504288725 0 -0.00041301610542283094 -0.0032263817802978285 0 -0.00032578621816955588 -0.0031880486578567445 0 -0.00041827785180814371 -0.0032196599332888921 0 -0.00041827785180814371 -0.0032196599332888921 0 -0.00038819319916461021 -0.0031968584504288725 0 -0.00045765192068672597 -0.0032370593661181814 0 -0.00045765192068672597 -0.0032370593661181814 0 -0.00052250437285175015 -0.0032735642194154603 0 -0.00050981034939574983 -0.0032745008171322885 0 -0.00052173533083218994 -0.0032684609704706747 0 -0.00047045285429827806 -0.0032424672860051434 0 -0.00052250437285175015 -0.0032735642194154603 0 -0.00047045285429827806 -0.0032424672860051434 0 -0.00045765192068672597 -0.0032370593661181814 0 -0.00052250437285175015 -0.0032735642194154603 0 -0.00041827785180814371 -0.0032196599332888921 0 -0.00047045285429827806 -0.0032424672860051434 0 -0.00045765192068672597 -0.0032370593661181814 0 -0.0004222902037102722 -0.0032148345838528634 0 -0.00041034383505475427 -0.003180916722184055 0 -0.00050981034939574983 -0.0032745008171322885 0 -0.00045765192068672597 -0.0032370593661181814 0 -0.0004222902037102722 -0.0032148345838528634 0 -0.00050981034939574983 -0.0032745008171322885 0 -0.00038819319916461021 -0.0031968584504288725 0 -0.00045765192068672597 -0.0032370593661181814 0 -0.0004222902037102722 -0.0032148345838528634 0 -0.00032896692550158215 -0.0031618621698936409 0 -0.00038819319916461021 -0.0031968584504288725 0 -0.00035980464346854432 -0.0031754287469321152 0 -0.00038819319916461021 -0.0031968584504288725 0 -0.0004222902037102722 -0.0032148345838528634 0 -0.00035980464346854432 -0.0031754287469321152 0 -0.0004222902037102722 -0.0032148345838528634 0 -0.00035980464346854432 -0.0031754287469321152 0 -0.00041034383505475427 -0.003180916722184055 0 -0.00035980464346854432 -0.0031754287469321152 0 -0.00033646058959800536 -0.0031197789653417611 0 -0.00041034383505475427 -0.003180916722184055 0 -0.00033646058959800536 -0.0031197789653417611 0 -0.00041034383505475427 -0.003180916722184055 0 -0.00039278116116834894 -0.0030201420520747876 0 -0.00041034383505475427 -0.003180916722184055 0 -0.00050981034939574983 -0.0032745008171322885 0 -0.00051366504153878539 -0.0032483134429274448 0 -0.00041034383505475427 -0.003180916722184055 0 -0.00039278116116834894 -0.0030201420520747876 0 -0.00051366504153878539 -0.0032483134429274448 0 -0.00039278116116834894 -0.0030201420520747876 0 -0.00030985958299912906 -0.0028653456580623304 0 -0.0005736461128496216 -0.003287541996719507 0 -0.00039278116116834894 -0.0030201420520747876 0 -0.00030985958299912906 -0.0028653456580623304 0 -8.9301499146519857e-05 -0.0028109694082078958 0 -0.00089965633245140287 -0.0054036911626137076 0 -0.0010217054153535275 -0.0034123612756239109 0 -0.00026931670472271413 -0.002473686251306098 0 0.00030709272719001206 -0.0025771338461779651 0 0.0007802731861166277 -0.0021330695188971627 0 -8.7728914631662086e-05 -0.002973751185689565 0 -0.00037422674347199595 -0.0029703892364417303 0 -0.00089965633245140287 -0.0054036911626137076 0 0.0013326341926307608 -0.0014337585572663629 0 0.00024079484986090923 -0.0028328547396502097 0 -0.00039278116116834894 -0.0030201420520747876 0 -8.9301499146519857e-05 -0.0028109694082078958 0 0.00024079484986090923 -0.0028328547396502097 0 0.00030709272719001206 -0.0025771338461779651 0 0.00046085946479992634 -0.0026286868728839169 0 0.00024079484986090923 -0.0028328547396502097 0 -8.9301499146519857e-05 -0.0028109694082078958 0 0.00030709272719001206 -0.0025771338461779651 0 -0.00026931670472271413 -0.002473686251306098 0 -8.9301499146519857e-05 -0.0028109694082078958 0 0.00030709272719001206 -0.0025771338461779651 0 0.00030709272719001206 -0.0025771338461779651 0 0.00064421617021599676 -0.0024324103286097985 0 0.0007802731861166277 -0.0021330695188971627 0 0.00024079484986090923 -0.0028328547396502097 0 0.00046085946479992634 -0.0026286868728839169 0 0.00067049657472110081 -0.0026520621630265317 0 0.00030709272719001206 -0.0025771338461779651 0 0.00064421617021599676 -0.0024324103286097985 0 0.00046085946479992634 -0.0026286868728839169 0 0.00064421617021599676 -0.0024324103286097985 0 0.00046085946479992634 -0.0026286868728839169 0 0.00067049657472110081 -0.0026520621630265317 0 0.00067049657472110081 -0.0026520621630265317 0 0.00093373920521417817 -0.0022004637382020817 0 0.0010273489081142398 -0.002645782392688784 0 0.00064421617021599676 -0.0024324103286097985 0 0.00067049657472110081 -0.0026520621630265317 0 0.00093373920521417817 -0.0022004637382020817 0 0.00064421617021599676 -0.0024324103286097985 0 0.00093373920521417817 -0.0022004637382020817 0 0.0007802731861166277 -0.0021330695188971627 0 0.00094953112689225971 -0.002181271164394814 0 0.0011305859165277731 -0.0022182867138444023 0 0.00093373920521417817 -0.0022004637382020817 0 0.0010273489081142398 -0.002645782392688784 0 0.0013557057078834136 -0.0026381020894001499 0 0.00093373920521417817 -0.0022004637382020817 0 0.00099813266715020562 -0.0019561649038047999 0 0.0010218499107790908 -0.0018608650790831118 0 0.0012970971112570356 -0.0030709511169222116 0 0.0010273489081142398 -0.002645782392688784 0 0.00084707611776761445 -0.0029300240401428242 0 0.0012970971112570356 -0.0030709511169222116 0 0.0010273489081142398 -0.002645782392688784 0 0.0013557057078834136 -0.0026381020894001499 0 0.00022290564996858849 -0.0031225530819280157 0 0.00035762566568815844 -0.0030659270746457553 0 -8.7728914631662086e-05 -0.002973751185689565 0 0.00035762566568815844 -0.0030659270746457553 0 0.00024079484986090923 -0.0028328547396502097 0 0.00067049657472110081 -0.0026520621630265317 0 0.00084707611776761445 -0.0029300240401428242 0 -0.00024309556892513476 -0.0031982436173609657 0 -0.00035980464346854432 -0.0031754287469321152 0 -0.00024212333775064978 -0.0031488496620651731 0 -0.00035980464346854432 -0.0031754287469321152 0 -0.00033646058959800536 -0.0031197789653417611 0 -0.00024212333775064978 -0.0031488496620651731 0 0.00067049657472110081 -0.0026520621630265317 0 0.0010273489081142398 -0.002645782392688784 0 0.00084707611776761445 -0.0029300240401428242 0 0.0010066298987959691 -0.0060632288008848649 0 0.00020904436072153681 -0.0072457789607907929 0 -0.00028140887798848554 -0.006073383666174134 0 0.0010066298987959691 -0.0060632288008848649 0 0.00020904436072153681 -0.0072457789607907929 0 0.0018854524856929229 -0.0079241985139457613 0 0.00028296822650407611 -0.004725658843972992 0 0.00072224072824398136 -0.0055945084784836153 0 -0.00038285333552843425 -0.0034046199930323671 0 -0.00048963373035166701 -0.0033051062470078594 0 -0.0005370761477062725 -0.0033284988612050704 0 -0.00038285333552843425 -0.0034046199930323671 0 -0.0005370761477062725 -0.0033284988612050704 0 -0.00054294751584355559 -0.0034136978847227007 0 -0.0005370761477062725 -0.0033284988612050704 0 -0.00050981034939574983 -0.0032745008171322885 0 -0.00054294751584355559 -0.0034136978847227007 0 -0.00048963373035166701 -0.0033051062470078594 0 -0.0005370761477062725 -0.0033284988612050704 0 -0.00054573187607925529 -0.0033027243763746731 0 -0.0005370761477062725 -0.0033284988612050704 0 -0.00054573187607925529 -0.0033027243763746731 0 -0.00052250437285175015 -0.0032735642194154603 0 -0.00056114576313858453 -0.0032910761829216596 0 -0.00054573187607925529 -0.0033027243763746731 0 -0.00052250437285175015 -0.0032735642194154603 0 -0.0005370761477062725 -0.0033284988612050704 0 -0.00052250437285175015 -0.0032735642194154603 0 -0.00050981034939574983 -0.0032745008171322885 0 -0.00050981034939574983 -0.0032745008171322885 0 -0.00051366504153878539 -0.0032483134429274448 0 -0.00054294751584355559 -0.0034136978847227007 0 -0.00051366504153878539 -0.0032483134429274448 0 -0.0005736461128496216 -0.003287541996719507 0 -0.00054294751584355559 -0.0034136978847227007 0 -0.00089965633245140287 -0.0054036911626137076 0 -0.0015850910150482214 -0.0074064684761963743 0 -0.00039278116116834894 -0.0030201420520747876 0 -0.00051366504153878539 -0.0032483134429274448 0 -0.0005736461128496216 -0.003287541996719507 0 -0.0005736461128496216 -0.003287541996719507 0 -0.00054294751584355559 -0.0034136978847227007 0 -0.00046838370641803632 -0.0036331065574857651 0 -0.002318843624954465 -0.011117061259794931 0 -0.0017637392314740065 -0.011105129645727255 0 -0.0019817897307733254 -0.011311799273805063 0 -0.0015850910150482214 -0.0074064684761963743 0 -0.0011341567150294112 -0.007373880027376596 0 -0.00054294751584355559 -0.0034136978847227007 0 -0.00046838370641803632 -0.0036331065574857651 0 -0.00040063990477492983 -0.003638982362256119 0 -0.00038285333552843425 -0.0034046199930323671 0 -0.00054294751584355559 -0.0034136978847227007 0 -0.00040063990477492983 -0.003638982362256119 0 -0.0017637392314740065 -0.011105129645727255 0 -0.0015594237187137381 -0.011294735679154443 0 -0.0017777271969297639 -0.011513403345023463 0 -0.0017637392314740065 -0.011105129645727255 0 -0.0015594237187137381 -0.011294735679154443 0 -0.0013863296176762647 -0.011069881749899037 0 -0.00046838370641803632 -0.0036331065574857651 0 -0.0002671386489491366 -0.0038927468505213026 0 -0.00020405088991575486 -0.003975989102048918 0 -0.0011341567150294112 -0.007373880027376596 0 -0.00042330642802267587 -0.0061141189076683849 0 -0.0015594237187137381 -0.011294735679154443 0 -0.0013766535861502781 -0.011290971503915427 0 -0.0013863296176762647 -0.011069881749899037 0 -0.00038285333552843425 -0.0034046199930323671 0 -0.00040063990477492983 -0.003638982362256119 0 -0.00020405088991575486 -0.003975989102048918 0 0.00028296822650407611 -0.004725658843972992 0 -0.00017666126985218148 -0.0040019003933891859 0 0.0010066298987959691 -0.0060632288008848649 0 -0.00040097912442091464 -0.0049419317024288227 0 -0.00020405088991575486 -0.003975989102048918 0 -0.00046838370641803632 -0.0036331065574857651 0 -0.00040063990477492983 -0.003638982362256119 0 -0.00020405088991575486 -0.003975989102048918 0 -0.0015053336724457753 -0.011858266990181719 0 -0.0014719406371633227 -0.012115727699174586 0 -0.0013107064137568157 -0.012017928363425315 0 -0.0016123688016094629 -0.011979695920820297 0 -0.0015053336724457753 -0.011858266990181719 0 -0.0017432959138292984 -0.011806794777259726 0 -0.0016123688016094629 -0.011979695920820297 0 -0.0015053336724457753 -0.011858266990181719 0 -0.0014719406371633227 -0.012115727699174586 0 -0.0015053336724457753 -0.011858266990181719 0 -0.0015475962708618358 -0.011607510191865253 0 -0.0017432959138292984 -0.011806794777259726 0 -0.0015053336724457753 -0.011858266990181719 0 -0.0015475962708618358 -0.011607510191865253 0 -0.001324522384136345 -0.011753514139711083 0 -0.0015053336724457753 -0.011858266990181719 0 -0.001324522384136345 -0.011753514139711083 0 -0.0013107064137568157 -0.012017928363425315 0 -0.0013516046026984881 -0.011497060520822024 0 -0.0015475962708618358 -0.011607510191865253 0 -0.001324522384136345 -0.011753514139711083 0 -0.0015594237187137381 -0.011294735679154443 0 -0.0013766535861502781 -0.011290971503915427 0 -0.0013516046026984881 -0.011497060520822024 0 -0.0015594237187137381 -0.011294735679154443 0 -0.0013516046026984881 -0.011497060520822024 0 -0.0015475962708618358 -0.011607510191865253 0 -0.0015594237187137381 -0.011294735679154443 0 -0.0015475962708618358 -0.011607510191865253 0 -0.0017777271969297639 -0.011513403345023463 0 -0.0017637392314740065 -0.011105129645727255 0 -0.0017777271969297639 -0.011513403345023463 0 -0.0019817897307733254 -0.011311799273805063 0 -0.0015475962708618358 -0.011607510191865253 0 -0.0017777271969297639 -0.011513403345023463 0 -0.0017432959138292984 -0.011806794777259726 0 -0.0017777271969297639 -0.011513403345023463 0 -0.0020664639907174631 -0.01151177204577359 0 -0.0019817897307733254 -0.011311799273805063 0 -0.0017777271969297639 -0.011513403345023463 0 -0.0018840363631911336 -0.011671753519317946 0 -0.0020664639907174631 -0.01151177204577359 0 -0.0018840363631911336 -0.011671753519317946 0 -0.0017432959138292984 -0.011806794777259726 0 -0.0019905574058902741 -0.011825807751682941 0 -0.0017777271969297639 -0.011513403345023463 0 -0.0018840363631911336 -0.011671753519317946 0 -0.0017432959138292984 -0.011806794777259726 0 -0.0016123688016094629 -0.011979695920820297 0 -0.0017432959138292984 -0.011806794777259726 0 -0.0018357680653724904 -0.011964287328230025 0 -0.0017432959138292984 -0.011806794777259726 0 -0.0018357680653724904 -0.011964287328230025 0 -0.0019905574058902741 -0.011825807751682941 0 -0.0018357680653724904 -0.011964287328230025 0 -0.0019905574058902741 -0.011825807751682941 0 -0.0019539270518458031 -0.012079071270809172 0 -0.0019905574058902741 -0.011825807751682941 0 -0.0022074938005037987 -0.011873599511656462 0 -0.0023185414198623033 -0.011649083246673545 0 -0.0019905574058902741 -0.011825807751682941 0 -0.0020664639907174631 -0.01151177204577359 0 -0.0023185414198623033 -0.011649083246673545 0 -0.0019905574058902741 -0.011825807751682941 0 -0.0022074938005037987 -0.011873599511656462 0 -0.0019539270518458031 -0.012079071270809172 0 -0.0018840363631911336 -0.011671753519317946 0 -0.0019905574058902741 -0.011825807751682941 0 -0.0020664639907174631 -0.01151177204577359 0 -0.002318843624954465 -0.011117061259794931 0 -0.0020664639907174631 -0.01151177204577359 0 -0.0019817897307733254 -0.011311799273805063 0 -0.002318843624954465 -0.011117061259794931 0 -0.0020664639907174631 -0.01151177204577359 0 -0.0023185414198623033 -0.011649083246673545 0 -0.002318843624954465 -0.011117061259794931 0 -0.0023185414198623033 -0.011649083246673545 0 -0.0026743952747129785 -0.011558627859862895 0 -0.00082077089853382847 -0.0071156215717924319 0 -0.00084200738571756171 -0.0070518148222635585 0 -0.0023185414198623033 -0.011649083246673545 0 -0.0024458929258265828 -0.011987400907600839 0 -0.0026743952747129785 -0.011558627859862895 0 -0.0022074938005037987 -0.011873599511656462 0 -0.0023185414198623033 -0.011649083246673545 0 -0.0024458929258265828 -0.011987400907600839 0 -0.00082077089853382847 -0.0071156215717924319 0 0.00018247692831110249 -0.0069068321944180102 0 0.00092662233508293643 -0.0022338316894796525 0 0.00091799349555834998 -0.0023639201813241812 0 0.0010365482821690555 -0.0024279871984037903 0 0.00092662233508293643 -0.0022338316894796525 0 0.00091799349555834998 -0.0023639201813241812 0 0.00087323724384421198 -0.002274019494960085 0 0.00046007609717416858 -0.0041645312385274764 0 0.00034118287708416131 -0.0028609946840689863 0 0.00066828562434720752 -0.0044859445363309176 0 0.00086347800742092107 -0.0046859980599958271 0 0.00065707524152187739 -0.0047047483159924092 0 0.00046007609717416858 -0.0041645312385274764 0 0.0002855355793612203 -0.0074865286982504402 0 0.00066828562434720752 -0.0044859445363309176 0 0.00045914065140422258 -0.0047021227309753943 0 0.00065707524152187739 -0.0047047483159924092 0 0.00046007609717416858 -0.0041645312385274764 0 0.00018247692831110249 -0.0069068321944180102 0 -0.00036176551667668375 -0.0066967616916846408 0 0.00012575372889176158 -0.0068333950182539382 0 0.00023483489582945869 -0.0072637003948536087 0 0.00012575372889176158 -0.0068333950182539382 0 0.00023504895636397452 -0.0070312254004013313 0 0.00023483489582945869 -0.0072637003948536087 0 0.00012925101445297342 -0.0068556873106338954 0 0.00023504895636397452 -0.0070312254004013313 0 0.00043064374236998458 -0.0069282004352664954 0 0.00018247692831110249 -0.0069068321944180102 0 0.0002004268234740135 -0.0069466851988432459 0 -0.0012785211111060219 -0.010104545217659128 0 0.0002855355793612203 -0.0074865286982504402 0 0.00023504895636397452 -0.0070312254004013313 0 0.00043064374236998458 -0.0069282004352664954 0 0.00023483489582945869 -0.0072637003948536087 0 -0.00078639052058498699 -0.010365245205655182 0 -0.00073686767314936914 -0.010436290108444388 0 -0.0008137101387080671 -0.010408365375632994 0 0.00018247692831110249 -0.0069068321944180102 0 -0.0012785211111060219 -0.010104545217659128 0 -0.0012785211111060219 -0.010104545217659128 0 -0.0021380988049504771 -0.011956763015079742 0 -0.0022040451701231477 -0.012389932220764999 0 -0.0020299445389505778 -0.012436199882847452 0 -0.0020716529412011788 -0.012299908332887168 0 -0.0020299445389505778 -0.012436199882847452 0 -0.0020716529412011788 -0.012299908332887168 0 -0.0019564593487840132 -0.012335713452888105 0 -0.0024458929258265828 -0.011987400907600839 0 -0.0022040451701231477 -0.012389932220764999 0 -0.00216591751143537 -0.012111871662695393 0 -0.0019964649885582286 -0.012211325026408483 0 -0.00216591751143537 -0.012111871662695393 0 -0.0019539270518458031 -0.012079071270809172 0 -0.0020716529412011788 -0.012299908332887168 0 -0.0019964649885582286 -0.012211325026408483 0 -0.00216591751143537 -0.012111871662695393 0 -0.0020716529412011788 -0.012299908332887168 0 -0.0019964649885582286 -0.012211325026408483 0 -0.0019564593487840132 -0.012335713452888105 0 -0.0022040451701231477 -0.012389932220764999 0 -0.0020716529412011788 -0.012299908332887168 0 -0.00216591751143537 -0.012111871662695393 0 -0.0022074938005037987 -0.011873599511656462 0 -0.0024458929258265828 -0.011987400907600839 0 -0.00216591751143537 -0.012111871662695393 0 -0.0022074938005037987 -0.011873599511656462 0 -0.00216591751143537 -0.012111871662695393 0 -0.0019539270518458031 -0.012079071270809172 0 -0.0018357680653724904 -0.011964287328230025 0 -0.0019539270518458031 -0.012079071270809172 0 -0.0017135226441131655 -0.012108258352277575 0 -0.0019539270518458031 -0.012079071270809172 0 -0.0017135226441131655 -0.012108258352277575 0 -0.0018308466695332423 -0.012227410527949404 0 -0.0016123688016094629 -0.011979695920820297 0 -0.0018357680653724904 -0.011964287328230025 0 -0.0017135226441131655 -0.012108258352277575 0 -0.0018308466695332423 -0.012227410527949404 0 -0.0017772903764008445 -0.012386630188668809 0 -0.001586572994043836 -0.012275360213164579 0 -0.0017135226441131655 -0.012108258352277575 0 -0.0018308466695332423 -0.012227410527949404 0 -0.001586572994043836 -0.012275360213164579 0 -0.0019964649885582286 -0.012211325026408483 0 -0.0018308466695332423 -0.012227410527949404 0 -0.0019564593487840132 -0.012335713452888105 0 -0.0019964649885582286 -0.012211325026408483 0 -0.0019539270518458031 -0.012079071270809172 0 -0.0018308466695332423 -0.012227410527949404 0 -0.00078639052058498699 -0.010365245205655182 0 -0.00066220245382965569 -0.010419158289789497 0 -0.00073686767314936914 -0.010436290108444388 0 -0.0018308466695332423 -0.012227410527949404 0 -0.0019564593487840132 -0.012335713452888105 0 -0.0017772903764008445 -0.012386630188668809 0 -0.002036700057620197 -0.012472912896382764 0 -0.0017772903764008445 -0.012386630188668809 0 -0.0015195410251176934 -0.012634564213833428 0 -0.0012785211111060219 -0.010104545217659128 0 -0.0010856991656551986 -0.011662619171998782 0 -0.002036700057620197 -0.012472912896382764 0 -0.0019564593487840132 -0.012335713452888105 0 -0.0017772903764008445 -0.012386630188668809 0 -0.0015195410251176934 -0.012634564213833428 0 -0.001586572994043836 -0.012275360213164579 0 -0.0012712658307150457 -0.012334257060668506 0 -0.0017772903764008445 -0.012386630188668809 0 -0.0015195410251176934 -0.012634564213833428 0 -0.001586572994043836 -0.012275360213164579 0 -0.001586572994043836 -0.012275360213164579 0 -0.0014719406371633227 -0.012115727699174586 0 -0.0012712658307150457 -0.012334257060668506 0 -0.0017135226441131655 -0.012108258352277575 0 -0.001586572994043836 -0.012275360213164579 0 -0.0014719406371633227 -0.012115727699174586 0 -0.0016123688016094629 -0.011979695920820297 0 -0.0017135226441131655 -0.012108258352277575 0 -0.0014719406371633227 -0.012115727699174586 0 -0.0014719406371633227 -0.012115727699174586 0 -0.0013107064137568157 -0.012017928363425315 0 -0.0012712658307150457 -0.012334257060668506 0 0.00086948124758816261 -0.0020556173423970838 0 0.0008347221705596417 -0.0021111052629091097 0 0.00086793854683820987 -0.0020622304179642383 0 0.00086948124758816261 -0.0020556173423970838 0 0.00081810167598000646 -0.0020967966713760821 0 0.0008347221705596417 -0.0021111052629091097 0 0.00093229595415607032 -0.0019858251886174703 0 0.00086793854683820987 -0.0020622304179642383 0 0.00091615829216556944 -0.0020034809387442765 0 0.00086948124758816261 -0.0020556173423970838 0 0.00093229595415607032 -0.0019858251886174703 0 0.00086793854683820987 -0.0020622304179642383 0 0.00086948124758816261 -0.0020556173423970838 0 0.00093229595415607032 -0.0019858251886174703 0 0.00091075466477334374 -0.0020472796424095582 0 0.00093229595415607032 -0.0019858251886174703 0 0.00091075466477334374 -0.0020472796424095582 0 0.00099813266715020562 -0.0019561649038047999 0 0.00093373920521417817 -0.0022004637382020817 0 0.00091075466477334374 -0.0020472796424095582 0 0.00099813266715020562 -0.0019561649038047999 0 0.00091075466477334374 -0.0020472796424095582 0 0.00081810167598000646 -0.0020967966713760821 0 0.0007802731861166277 -0.0021330695188971627 0 0.00093373920521417817 -0.0022004637382020817 0 0.00091075466477334374 -0.0020472796424095582 0 0.0007802731861166277 -0.0021330695188971627 0 0.00086948124758816261 -0.0020556173423970838 0 0.00091075466477334374 -0.0020472796424095582 0 0.00081810167598000646 -0.0020967966713760821 0 0.00081810167598000646 -0.0020967966713760821 0 0.0007802731861166277 -0.0021330695188971627 0 0.00081019897444711635 -0.0021272937072298985 0 0.00082271261685764707 -0.0021278556449653668 0 0.0007802731861166277 -0.0021330695188971627 0 0.00081019897444711635 -0.0021272937072298985 0 0.00082271261685764707 -0.0021278556449653668 0 0.00081019897444711635 -0.0021272937072298985 0 0.00083074587283338914 -0.0021404580775909636 0 0.00081019897444711635 -0.0021272937072298985 0 0.00083074587283338914 -0.0021404580775909636 0 0.00082220242271066146 -0.002125606794473333 0 0.00081810167598000646 -0.0020967966713760821 0 0.00081019897444711635 -0.0021272937072298985 0 0.00082220242271066146 -0.002125606794473333 0 -0.00089965633245140287 -0.0054036911626137076 0 -0.00084200738571756171 -0.0070518148222635585 0 0.00082271261685764707 -0.0021278556449653668 0 0.00083074587283338914 -0.0021404580775909636 0 0.00086056809113017896 -0.0021597531438550554 0 -0.0028937685285394168 -0.011121814386599494 0 -0.002318843624954465 -0.011117061259794931 0 -0.0026743952747129785 -0.011558627859862895 0 0.00083074587283338914 -0.0021404580775909636 0 0.00086056809113017896 -0.0021597531438550554 0 0.00084042559618947475 -0.0021754932420659846 0 0.00092662233508293643 -0.0022338316894796525 0 0.00086056809113017896 -0.0021597531438550554 0 0.00084042559618947475 -0.0021754932420659846 0 0.00084042559618947475 -0.0021754932420659846 0 0.00082220242271066146 -0.002125606794473333 0 0.0008347221705596417 -0.0021111052629091097 0 0.00083074587283338914 -0.0021404580775909636 0 0.00084042559618947475 -0.0021754932420659846 0 0.00082220242271066146 -0.002125606794473333 0 0.00081810167598000646 -0.0020967966713760821 0 0.00082220242271066146 -0.002125606794473333 0 0.0008347221705596417 -0.0021111052629091097 0 0.00084042559618947475 -0.0021754932420659846 0 0.0008347221705596417 -0.0021111052629091097 0 0.00082706330039061067 -0.0021933003319389625 0 0.0008347221705596417 -0.0021111052629091097 0 0.00082706330039061067 -0.0021933003319389625 0 0.00086793854683820987 -0.0020622304179642383 0 0.00036343058873523361 -0.0043918251037105595 0 0.00021592028401640835 -0.004796179807050464 0 0.00045914065140422258 -0.0047021227309753943 0 0.00092662233508293643 -0.0022338316894796525 0 0.00084042559618947475 -0.0021754932420659846 0 0.00087323724384421198 -0.002274019494960085 0 0.00046007609717416858 -0.0041645312385274764 0 0.00065180207638981 -0.0032051208009606039 0 0.00088967909777152427 -0.0023273174302437562 0 0.00082706330039061067 -0.0021933003319389625 0 0.00087323724384421198 -0.002274019494960085 0 0.00084042559618947475 -0.0021754932420659846 0 0.00082706330039061067 -0.0021933003319389625 0 0.00087323724384421198 -0.002274019494960085 0 0.00066828562434720752 -0.0044859445363309176 0 0.00036343058873523361 -0.0043918251037105595 0 0.00045914065140422258 -0.0047021227309753943 0 0.00036343058873523361 -0.0043918251037105595 0 2.1671976543984606e-05 -0.0045638821955506035 0 0.00021592028401640835 -0.004796179807050464 0 0.00065180207638981 -0.0032051208009606039 0 0.00045956098638835064 -0.0032505394426852832 0 0.00036343058873523361 -0.0043918251037105595 0 2.1671976543984606e-05 -0.0045638821955506035 0 6.0284302768756729e-05 -0.004304394470225072 0 6.0284302768756729e-05 -0.004304394470225072 0 -0.00014986804614807218 -0.0044210444986293633 0 -0.00022706972880173599 -0.00423404744190889 0 0.00045956098638835064 -0.0032505394426852832 0 0.00040009214915672978 -0.0026529127426247519 0 2.1671976543984606e-05 -0.0045638821955506035 0 -0.00014986804614807218 -0.0044210444986293633 0 -0.00027832203778401302 -0.00455860716506173 0 2.1671976543984606e-05 -0.0045638821955506035 0 6.0284302768756729e-05 -0.004304394470225072 0 -0.00014986804614807218 -0.0044210444986293633 0 -0.00014986804614807218 -0.0044210444986293633 0 -0.00027832203778401302 -0.00455860716506173 0 -0.00039595572649319777 -0.0044642756315608004 0 -0.00018823007278463407 -0.0037091456990162234 0 9.3115936596430016e-05 -0.0028375661889285318 0 -0.00027832203778401302 -0.00455860716506173 0 -0.00039595572649319777 -0.0044642756315608004 0 -0.00038663029275940993 -0.0045699326101005834 0 0.0003114300561122763 -0.002443233629087624 0 0.00036582266125343604 -0.0023810598302431481 0 0.00029722039197486809 -0.0023581494391514148 0 -0.00014986804614807218 -0.0044210444986293633 0 -0.00039595572649319777 -0.0044642756315608004 0 -0.00022706972880173599 -0.00423404744190889 0 -0.00018823007278463407 -0.0037091456990162234 0 0.00040009214915672978 -0.0026529127426247519 0 0.00093229595415607032 -0.0019858251886174703 0 0.00097345679746524926 -0.0019158332388074912 0 0.00099491319355262666 -0.0019050813476460041 0 0.0010863248383838869 -0.0018026856575767377 0 0.00040009214915672978 -0.0026529127426247519 0 0.00097345679746524926 -0.0019158332388074912 0 0.00099491319355262666 -0.0019050813476460041 0 0.00098229068015144995 -0.0018885254042120881 0 0.00040009214915672978 -0.0026529127426247519 0 0.00067924235889603066 -0.0020854181166806022 0 0.00099491319355262666 -0.0019050813476460041 0 0.00098229068015144995 -0.0018885254042120881 0 0.00096784579541783885 -0.0017990534681172861 0 0.00099491319355262666 -0.0019050813476460041 0 0.0009898349241799552 -0.0017839624000249722 0 0.00096784579541783885 -0.0017990534681172861 0 0.00099491319355262666 -0.0019050813476460041 0 0.0009898349241799552 -0.0017839624000249722 0 0.00099813266715020562 -0.0019561649038047999 0 0.00093229595415607032 -0.0019858251886174703 0 0.00099491319355262666 -0.0019050813476460041 0 0.00099813266715020562 -0.0019561649038047999 0 0.00085367697113144202 -0.0018446310988015178 0 0.00071298887816259224 -0.0015012087861152525 0 0.00093628602491594793 -0.0016312878009677872 0 0.0009898349241799552 -0.0017839624000249722 0 0.00096784579541783885 -0.0017990534681172861 0 0.00093628602491594793 -0.0016312878009677872 0 0.00096784579541783885 -0.0017990534681172861 0 0.00085367697113144202 -0.0018446310988015178 0 0.00093628602491594793 -0.0016312878009677872 0 0.00098229068015144995 -0.0018885254042120881 0 0.00096784579541783885 -0.0017990534681172861 0 0.00085367697113144202 -0.0018446310988015178 0 0.00067924235889603066 -0.0020854181166806022 0 0.00053219931363416141 -0.0020884198037286875 0 0.00029722039197486809 -0.0023581494391514148 0 0.00022866227575484203 -0.0023336577531501393 0 0.00024335957674335551 -0.0024160398793680164 0 0.00053219931363416141 -0.0020884198037286875 0 0.00036447890266587667 -0.0020677876714017989 0 0.00022866227575484203 -0.0023336577531501393 0 0.00024335957674335551 -0.0024160398793680164 0 0.00017577139081733506 -0.0023890217952866745 0 0.0003114300561122763 -0.002443233629087624 0 0.00029722039197486809 -0.0023581494391514148 0 0.00024335957674335551 -0.0024160398793680164 0 0.0003114300561122763 -0.002443233629087624 0 0.00024335957674335551 -0.0024160398793680164 0 0.00026015774217940258 -0.0025016421602650626 0 0.00024335957674335551 -0.0024160398793680164 0 0.00018621165746589353 -0.0024672717170931033 0 0.00026015774217940258 -0.0025016421602650626 0 0.00024335957674335551 -0.0024160398793680164 0 0.00017577139081733506 -0.0023890217952866745 0 0.00018621165746589353 -0.0024672717170931033 0 0.00010929270943196877 -0.0024333653844675648 0 0.00017577139081733506 -0.0023890217952866745 0 0.00018621165746589353 -0.0024672717170931033 0 0.00026169857538953489 -0.0022027675942710516 0 0.00025283482037124133 -0.002059970104706758 0 0.00010929270943196877 -0.0024333653844675648 0 0.00017577139081733506 -0.0023890217952866745 0 0.00011899345197148296 -0.0023591871093932397 0 0.00010929270943196877 -0.0024333653844675648 0 5.6605901772270942e-05 -0.0023449906651486236 0 0.00011899345197148296 -0.0023591871093932397 0 -2.4249349190304616e-05 -0.0016498657204937453 0 -3.3060455449726029e-06 -2.743333110511532e-05 0 0.00032173118896542242 -0.0018144182651831117 0 0.00033733262035613514 -0.0018369581862651171 0 0.00036075961794489934 -0.0017988239067653516 0 -8.9292697319503475e-05 -0.00015618588797329207 0 -0.00021315556387810152 -0.00041775211912890847 0 -0.00048372236646170301 -0.00016400931345634295 0 0.00026169857538953489 -0.0022027675942710516 0 -2.4249349190304616e-05 -0.0016498657204937453 0 0.00029865631613787007 -0.0018248682680788418 0 0.00032173118896542242 -0.0018144182651831117 0 0.00033733262035613514 -0.0018369581862651171 0 0.00029865631613787007 -0.0018248682680788418 0 0.00032173118896542242 -0.0018144182651831117 0 0.00030599365454479392 -0.0018123335611701114 0 -2.4249349190304616e-05 -0.0016498657204937453 0 3.0720904922549021e-05 -0.0021983126515365474 0 0.00010929270943196877 -0.0024333653844675648 0 3.0335943870214453e-05 -0.0023994975745035255 0 5.6605901772270942e-05 -0.0023449906651486236 0 -8.279890807995764e-05 -0.0021721085387613752 0 -0.00022077118911321543 -0.0018522518816792087 0 -0.00059191134028684523 -0.0019994774523554005 0 -8.279890807995764e-05 -0.0021721085387613752 0 -0.00022077118911321543 -0.0018522518816792087 0 9.0869890001648267e-05 -0.0017961262648208715 0 -2.4249349190304616e-05 -0.0016498657204937453 0 -0.00054584183244481288 -0.0010956821379227569 0 -0.00022077118911321543 -0.0018522518816792087 0 -9.304207998356649e-05 -0.001594550025130948 0 -0.00041139545780988879 -0.0016366191006801812 0 -9.304207998356649e-05 -0.001594550025130948 0 -0.00028082373611780867 -0.001416539008131949 0 -0.00041139545780988879 -0.0016366191006801812 0 -0.00022077118911321543 -0.0018522518816792087 0 -9.304207998356649e-05 -0.001594550025130948 0 9.0869890001648267e-05 -0.0017961262648208715 0 5.6605901772270942e-05 -0.0023449906651486236 0 8.3877483329830013e-05 -0.0022856148812523138 0 0.00011899345197148296 -0.0023591871093932397 0 -9.304207998356649e-05 -0.001594550025130948 0 9.0869890001648267e-05 -0.0017961262648208715 0 0.00026433426722529589 -0.0014227878158930615 0 3.0720904922549021e-05 -0.0021983126515365474 0 0.00013997467547869648 -0.0016678150067492873 0 -9.304207998356649e-05 -0.001594550025130948 0 0.00026433426722529589 -0.0014227878158930615 0 -1.0598243648123411e-06 -0.0013577619247727689 0 0.00020944606532078276 -0.0013861900026570617 0 -1.0598243648123411e-06 -0.0013577619247727689 0 0.00014663863757384118 -0.0011640855667089793 0 0.00013997467547869648 -0.0016678150067492873 0 3.4168512728503876e-05 -0.0014182313380989202 0 -9.304207998356649e-05 -0.001594550025130948 0 -1.0598243648123411e-06 -0.0013577619247727689 0 -0.00028082373611780867 -0.001416539008131949 0 -1.0598243648123411e-06 -0.0013577619247727689 0 -0.00028082373611780867 -0.001416539008131949 0 -0.00032058082049677577 -0.0011650517053431574 0 0.00017577139081733506 -0.0023890217952866745 0 0.00015734579333645505 -0.0023089520192489058 0 0.00011899345197148296 -0.0023591871093932397 0 0.00022866227575484203 -0.0023336577531501393 0 0.00017577139081733506 -0.0023890217952866745 0 0.00015734579333645505 -0.0023089520192489058 0 8.3877483329830013e-05 -0.0022856148812523138 0 0.00015734579333645505 -0.0023089520192489058 0 0.00011899345197148296 -0.0023591871093932397 0 0.00011159910069479361 -0.0016958266582236588 0 0.00057793901175426322 -0.0017659618372239804 0 0.00046172636284505406 -0.0015255697478448243 0 0.00013997467547869648 -0.0016678150067492873 0 0.00036447890266587667 -0.0020677876714017989 0 0.00085367697113144202 -0.0018446310988015178 0 0.00057793901175426322 -0.0017659618372239804 0 0.00071298887816259224 -0.0015012087861152525 0 0.00057793901175426322 -0.0017659618372239804 0 0.00046172636284505406 -0.0015255697478448243 0 0.00071298887816259224 -0.0015012087861152525 0 0.00046172636284505406 -0.0015255697478448243 0 0.00071298887816259224 -0.0015012087861152525 0 0.00037365024151264024 -0.001124350600300199 0 0.00071298887816259224 -0.0015012087861152525 0 0.00037365024151264024 -0.001124350600300199 0 0.00063798946512580088 -0.0010621909981507274 0 0.00013997467547869648 -0.0016678150067492873 0 0.00037577125402244506 -0.0010926455152465583 0 0.00011159910069479361 -0.0016958266582236588 0 0.00046172636284505406 -0.0015255697478448243 0 0.00037365024151264024 -0.001124350600300199 0 0.00037365024151264024 -0.001124350600300199 0 0.00041881257355187224 -0.00082623477631026761 0 0.00063798946512580088 -0.0010621909981507274 0 0.00037365024151264024 -0.001124350600300199 0 0.00041881257355187224 -0.00082623477631026761 0 0.00015104023345142664 -0.00081820763305658886 0 0.00041881257355187224 -0.00082623477631026761 0 0.00063798946512580088 -0.0010621909981507274 0 0.00063261892362942364 -0.00070576907708021859 0 -7.0627723184447968e-05 -0.0010786627365516289 0 -0.00015380966614794977 -0.00084329044459387605 0 -0.00037948305791940838 -0.00094607317087970434 0 -0.00032058082049677577 -0.0011650517053431574 0 -7.0627723184447968e-05 -0.0010786627365516289 0 -0.00037948305791940838 -0.00094607317087970434 0 -1.0598243648123411e-06 -0.0013577619247727689 0 -0.00032058082049677577 -0.0011650517053431574 0 -7.0627723184447968e-05 -0.0010786627365516289 0 0.00037365024151264024 -0.001124350600300199 0 0.00014663863757384118 -0.0011640855667089793 0 0.00015104023345142664 -0.00081820763305658886 0 0.00020944606532078276 -0.0013861900026570617 0 0.00037365024151264024 -0.001124350600300199 0 0.00014663863757384118 -0.0011640855667089793 0 -7.0627723184447968e-05 -0.0010786627365516289 0 0.00014663863757384118 -0.0011640855667089793 0 0.00015104023345142664 -0.00081820763305658886 0 -1.0598243648123411e-06 -0.0013577619247727689 0 -7.0627723184447968e-05 -0.0010786627365516289 0 0.00014663863757384118 -0.0011640855667089793 0 0.00015104023345142664 -0.00081820763305658886 0 -0.00010252855690805111 -0.00061235109256133503 0 7.4007256267227163e-05 -0.00052919806898387182 0 -7.0627723184447968e-05 -0.0010786627365516289 0 0.00015104023345142664 -0.00081820763305658886 0 -0.00015380966614794977 -0.00084329044459387605 0 0.00015104023345142664 -0.00081820763305658886 0 -0.00015380966614794977 -0.00084329044459387605 0 -0.00010252855690805111 -0.00061235109256133503 0 -0.00010252855690805111 -0.00061235109256133503 0 -0.00039378666274307572 -0.00043840354337837433 0 -0.00039859594318791158 -0.0007159726610266239 0 -0.00015380966614794977 -0.00084329044459387605 0 -0.00037948305791940838 -0.00094607317087970434 0 -0.00039859594318791158 -0.0007159726610266239 0 -0.00015380966614794977 -0.00084329044459387605 0 -0.00010252855690805111 -0.00061235109256133503 0 -0.00039859594318791158 -0.0007159726610266239 0 -0.00013993427383352956 0.00017359782291616964 0 -4.6472968038355867e-05 -0.00030988662375476994 0 0.00029645885751191378 -0.00044554324293747343 0 -0.00013993427383352956 0.00017359782291616964 0 -4.6472968038355867e-05 -0.00030988662375476994 0 -0.00031799612734400586 -0.0002120861627857623 0 -4.6472968038355867e-05 -0.00030988662375476994 0 -0.00031799612734400586 -0.0002120861627857623 0 -0.00039378666274307572 -0.00043840354337837433 0 -0.00010252855690805111 -0.00061235109256133503 0 -4.6472968038355867e-05 -0.00030988662375476994 0 -0.00039378666274307572 -0.00043840354337837433 0 -0.00010252855690805111 -0.00061235109256133503 0 -4.6472968038355867e-05 -0.00030988662375476994 0 7.4007256267227163e-05 -0.00052919806898387182 0 -0.00016262245809806961 0.0001988639374864473 0 0.00039676750868937683 0.00023017088649289675 0 0.00015104023345142664 -0.00081820763305658886 0 7.4007256267227163e-05 -0.00052919806898387182 0 0.00029645885751191378 -0.00044554324293747343 0 -4.6472968038355867e-05 -0.00030988662375476994 0 7.4007256267227163e-05 -0.00052919806898387182 0 0.00029645885751191378 -0.00044554324293747343 0 -0.00013993427383352956 0.00017359782291616964 0 0.00066953223905301656 0.0009151118585959885 0 0.00042272025055970115 0.00075024843272115526 0 0.0007626407750851988 0.0010904901155094785 0 0.00042272025055970115 0.00075024843272115526 0 -6.157872840976485e-05 0.00053599309625560702 0 0.00066953223905301656 0.0009151118585959885 0 0.00063930360895237033 0.00094868330737874049 0 0.00042272025055970115 0.00075024843272115526 0 0.0007626407750851988 0.0010904901155094785 0 0.00063930360895237033 0.00094868330737874049 0 0.00042272025055970115 0.00075024843272115526 0 0.00072905963522910326 0.00107420524583573 0 0.00035282483956788435 0.00077460573847779718 0 0.0007626407750851988 0.0010904901155094785 0 0.00079310124315730402 0.0011830436395716302 0 0.0007509406279964842 0.0010561942779176833 0 -0.00013993427383352956 0.00017359782291616964 0 0.00042272025055970115 0.00075024843272115526 0 -6.157872840976485e-05 0.00053599309625560702 0 0.00079310124315730402 0.0011830436395716302 0 0.00060854332265411883 0.0012176440325386228 0 0.0007509406279964842 0.0010561942779176833 0 0.00063798946512580088 -0.0010621909981507274 0 0.00063261892362942364 -0.00070576907708021859 0 0.00082607176009207169 -0.00098292478488912031 0 0.00041881257355187224 -0.00082623477631026761 0 0.00029645885751191378 -0.00044554324293747343 0 0.00063261892362942364 -0.00070576907708021859 0 0.00041881257355187224 -0.00082623477631026761 0 0.00015104023345142664 -0.00081820763305658886 0 0.00029645885751191378 -0.00044554324293747343 0 0.00039676750868937683 0.00023017088649289675 0 0.0003413046718061159 0.00039421632131131389 0 0.00066953223905301656 0.0009151118585959885 0 -1.0698342905712016e-05 0.0013839718340149592 0 0.00035356226889166195 0.00098255299904895167 0 0.00066953223905301656 0.0009151118585959885 0 0.00063930360895237033 0.00094868330737874049 0 0.00035356226889166195 0.00098255299904895167 0 0.00051804501738300114 0.00086287132037867148 0 0.00063930360895237033 0.00094868330737874049 0 0.00035356226889166195 0.00098255299904895167 0 1.9455585853211998e-05 0.00064313002403976758 0 0.00035356226889166195 0.00098255299904895167 0 -0.00025641057526772977 0.00094877014633058918 0 -1.0698342905712016e-05 0.0013839718340149592 0 0.00035356226889166195 0.00098255299904895167 0 -0.00025641057526772977 0.00094877014633058918 0 -1.0698342905712016e-05 0.0013839718340149592 0 -0.00025641057526772977 0.00094877014633058918 0 -0.00064087918267633805 0.0013318910387903815 0 -0.00025641057526772977 0.00094877014633058918 0 -0.00064087918267633805 0.0013318910387903815 0 -0.00078775830281338293 0.00090818607387160009 0 -1.0698342905712016e-05 0.0013839718340149592 0 -0.00064087918267633805 0.0013318910387903815 0 -0.0009318536967820991 0.0015176643559504598 0 0.0003413046718061159 0.00039421632131131389 0 -4.4946729725556368e-05 -0.00012572573875744712 0 0.00063261892362942364 -0.00070576907708021859 0 0.0012130446833679772 -0.00078699072901624863 0 0.00082607176009207169 -0.00098292478488912031 0 0.00048235644754452279 -0.0014606267251713123 0 -4.4946729725556368e-05 -0.00012572573875744712 0 0.0006203459300141975 -0.0009562295916647021 0 0.00076763180916575877 -0.00078582377280696019 0 0.00026082766254990637 -0.000734907381365745 0 0.00091922638168735326 -0.0014633019618838672 0 -4.4946729725556368e-05 -0.00012572573875744712 0 0.00091922638168735326 -0.0014633019618838672 0 0.00048235644754452279 -0.0014606267251713123 0 -0.0010414081540662588 0.0011481899080164047 0 -4.4946729725556368e-05 -0.00012572573875744712 0 -0.00064087918267633805 0.0013318910387903815 0 -0.0009284413768969143 0.0014944161631375904 0 -0.0008956252381024845 0.0012185901051357823 0 -0.0009284413768969143 0.0014944161631375904 0 -0.0010505426235704785 0.0013151114415302803 0 -0.0008956252381024845 0.0012185901051357823 0 -0.0011299162790156393 0.0015062029758729865 0 -0.0010505426235704785 0.0013151114415302803 0 -0.0014845453516170754 0.0010944752462835146 0 -0.0011299162790156393 0.0015062029758729865 0 -0.0009284413768969143 0.0014944161631375904 0 -0.0010505426235704785 0.0013151114415302803 0 -0.0010505426235704785 0.0013151114415302803 0 -0.001075968414433017 0.0010603215542828372 0 -0.0008956252381024845 0.0012185901051357823 0 -0.0010505426235704785 0.0013151114415302803 0 -0.001075968414433017 0.0010603215542828372 0 -0.0014845453516170754 0.0010944752462835146 0 -0.00064087918267633805 0.0013318910387903815 0 -0.0008956252381024845 0.0012185901051357823 0 -0.00078775830281338293 0.00090818607387160009 0 -0.001075968414433017 0.0010603215542828372 0 -0.0008956252381024845 0.0012185901051357823 0 -0.00078775830281338293 0.00090818607387160009 0 -0.0012528948106418094 0.00074907412212261775 0 -0.001075968414433017 0.0010603215542828372 0 -0.00078775830281338293 0.00090818607387160009 0 -0.0012528948106418094 0.00074907412212261775 0 -0.001075968414433017 0.0010603215542828372 0 -0.0014845453516170754 0.0010944752462835146 0 -0.0018106891496299999 0.00069619228872740537 0 -0.0012528948106418094 0.00074907412212261775 0 -0.0014845453516170754 0.0010944752462835146 0 -0.0001395034015584512 -0.0032033983923012953 0 -6.6819883005188701e-05 -0.0031314514466908097 0 -0.00013159844178008517 -0.003132134572792974 0 -0.00049807944877296455 -0.0019211968165784631 0 -0.00076422972423582361 -0.001015433172141081 0 -6.6819883005188701e-05 -0.0031314514466908097 0 -0.00013159844178008517 -0.003132134572792974 0 -8.8897916566114537e-05 -0.0031027528640602208 0 -0.00018165015036794501 -0.0031629106864050258 0 -0.00022850416962429777 -0.0031729575561079879 0 -0.00020402969901608077 -0.0031480207022208822 0 -0.00049807944877296455 -0.0019211968165784631 0 6.8918488125220019e-05 -0.0034009802844505769 0 -0.0001395034015584512 -0.0032033983923012953 0 -0.00013159844178008517 -0.003132134572792974 0 -0.00020402969901608077 -0.0031480207022208822 0 -0.00013159844178008517 -0.003132134572792974 0 -0.00020402969901608077 -0.0031480207022208822 0 -0.00016727130165473497 -0.0031145326225527426 0 0.00022290564996858849 -0.0031225530819280157 0 0.00088690717620639023 -0.0030540994868722008 0 -0.00020825126122964125 -0.0030811492041294083 0 -0.00020402969901608077 -0.0031480207022208822 0 -0.00016727130165473497 -0.0031145326225527426 0 0.0012970971112570356 -0.0030709511169222116 0 0.0015918443610408672 -0.0030262297697779715 0 0.001467046880977 -0.0029409193972953687 0 -0.00017714085909486434 -0.0030468752267886578 0 -0.00011459340904313154 -0.0030824281442376244 0 -0.00010245234733302682 -0.0030472577499106816 0 -0.00020825126122964125 -0.0030811492041294083 0 -0.00016727130165473497 -0.0031145326225527426 0 -0.00011459340904313154 -0.0030824281442376244 0 -0.00013159844178008517 -0.003132134572792974 0 -0.00016727130165473497 -0.0031145326225527426 0 -0.00011459340904313154 -0.0030824281442376244 0 0.00022290564996858849 -0.0031225530819280157 0 -0.00024061132327232365 -0.0030274280049829997 0 1.5894452263932184e-05 -0.0030359747443092946 0 -4.7982549253721487e-05 -0.0030685103588637564 0 -0.00010245234733302682 -0.0030472577499106816 0 0.0017948675235166702 -0.0029961336905497907 0 0.0017760618931235842 -0.0030204746471493302 0 0.0016209888548899508 -0.0028787324512230305 0 0.00048235644754452279 -0.0014606267251713123 0 0.00088690717620639023 -0.0030540994868722008 0 0.0017760618931235842 -0.0030204746471493302 0 0.0015918443610408672 -0.0030262297697779715 0 0.0016209888548899508 -0.0028787324512230305 0 1.5894452263932184e-05 -0.0030359747443092946 0 -6.6819883005188701e-05 -0.0031314514466908097 0 -4.7982549253721487e-05 -0.0030685103588637564 0 0.00048235644754452279 -0.0014606267251713123 0 -0.00076422972423582361 -0.001015433172141081 0 -4.7982549253721487e-05 -0.0030685103588637564 0 -8.855376373966727e-05 -0.0030753627388960033 0 -0.00010245234733302682 -0.0030472577499106816 0 -4.7982549253721487e-05 -0.0030685103588637564 0 -8.8897916566114537e-05 -0.0031027528640602208 0 -8.855376373966727e-05 -0.0030753627388960033 0 -0.00013159844178008517 -0.003132134572792974 0 -0.00011459340904313154 -0.0030824281442376244 0 -8.8897916566114537e-05 -0.0031027528640602208 0 -6.6819883005188701e-05 -0.0031314514466908097 0 -4.7982549253721487e-05 -0.0030685103588637564 0 -8.8897916566114537e-05 -0.0031027528640602208 0 -0.00011459340904313154 -0.0030824281442376244 0 -8.8897916566114537e-05 -0.0031027528640602208 0 -8.855376373966727e-05 -0.0030753627388960033 0 -0.00011459340904313154 -0.0030824281442376244 0 -8.855376373966727e-05 -0.0030753627388960033 0 -0.00010245234733302682 -0.0030472577499106816 0 0.0009543371982166913 -0.0015203408659352552 0 0.00099506344085125765 -0.0016182151856761722 0 0.00096237466484932858 -0.0015765832290107428 0 0.00091922638168735326 -0.0014633019618838672 0 0.0014196659391436486 -0.0023476974159632722 0 0.00099506344085125765 -0.0016182151856761722 0 0.00099968023169744028 -0.0017611473951226902 0 0.00096237466484932858 -0.0015765832290107428 0 0.0014196659391436486 -0.0023476974159632722 0 0.0011305859165277731 -0.0022182867138444023 0 0.0016209888548899508 -0.0028787324512230305 0 0.001467046880977 -0.0029409193972953687 0 0.0013557057078834136 -0.0026381020894001499 0 0.00099506344085125765 -0.0016182151856761722 0 0.0010218499107790908 -0.0018608650790831118 0 0.00099968023169744028 -0.0017611473951226902 0 0.0012970971112570356 -0.0030709511169222116 0 0.001467046880977 -0.0029409193972953687 0 0.0013557057078834136 -0.0026381020894001499 0 0.0015918443610408672 -0.0030262297697779715 0 0.0016209888548899508 -0.0028787324512230305 0 0.001467046880977 -0.0029409193972953687 0 0.0009898349241799552 -0.0017839624000249722 0 0.00099813266715020562 -0.0019561649038047999 0 0.00099968023169744028 -0.0017611473951226902 0 0.00099813266715020562 -0.0019561649038047999 0 0.0010218499107790908 -0.0018608650790831118 0 0.00099968023169744028 -0.0017611473951226902 0 0.0009898349241799552 -0.0017839624000249722 0 0.00099968023169744028 -0.0017611473951226902 0 0.00096237466484932858 -0.0015765832290107428 0 0.0009898349241799552 -0.0017839624000249722 0 0.00093628602491594793 -0.0016312878009677872 0 0.00096237466484932858 -0.0015765832290107428 0 0.00093628602491594793 -0.0016312878009677872 0 0.00092533619987274337 -0.001356760958915771 0 0.00096237466484932858 -0.0015765832290107428 0 0.00071298887816259224 -0.0015012087861152525 0 0.00063798946512580088 -0.0010621909981507274 0 0.00092533619987274337 -0.001356760958915771 0 0.00071298887816259224 -0.0015012087861152525 0 0.00093628602491594793 -0.0016312878009677872 0 0.00092533619987274337 -0.001356760958915771 0 0.0012130446833679772 -0.00078699072901624863 0 0.00092533619987274337 -0.001356760958915771 0 0.00082607176009207169 -0.00098292478488912031 0 0.00063798946512580088 -0.0010621909981507274 0 0.00092533619987274337 -0.001356760958915771 0 0.00082607176009207169 -0.00098292478488912031 0 0.00091922638168735326 -0.0014633019618838672 0 0.0010323507217174142 -0.0012523902312155369 0 0.0009543371982166913 -0.0015203408659352552 0 0.00092533619987274337 -0.001356760958915771 0 0.00096237466484932858 -0.0015765832290107428 0 0.0013396620588676997 -0.00086578706039986634 0 0.0012130446833679772 -0.00078699072901624863 0 0.00092533619987274337 -0.001356760958915771 0 9.5796779888880493e-10 -0.014999997924088428 0 -1.9117947398932578e-09 -0.015000003860232786 0 -1.2133134779329266e-07 -0.01500004460720665 0 3.0643145562372741e-05 -0.014972710370407793 0 1.2423991906648309e-07 -0.0149999770760775 0 4.5901554663125969e-05 -0.014962993987645301 0 2.3594767295593441e-08 -0.015000035322389306 0 8.3887244683396467e-06 -0.014935413013613306 0 3.0643145562372741e-05 -0.014972710370407793 0 1.2423991906648309e-07 -0.0149999770760775 0 2.7138461150391561e-05 -0.014981555057762795 0 1.2423991906648309e-07 -0.0149999770760775 0 2.7138461150391561e-05 -0.014981555057762795 0 -4.2689466494182899e-08 -0.014999929698628808 0 3.0643145562372741e-05 -0.014972710370407793 0 2.7138461150391561e-05 -0.014981555057762795 0 4.5398809994065081e-05 -0.014966388516378997 0 2.7138461150391561e-05 -0.014981555057762795 0 4.5398809994065081e-05 -0.014966388516378997 0 4.9409760868010165e-05 -0.014966008105408147 0 4.5398809994065081e-05 -0.014966388516378997 0 5.3038208628763858e-05 -0.014955262682614417 0 6.9865886626350364e-05 -0.014960154907259491 0 4.5398809994065081e-05 -0.014966388516378997 0 6.9865886626350364e-05 -0.014960154907259491 0 4.9409760868010165e-05 -0.014966008105408147 0 5.3038208628763858e-05 -0.014955262682614417 0 5.3973324572467352e-05 -0.014944295453793268 0 6.9865886626350364e-05 -0.014960154907259491 0 3.9956173991587388e-05 -0.014946994670783538 0 3.973836400788318e-05 -0.014930791290942422 0 5.3973324572467352e-05 -0.014944295453793268 0 5.3038208628763858e-05 -0.014955262682614417 0 3.9956173991587388e-05 -0.014946994670783538 0 5.3973324572467352e-05 -0.014944295453793268 0 3.0643145562372741e-05 -0.014972710370407793 0 4.5398809994065081e-05 -0.014966388516378997 0 3.9956173991587388e-05 -0.014946994670783538 0 4.5398809994065081e-05 -0.014966388516378997 0 5.3038208628763858e-05 -0.014955262682614417 0 3.9956173991587388e-05 -0.014946994670783538 0 3.5136024278471164e-05 -0.014939637808323549 0 3.1906014281361083e-05 -0.014937605359791193 0 2.1521497934875765e-05 -0.014943608831032591 0 3.9956173991587388e-05 -0.014946994670783538 0 3.5136024278471164e-05 -0.014939637808323549 0 2.1521497934875765e-05 -0.014943608831032591 0 3.0643145562372741e-05 -0.014972710370407793 0 3.9956173991587388e-05 -0.014946994670783538 0 2.1521497934875765e-05 -0.014943608831032591 0 3.9956173991587388e-05 -0.014946994670783538 0 3.5136024278471164e-05 -0.014939637808323549 0 3.973836400788318e-05 -0.014930791290942422 0 3.5136024278471164e-05 -0.014939637808323549 0 3.1906014281361083e-05 -0.014937605359791193 0 3.973836400788318e-05 -0.014930791290942422 0 -0.00043609228452511024 -0.013775990236552927 0 0.00013709779946549948 -0.012944322017129591 0 -0.00013309858773492006 -0.012694571970699939 0 -0.00033239168988400753 -0.012630019232089781 0 -0.00032384798486035965 -0.012852706904737863 0 -0.00013309858773492006 -0.012694571970699939 0 -0.00025784786013733431 -0.012553190480974195 0 -0.00033239168988400753 -0.012630019232089781 0 -3.240725741165892e-05 -0.014893746725916682 0 2.7545835397793596e-05 -0.014907672812257005 0 6.4879720623816875e-06 -0.014860005982906785 0 -3.240725741165892e-05 -0.014893746725916682 0 2.7545835397793596e-05 -0.014907672812257005 0 2.1521497934875765e-05 -0.014943608831032591 0 -0.00043609228452511024 -0.013775990236552927 0 0.00027555595316109565 -0.015249799924640133 0 -0.00043609228452511024 -0.013775990236552927 0 -0.00046125767738325785 -0.013412036553328821 0 2.7545835397793596e-05 -0.014907672812257005 0 5.9850109983677017e-05 -0.01490024286739663 0 6.4879720623816875e-06 -0.014860005982906785 0 2.7545835397793596e-05 -0.014907672812257005 0 2.1521497934875765e-05 -0.014943608831032591 0 4.5901554663125969e-05 -0.014962993987645301 0 3.0643145562372741e-05 -0.014972710370407793 0 2.1521497934875765e-05 -0.014943608831032591 0 4.5901554663125969e-05 -0.014962993987645301 0 -1.9117947398932578e-09 -0.015000003860232786 0 -1.2133134779329266e-07 -0.01500004460720665 0 -2.3280231788780801e-06 -0.015000258949914511 0 8.3887244683396467e-06 -0.014935413013613306 0 8.9193492978086505e-05 -0.01517166428555171 0 -1.9117947398932578e-09 -0.015000003860232786 0 -2.3280231788780801e-06 -0.015000258949914511 0 2.1472161256805057e-09 -0.014999990946272768 0 2.7545835397793596e-05 -0.014907672812257005 0 4.5901554663125969e-05 -0.014962993987645301 0 5.9850109983677017e-05 -0.01490024286739663 0 2.1472161256805057e-09 -0.014999990946272768 0 -7.9464770918327825e-06 -0.014987338210473686 0 3.0988399133734949e-10 -0.014984744187546084 0 8.9193492978086505e-05 -0.01517166428555171 0 -0.00028838013045043932 -0.013785014312696105 0 -2.3280231788780801e-06 -0.015000258949914511 0 2.1472161256805057e-09 -0.014999990946272768 0 -7.9464770918327825e-06 -0.014987338210473686 0 5.9850109983677017e-05 -0.01490024286739663 0 6.4879720623816875e-06 -0.014860005982906785 0 4.5719311113964256e-05 -0.014817876858133391 0 -0.00046125767738325785 -0.013412036553328821 0 -0.00028838013045043932 -0.013785014312696105 0 -0.00099061921174634039 -0.012004841865668473 0 -0.00091960336236128232 -0.011927675875260314 0 -0.00099727819061153685 -0.011905868753501391 0 -0.00028838013045043932 -0.013785014312696105 0 -0.00078694414746189494 -0.012491100662656693 0 -0.00099727819061153685 -0.011905868753501391 0 -0.0010159832358585161 -0.011790162459842313 0 -0.001031849564778291 -0.011828088688229543 0 -0.00091960336236128232 -0.011927675875260314 0 -0.00099727819061153685 -0.011905868753501391 0 -0.0010159832358585161 -0.011790162459842313 0 -0.00028838013045043932 -0.013785014312696105 0 -0.00015838575418088377 -0.014262043186037464 0 -0.00041593378078962756 -0.013620282569570404 0 -0.00042413309376017512 -0.013629205605694703 0 -0.0004138127963325084 -0.013627214287990181 0 -0.00015838575418088377 -0.014262043186037464 0 -0.00021932703739098309 -0.014326191323383013 0 -2.0550783218827874e-09 -0.014984741621692995 0 -6.0501445718675903e-06 -0.014997274243300279 0 -1.878884159136481e-08 -0.015000025391194608 0 -0.00042413309376017512 -0.013629205605694703 0 -0.0004138127963325084 -0.013627214287990181 0 -0.00042387783213728233 -0.013640514126315837 0 -0.0010159832358585161 -0.011790162459842313 0 -0.0010183850077895168 -0.011848912839641974 0 -0.001031849564778291 -0.011828088688229543 0 -0.00023681415134256802 -0.014330836928341164 0 -0.00021932703739098309 -0.014326191323383013 0 -0.00078694414746189494 -0.012491100662656693 0 -0.00070632114692484825 -0.012895562542313133 0 -0.0010159832358585161 -0.011790162459842313 0 -0.0010183850077895168 -0.011848912839641974 0 -0.0010528771255190245 -0.011974963989494779 0 -0.0004138127963325084 -0.013627214287990181 0 -0.00040303418943684482 -0.013655115105131696 0 -0.00042387783213728233 -0.013640514126315837 0 -0.00041985162127489704 -0.013673435494278154 0 -0.00040303418943684482 -0.013655115105131696 0 -0.00042387783213728233 -0.013640514126315837 0 -3.9061007522422963e-05 -0.015008401198679295 0 -6.0501445718675903e-06 -0.014997274243300279 0 -1.878884159136481e-08 -0.015000025391194608 0 -0.00024252344652521158 -0.01207963891280564 0 -0.00056521670987965235 -0.011833159563995652 0 -0.00028967297620642401 -0.011620343387298442 0 -0.00072373150753826491 -0.012194072675519941 0 -0.00056521670987965235 -0.011833159563995652 0 -0.00081965660061454203 -0.011858738483018123 0 -0.00072373150753826491 -0.012194072675519941 0 -0.0010528771255190245 -0.011974963989494779 0 -0.00081965660061454203 -0.011858738483018123 0 -0.0010183850077895168 -0.011848912839641974 0 -0.0010528771255190245 -0.011974963989494779 0 -0.00081965660061454203 -0.011858738483018123 0 -0.00099078197584465859 -0.011812827101763654 0 -0.00087951825650459971 -0.011649823032159622 0 -0.0010183850077895168 -0.011848912839641974 0 -0.0010038301756354142 -0.011838787886548357 0 -0.001031849564778291 -0.011828088688229543 0 -0.0010183850077895168 -0.011848912839641974 0 -0.00081965660061454203 -0.011858738483018123 0 -0.00067290995930105034 -0.011407731622916821 0 -0.00067290995930105034 -0.011407731622916821 0 -0.00028492203642268578 -0.011369036434632157 0 -0.00028967297620642401 -0.011620343387298442 0 -0.00056521670987965235 -0.011833159563995652 0 -0.00067290995930105034 -0.011407731622916821 0 -0.00028967297620642401 -0.011620343387298442 0 -0.00056521670987965235 -0.011833159563995652 0 -0.00081965660061454203 -0.011858738483018123 0 -0.00067290995930105034 -0.011407731622916821 0 -0.0011484053429945847 -0.011861727897494801 0 -0.00074573152318605223 -0.011846644896764928 0 -0.00087951825650459971 -0.011649823032159622 0 -0.00033846918298074572 -0.011371201546101202 0 -0.00067290995930105034 -0.011407731622916821 0 -0.00026383224639466902 -0.011041172304182429 0 -0.00028492203642268578 -0.011369036434632157 0 -0.0010038301756354142 -0.011838787886548357 0 -0.00098221736726395456 -0.011798917959629861 0 -0.00092394871169313602 -0.011782973027766909 0 -0.00098221736726395456 -0.011798917959629861 0 -0.001031849564778291 -0.011828088688229543 0 -0.00096309950587306211 -0.011744746079903137 0 -0.00099727819061153685 -0.011905868753501391 0 -0.001031849564778291 -0.011828088688229543 0 -0.0010556294143575702 -0.011960109884320988 0 -0.0010038301756354142 -0.011838787886548357 0 -0.00098221736726395456 -0.011798917959629861 0 -0.001031849564778291 -0.011828088688229543 0 -0.001031849564778291 -0.011828088688229543 0 -0.0010556294143575702 -0.011960109884320988 0 -0.0011832729831761668 -0.011976971046466025 0 -0.0010795980818560792 -0.012094804595806455 0 -0.00099061921174634039 -0.012004841865668473 0 -0.0010556294143575702 -0.011960109884320988 0 -0.0010795980818560792 -0.012094804595806455 0 -0.0010556294143575702 -0.011960109884320988 0 -0.0011832729831761668 -0.011976971046466025 0 -0.00099061921174634039 -0.012004841865668473 0 -0.00099727819061153685 -0.011905868753501391 0 -0.0010556294143575702 -0.011960109884320988 0 -0.00074573152318605223 -0.011846644896764928 0 -0.00033846918298074572 -0.011371201546101202 0 -0.00098221736726395456 -0.011798917959629861 0 -0.00096309950587306211 -0.011744746079903137 0 -0.00092394871169313602 -0.011782973027766909 0 -0.00043609228452511024 -0.013775990236552927 0 -0.00074573152318605223 -0.011846644896764928 0 -0.00074573152318605223 -0.011846644896764928 0 4.6964301748003022e-05 -0.011803747351632553 0 -0.00021396812877731816 -0.01158196928579224 0 -0.00015475238054768004 -0.011541135098321149 0 -0.00015476008354303099 -0.011526816268594852 0 4.2892527775922038e-06 -0.011647851744888834 0 4.6964301748003022e-05 -0.011803747351632553 0 4.2892527775922038e-06 -0.011647851744888834 0 0.00020767884539061926 -0.011275945362003659 0 0.00018500102199534496 -0.011565649732754505 0 0.00028825351430439208 -0.011608457900101813 0 0.00025651001366287047 -0.0115456626077382 0 -0.00015228958875099439 -0.011513112811527041 0 -0.00012314122334191387 -0.011588806577759949 0 -4.2371395516983488e-05 -0.011560090107506431 0 0.00020767884539061926 -0.011275945362003659 0 -0.00033846918298074572 -0.011371201546101202 0 -0.00012314122334191387 -0.011588806577759949 0 -4.2371395516983488e-05 -0.011560090107506431 0 -0.00014984834370167515 -0.011649823274753024 0 0.00012817095436606685 -0.01079472288826471 0 0.00016004997420096065 -0.011008959686547292 0 -6.7158329335848994e-05 -0.010966660929918654 0 4.2892527775922038e-06 -0.011647851744888834 0 -0.00012312621987854906 -0.011582000231344616 0 -0.00021396812877731816 -0.01158196928579224 0 -0.00015475238054768004 -0.011541135098321149 0 -0.00015122963260168459 -0.011629699810473387 0 -0.00015228958875099439 -0.011513112811527041 0 -0.00015122963260168459 -0.011629699810473387 0 -0.00012314122334191387 -0.011588806577759949 0 -0.00021396812877731816 -0.01158196928579224 0 -0.00015122963260168459 -0.011629699810473387 0 -0.00014984834370167515 -0.011649823274753024 0 -0.00015122963260168459 -0.011629699810473387 0 -0.00012314122334191387 -0.011588806577759949 0 -0.00014984834370167515 -0.011649823274753024 0 0.0003906916142403427 -0.011163111667966753 0 0.00052365001177970532 -0.011218572168126478 0 0.00048193084788642328 -0.011084207505843631 0 0.00012817095436606685 -0.01079472288826471 0 0.00016004997420096065 -0.011008959686547292 0 0.00048870560332435475 -0.010946015631236481 0 0.00020767884539061926 -0.011275945362003659 0 0.00049836874462411325 -0.011049067689780241 0 0.00020767884539061926 -0.011275945362003659 0 0.00051428625378378259 -0.011347779623307677 0 0.00016004997420096065 -0.011008959686547292 0 0.00018724776511141252 -0.011237787348037301 0 0.00048870560332435475 -0.010946015631236481 0 -0.00026383224639466902 -0.011041172304182429 0 -0.00028492203642268578 -0.011369036434632157 0 7.9416509453325107e-05 -0.011404639584109127 0 0.00016004997420096065 -0.011008959686547292 0 -6.7158329335848994e-05 -0.010966660929918654 0 0.00018724776511141252 -0.011237787348037301 0 -0.00033846918298074572 -0.011371201546101202 0 0.00013434076973730945 -0.01127518793426179 0 -0.00028492203642268578 -0.011369036434632157 0 -0.00028967297620642401 -0.011620343387298442 0 7.9416509453325107e-05 -0.011404639584109127 0 -0.00028967297620642401 -0.011620343387298442 0 7.9416509453325107e-05 -0.011404639584109127 0 3.5443068039519798e-05 -0.011785792868380022 0 7.9416509453325107e-05 -0.011404639584109127 0 3.5443068039519798e-05 -0.011785792868380022 0 0.00040328538783410221 -0.011721444070788943 0 0.00013434076973730945 -0.01127518793426179 0 0.00043240768116024566 -0.011629966484424973 0 -0.00024252344652521158 -0.01207963891280564 0 0.00024856321387195876 -0.0120541658431062 0 3.5443068039519798e-05 -0.011785792868380022 0 0.00024856321387195876 -0.0120541658431062 0 3.5443068039519798e-05 -0.011785792868380022 0 0.00040328538783410221 -0.011721444070788943 0 -0.00024252344652521158 -0.01207963891280564 0 -0.00028967297620642401 -0.011620343387298442 0 3.5443068039519798e-05 -0.011785792868380022 0 0.00070634257327672275 -0.011857620622573001 0 0.00043516770299618105 -0.011518734516523755 0 0.00092851613772004142 -0.011390928614912503 0 0.00070634257327672275 -0.011857620622573001 0 0.00024856321387195876 -0.0120541658431062 0 0.00040328538783410221 -0.011721444070788943 0 0.00068553844864611827 -0.011851594954837842 0 0.00043240768116024566 -0.011629966484424973 0 0.00018724776511141252 -0.011237787348037301 0 0.00043516770299618105 -0.011518734516523755 0 0.00057623615626822518 -0.011233334207178281 0 0.00057623615626822518 -0.011233334207178281 0 0.00085457665796171952 -0.011112387615801578 0 0.00092851613772004142 -0.011390928614912503 0 0.00043516770299618105 -0.011518734516523755 0 0.00057623615626822518 -0.011233334207178281 0 0.00092851613772004142 -0.011390928614912503 0 0.00077978805915968833 -0.011209431376192638 0 0.00049836874462411325 -0.011049067689780241 0 0.00065673851233255076 -0.0112739193589731 0 0.00052365001177970532 -0.011218572168126478 0 0.00058403177806338373 -0.011165866806503492 0 0.00065673851233255076 -0.0112739193589731 0 0.00058403177806338373 -0.011165866806503492 0 0.00068669822363948152 -0.011247475373848962 0 0.00057623615626822518 -0.011233334207178281 0 0.00085457665796171952 -0.011112387615801578 0 0.00048870560332435475 -0.010946015631236481 0 0.00018724776511141252 -0.011237787348037301 0 0.00057623615626822518 -0.011233334207178281 0 0.00048870560332435475 -0.010946015631236481 0 0.00066753161307953664 -0.011122991717960157 0 0.00051428625378378259 -0.011347779623307677 0 0.00052365001177970532 -0.011218572168126478 0 0.00058403177806338373 -0.011165866806503492 0 0.00048193084788642328 -0.011084207505843631 0 0.00073270335802558891 -0.0111101805042503 0 0.00064464901269331598 -0.011132479589782092 0 0.00066902589447034692 -0.011111919276897197 0 0.00066753161307953664 -0.011122991717960157 0 0.00067099345973276015 -0.011180142418537892 0 0.00073270335802558891 -0.0111101805042503 0 0.00074513059094221616 -0.011168611605601862 0 0.00064464901269331598 -0.011132479589782092 0 0.00074513059094221616 -0.011168611605601862 0 0.00076358198306330355 -0.011280760542469709 0 0.00064464901269331598 -0.011132479589782092 0 0.00056107879999591674 -0.011533765478965414 0 0.00051428625378378259 -0.011347779623307677 0 0.00033848188822398342 -0.01175743661641724 0 0.00040236516818609229 -0.011734852808395761 0 0.0004085390433314687 -0.011683558680509349 0 0.00033848188822398342 -0.01175743661641724 0 0.00040236516818609229 -0.011734852808395761 0 0.00038508938126933427 -0.011780396219363861 0 0.00074513059094221616 -0.011168611605601862 0 0.00076358198306330355 -0.011280760542469709 0 0.00082375401517700451 -0.011164226794208316 0 0.00073270335802558891 -0.0111101805042503 0 0.00074513059094221616 -0.011168611605601862 0 0.00082375401517700451 -0.011164226794208316 0 0.00041190018830201947 -0.01150111317341642 0 0.00025651001366287047 -0.0115456626077382 0 0.00031403413827906228 -0.0114211192475734 0 0.00028825351430439208 -0.011608457900101813 0 0.00041190018830201947 -0.01150111317341642 0 0.00025651001366287047 -0.0115456626077382 0 0.00051428625378378259 -0.011347779623307677 0 0.00046045459948763939 -0.011616344019586538 0 0.00040236516818609229 -0.011734852808395761 0 0.0004085390433314687 -0.011683558680509349 0 0.00045057875881930181 -0.011719430984768414 0 4.6964301748003022e-05 -0.011803747351632553 0 0.00013709779946549948 -0.012944322017129591 0 0.00052729050326496673 -0.011711348552092844 0 0.0005367044443817452 -0.011755025169517116 0 0.00050532409419954435 -0.011729621036311507 0 0.00018500102199534496 -0.011565649732754505 0 0.00018468178959864186 -0.011547815171901399 0 0.00025651001366287047 -0.0115456626077382 0 0.00018468178959864186 -0.011547815171901399 0 0.00025651001366287047 -0.0115456626077382 0 0.00031403413827906228 -0.0114211192475734 0 4.6964301748003022e-05 -0.011803747351632553 0 0.00046045459948763939 -0.011616344019586538 0 0.0005367044443817452 -0.011755025169517116 0 0.00050532409419954435 -0.011729621036311507 0 0.0005112850395678529 -0.011790427460677363 0 0.00050532409419954435 -0.011729621036311507 0 0.0005112850395678529 -0.011790427460677363 0 0.00041745479397532808 -0.011772120124014528 0 0.00046045459948763939 -0.011616344019586538 0 0.00039543370764998916 -0.011794888185285053 0 0.00040236516818609229 -0.011734852808395761 0 0.00045057875881930181 -0.011719430984768414 0 0.00038508938126933427 -0.011780396219363861 0 0.0005112850395678529 -0.011790427460677363 0 0.00041411778364712682 -0.011860360231222361 0 0.00041745479397532808 -0.011772120124014528 0 0.00013709779946549948 -0.012944322017129591 0 0.00079486469164406672 -0.011429773221497847 0 0.00064335572673813448 -0.011699077166102474 0 0.0005112850395678529 -0.011790427460677363 0 0.0006749429485929287 -0.011881955329727717 0 0.00013709779946549948 -0.012944322017129591 0 0.00039400916407031659 -0.01349869728216609 0 0.0005112850395678529 -0.011790427460677363 0 0.0006749429485929287 -0.011881955329727717 0 0.00053397647681231589 -0.011891315518519246 0 0.0006749429485929287 -0.011881955329727717 0 0.00053397647681231589 -0.011891315518519246 0 0.00060445755967623426 -0.012001163947336326 0 0.0005112850395678529 -0.011790427460677363 0 0.00053397647681231589 -0.011891315518519246 0 0.00041411778364712682 -0.011860360231222361 0 0.00053397647681231589 -0.011891315518519246 0 0.00044713929530035713 -0.01199392221409905 0 0.00060445755967623426 -0.012001163947336326 0 0.00053397647681231589 -0.011891315518519246 0 0.00041411778364712682 -0.011860360231222361 0 0.00044713929530035713 -0.01199392221409905 0 0.00041411778364712682 -0.011860360231222361 0 0.00032066270448616264 -0.011824636964014165 0 0.00030059626884248281 -0.011974655970005417 0 0.00041411778364712682 -0.011860360231222361 0 0.00030059626884248281 -0.011974655970005417 0 0.00044713929530035713 -0.01199392221409905 0 0.00032066270448616264 -0.011824636964014165 0 0.00026356885682074526 -0.011916878418226556 0 0.00030059626884248281 -0.011974655970005417 0 0.00033848188822398342 -0.01175743661641724 0 0.00032066270448616264 -0.011824636964014165 0 0.00037576950759722611 -0.011698500939437834 0 0.00033848188822398342 -0.01175743661641724 0 0.00032066270448616264 -0.011824636964014165 0 0.00038508938126933427 -0.011780396219363861 0 0.00041411778364712682 -0.011860360231222361 0 0.00032066270448616264 -0.011824636964014165 0 0.00041745479397532808 -0.011772120124014528 0 0.00033001150920258402 -0.011818434269912441 0 0.00039543370764998916 -0.011794888185285053 0 0.00037576950759722611 -0.011698500939437834 0 0.00010241879383602779 -0.011666276524956326 0 0.00042581779491400939 -0.011248497685567143 0 0.00056107879999591674 -0.011533765478965414 0 0.00037561632249962331 -0.011688328481098626 0 0.00032066270448616264 -0.011824636964014165 0 0.00037576950759722611 -0.011698500939437834 0 0.00026356885682074526 -0.011916878418226556 0 0.00037576950759722611 -0.011698500939437834 0 0.00019999467436123531 -0.011858484512421641 0 0.00026356885682074526 -0.011916878418226556 0 0.00037576950759722611 -0.011698500939437834 0 0.00019999467436123531 -0.011858484512421641 0 0.00010241879383602779 -0.011666276524956326 0 0.00019999467436123531 -0.011858484512421641 0 0.00010241879383602779 -0.011666276524956326 0 -1.1811003028268619e-05 -0.011974039574852649 0 -0.00018026046212081361 -0.011682884421523041 0 0.00010241879383602779 -0.011666276524956326 0 -1.1811003028268619e-05 -0.011974039574852649 0 -0.00018026046212081361 -0.011682884421523041 0 -0.00045500612598543193 -0.011880614597483788 0 -1.1811003028268619e-05 -0.011974039574852649 0 -0.00018026046212081361 -0.011682884421523041 0 -0.00046674850565433076 -0.011568152260448094 0 -0.00045500612598543193 -0.011880614597483788 0 -0.00018026046212081361 -0.011682884421523041 0 -9.6015471966211808e-05 -0.011272696304487812 0 -0.00046674850565433076 -0.011568152260448094 0 -9.6015471966211808e-05 -0.011272696304487812 0 -0.00051458323216781643 -0.011276231455070855 0 -0.00046674850565433076 -0.011568152260448094 0 0.00010241879383602779 -0.011666276524956326 0 -9.6015471966211808e-05 -0.011272696304487812 0 0.00042581779491400939 -0.011248497685567143 0 -0.00018026046212081361 -0.011682884421523041 0 0.00010241879383602779 -0.011666276524956326 0 -9.6015471966211808e-05 -0.011272696304487812 0 0.00027480588844207055 -0.011156581946289389 0 0.00044254446501434144 -0.011225731130333552 0 0.00068591131000174561 -0.011026507007938457 0 0.00057937662437557191 -0.011145069836715612 0 0.00042581779491400939 -0.011248497685567143 0 0.00027480588844207055 -0.011156581946289389 0 0.00025639293177344327 -0.01114729354987171 0 0.00068591131000174561 -0.011026507007938457 0 0.00075991959975738467 -0.011030997706780893 0 0.00077042628541958516 -0.010965114070085187 0 0.00068591131000174561 -0.011026507007938457 0 0.00075991959975738467 -0.011030997706780893 0 0.00070699239043041319 -0.011101075847153355 0 0.00075991959975738467 -0.011030997706780893 0 0.00070699239043041319 -0.011101075847153355 0 0.00079527536455709417 -0.01106414493001944 0 0.00070699239043041319 -0.011101075847153355 0 0.00063273064090311093 -0.011126227700825523 0 0.00057937662437557191 -0.011145069836715612 0 0.00068591131000174561 -0.011026507007938457 0 0.00070699239043041319 -0.011101075847153355 0 0.00057937662437557191 -0.011145069836715612 0 0.00063273064090311093 -0.011126227700825523 0 0.00055886024856827946 -0.011166408047223351 0 0.00057937662437557191 -0.011145069836715612 0 0.00055886024856827946 -0.011166408047223351 0 0.00057937662437557191 -0.011145069836715612 0 0.00042581779491400939 -0.011248497685567143 0 0.00037576950759722611 -0.011698500939437834 0 0.00042581779491400939 -0.011248497685567143 0 0.000577045060426923 -0.011243441763014598 0 0.00076358198306330355 -0.011280760542469709 0 0.000577045060426923 -0.011243441763014598 0 0.00064464901269331598 -0.011132479589782092 0 0.00076358198306330355 -0.011280760542469709 0 0.00037576950759722611 -0.011698500939437834 0 0.000577045060426923 -0.011243441763014598 0 0.00055886024856827946 -0.011166408047223351 0 0.00042581779491400939 -0.011248497685567143 0 0.000577045060426923 -0.011243441763014598 0 0.00063273064090311093 -0.011126227700825523 0 0.00055886024856827946 -0.011166408047223351 0 0.00064464901269331598 -0.011132479589782092 0 0.00055886024856827946 -0.011166408047223351 0 0.000577045060426923 -0.011243441763014598 0 0.00064464901269331598 -0.011132479589782092 0 0.00064464901269331598 -0.011132479589782092 0 0.00068262071656249965 -0.011115865600892581 0 0.00066902589447034692 -0.011111919276897197 0 0.00063273064090311093 -0.011126227700825523 0 0.00064464901269331598 -0.011132479589782092 0 0.00068262071656249965 -0.011115865600892581 0 0.00063273064090311093 -0.011126227700825523 0 0.00068262071656249965 -0.011115865600892581 0 0.00072641357148773113 -0.011119292143225155 0 0.00068262071656249965 -0.011115865600892581 0 0.00078636373355507215 -0.011135498243853618 0 0.00072641357148773113 -0.011119292143225155 0 0.00068262071656249965 -0.011115865600892581 0 0.00072327607140932053 -0.011141057455832644 0 0.00078636373355507215 -0.011135498243853618 0 0.00072327607140932053 -0.011141057455832644 0 0.00080324123557772812 -0.011169851857493092 0 0.00072414585060890963 -0.01119906861767863 0 0.00072327607140932053 -0.011141057455832644 0 0.00080324123557772812 -0.011169851857493092 0 0.00078636373355507215 -0.011135498243853618 0 0.00067099345973276015 -0.011180142418537892 0 0.00083768152381694853 -0.011257229092501748 0 0.00077978805915968833 -0.011209431376192638 0 0.00083768152381694853 -0.011257229092501748 0 0.00072327607140932053 -0.011141057455832644 0 0.00066902589447034692 -0.011111919276897197 0 0.00072414585060890963 -0.01119906861767863 0 0.00068262071656249965 -0.011115865600892581 0 0.00072327607140932053 -0.011141057455832644 0 0.00066902589447034692 -0.011111919276897197 0 0.00065673851233255076 -0.0112739193589731 0 0.00068669822363948152 -0.011247475373848962 0 0.00078923636734080504 -0.011329560380856746 0 0.00092851613772004142 -0.011390928614912503 0 0.0011368559428164449 -0.011295785322492901 0 0.0011443374843259995 -0.011385813142991863 0 0.00085457665796171952 -0.011112387615801578 0 0.00092851613772004142 -0.011390928614912503 0 0.0011368559428164449 -0.011295785322492901 0 0.0011368559428164449 -0.011295785322492901 0 0.0011443374843259995 -0.011385813142991863 0 0.0010873666463622812 -0.011341607436512984 0 0.00059206813251761066 -0.011192759419381896 0 0.0010873666463622812 -0.011341607436512984 0 0.00089674703490328364 -0.011232270417965725 0 0.00083768152381694853 -0.011257229092501748 0 0.0010603235018937936 -0.01132989470221453 0 0.00080324123557772812 -0.011169851857493092 0 0.00072414585060890963 -0.01119906861767863 0 0.00089674703490328364 -0.011232270417965725 0 0.00083768152381694853 -0.011257229092501748 0 0.00081248889193267343 -0.011222156105783851 0 0.0011443374843259995 -0.011385813142991863 0 0.0011742331517725045 -0.011390874224998411 0 0.0010873666463622812 -0.011341607436512984 0 0.0011333903244303504 -0.011555923311439561 0 0.0011443374843259995 -0.011385813142991863 0 0.0011742331517725045 -0.011390874224998411 0 0.0011333903244303504 -0.011555923311439561 0 0.00070634257327672275 -0.011857620622573001 0 0.00092851613772004142 -0.011390928614912503 0 0.0011333903244303504 -0.011555923311439561 0 0.00092851613772004142 -0.011390928614912503 0 0.0011443374843259995 -0.011385813142991863 0 0.0010640804758724155 -0.011246699601510155 0 0.0010724272755750735 -0.011189229364356392 0 0.0010104247944790531 -0.011174317405988309 0 0.0011142624094026691 -0.011141683061479161 0 0.0010724272755750735 -0.011189229364356392 0 0.0011459189685145686 -0.011294657261308258 0 0.0010640804758724155 -0.011246699601510155 0 0.0010724272755750735 -0.011189229364356392 0 0.0011459189685145686 -0.011294657261308258 0 0.0011742331517725045 -0.011390874224998411 0 0.0011459189685145686 -0.011294657261308258 0 0.0010873666463622812 -0.011341607436512984 0 0.0010640804758724155 -0.011246699601510155 0 0.0011459189685145686 -0.011294657261308258 0 0.0010873666463622812 -0.011341607436512984 0 0.0010640804758724155 -0.011246699601510155 0 0.0010873666463622812 -0.011341607436512984 0 0.00098927344377935434 -0.011213627008588599 0 0.0010873666463622812 -0.011341607436512984 0 0.00098927344377935434 -0.011213627008588599 0 0.00089674703490328364 -0.011232270417965725 0 0.00098927344377935434 -0.011213627008588599 0 0.00089674703490328364 -0.011232270417965725 0 0.00087855118023734045 -0.011178435054970825 0 0.00080324123557772812 -0.011169851857493092 0 0.00089674703490328364 -0.011232270417965725 0 0.00087855118023734045 -0.011178435054970825 0 0.00098927344377935434 -0.011213627008588599 0 0.00087855118023734045 -0.011178435054970825 0 0.00088431129209042784 -0.011152189987722353 0 0.00098927344377935434 -0.011213627008588599 0 0.00094741037163358749 -0.011163380015027143 0 0.00088431129209042784 -0.011152189987722353 0 0.00098927344377935434 -0.011213627008588599 0 0.0010104247944790531 -0.011174317405988309 0 0.00094741037163358749 -0.011163380015027143 0 0.0010640804758724155 -0.011246699601510155 0 0.00098927344377935434 -0.011213627008588599 0 0.0010104247944790531 -0.011174317405988309 0 0.0010104247944790531 -0.011174317405988309 0 0.00094741037163358749 -0.011163380015027143 0 0.00092747408364215924 -0.011134163441570867 0 0.00088149893247613665 -0.011131911058528812 0 0.00080576278241464307 -0.011112006958619825 0 0.0008610127203542285 -0.011099338685385915 0 0.00094741037163358749 -0.011163380015027143 0 0.00088149893247613665 -0.011131911058528812 0 0.00092747408364215924 -0.011134163441570867 0 0.00094741037163358749 -0.011163380015027143 0 0.00088149893247613665 -0.011131911058528812 0 0.00088431129209042784 -0.011152189987722353 0 0.00088149893247613665 -0.011131911058528812 0 0.00088431129209042784 -0.011152189987722353 0 0.00080576278241464307 -0.011112006958619825 0 0.00088149893247613665 -0.011131911058528812 0 0.0008610127203542285 -0.011099338685385915 0 0.00092747408364215924 -0.011134163441570867 0 0.00087855118023734045 -0.011178435054970825 0 0.00088431129209042784 -0.011152189987722353 0 0.00078636373355507215 -0.011135498243853618 0 0.00080324123557772812 -0.011169851857493092 0 0.00087855118023734045 -0.011178435054970825 0 0.00078636373355507215 -0.011135498243853618 0 0.00088431129209042784 -0.011152189987722353 0 0.00078636373355507215 -0.011135498243853618 0 0.00080576278241464307 -0.011112006958619825 0 0.00070699239043041319 -0.011101075847153355 0 0.00063273064090311093 -0.011126227700825523 0 0.00072641357148773113 -0.011119292143225155 0 0.00070699239043041319 -0.011101075847153355 0 0.00072641357148773113 -0.011119292143225155 0 0.00080576278241464307 -0.011112006958619825 0 0.00078636373355507215 -0.011135498243853618 0 0.00072641357148773113 -0.011119292143225155 0 0.00080576278241464307 -0.011112006958619825 0 0.00080576278241464307 -0.011112006958619825 0 0.00079527536455709417 -0.01106414493001944 0 0.0008610127203542285 -0.011099338685385915 0 0.00070699239043041319 -0.011101075847153355 0 0.00080576278241464307 -0.011112006958619825 0 0.00079527536455709417 -0.01106414493001944 0 0.00079527536455709417 -0.01106414493001944 0 0.00083229027217504939 -0.011059018128769445 0 0.0007900035731570051 -0.010989013183408938 0 0.00079527536455709417 -0.01106414493001944 0 0.00083229027217504939 -0.011059018128769445 0 0.0008610127203542285 -0.011099338685385915 0 0.00083229027217504939 -0.011059018128769445 0 0.00081649939064434656 -0.011024197813972248 0 0.00087808404421437002 -0.011097383799407345 0 0.00083229027217504939 -0.011059018128769445 0 0.00081649939064434656 -0.011024197813972248 0 0.0007900035731570051 -0.010989013183408938 0 0.00087808404421437002 -0.011097383799407345 0 0.00090460954658405006 -0.01109513867076683 0 0.00084569798556070582 -0.01109030656057137 0 0.00081649939064434656 -0.011024197813972248 0 0.00087808404421437002 -0.011097383799407345 0 0.00084569798556070582 -0.01109030656057137 0 0.00083229027217504939 -0.011059018128769445 0 0.00087808404421437002 -0.011097383799407345 0 0.0008610127203542285 -0.011099338685385915 0 0.00087808404421437002 -0.011097383799407345 0 0.0008610127203542285 -0.011099338685385915 0 0.00092747408364215924 -0.011134163441570867 0 0.0010104247944790531 -0.011174317405988309 0 0.00092747408364215924 -0.011134163441570867 0 0.00095495807598053046 -0.011117283821704422 0 0.00087808404421437002 -0.011097383799407345 0 0.00092747408364215924 -0.011134163441570867 0 0.00095495807598053046 -0.011117283821704422 0 0.00090460954658405006 -0.01109513867076683 0 0.00096708657208310336 -0.011058204338479604 0 0.00086056483834660781 -0.01105903341330257 0 0.00087808404421437002 -0.011097383799407345 0 0.00095495807598053046 -0.011117283821704422 0 0.00090460954658405006 -0.01109513867076683 0 0.00095495807598053046 -0.011117283821704422 0 0.00090460954658405006 -0.01109513867076683 0 0.00096708657208310336 -0.011058204338479604 0 0.00095495807598053046 -0.011117283821704422 0 0.00096708657208310336 -0.011058204338479604 0 0.0010380257171746163 -0.011078830460546802 0 0.00098387134173912299 -0.010869783901352721 0 0.00096708657208310336 -0.011058204338479604 0 0.0010380257171746163 -0.011078830460546802 0 0.00098387134173912299 -0.010869783901352721 0 0.00096708657208310336 -0.011058204338479604 0 0.00086056483834660781 -0.01105903341330257 0 0.0010104247944790531 -0.011174317405988309 0 0.00095495807598053046 -0.011117283821704422 0 0.0010380257171746163 -0.011078830460546802 0 0.0011142624094026691 -0.011141683061479161 0 0.0010724272755750735 -0.011189229364356392 0 0.0010380257171746163 -0.011078830460546802 0 0.0010724272755750735 -0.011189229364356392 0 0.0010104247944790531 -0.011174317405988309 0 0.0010380257171746163 -0.011078830460546802 0 0.00062002587283340046 -0.010530984286465513 0 0.00046239935513991601 -0.010795995329612841 0 0.00062028480552459139 -0.010557702362287069 0 0.00071520834509768161 -0.011042112039617802 0 0.00086056483834660781 -0.01105903341330257 0 0.00090460954658405006 -0.01109513867076683 0 0.00086056483834660781 -0.01105903341330257 0 0.00084569798556070582 -0.01109030656057137 0 0.00086056483834660781 -0.01105903341330257 0 0.00083720008523968702 -0.011111380636610354 0 0.00084569798556070582 -0.01109030656057137 0 0.00071520834509768161 -0.011042112039617802 0 0.00086056483834660781 -0.01105903341330257 0 0.00083720008523968702 -0.011111380636610354 0 0.00083720008523968702 -0.011111380636610354 0 0.00084569798556070582 -0.01109030656057137 0 0.00087185990203566773 -0.011048890813243346 0 0.00084569798556070582 -0.01109030656057137 0 0.0007974788015362444 -0.010964855580177407 0 0.00087185990203566773 -0.011048890813243346 0 0.00081649939064434656 -0.011024197813972248 0 0.00084569798556070582 -0.01109030656057137 0 0.0007974788015362444 -0.010964855580177407 0 0.00081649939064434656 -0.011024197813972248 0 0.0007974788015362444 -0.010964855580177407 0 0.00078533432238621251 -0.010948414811724318 0 0.0007974788015362444 -0.010964855580177407 0 0.00087185990203566773 -0.011048890813243346 0 0.00081114849991499301 -0.010799614456147464 0 0.00074831445127578121 -0.010316666247003009 0 0.00081114849991499301 -0.010799614456147464 0 0.00073689444729648445 -0.010661808796507861 0 0.0006902874168430742 -0.010379975272807616 0 -8.9764911661074977e-06 -0.010521542218448582 0 0.00081114849991499301 -0.010799614456147464 0 0.00073689444729648445 -0.010661808796507861 0 0.0007654845527973465 -0.010854393537628508 0 -8.9764911661074977e-06 -0.010521542218448582 0 -0.00069948680316784368 -0.010741841998871286 0 0.00073689444729648445 -0.010661808796507861 0 0.0007514772254337929 -0.010831416951116224 0 0.00075658825086843083 -0.010869888254176436 0 -0.00080880643284247618 -0.010421333226875672 0 -0.0022509640334146528 -0.010453757935132597 0 -0.0014839099123790866 -0.0096944014879174634 0 0.00073689444729648445 -0.010661808796507861 0 0.0007514772254337929 -0.010831416951116224 0 0.0007654845527973465 -0.010854393537628508 0 0.0007514772254337929 -0.010831416951116224 0 0.0007654845527973465 -0.010854393537628508 0 0.00077027653156228168 -0.010907580934765069 0 0.0007974788015362444 -0.010964855580177407 0 0.00081114849991499301 -0.010799614456147464 0 0.0007654845527973465 -0.010854393537628508 0 0.0007654845527973465 -0.010854393537628508 0 0.00078533432238621251 -0.010948414811724318 0 0.00077027653156228168 -0.010907580934765069 0 0.0007974788015362444 -0.010964855580177407 0 0.0007654845527973465 -0.010854393537628508 0 0.00078533432238621251 -0.010948414811724318 0 0.00081649939064434656 -0.011024197813972248 0 0.00078533432238621251 -0.010948414811724318 0 0.0007900035731570051 -0.010989013183408938 0 0.00078533432238621251 -0.010948414811724318 0 0.00077027653156228168 -0.010907580934765069 0 0.0007900035731570051 -0.010989013183408938 0 0.00075991959975738467 -0.011030997706780893 0 0.00079527536455709417 -0.01106414493001944 0 0.0007900035731570051 -0.010989013183408938 0 0.00075991959975738467 -0.011030997706780893 0 0.0007900035731570051 -0.010989013183408938 0 0.00077042628541958516 -0.010965114070085187 0 0.00077027653156228168 -0.010907580934765069 0 0.00077042628541958516 -0.010965114070085187 0 0.00075658825086843083 -0.010869888254176436 0 -0.00051458323216781643 -0.011276231455070855 0 -0.00095778502922263999 -0.011274094237804151 0 -0.00073330410116430875 -0.01144329397354369 0 0.00025639293177344327 -0.01114729354987171 0 -0.00069948680316784368 -0.010741841998871286 0 0.00077027653156228168 -0.010907580934765069 0 0.0007900035731570051 -0.010989013183408938 0 0.00077042628541958516 -0.010965114070085187 0 0.0007514772254337929 -0.010831416951116224 0 0.00077027653156228168 -0.010907580934765069 0 0.00075658825086843083 -0.010869888254176436 0 -0.00095778502922263999 -0.011274094237804151 0 -0.00073330410116430875 -0.01144329397354369 0 -0.00096446487526018123 -0.011604422243370409 0 -0.00069948680316784368 -0.010741841998871286 0 -0.0016086108973362681 -0.010375353126101178 0 -0.00073330410116430875 -0.01144329397354369 0 -0.00096446487526018123 -0.011604422243370409 0 -0.00071448856760513075 -0.011649774913414072 0 -0.00051458323216781643 -0.011276231455070855 0 -0.00073330410116430875 -0.01144329397354369 0 -0.00046674850565433076 -0.011568152260448094 0 -0.00073330410116430875 -0.01144329397354369 0 -0.00046674850565433076 -0.011568152260448094 0 -0.00071448856760513075 -0.011649774913414072 0 -0.00064928632519317383 -0.011873303721640284 0 -0.00092882533710184805 -0.011734207619032941 0 -0.00079775128393081058 -0.011937181001282365 0 -0.00046674850565433076 -0.011568152260448094 0 -0.00045500612598543193 -0.011880614597483788 0 -0.00071448856760513075 -0.011649774913414072 0 -0.00055939995445302196 -0.0118715700665591 0 -0.00091003747349530518 -0.01174583773403361 0 -0.00045500612598543193 -0.011880614597483788 0 -0.00092882533710184805 -0.011734207619032941 0 -0.00071448856760513075 -0.011649774913414072 0 -0.0016086108973362681 -0.010375353126101178 0 -0.0014592855311023982 -0.0099739703189995841 0 -0.0022461038553167815 -0.0091374297413215587 0 -0.0022400399665025842 -0.0078710379559662411 0 -0.0019368722989743248 -0.0086110553064668149 0 -0.00096446487526018123 -0.011604422243370409 0 -0.00092882533710184805 -0.011734207619032941 0 -0.00096897299590323783 -0.011873809178646309 0 -0.00096446487526018123 -0.011604422243370409 0 -0.00092882533710184805 -0.011734207619032941 0 -0.00071448856760513075 -0.011649774913414072 0 -0.00092882533710184805 -0.011734207619032941 0 -0.00096897299590323783 -0.011873809178646309 0 -0.00079775128393081058 -0.011937181001282365 0 -0.0022400399665025842 -0.0078710379559662411 0 -0.0018677125461264714 -0.0082509072290778175 0 -0.0019368722989743248 -0.0086110553064668149 0 -0.0023051162097523646 -0.0078418564187351745 0 -0.0018677125461264714 -0.0082509072290778175 0 -0.001567951907152276 -0.007511455599794381 0 -0.0014592855311023982 -0.0099739703189995841 0 -0.0022718416451793112 -0.0086139058386650782 0 -0.0018677125461264714 -0.0082509072290778175 0 -0.0019368722989743248 -0.0086110553064668149 0 -0.0014215481848230539 -0.00896383031677986 0 -0.0022461038553167815 -0.0091374297413215587 0 -0.0019368722989743248 -0.0086110553064668149 0 -0.0014215481848230539 -0.00896383031677986 0 -0.0018677125461264714 -0.0082509072290778175 0 -0.0014215481848230539 -0.00896383031677986 0 -0.00088255280309200218 -0.0081693881842101936 0 -0.0018677125461264714 -0.0082509072290778175 0 -0.00088255280309200218 -0.0081693881842101936 0 -0.001567951907152276 -0.007511455599794381 0 0.00020904436072153681 -0.0072457789607907929 0 -0.00088255280309200218 -0.0081693881842101936 0 0.00012777579015689632 -0.00853447983720515 0 -0.00088255280309200218 -0.0081693881842101936 0 0.00012777579015689632 -0.00853447983720515 0 -0.0004909439847487066 -0.0093808868656239316 0 -0.0014215481848230539 -0.00896383031677986 0 -0.00088255280309200218 -0.0081693881842101936 0 -0.0004909439847487066 -0.0093808868656239316 0 0.00074566880961535035 -0.0093238268173328701 0 0.00012777579015689632 -0.00853447983720515 0 -0.0004909439847487066 -0.0093808868656239316 0 0.00074831445127578121 -0.010316666247003009 0 -0.00080880643284247618 -0.010421333226875672 0 -0.0004909439847487066 -0.0093808868656239316 0 -0.00080880643284247618 -0.010421333226875672 0 -0.0004909439847487066 -0.0093808868656239316 0 -0.0014839099123790866 -0.0096944014879174634 0 -0.0022509640334146528 -0.010453757935132597 0 -0.0022461038553167815 -0.0091374297413215587 0 -0.0014839099123790866 -0.0096944014879174634 0 -0.0022461038553167815 -0.0091374297413215587 0 -0.0014215481848230539 -0.00896383031677986 0 -0.0014839099123790866 -0.0096944014879174634 0 -0.0014215481848230539 -0.00896383031677986 0 -0.0004909439847487066 -0.0093808868656239316 0 -0.0014839099123790866 -0.0096944014879174634 0 -0.0012013963691354216 -0.0053231025611236013 0 -0.00097402836749658855 -0.0067592431702432412 0 -0.0023202581166257693 -0.005998854410566472 0 0.0010066298987959691 -0.0060632288008848649 0 -0.00028140887798848554 -0.006073383666174134 0 -0.00040097912442091464 -0.0049419317024288227 0 -0.0012013963691354216 -0.0053231025611236013 0 -0.00028140887798848554 -0.006073383666174134 0 -0.00040097912442091464 -0.0049419317024288227 0 -0.0012013963691354216 -0.0053231025611236013 0 -0.00028140887798848554 -0.006073383666174134 0 -0.00097402836749658855 -0.0067592431702432412 0 0.00020904436072153681 -0.0072457789607907929 0 -0.00088255280309200218 -0.0081693881842101936 0 -0.00097402836749658855 -0.0067592431702432412 0 0.00020904436072153681 -0.0072457789607907929 0 -0.00028140887798848554 -0.006073383666174134 0 -0.00097402836749658855 -0.0067592431702432412 0 -0.00097402836749658855 -0.0067592431702432412 0 -0.001567951907152276 -0.007511455599794381 0 -0.0023202581166257693 -0.005998854410566472 0 -0.0023051162097523646 -0.0078418564187351745 0 -0.001567951907152276 -0.007511455599794381 0 -0.0023202581166257693 -0.005998854410566472 0 -0.00088255280309200218 -0.0081693881842101936 0 -0.00097402836749658855 -0.0067592431702432412 0 -0.001567951907152276 -0.007511455599794381 0 -0.0011903283654875931 -0.011186372648748616 0 -0.00081693260709133503 -0.011609364243567006 0 -0.0011824855876784127 -0.011673305218134249 0 -0.0014592855311023982 -0.0099739703189995841 0 -0.00064042977762301511 -0.012141902363188907 0 -0.00096897299590323783 -0.011873809178646309 0 -0.00079775128393081058 -0.011937181001282365 0 -0.00074365484261805189 -0.012102637790098637 0 -0.0014592855311023982 -0.0099739703189995841 0 -0.0017617503840402092 -0.008838068933451829 0 -0.00064928632519317383 -0.011873303721640284 0 -0.00079775128393081058 -0.011937181001282365 0 -0.00074365484261805189 -0.012102637790098637 0 -0.00064928632519317383 -0.011873303721640284 0 -0.00074365484261805189 -0.012102637790098637 0 -0.00054731353546188437 -0.012103864780117102 0 -0.00064042977762301511 -0.012141902363188907 0 -0.00059072762993338777 -0.012099168765937472 0 -0.00081693260709133503 -0.011609364243567006 0 -0.0011824855876784127 -0.011673305218134249 0 -0.00085735314882926167 -0.011977752824503621 0 -0.0011824855876784127 -0.011673305218134249 0 -0.0011415250674270314 -0.012086126456864013 0 -0.00085735314882926167 -0.011977752824503621 0 -0.0017617503840402092 -0.008838068933451829 0 -0.0017542605783737863 -0.0076718806593895732 0 -0.00081693260709133503 -0.011609364243567006 0 -0.00085735314882926167 -0.011977752824503621 0 -0.00054028173011076426 -0.012032268061146703 0 -0.00085735314882926167 -0.011977752824503621 0 -0.00081874939355109071 -0.012300592086793091 0 -0.00054028173011076426 -0.012032268061146703 0 -0.0017542605783737863 -0.0076718806593895732 0 -0.0007397418621724629 -0.0099480822810109216 0 -0.0011415250674270314 -0.012086126456864013 0 -0.00085735314882926167 -0.011977752824503621 0 -0.00081874939355109071 -0.012300592086793091 0 -0.0011415250674270314 -0.012086126456864013 0 -0.00081874939355109071 -0.012300592086793091 0 -0.0011098103762772265 -0.012446782781846568 0 -0.00221891748219961 -0.0042020270165566507 0 -0.0009576556947975568 -0.0032040381044469192 0 -0.0021362211535259322 -0.0026836424799218652 0 -0.00221891748219961 -0.0042020270165566507 0 -0.0010357540310121267 -0.0039223146719827191 0 -0.0009576556947975568 -0.0032040381044469192 0 -0.00221891748219961 -0.0042020270165566507 0 -0.0010357540310121267 -0.0039223146719827191 0 -0.0011110818047202933 -0.0044486237642561172 0 -0.0012013963691354216 -0.0053231025611236013 0 -0.0023202581166257693 -0.005998854410566472 0 -0.00221891748219961 -0.0042020270165566507 0 -0.0012013963691354216 -0.0053231025611236013 0 -0.00221891748219961 -0.0042020270165566507 0 -0.0011110818047202933 -0.0044486237642561172 0 -0.0012013963691354216 -0.0053231025611236013 0 -0.0011110818047202933 -0.0044486237642561172 0 -0.00040097912442091464 -0.0049419317024288227 0 -0.0011110818047202933 -0.0044486237642561172 0 -0.00040097912442091464 -0.0049419317024288227 0 -0.00064104443371514812 -0.0041439979876188157 0 -0.0010357540310121267 -0.0039223146719827191 0 -0.0011110818047202933 -0.0044486237642561172 0 -0.00064104443371514812 -0.0041439979876188157 0 -0.00040097912442091464 -0.0049419317024288227 0 -0.00064104443371514812 -0.0041439979876188157 0 -0.00020405088991575486 -0.003975989102048918 0 -0.0013863296176762647 -0.011069881749899037 0 -0.0010242867383185462 -0.011290277364822141 0 -0.0012310502229620089 -0.011359222809732073 0 0.00026146301790347148 -0.0037875867336680967 0 -0.00034339820338334106 -0.0038594481261722525 0 -0.0009576556947975568 -0.0032040381044469192 0 -0.00042330642802267587 -0.0061141189076683849 0 -9.7175871730708212e-05 -0.0049182677775040373 0 -0.00042330642802267587 -0.0061141189076683849 0 -0.0011996757373183954 -0.0071238613786334705 0 -0.0002671386489491366 -0.0038927468505213026 0 -0.00020405088991575486 -0.003975989102048918 0 -0.00034339820338334106 -0.0038594481261722525 0 -0.00064104443371514812 -0.0041439979876188157 0 -0.00020405088991575486 -0.003975989102048918 0 -0.00034339820338334106 -0.0038594481261722525 0 -0.0010357540310121267 -0.0039223146719827191 0 -0.00064104443371514812 -0.0041439979876188157 0 -0.00034339820338334106 -0.0038594481261722525 0 -0.0010357540310121267 -0.0039223146719827191 0 -0.00034339820338334106 -0.0038594481261722525 0 -0.0009576556947975568 -0.0032040381044469192 0 -0.0013766535861502781 -0.011290971503915427 0 -0.0013863296176762647 -0.011069881749899037 0 -0.0012310502229620089 -0.011359222809732073 0 -0.0013516046026984881 -0.011497060520822024 0 -0.0012310502229620089 -0.011359222809732073 0 -0.0011354060680335055 -0.011613800511729569 0 -0.0013766535861502781 -0.011290971503915427 0 -0.0013516046026984881 -0.011497060520822024 0 -0.0012310502229620089 -0.011359222809732073 0 -0.0010242867383185462 -0.011290277364822141 0 -0.0011354060680335055 -0.011613800511729569 0 -0.00088869862620870419 -0.011745040725199158 0 -0.0010242867383185462 -0.011290277364822141 0 -0.0012310502229620089 -0.011359222809732073 0 -0.0011354060680335055 -0.011613800511729569 0 -0.0013516046026984881 -0.011497060520822024 0 -0.0011354060680335055 -0.011613800511729569 0 -0.001324522384136345 -0.011753514139711083 0 -0.0011996757373183954 -0.0071238613786334705 0 -0.0007397418621724629 -0.0099480822810109216 0 -0.0010242867383185462 -0.011290277364822141 0 -0.00088869862620870419 -0.011745040725199158 0 -0.00058423070704892498 -0.011527209689860304 0 -0.00088869862620870419 -0.011745040725199158 0 -0.0010675185115111693 -0.011938873212389418 0 -0.00069269212820659374 -0.01226760249095127 0 -0.00088869862620870419 -0.011745040725199158 0 -0.00069269212820659374 -0.01226760249095127 0 -0.00058423070704892498 -0.011527209689860304 0 -0.0010675185115111693 -0.011938873212389418 0 -0.0010425234049991129 -0.012211515803422978 0 -0.00069269212820659374 -0.01226760249095127 0 -0.0011354060680335055 -0.011613800511729569 0 -0.001324522384136345 -0.011753514139711083 0 -0.0010675185115111693 -0.011938873212389418 0 -0.001324522384136345 -0.011753514139711083 0 -0.0010675185115111693 -0.011938873212389418 0 -0.0013107064137568157 -0.012017928363425315 0 -0.0011354060680335055 -0.011613800511729569 0 -0.00088869862620870419 -0.011745040725199158 0 -0.0010675185115111693 -0.011938873212389418 0 -0.0010675185115111693 -0.011938873212389418 0 -0.0013107064137568157 -0.012017928363425315 0 -0.0010425234049991129 -0.012211515803422978 0 -0.0012712658307150457 -0.012334257060668506 0 -0.0010425234049991129 -0.012211515803422978 0 -0.00089751463713377963 -0.012477964139473557 0 -0.0013107064137568157 -0.012017928363425315 0 -0.0012712658307150457 -0.012334257060668506 0 -0.0010425234049991129 -0.012211515803422978 0 -0.0010425234049991129 -0.012211515803422978 0 -0.00089751463713377963 -0.012477964139473557 0 -0.00069269212820659374 -0.01226760249095127 0 -0.00089751463713377963 -0.012477964139473557 0 -0.00069824400764290117 -0.01281717353578927 0 -0.0010443476952288501 -0.01275726549186966 0 -0.0012712658307150457 -0.012334257060668506 0 -0.00089751463713377963 -0.012477964139473557 0 -0.0010443476952288501 -0.01275726549186966 0 -0.0015195410251176934 -0.012634564213833428 0 -0.0012712658307150457 -0.012334257060668506 0 -0.0010443476952288501 -0.01275726549186966 0 -0.00050341145450139338 -0.012651956823910945 0 -0.00063834914743538863 -0.012566855105951982 0 -0.00055835124408187614 -0.012729117421362651 0 -0.00050341145450139338 -0.012651956823910945 0 -0.00048448986274379297 -0.012752810016038037 0 -0.00055835124408187614 -0.012729117421362651 0 -0.00089751463713377963 -0.012477964139473557 0 -0.00063834914743538863 -0.012566855105951982 0 -0.00069824400764290117 -0.01281717353578927 0 -0.00063834914743538863 -0.012566855105951982 0 -0.00069824400764290117 -0.01281717353578927 0 -0.00055835124408187614 -0.012729117421362651 0 -0.00063834914743538863 -0.012566855105951982 0 -0.00057455273994923316 -0.012478399990896638 0 -0.00069269212820659374 -0.01226760249095127 0 -0.00089751463713377963 -0.012477964139473557 0 -0.00063834914743538863 -0.012566855105951982 0 -0.00069269212820659374 -0.01226760249095127 0 -0.00050341145450139338 -0.012651956823910945 0 -0.00057455273994923316 -0.012478399990896638 0 -0.00047990539193082154 -0.01263052914084239 0 -0.00050341145450139338 -0.012651956823910945 0 -0.00063834914743538863 -0.012566855105951982 0 -0.00057455273994923316 -0.012478399990896638 0 -0.00057455273994923316 -0.012478399990896638 0 -0.00058510694624945949 -0.012339648899973358 0 -0.00047990539193082154 -0.01263052914084239 0 -0.00057455273994923316 -0.012478399990896638 0 -0.00058510694624945949 -0.012339648899973358 0 -0.00069269212820659374 -0.01226760249095127 0 -0.00058510694624945949 -0.012339648899973358 0 -0.00069269212820659374 -0.01226760249095127 0 -0.00067181851972829439 -0.01223540160728546 0 -0.0006647080788033295 -0.013010476680568372 0 -0.0007397418621724629 -0.0099480822810109216 0 -0.00081874939355109071 -0.012300592086793091 0 -0.00075896294171439848 -0.012605583790417244 0 -0.0011098103762772265 -0.012446782781846568 0 -0.00058627911332626893 -0.012751561369433945 0 -0.0007397418621724629 -0.0099480822810109216 0 -0.00081874939355109071 -0.012300592086793091 0 -0.00075896294171439848 -0.012605583790417244 0 -0.00052921607016001202 -0.012504807285540724 0 -0.00052921607016001202 -0.012504807285540724 0 -0.00033100005562352577 -0.012620482325518514 0 -0.00037709918397025563 -0.012422073029053609 0 -0.00047990539193082154 -0.01263052914084239 0 -0.00035131783567077224 -0.0127865454740014 0 -0.00033100005562352577 -0.012620482325518514 0 -0.00052921607016001202 -0.012504807285540724 0 -0.00047990539193082154 -0.01263052914084239 0 -0.00033100005562352577 -0.012620482325518514 0 -0.00058627911332626893 -0.012751561369433945 0 -0.00056529235621233557 -0.012531291388904331 0 -0.00075896294171439848 -0.012605583790417244 0 -0.00052921607016001202 -0.012504807285540724 0 -0.00047990539193082154 -0.01263052914084239 0 -0.00050341145450139338 -0.012651956823910945 0 -0.00047990539193082154 -0.01263052914084239 0 -0.00042166115166222519 -0.012742912954736332 0 -0.00042166115166222519 -0.012742912954736332 0 -0.00035703694398905498 -0.012841362395425838 0 -0.00035131783567077224 -0.0127865454740014 0 -0.00047990539193082154 -0.01263052914084239 0 -0.00042166115166222519 -0.012742912954736332 0 -0.00035131783567077224 -0.0127865454740014 0 -0.00042166115166222519 -0.012742912954736332 0 -0.00041155598228124546 -0.012778535053132523 0 -0.00044232943004194047 -0.012745057698643347 0 -0.00041155598228124546 -0.012778535053132523 0 -0.00035703694398905498 -0.012841362395425838 0 -0.00042354157240055885 -0.012781705772767531 0 -0.00039807089871364884 -0.013027377465527637 0 -0.00057136034993558076 -0.01315410078526808 0 -0.00042166115166222519 -0.012742912954736332 0 -0.00041155598228124546 -0.012778535053132523 0 -0.00035703694398905498 -0.012841362395425838 0 -0.00041155598228124546 -0.012778535053132523 0 -0.00044232943004194047 -0.012745057698643347 0 -0.00042354157240055885 -0.012781705772767531 0 -0.00044232943004194047 -0.012745057698643347 0 -0.00048448986274379297 -0.012752810016038037 0 -0.00042354157240055885 -0.012781705772767531 0 -0.00050341145450139338 -0.012651956823910945 0 -0.00042166115166222519 -0.012742912954736332 0 -0.00044232943004194047 -0.012745057698643347 0 -0.00050341145450139338 -0.012651956823910945 0 -0.00044232943004194047 -0.012745057698643347 0 -0.00048448986274379297 -0.012752810016038037 0 -0.00031612096915824354 -0.013261769410038985 0 -0.00015187327111663781 -0.013380308128164089 0 -0.00042402481305129562 -0.013367591938406819 0 -0.00031612096915824354 -0.013261769410038985 0 -0.0005088245875964028 -0.013252995450274307 0 -0.00026243975100112896 -0.013011867191106054 0 -0.00031612096915824354 -0.013261769410038985 0 -0.00026243975100112896 -0.013011867191106054 0 -0.00014037477839815582 -0.013217512382182972 0 -0.00031612096915824354 -0.013261769410038985 0 -0.00015187327111663781 -0.013380308128164089 0 -0.00014037477839815582 -0.013217512382182972 0 -0.00031612096915824354 -0.013261769410038985 0 -0.0005088245875964028 -0.013252995450274307 0 -0.00042402481305129562 -0.013367591938406819 0 -0.00039807089871364884 -0.013027377465527637 0 -0.00027366694541704586 -0.013003367955759142 0 -0.00035703694398905498 -0.012841362395425838 0 -0.00035131783567077224 -0.0127865454740014 0 -0.00026243975100112896 -0.013011867191106054 0 -0.00035131783567077224 -0.0127865454740014 0 -0.00026243975100112896 -0.013011867191106054 0 -0.00020715545243097497 -0.012817199397369085 0 -0.00026243975100112896 -0.013011867191106054 0 -0.00020715545243097497 -0.012817199397369085 0 -0.00013584946903928366 -0.012988162399563479 0 -0.00026243975100112896 -0.013011867191106054 0 -0.00013584946903928366 -0.012988162399563479 0 -0.00014037477839815582 -0.013217512382182972 0 -0.00035131783567077224 -0.0127865454740014 0 -0.00020715545243097497 -0.012817199397369085 0 -0.00033100005562352577 -0.012620482325518514 0 -0.00033100005562352577 -0.012620482325518514 0 -0.00012617357284112744 -0.012617950822151103 0 -0.00024102084682217092 -0.012505130297854326 0 -0.00033100005562352577 -0.012620482325518514 0 -0.00024102084682217092 -0.012505130297854326 0 -0.00037709918397025563 -0.012422073029053609 0 -0.00020715545243097497 -0.012817199397369085 0 -0.00033100005562352577 -0.012620482325518514 0 -0.00012617357284112744 -0.012617950822151103 0 -0.00012617357284112744 -0.012617950822151103 0 -0.0001706678594897972 -0.012397350944775178 0 -0.00024102084682217092 -0.012505130297854326 0 -0.0001706678594897972 -0.012397350944775178 0 -0.00037709918397025563 -0.012422073029053609 0 -0.00037029709551272269 -0.012225928994128997 0 -0.0001706678594897972 -0.012397350944775178 0 -0.00024102084682217092 -0.012505130297854326 0 -0.00037709918397025563 -0.012422073029053609 0 -0.00081874939355109071 -0.012300592086793091 0 -0.00052921607016001202 -0.012504807285540724 0 -0.00054028173011076426 -0.012032268061146703 0 -0.00052921607016001202 -0.012504807285540724 0 -0.00037709918397025563 -0.012422073029053609 0 -0.00054028173011076426 -0.012032268061146703 0 -0.00036693320881819587 -0.012419133034666831 0 -0.00059072762993338777 -0.012099168765937472 0 -0.00037709918397025563 -0.012422073029053609 0 -0.00054603860956456516 -0.012288455948572984 0 -0.00037029709551272269 -0.012225928994128997 0 -0.00037029709551272269 -0.012225928994128997 0 -0.00054731353546188437 -0.012103864780117102 0 -0.00041420648569116038 -0.011978769900864952 0 -0.00074365484261805189 -0.012102637790098637 0 -0.00054603860956456516 -0.012288455948572984 0 -0.00054731353546188437 -0.012103864780117102 0 -0.00054603860956456516 -0.012288455948572984 0 -0.00037029709551272269 -0.012225928994128997 0 -0.00054731353546188437 -0.012103864780117102 0 -0.00064928632519317383 -0.011873303721640284 0 -0.00054731353546188437 -0.012103864780117102 0 -0.00041420648569116038 -0.011978769900864952 0 -0.00055939995445302196 -0.0118715700665591 0 -0.00021846427115673211 -0.011971366399566851 0 0.00019999467436123531 -0.011858484512421641 0 -1.1811003028268619e-05 -0.011974039574852649 0 0.0002233432400037122 -0.011980916220826766 0 -0.00021846427115673211 -0.011971366399566851 0 1.7780141059936439e-05 -0.012029727212540735 0 0.00019999467436123531 -0.011858484512421641 0 0.00026356885682074526 -0.011916878418226556 0 0.0002233432400037122 -0.011980916220826766 0 0.00026356885682074526 -0.011916878418226556 0 0.0002233432400037122 -0.011980916220826766 0 0.00014263788819399308 -0.012136486676653329 0 1.7780141059936439e-05 -0.012029727212540735 0 0.00015110431072531421 -0.012121439791241839 0 -0.0001706678594897972 -0.012397350944775178 0 -0.00018594718306744895 -0.012054266571254107 0 0.00014263788819399308 -0.012136486676653329 0 -0.00037029709551272269 -0.012225928994128997 0 -0.00041420648569116038 -0.011978769900864952 0 -0.00018594718306744895 -0.012054266571254107 0 -0.0001706678594897972 -0.012397350944775178 0 -0.00037029709551272269 -0.012225928994128997 0 -0.00018594718306744895 -0.012054266571254107 0 0.0003188405985962942 -0.012190900845765254 0 0.00014263788819399308 -0.012136486676653329 0 5.3893797836974296e-05 -0.012567889970551877 0 0.00026356885682074526 -0.011916878418226556 0 0.00014263788819399308 -0.012136486676653329 0 0.00030059626884248281 -0.011974655970005417 0 0.0003188405985962942 -0.012190900845765254 0 0.00014263788819399308 -0.012136486676653329 0 0.00030059626884248281 -0.011974655970005417 0 0.0003188405985962942 -0.012190900845765254 0 0.00030059626884248281 -0.011974655970005417 0 0.00044713929530035713 -0.01199392221409905 0 0.0003188405985962942 -0.012190900845765254 0 0.00044713929530035713 -0.01199392221409905 0 0.00053941779800178861 -0.012168299693238164 0 0.00044713929530035713 -0.01199392221409905 0 0.00060445755967623426 -0.012001163947336326 0 0.00053941779800178861 -0.012168299693238164 0 0.00039400916407031659 -0.01349869728216609 0 0.00043470220123701552 -0.01353556522676596 0 0.00060445755967623426 -0.012001163947336326 0 0.00078443619565731013 -0.012140621393542956 0 0.00053941779800178861 -0.012168299693238164 0 0.0006749429485929287 -0.011881955329727717 0 0.00060445755967623426 -0.012001163947336326 0 0.00078443619565731013 -0.012140621393542956 0 0.00078443619565731013 -0.012140621393542956 0 0.00067070957568689281 -0.012388114797628925 0 0.00094143249418589736 -0.012653504884476217 0 0.00043470220123701552 -0.01353556522676596 0 0.00054854024736551927 -0.013828662636773716 0 0.00078443619565731013 -0.012140621393542956 0 0.00067070957568689281 -0.012388114797628925 0 0.00053941779800178861 -0.012168299693238164 0 0.00067070957568689281 -0.012388114797628925 0 0.00053941779800178861 -0.012168299693238164 0 0.00044281101678526549 -0.012437656873622763 0 0.0003188405985962942 -0.012190900845765254 0 0.00053941779800178861 -0.012168299693238164 0 0.00044281101678526549 -0.012437656873622763 0 0.00044281101678526549 -0.012437656873622763 0 0.000448003745317293 -0.013018767039881456 0 5.3893797836974296e-05 -0.012567889970551877 0 0.00044281101678526549 -0.012437656873622763 0 0.0006438884580622521 -0.012681254719462744 0 0.000448003745317293 -0.013018767039881456 0 0.00067070957568689281 -0.012388114797628925 0 0.00044281101678526549 -0.012437656873622763 0 0.0006438884580622521 -0.012681254719462744 0 0.00067070957568689281 -0.012388114797628925 0 0.0006438884580622521 -0.012681254719462744 0 0.00094143249418589736 -0.012653504884476217 0 0.0006438884580622521 -0.012681254719462744 0 0.00094143249418589736 -0.012653504884476217 0 0.00073851956502725142 -0.01297702090064934 0 0.00054854024736551927 -0.013828662636773716 0 0.00060609659870144549 -0.014219649126521612 0 0.00094143249418589736 -0.012653504884476217 0 0.00073851956502725142 -0.01297702090064934 0 0.00095600968511162538 -0.013548345523726244 0 0.00073851956502725142 -0.01297702090064934 0 0.000448003745317293 -0.013018767039881456 0 0.00095600968511162538 -0.013548345523726244 0 0.0006438884580622521 -0.012681254719462744 0 0.00073851956502725142 -0.01297702090064934 0 0.000448003745317293 -0.013018767039881456 0 4.3632245201855482e-05 -0.012624310987325655 0 0.00014579427567811717 -0.01316284187352419 0 0.000448003745317293 -0.013018767039881456 0 5.3893797836974296e-05 -0.012567889970551877 0 5.4392999380947847e-05 -0.013620844387162316 0 0.0003188405985962942 -0.012190900845765254 0 0.00044281101678526549 -0.012437656873622763 0 5.3893797836974296e-05 -0.012567889970551877 0 -0.0001706678594897972 -0.012397350944775178 0 0.00014263788819399308 -0.012136486676653329 0 5.3893797836974296e-05 -0.012567889970551877 0 -0.00012617357284112744 -0.012617950822151103 0 -0.0001706678594897972 -0.012397350944775178 0 5.3893797836974296e-05 -0.012567889970551877 0 -0.00012617357284112744 -0.012617950822151103 0 5.3893797836974296e-05 -0.012567889970551877 0 2.3814175527001167e-05 -0.012663120522368617 0 -0.00012617357284112744 -0.012617950822151103 0 2.3814175527001167e-05 -0.012663120522368617 0 -2.9434638903427098e-05 -0.012854927862981241 0 2.3814175527001167e-05 -0.012663120522368617 0 0.00018654792942761692 -0.012692090576321053 0 -2.9434638903427098e-05 -0.012854927862981241 0 5.3893797836974296e-05 -0.012567889970551877 0 2.3814175527001167e-05 -0.012663120522368617 0 0.00018654792942761692 -0.012692090576321053 0 0.00018654792942761692 -0.012692090576321053 0 -2.9434638903427098e-05 -0.012854927862981241 0 0.00014658093672635696 -0.012999525080440428 0 -0.00020715545243097497 -0.012817199397369085 0 -2.9434638903427098e-05 -0.012854927862981241 0 -0.00013584946903928366 -0.012988162399563479 0 -0.00020715545243097497 -0.012817199397369085 0 -0.00012617357284112744 -0.012617950822151103 0 -2.9434638903427098e-05 -0.012854927862981241 0 -2.9434638903427098e-05 -0.012854927862981241 0 -0.00013584946903928366 -0.012988162399563479 0 -5.9933250728245596e-06 -0.01310734892730807 0 -0.00013584946903928366 -0.012988162399563479 0 -5.9933250728245596e-06 -0.01310734892730807 0 -0.00014037477839815582 -0.013217512382182972 0 -2.9434638903427098e-05 -0.012854927862981241 0 -5.9933250728245596e-06 -0.01310734892730807 0 0.00014658093672635696 -0.012999525080440428 0 -5.9933250728245596e-06 -0.01310734892730807 0 0.00014658093672635696 -0.012999525080440428 0 0.00016608700010584546 -0.013280819682611498 0 -5.9933250728245596e-06 -0.01310734892730807 0 0.00016608700010584546 -0.013280819682611498 0 -2.6729608771194019e-06 -0.013336225372687254 0 0.00016608700010584546 -0.013280819682611498 0 0.00020605561202962207 -0.013555249822115402 0 -2.6729608771194019e-06 -0.013336225372687254 0 0.00020605561202962207 -0.013555249822115402 0 -2.6729608771194019e-06 -0.013336225372687254 0 7.1824383162159562e-05 -0.013557545435699413 0 -2.9257068802137996e-05 -0.013468469064641518 0 -2.6729608771194019e-06 -0.013336225372687254 0 7.1824383162159562e-05 -0.013557545435699413 0 -0.00014779537341870461 -0.013409855375857215 0 -0.00014037477839815582 -0.013217512382182972 0 -2.6729608771194019e-06 -0.013336225372687254 0 -2.9257068802137996e-05 -0.013468469064641518 0 -0.00014779537341870461 -0.013409855375857215 0 -2.6729608771194019e-06 -0.013336225372687254 0 -0.00014779537341870461 -0.013409855375857215 0 -0.00015187327111663781 -0.013380308128164089 0 -0.00014037477839815582 -0.013217512382182972 0 -5.9933250728245596e-06 -0.01310734892730807 0 -0.00014037477839815582 -0.013217512382182972 0 -2.6729608771194019e-06 -0.013336225372687254 0 0.00042859997001880773 -0.014408131383904918 0 0.00043258651871944624 -0.014497165738686006 0 0.00054708637399315091 -0.013972877179178465 0 0.00043459599726423866 -0.013786489165261609 0 0.00053013346711422535 -0.013941989003076688 0 0.00035846062687279104 -0.013545650928637522 0 0.0004600386388426511 -0.013114094216074229 0 0.00054708637399315091 -0.013972877179178465 0 0.00035846062687279104 -0.013545650928637522 0 0.00041285609329104467 -0.01380993273851623 0 0.00054708637399315091 -0.013972877179178465 0 0.00016608700010584546 -0.013280819682611498 0 0.00035846062687279104 -0.013545650928637522 0 0.0004600386388426511 -0.013114094216074229 0 0.00020605561202962207 -0.013555249822115402 0 0.00035846062687279104 -0.013545650928637522 0 0.00041285609329104467 -0.01380993273851623 0 0.00016608700010584546 -0.013280819682611498 0 0.00020605561202962207 -0.013555249822115402 0 0.00035846062687279104 -0.013545650928637522 0 0.00014658093672635696 -0.012999525080440428 0 0.00016608700010584546 -0.013280819682611498 0 0.0004600386388426511 -0.013114094216074229 0 0.00042859997001880773 -0.014408131383904918 0 0.00043258651871944624 -0.014497165738686006 0 0.00050794421852569968 -0.014525540863214064 0 0.00050775485094061725 -0.013985000553072583 0 0.00095600968511162538 -0.013548345523726244 0 0.00050794421852569968 -0.014525540863214064 0 0.00043258651871944624 -0.014497165738686006 0 0.00050775485094061725 -0.013985000553072583 0 0.00050794421852569968 -0.014525540863214064 0 0.00060609659870144549 -0.014219649126521612 0 0.00053292458558919275 -0.014474863190897259 0 5.4392999380947847e-05 -0.013620844387162316 0 0.00043258651871944624 -0.014497165738686006 0 0.00050775485094061725 -0.013985000553072583 0 0.00018654792942761692 -0.012692090576321053 0 0.00014658093672635696 -0.012999525080440428 0 0.0004600386388426511 -0.013114094216074229 0 0.00014579427567811717 -0.01316284187352419 0 0.00043459599726423866 -0.013786489165261609 0 0.000448003745317293 -0.013018767039881456 0 5.4392999380947847e-05 -0.013620844387162316 0 0.00050775485094061725 -0.013985000553072583 0 0.000448003745317293 -0.013018767039881456 0 0.00050775485094061725 -0.013985000553072583 0 0.00095600968511162538 -0.013548345523726244 0 0.00029604966158664262 -0.01493467413517271 0 0.00018888496459957838 -0.014826353747200174 0 0.00012397668947423338 -0.014969872119322818 0 0.00018888496459957838 -0.014826353747200174 0 4.4105218576437954e-05 -0.01493491138931294 0 0.00012397668947423338 -0.014969872119322818 0 8.4604083377324351e-05 -0.01482407883285782 0 0.00018888496459957838 -0.014826353747200174 0 4.4105218576437954e-05 -0.01493491138931294 0 8.4604083377324351e-05 -0.01482407883285782 0 0.00018888496459957838 -0.014826353747200174 0 0.00017519913949373694 -0.014650950372523713 0 0.00029604966158664262 -0.01493467413517271 0 0.00018888496459957838 -0.014826353747200174 0 0.00050794421852569968 -0.014525540863214064 0 0.00018888496459957838 -0.014826353747200174 0 0.00050794421852569968 -0.014525540863214064 0 0.00017519913949373694 -0.014650950372523713 0 0.00050794421852569968 -0.014525540863214064 0 0.00017519913949373694 -0.014650950372523713 0 0.00014684833348761192 -0.014487844918541491 0 0.00042859997001880773 -0.014408131383904918 0 0.00050794421852569968 -0.014525540863214064 0 0.00014684833348761192 -0.014487844918541491 0 8.4604083377324351e-05 -0.01482407883285782 0 0.00017519913949373694 -0.014650950372523713 0 9.7177985103666725e-05 -0.014720331453969129 0 0.00017519913949373694 -0.014650950372523713 0 9.7177985103666725e-05 -0.014720331453969129 0 0.00014684833348761192 -0.014487844918541491 0 9.7177985103666725e-05 -0.014720331453969129 0 0.00014684833348761192 -0.014487844918541491 0 9.2708904131865832e-05 -0.014741424609315809 0 0.00042859997001880773 -0.014408131383904918 0 0.00014684833348761192 -0.014487844918541491 0 0.00054708637399315091 -0.013972877179178465 0 4.4280069263854643e-08 -0.014999790437369466 0 2.9847124007854069e-05 -0.014895597746840504 0 5.0147910390305276e-05 -0.014901918864421984 0 9.7177985103666725e-05 -0.014720331453969129 0 2.9847124007854069e-05 -0.014895597746840504 0 5.0147910390305276e-05 -0.014901918864421984 0 8.4604083377324351e-05 -0.01482407883285782 0 9.7177985103666725e-05 -0.014720331453969129 0 2.9847124007854069e-05 -0.014895597746840504 0 4.4280069263854643e-08 -0.014999790437369466 0 2.9847124007854069e-05 -0.014895597746840504 0 -4.3846593195400572e-11 -0.014999855722381992 0 2.9847124007854069e-05 -0.014895597746840504 0 -4.3846593195400572e-11 -0.014999855722381992 0 4.4105218576437954e-05 -0.01493491138931294 0 8.4604083377324351e-05 -0.01482407883285782 0 2.9847124007854069e-05 -0.014895597746840504 0 4.4105218576437954e-05 -0.01493491138931294 0 -4.3846593195400572e-11 -0.014999855722381992 0 4.4105218576437954e-05 -0.01493491138931294 0 1.1613054455294235e-08 -0.014999963123672662 0 4.4105218576437954e-05 -0.01493491138931294 0 1.1613054455294235e-08 -0.014999963123672662 0 5.0247427133719665e-05 -0.015000345451626436 0 4.4105218576437954e-05 -0.01493491138931294 0 5.0247427133719665e-05 -0.015000345451626436 0 0.00012397668947423338 -0.014969872119322818 0 1.1613054455294235e-08 -0.014999963123672662 0 5.0247427133719665e-05 -0.015000345451626436 0 2.7068132706687049e-08 -0.015000021195023099 0 0.00012397668947423338 -0.014969872119322818 0 0.00014412163951347433 -0.014989756134364015 0 0.00011294138569490664 -0.014996117844907716 0 0.00015788234478033054 -0.014986579730468569 0 0.00029604966158664262 -0.01493467413517271 0 0.00014412163951347433 -0.014989756134364015 0 0.00029604966158664262 -0.01493467413517271 0 0.00012397668947423338 -0.014969872119322818 0 0.00014412163951347433 -0.014989756134364015 0 8.4632530612698608e-05 -0.014954276063722549 0 0.00015788234478033054 -0.014986579730468569 0 0.00013057731599239658 -0.01498200702390034 0 0.00015788234478033054 -0.014986579730468569 0 0.00014412163951347433 -0.014989756134364015 0 0.00013057731599239658 -0.01498200702390034 0 0.00014412163951347433 -0.014989756134364015 0 0.00013057731599239658 -0.01498200702390034 0 0.00011294138569490664 -0.014996117844907716 0 0.00013057731599239658 -0.01498200702390034 0 0.00011294138569490664 -0.014996117844907716 0 8.880546156680889e-05 -0.015023081104378166 0 5.0247427133719665e-05 -0.015000345451626436 0 0.00011294138569490664 -0.014996117844907716 0 8.880546156680889e-05 -0.015023081104378166 0 5.0247427133719665e-05 -0.015000345451626436 0 0.00012397668947423338 -0.014969872119322818 0 0.00011294138569490664 -0.014996117844907716 0 7.2096928348848663e-05 -0.014951837820830578 0 9.3557766700806317e-05 -0.014960960006261246 0 6.9865886626350364e-05 -0.014960154907259491 0 8.4632530612698608e-05 -0.014954276063722549 0 0.00013057731599239658 -0.01498200702390034 0 9.3557766700806317e-05 -0.014960960006261246 0 0.00013057731599239658 -0.01498200702390034 0 7.2096928348848663e-05 -0.014951837820830578 0 9.3557766700806317e-05 -0.014960960006261246 0 0.00012059200026058868 -0.014982054105505984 0 7.9566246652722772e-05 -0.014988037654434858 0 5.3973324572467352e-05 -0.014944295453793268 0 8.4632530612698608e-05 -0.014954276063722549 0 6.9865886626350364e-05 -0.014960154907259491 0 8.4632530612698608e-05 -0.014954276063722549 0 9.3557766700806317e-05 -0.014960960006261246 0 6.9865886626350364e-05 -0.014960154907259491 0 7.2096928348848663e-05 -0.014951837820830578 0 6.9865886626350364e-05 -0.014960154907259491 0 4.9409760868010165e-05 -0.014966008105408147 0 2.7138461150391561e-05 -0.014981555057762795 0 4.9409760868010165e-05 -0.014966008105408147 0 3.3411860315263828e-05 -0.01495855500007757 0 7.2096928348848663e-05 -0.014951837820830578 0 4.9409760868010165e-05 -0.014966008105408147 0 3.3411860315263828e-05 -0.01495855500007757 0 2.7138461150391561e-05 -0.014981555057762795 0 3.3411860315263828e-05 -0.01495855500007757 0 -4.2689466494182899e-08 -0.014999929698628808 0 3.6231995097449631e-05 -0.014990151888886624 0 1.6466354228679404e-08 -0.014999994250542761 0 5.0247427133719665e-05 -0.015000345451626436 0 3.1500138483608878e-05 -0.015022237780108506 0 2.7068132706687049e-08 -0.015000021195023099 0 3.1500138483608878e-05 -0.015022237780108506 0 8.6202923498798886e-09 -0.015000044071916803 0 2.7068132706687049e-08 -0.015000021195023099 0 7.9566246652722772e-05 -0.014988037654434858 0 3.6231995097449631e-05 -0.014990151888886624 0 5.0247427133719665e-05 -0.015000345451626436 0 8.880546156680889e-05 -0.015023081104378166 0 3.1500138483608878e-05 -0.015022237780108506 0 4.366302119351122e-06 -0.014943434391854474 0 4.1770708933758758e-05 -0.014900241774339067 0 1.9675229726266537e-05 -0.014957230137837105 0 -2.0572938522455217e-06 -0.014328048647319451 0 -3.1625600927341616e-05 -0.013882547764661862 0 -2.3498484211301883e-06 -0.014985608626140496 0 4.366302119351122e-06 -0.014943434391854474 0 1.9675229726266537e-05 -0.014957230137837105 0 -0.00013470890142583723 -0.015019583407891888 0 -2.0572938522455217e-06 -0.014328048647319451 0 -2.3498484211301883e-06 -0.014985608626140496 0 1.3119099507020721e-09 -0.014999939237155207 0 -1.1178108303538994e-05 -0.014995768327871518 0 -7.0815310744498115e-08 -0.014999733603986772 0 -2.0572938522455217e-06 -0.014328048647319451 0 1.4756189198509992e-06 -0.014996332456612523 0 2.5956830256442729e-06 -0.0149913954609583 0 1.5880393597561669e-09 -0.014999988838775232 0 1.8521165164821644e-09 -0.014999992957240285 0 1.4756189198509992e-06 -0.014996332456612523 0 1.5880393597561669e-09 -0.014999988838775232 0 0.00020807359257186709 -0.012952730035989153 0 -0.00016845209427314301 -0.012983561164991379 0 4.5373806244751558e-05 -0.013235224665386026 0 -2.0572938522455217e-06 -0.014328048647319451 0 6.5962894239375802e-05 -0.014047237725868621 0 -0.00027524630359801835 -0.013180314726659422 0 -0.00016845209427314301 -0.012983561164991379 0 4.5373806244751558e-05 -0.013235224665386026 0 -3.1625600927341616e-05 -0.013882547764661862 0 -0.00022970691704559209 -0.014030883046550341 0 -0.00027524630359801835 -0.013180314726659422 0 -0.00016845209427314301 -0.012983561164991379 0 -0.00054721763167065135 -0.013060480224748896 0 -0.00027524630359801835 -0.013180314726659422 0 -0.00054721763167065135 -0.013060480224748896 0 -0.00042910670643647774 -0.013258772955359013 0 4.1770708933758758e-05 -0.014900241774339067 0 6.2305436501755904e-05 -0.014926121987626469 0 9.6103010609464788e-05 -0.014865357641181333 0 4.1770708933758758e-05 -0.014900241774339067 0 3.9358665784935272e-05 -0.014937256147043354 0 1.9675229726266537e-05 -0.014957230137837105 0 4.1770708933758758e-05 -0.014900241774339067 0 3.9358665784935272e-05 -0.014937256147043354 0 6.2305436501755904e-05 -0.014926121987626469 0 3.9358665784935272e-05 -0.014937256147043354 0 6.2305436501755904e-05 -0.014926121987626469 0 3.1038718253768924e-05 -0.01496419763089111 0 3.9358665784935272e-05 -0.014937256147043354 0 3.1038718253768924e-05 -0.01496419763089111 0 1.9675229726266537e-05 -0.014957230137837105 0 6.2305436501755904e-05 -0.014926121987626469 0 3.1038718253768924e-05 -0.01496419763089111 0 5.9083533606231138e-05 -0.014969625749945922 0 6.2305436501755904e-05 -0.014926121987626469 0 5.9083533606231138e-05 -0.014969625749945922 0 8.4545700569144388e-05 -0.014941558689426601 0 3.1038718253768924e-05 -0.01496419763089111 0 3.1573648097395382e-05 -0.014980925362691888 0 5.9083533606231138e-05 -0.014969625749945922 0 3.1038718253768924e-05 -0.01496419763089111 0 1.6433816595805861e-05 -0.014985108499126988 0 1.1772011615627211e-05 -0.014978561564026858 0 3.1038718253768924e-05 -0.01496419763089111 0 1.6433816595805861e-05 -0.014985108499126988 0 3.1573648097395382e-05 -0.014980925362691888 0 3.1038718253768924e-05 -0.01496419763089111 0 1.1772011615627211e-05 -0.014978561564026858 0 1.9675229726266537e-05 -0.014957230137837105 0 -2.3498484211301883e-06 -0.014985608626140496 0 1.3119099507020721e-09 -0.014999939237155207 0 -1.2787205196266832e-09 -0.014999961417949119 0 -2.3498484211301883e-06 -0.014985608626140496 0 1.1772011615627211e-05 -0.014978561564026858 0 1.9675229726266537e-05 -0.014957230137837105 0 -2.3498484211301883e-06 -0.014985608626140496 0 1.1772011615627211e-05 -0.014978561564026858 0 -1.2787205196266832e-09 -0.014999961417949119 0 1.6433816595805861e-05 -0.014985108499126988 0 1.1772011615627211e-05 -0.014978561564026858 0 -1.2787205196266832e-09 -0.014999961417949119 0 1.6433816595805861e-05 -0.014985108499126988 0 -1.2787205196266832e-09 -0.014999961417949119 0 3.0136837962552946e-08 -0.014999975944842269 0 1.6433816595805861e-05 -0.014985108499126988 0 2.7510423894843979e-05 -0.014978364921948003 0 3.0136837962552946e-08 -0.014999975944842269 0 2.7510423894843979e-05 -0.014978364921948003 0 4.2976620097726168e-05 -0.014994385864475906 0 3.1573648097395382e-05 -0.014980925362691888 0 1.6433816595805861e-05 -0.014985108499126988 0 2.7510423894843979e-05 -0.014978364921948003 0 3.1573648097395382e-05 -0.014980925362691888 0 2.7510423894843979e-05 -0.014978364921948003 0 3.9308117406116727e-05 -0.014954016201187604 0 4.607753451554224e-05 -0.014934137832636443 0 2.7510423894843979e-05 -0.014978364921948003 0 4.607753451554224e-05 -0.014934137832636443 0 3.1453262142444049e-05 -0.01495051874469934 0 4.8172023844519525e-05 -0.014967687337921719 0 -6.886816864778447e-06 -0.015021354152086113 0 2.7510423894843979e-05 -0.014978364921948003 0 3.0136837962552946e-08 -0.014999975944842269 0 3.9308117406116727e-05 -0.014954016201187604 0 3.0136837962552946e-08 -0.014999975944842269 0 3.9308117406116727e-05 -0.014954016201187604 0 6.2328747915961826e-08 -0.014999872928518516 0 3.9308117406116727e-05 -0.014954016201187604 0 6.2328747915961826e-08 -0.014999872928518516 0 5.0147910390305276e-05 -0.014901918864421984 0 3.9308117406116727e-05 -0.014954016201187604 0 4.607753451554224e-05 -0.014934137832636443 0 7.2607802408441102e-05 -0.014860780706369139 0 9.7177985103666725e-05 -0.014720331453969129 0 7.2607802408441102e-05 -0.014860780706369139 0 5.0147910390305276e-05 -0.014901918864421984 0 3.9308117406116727e-05 -0.014954016201187604 0 7.2607802408441102e-05 -0.014860780706369139 0 5.0147910390305276e-05 -0.014901918864421984 0 4.4280069263854643e-08 -0.014999790437369466 0 6.2328747915961826e-08 -0.014999872928518516 0 5.0147910390305276e-05 -0.014901918864421984 0 -5.9207881727318183e-05 -0.014820148662392946 0 9.2708904131865832e-05 -0.014741424609315809 0 3.6465632915528327e-05 -0.014882453574855256 0 0.00014447192959179581 -0.014483062879601083 0 0.00018568346152407944 -0.014344619018095393 0 0.00014684833348761192 -0.014487844918541491 0 -5.9207881727318183e-05 -0.014820148662392946 0 9.2708904131865832e-05 -0.014741424609315809 0 0.00014684833348761192 -0.014487844918541491 0 0.00043027561776304513 -0.013850839020192442 0 0.00054708637399315091 -0.013972877179178465 0 9.7177985103666725e-05 -0.014720331453969129 0 7.2607802408441102e-05 -0.014860780706369139 0 9.2708904131865832e-05 -0.014741424609315809 0 7.2607802408441102e-05 -0.014860780706369139 0 9.2708904131865832e-05 -0.014741424609315809 0 3.6465632915528327e-05 -0.014882453574855256 0 4.607753451554224e-05 -0.014934137832636443 0 7.2607802408441102e-05 -0.014860780706369139 0 3.6465632915528327e-05 -0.014882453574855256 0 4.607753451554224e-05 -0.014934137832636443 0 3.6465632915528327e-05 -0.014882453574855256 0 3.1453262142444049e-05 -0.01495051874469934 0 -5.9207881727318183e-05 -0.014820148662392946 0 3.6465632915528327e-05 -0.014882453574855256 0 -8.7493271499513881e-05 -0.014943384271862122 0 -6.886816864778447e-06 -0.015021354152086113 0 0.00021528461962879336 -0.014524356098758318 0 4.2976620097726168e-05 -0.014994385864475906 0 5.9083533606231138e-05 -0.014969625749945922 0 8.2985552050158997e-05 -0.014999013785902555 0 3.6465632915528327e-05 -0.014882453574855256 0 3.1453262142444049e-05 -0.01495051874469934 0 -8.7493271499513881e-05 -0.014943384271862122 0 4.2976620097726168e-05 -0.014994385864475906 0 3.1573648097395382e-05 -0.014980925362691888 0 5.9083533606231138e-05 -0.014969625749945922 0 0.00020751853585576226 -0.014689915167420155 0 0.00021528461962879336 -0.014524356098758318 0 5.9083533606231138e-05 -0.014969625749945922 0 9.7967697466671121e-05 -0.014969523632939411 0 8.2985552050158997e-05 -0.014999013785902555 0 0.0003165509285291323 -0.014391112277251617 0 0.00016383308288230814 -0.014131880885868756 0 9.5458475344539941e-05 -0.014388242993340284 0 0.00025769753003842779 -0.0140586182771473 0 0.00021528461962879336 -0.014524356098758318 0 0.0003165509285291323 -0.014391112277251617 0 0.00016383308288230814 -0.014131880885868756 0 0.00039923808177218413 -0.014167766007315256 0 0.00043027561776304513 -0.013850839020192442 0 0.0004713158085281634 -0.014011671627755492 0 0.00043020622341749867 -0.013890527817774955 0 0.00018568346152407944 -0.014344619018095393 0 0.00021528461962879336 -0.014524356098758318 0 0.00029666148981573873 -0.01405816423357608 0 0.0004713158085281634 -0.014011671627755492 0 0.00043020622341749867 -0.013890527817774955 0 0.00029666148981573873 -0.01405816423357608 0 0.00027148636495993579 -0.013887465240287547 0 0.00043020622341749867 -0.013890527817774955 0 0.00027148636495993579 -0.013887465240287547 0 0.00043020622341749867 -0.013890527817774955 0 0.00035543374187751498 -0.013832016263767035 0 0.00043020622341749867 -0.013890527817774955 0 0.00035543374187751498 -0.013832016263767035 0 0.00041285609329104467 -0.01380993273851623 0 0.00035543374187751498 -0.013832016263767035 0 0.00027623783910451995 -0.01374720025333233 0 0.00041285609329104467 -0.01380993273851623 0 0.00027148636495993579 -0.013887465240287547 0 0.00035543374187751498 -0.013832016263767035 0 0.00027623783910451995 -0.01374720025333233 0 0.00020605561202962207 -0.013555249822115402 0 0.00027623783910451995 -0.01374720025333233 0 0.00041285609329104467 -0.01380993273851623 0 0.00043027561776304513 -0.013850839020192442 0 0.00043020622341749867 -0.013890527817774955 0 0.00054708637399315091 -0.013972877179178465 0 0.00043020622341749867 -0.013890527817774955 0 0.00041285609329104467 -0.01380993273851623 0 0.00054708637399315091 -0.013972877179178465 0 -0.00014779537341870461 -0.013409855375857215 0 -0.00015187327111663781 -0.013380308128164089 0 -0.00019205765529115189 -0.013191969678673181 0 -0.00015751751240422704 -0.013412065469197898 0 -0.00020549250704575338 -0.013555541998519785 0 -0.00015187327111663781 -0.013380308128164089 0 -0.00019205765529115189 -0.013191969678673181 0 -9.3986246518770354e-05 -0.013258705069645575 0 -0.00014779537341870461 -0.013409855375857215 0 -0.00016059855271535745 -0.013718863638333988 0 -0.00021335532094387928 -0.013907263592909547 0 -0.00016059855271535745 -0.013718863638333988 0 2.1871250217175871e-05 -0.01374228386605719 0 1.2165972560355383e-05 -0.013848185568583775 0 -0.00016059855271535745 -0.013718863638333988 0 -1.6167248051386014e-05 -0.013598222001502038 0 2.1871250217175871e-05 -0.01374228386605719 0 -0.00014779537341870461 -0.013409855375857215 0 -0.00016059855271535745 -0.013718863638333988 0 -1.6167248051386014e-05 -0.013598222001502038 0 -2.9257068802137996e-05 -0.013468469064641518 0 -0.00014779537341870461 -0.013409855375857215 0 -1.6167248051386014e-05 -0.013598222001502038 0 -1.6167248051386014e-05 -0.013598222001502038 0 7.1824383162159562e-05 -0.013557545435699413 0 0.00014445887692252722 -0.013700625407027883 0 -2.9257068802137996e-05 -0.013468469064641518 0 -1.6167248051386014e-05 -0.013598222001502038 0 7.1824383162159562e-05 -0.013557545435699413 0 0.00020605561202962207 -0.013555249822115402 0 7.1824383162159562e-05 -0.013557545435699413 0 0.00014445887692252722 -0.013700625407027883 0 0.00020605561202962207 -0.013555249822115402 0 0.00027623783910451995 -0.01374720025333233 0 0.00014445887692252722 -0.013700625407027883 0 0.00027148636495993579 -0.013887465240287547 0 0.00014445887692252722 -0.013700625407027883 0 0.00010982491302262347 -0.013831313675005326 0 0.00027148636495993579 -0.013887465240287547 0 0.00027623783910451995 -0.01374720025333233 0 0.00014445887692252722 -0.013700625407027883 0 0.00014445887692252722 -0.013700625407027883 0 2.1871250217175871e-05 -0.01374228386605719 0 0.00010982491302262347 -0.013831313675005326 0 -1.6167248051386014e-05 -0.013598222001502038 0 0.00014445887692252722 -0.013700625407027883 0 2.1871250217175871e-05 -0.01374228386605719 0 1.2165972560355383e-05 -0.013848185568583775 0 0.00010275642704908697 -0.01395287625116901 0 -3.4590431652687626e-05 -0.013984317118615277 0 0.00029666148981573873 -0.01405816423357608 0 0.00010275642704908697 -0.01395287625116901 0 -6.8326835771846231e-05 -0.014080238637846427 0 2.1871250217175871e-05 -0.01374228386605719 0 1.2165972560355383e-05 -0.013848185568583775 0 0.00010982491302262347 -0.013831313675005326 0 1.2165972560355383e-05 -0.013848185568583775 0 0.00010982491302262347 -0.013831313675005326 0 0.00010275642704908697 -0.01395287625116901 0 0.00027148636495993579 -0.013887465240287547 0 0.00010982491302262347 -0.013831313675005326 0 0.00010275642704908697 -0.01395287625116901 0 0.00029666148981573873 -0.01405816423357608 0 0.00027148636495993579 -0.013887465240287547 0 0.00010275642704908697 -0.01395287625116901 0 -0.00016059855271535745 -0.013718863638333988 0 -0.00021335532094387928 -0.013907263592909547 0 -0.00017182229004377973 -0.014260162112194557 0 -0.00021335532094387928 -0.013907263592909547 0 -0.00017182229004377973 -0.014260162112194557 0 -0.00027356122501986355 -0.014385047897923152 0 -0.00020549250704575338 -0.013555541998519785 0 -7.182454511479477e-05 -0.013654885569512646 0 0.00010275642704908697 -0.01395287625116901 0 -3.4590431652687626e-05 -0.013984317118615277 0 -6.8326835771846231e-05 -0.014080238637846427 0 -3.4590431652687626e-05 -0.013984317118615277 0 -0.00013039690106493002 -0.014116041118175696 0 -6.8326835771846231e-05 -0.014080238637846427 0 -0.00016059855271535745 -0.013718863638333988 0 -3.4590431652687626e-05 -0.013984317118615277 0 -0.00016108029593626093 -0.014140632593583637 0 -0.00019205765529115189 -0.013191969678673181 0 -0.0001717158909156606 -0.012998464453402154 0 -0.00011528730283290495 -0.013097655933077913 0 -0.00016189463540297857 -0.013808491166012436 0 -0.00015975186401850398 -0.014056785753375801 0 -7.8855434887283631e-05 -0.014012245516748638 0 -0.00015975186401850398 -0.014056785753375801 0 -0.00016059855271535745 -0.013718863638333988 0 1.2165972560355383e-05 -0.013848185568583775 0 -3.4590431652687626e-05 -0.013984317118615277 0 -8.0799830384443644e-05 -0.013872658020341454 0 -4.9472946614499274e-05 -0.013835030781684342 0 -7.2771468347001669e-05 -0.013707906097252658 0 -0.00015975186401850398 -0.014056785753375801 0 -9.775617442594987e-05 -0.014024481392158497 0 -0.00013039690106493002 -0.014116041118175696 0 -1.1429720616325665e-05 -0.014230820024830632 0 -0.00013589652470570333 -0.014379560838165075 0 -0.00015975186401850398 -0.014056785753375801 0 -7.182454511479477e-05 -0.013654885569512646 0 -0.00013039690106493002 -0.014116041118175696 0 -6.8326835771846231e-05 -0.014080238637846427 0 -1.1429720616325665e-05 -0.014230820024830632 0 0.00025769753003842779 -0.0140586182771473 0 -6.4699956875914941e-05 -0.014082379645923135 0 0.00016383308288230814 -0.014131880885868756 0 -1.1429720616325665e-05 -0.014230820024830632 0 9.5458475344539941e-05 -0.014388242993340284 0 0.00016383308288230814 -0.014131880885868756 0 -6.8326835771846231e-05 -0.014080238637846427 0 -1.1429720616325665e-05 -0.014230820024830632 0 -1.1429720616325665e-05 -0.014230820024830632 0 9.5458475344539941e-05 -0.014388242993340284 0 -0.00013589652470570333 -0.014379560838165075 0 -7.182454511479477e-05 -0.013654885569512646 0 -2.7880020050015685e-05 -0.013688480705033363 0 -4.9472946614499274e-05 -0.013835030781684342 0 -7.2771468347001669e-05 -0.013707906097252658 0 -3.2456765092248828e-05 -0.013708425624025257 0 -7.2771468347001669e-05 -0.013707906097252658 0 -1.9253667566299454e-05 -0.013596340163556417 0 -3.2456765092248828e-05 -0.013708425624025257 0 -0.00013589652470570333 -0.014379560838165075 0 -0.00013580011482439459 -0.014631019672380218 0 2.6264809391776619e-05 -0.01458288831080598 0 -7.2771468347001669e-05 -0.013707906097252658 0 -5.7305693586820506e-05 -0.013572919489041402 0 -1.9253667566299454e-05 -0.013596340163556417 0 -9.775617442594987e-05 -0.014024481392158497 0 -0.00010424922499691176 -0.01413670604726321 0 -0.00013580011482439459 -0.014631019672380218 0 -0.0001200060907645949 -0.014845395351634575 0 1.5837228042606385e-05 -0.014761233146399924 0 -0.00010424922499691176 -0.01413670604726321 0 -6.6459395902780733e-06 -0.014019529071462944 0 -5.7305693586820506e-05 -0.013572919489041402 0 -4.9509520089163241e-05 -0.013496138537991751 0 -1.1628488505945176e-05 -0.013541540805772065 0 9.6487972432132715e-05 -0.01470219201410849 0 2.6264809391776619e-05 -0.01458288831080598 0 1.5837228042606385e-05 -0.014761233146399924 0 9.6487972432132715e-05 -0.01470219201410849 0 2.6264809391776619e-05 -0.01458288831080598 0 0.00022587154067859087 -0.014619231121703227 0 -0.00013580011482439459 -0.014631019672380218 0 2.6264809391776619e-05 -0.01458288831080598 0 1.5837228042606385e-05 -0.014761233146399924 0 9.5458475344539941e-05 -0.014388242993340284 0 2.6264809391776619e-05 -0.01458288831080598 0 0.00022587154067859087 -0.014619231121703227 0 9.5458475344539941e-05 -0.014388242993340284 0 -0.00013589652470570333 -0.014379560838165075 0 2.6264809391776619e-05 -0.01458288831080598 0 0.00020751853585576226 -0.014689915167420155 0 0.00016783417994611655 -0.014769093024690826 0 0.0003165509285291323 -0.014391112277251617 0 9.5458475344539941e-05 -0.014388242993340284 0 0.00022587154067859087 -0.014619231121703227 0 5.9083533606231138e-05 -0.014969625749945922 0 9.7967697466671121e-05 -0.014969523632939411 0 8.4545700569144388e-05 -0.014941558689426601 0 9.7967697466671121e-05 -0.014969523632939411 0 8.4545700569144388e-05 -0.014941558689426601 0 0.00011737921923886239 -0.01492507660951559 0 6.2305436501755904e-05 -0.014926121987626469 0 8.4545700569144388e-05 -0.014941558689426601 0 9.3771277368859306e-05 -0.014895796722067506 0 8.4545700569144388e-05 -0.014941558689426601 0 9.3771277368859306e-05 -0.014895796722067506 0 0.00011737921923886239 -0.01492507660951559 0 9.6487972432132715e-05 -0.01470219201410849 0 0.00022587154067859087 -0.014619231121703227 0 0.00011120921746263804 -0.014837844352639339 0 0.00011737921923886239 -0.01492507660951559 0 0.00011120921746263804 -0.014837844352639339 0 0.00010464260501564314 -0.014876449215704095 0 9.3771277368859306e-05 -0.014895796722067506 0 0.00011737921923886239 -0.01492507660951559 0 0.00010464260501564314 -0.014876449215704095 0 0.00016783417994611655 -0.014769093024690826 0 0.0001207163011613718 -0.014836377245528613 0 0.00011120921746263804 -0.014837844352639339 0 0.00010464260501564314 -0.014876449215704095 0 0.00010957379177712407 -0.014858244338735891 0 9.3771277368859306e-05 -0.014895796722067506 0 0.00010464260501564314 -0.014876449215704095 0 0.00010460634172243718 -0.014867252970554978 0 0.00010464260501564314 -0.014876449215704095 0 0.00010460634172243718 -0.014867252970554978 0 0.00010957379177712407 -0.014858244338735891 0 0.00010460634172243718 -0.014867252970554978 0 0.00010957379177712407 -0.014858244338735891 0 0.00010230580388445879 -0.01488356245938903 0 0.00011120921746263804 -0.014837844352639339 0 0.00010957379177712407 -0.014858244338735891 0 0.00010230580388445879 -0.01488356245938903 0 9.3771277368859306e-05 -0.014895796722067506 0 0.00010460634172243718 -0.014867252970554978 0 9.6103010609464788e-05 -0.014865357641181333 0 6.2305436501755904e-05 -0.014926121987626469 0 9.3771277368859306e-05 -0.014895796722067506 0 9.6103010609464788e-05 -0.014865357641181333 0 -0.00054721763167065135 -0.013060480224748896 0 -0.00064195430319782918 -0.013173920315188858 0 -0.00042910670643647774 -0.013258772955359013 0 -0.00022970691704559209 -0.014030883046550341 0 -0.00039149557726325034 -0.013563977895671177 0 -0.00079682804198652143 -0.012985643960537896 0 -0.00039149557726325034 -0.013563977895671177 0 9.6103010609464788e-05 -0.014865357641181333 0 0.00010230580388445879 -0.01488356245938903 0 9.5875313831049133e-05 -0.014884573549252959 0 -0.00054721763167065135 -0.013060480224748896 0 -0.00064195430319782918 -0.013173920315188858 0 -0.00082853135979822732 -0.013118873356594464 0 -0.00078025659773928386 -0.012887804888647205 0 -0.00065214493250951439 -0.012847344883919582 0 -0.00055179530197910838 -0.012931691542537838 0 0.00010460634172243718 -0.014867252970554978 0 9.6103010609464788e-05 -0.014865357641181333 0 0.00010230580388445879 -0.01488356245938903 0 -0.00065214493250951439 -0.012847344883919582 0 -0.00056709036388966072 -0.012828789464472022 0 -0.00055179530197910838 -0.012931691542537838 0 -0.00058583718486968246 -0.012937482640584551 0 -0.00048830297013423187 -0.0129273855680538 0 -0.00015144456368976106 -0.013109453614721848 0 0.00010230580388445879 -0.01488356245938903 0 9.5875313831049133e-05 -0.014884573549252959 0 7.4146662512595182e-06 -0.014795976318867449 0 -0.00056709036388966072 -0.012828789464472022 0 -0.00051927603753848333 -0.012856972057952182 0 -0.00055179530197910838 -0.012931691542537838 0 -0.00039149557726325034 -0.013563977895671177 0 -3.4391118716696431e-07 -0.013436553284823608 0 -0.00051927603753848333 -0.012856972057952182 0 -0.00043570695766146652 -0.012810654806842937 0 -0.00051983480599693233 -0.012769796545601194 0 -0.00056709036388966072 -0.012828789464472022 0 -0.00051927603753848333 -0.012856972057952182 0 -0.00051983480599693233 -0.012769796545601194 0 -0.00051927603753848333 -0.012856972057952182 0 -0.00055179530197910838 -0.012931691542537838 0 -0.00048830297013423187 -0.0129273855680538 0 -0.00039149557726325034 -0.013563977895671177 0 -0.00043805682716043578 -0.013414829988800923 0 -0.00048830297013423187 -0.0129273855680538 0 -0.00040092639415209374 -0.012867854210542555 0 -0.0003335279092296612 -0.012925018241436066 0 -0.00048830297013423187 -0.0129273855680538 0 -0.00040092639415209374 -0.012867854210542555 0 -0.00043570695766146652 -0.012810654806842937 0 -0.00051927603753848333 -0.012856972057952182 0 -0.00048830297013423187 -0.0129273855680538 0 -0.00043570695766146652 -0.012810654806842937 0 -0.00040092639415209374 -0.012867854210542555 0 -0.00043570695766146652 -0.012810654806842937 0 -0.00033287439405144744 -0.012772851748530368 0 -0.00033287439405144744 -0.012772851748530368 0 -0.0003335279092296612 -0.012925018241436066 0 -0.00015144456368976106 -0.013109453614721848 0 -3.4391118716696431e-07 -0.013436553284823608 0 -0.00022874465080767264 -0.012253309944086651 0 -0.00033287439405144744 -0.012772851748530368 0 -0.00015144456368976106 -0.013109453614721848 0 -0.00028230909700812013 -0.01263446870047746 0 -0.00018148994197798464 -0.012572056564798609 0 -0.00015634294152111125 -0.012501676675746917 0 -0.00018864904010038291 -0.012496837832144293 0 -0.00040092639415209374 -0.012867854210542555 0 -0.00033287439405144744 -0.012772851748530368 0 -0.0003335279092296612 -0.012925018241436066 0 -0.00015144456368976106 -0.013109453614721848 0 -0.00018864904010038291 -0.012496837832144293 0 -0.00028230909700812013 -0.01263446870047746 0 -0.00048830297013423187 -0.0129273855680538 0 -0.0003335279092296612 -0.012925018241436066 0 -0.00015144456368976106 -0.013109453614721848 0 9.5875313831049133e-05 -0.014884573549252959 0 6.4551331823822724e-06 -0.014805773522006273 0 7.4146662512595182e-06 -0.014795976318867449 0 -3.4391118716696431e-07 -0.013436553284823608 0 -6.6459395902780733e-06 -0.014019529071462944 0 0.00010265634826472263 -0.015096146687500778 0 -6.6459395902780733e-06 -0.014019529071462944 0 0.00010230580388445879 -0.01488356245938903 0 -0.0001200060907645949 -0.014845395351634575 0 1.5837228042606385e-05 -0.014761233146399924 0 0.00011120921746263804 -0.014837844352639339 0 0.00010230580388445879 -0.01488356245938903 0 1.5837228042606385e-05 -0.014761233146399924 0 9.6487972432132715e-05 -0.01470219201410849 0 0.00011120921746263804 -0.014837844352639339 0 1.5837228042606385e-05 -0.014761233146399924 0 -4.6829668691534878e-05 -0.012642397331069826 0 8.1489854276530461e-05 -0.012503170470266113 0 0.00011882368158617739 -0.012593097754955986 0 -5.571615253581174e-05 -0.013082628762285432 0 0.00016436175923586276 -0.012969565008763395 0 -5.571615253581174e-05 -0.013082628762285432 0 0.00019333979413930754 -0.012796720176368645 0 -0.00018148994197798464 -0.012572056564798609 0 -4.6829668691534878e-05 -0.012642397331069826 0 -0.00013313076333914785 -0.012543620309964143 0 -3.4391118716696431e-07 -0.013436553284823608 0 -5.571615253581174e-05 -0.013082628762285432 0 0.00016178947061824302 -0.013500462087219764 0 0.00016263998022460473 -0.013469429419343893 0 -0.00018106726231565962 -0.013368196414062119 0 -6.6459395902780733e-06 -0.014019529071462944 0 -5.571615253581174e-05 -0.013082628762285432 0 -4.9509520089163241e-05 -0.013496138537991751 0 2.8937319712379585e-05 -0.013510975106800403 0 -1.1628488505945176e-05 -0.013541540805772065 0 -0.00018148994197798464 -0.012572056564798609 0 -0.00013313076333914785 -0.012543620309964143 0 -0.00015634294152111125 -0.012501676675746917 0 -4.6829668691534878e-05 -0.012642397331069826 0 -0.00013313076333914785 -0.012543620309964143 0 -7.3857717560776431e-05 -0.012495297662355376 0 -0.00013313076333914785 -0.012543620309964143 0 -7.3857717560776431e-05 -0.012495297662355376 0 -0.00015634294152111125 -0.012501676675746917 0 -7.3857717560776431e-05 -0.012495297662355376 0 8.1489854276530461e-05 -0.012503170470266113 0 -1.0154156721870988e-05 -0.012386028539656715 0 -4.6829668691534878e-05 -0.012642397331069826 0 -7.3857717560776431e-05 -0.012495297662355376 0 8.1489854276530461e-05 -0.012503170470266113 0 0.00019167365187761575 -0.012542450419635346 0 8.1489854276530461e-05 -0.012503170470266113 0 0.00025426735034571698 -0.012472003990594751 0 8.1489854276530461e-05 -0.012503170470266113 0 0.00025426735034571698 -0.012472003990594751 0 0.00015104795137214092 -0.012376898646058171 0 0.00019167365187761575 -0.012542450419635346 0 8.1489854276530461e-05 -0.012503170470266113 0 0.00011882368158617739 -0.012593097754955986 0 0.00025426735034571698 -0.012472003990594751 0 0.00035250201792136294 -0.012527106084935399 0 0.00037666038440565571 -0.012419325692898942 0 0.00019167365187761575 -0.012542450419635346 0 0.00025426735034571698 -0.012472003990594751 0 0.00026890780109704941 -0.01254530101775253 0 0.00025426735034571698 -0.012472003990594751 0 0.00026890780109704941 -0.01254530101775253 0 0.00035250201792136294 -0.012527106084935399 0 0.00022638705469328521 -0.012598520941277199 0 0.00019568913182034777 -0.012636788916009462 0 0.00031698363325195094 -0.012635496429429443 0 0.00026890780109704941 -0.01254530101775253 0 0.00030967710062888458 -0.012583218618397039 0 0.00035250201792136294 -0.012527106084935399 0 0.00026890780109704941 -0.01254530101775253 0 0.00022638705469328521 -0.012598520941277199 0 0.00030967710062888458 -0.012583218618397039 0 0.00019167365187761575 -0.012542450419635346 0 0.00026890780109704941 -0.01254530101775253 0 0.00022638705469328521 -0.012598520941277199 0 0.00022638705469328521 -0.012598520941277199 0 0.00030967710062888458 -0.012583218618397039 0 0.00031698363325195094 -0.012635496429429443 0 -2.8910862579294808e-06 -0.012949866312725721 0 0.00013017516701142165 -0.012977386906190456 0 0.00012258604232749196 -0.012986805205278552 0 -4.6829668691534878e-05 -0.012642397331069826 0 0.00011882368158617739 -0.012593097754955986 0 0.00015646756733130138 -0.012689795242628501 0 0.00019167365187761575 -0.012542450419635346 0 0.00022638705469328521 -0.012598520941277199 0 0.00011882368158617739 -0.012593097754955986 0 0.00024847435903820281 -0.012630296461403035 0 0.00019333979413930754 -0.012796720176368645 0 0.00022638705469328521 -0.012598520941277199 0 0.00011882368158617739 -0.012593097754955986 0 0.00015646756733130138 -0.012689795242628501 0 0.00017331139039948631 -0.012601040440137077 0 0.00020834441952002263 -0.012661304827549328 0 0.00016851086535430769 -0.012709791917398797 0 0.00016436175923586276 -0.012969565008763395 0 4.4610423733031906e-05 -0.013180843395648886 0 0.00017331139039948631 -0.012601040440137077 0 0.00016851086535430769 -0.012709791917398797 0 6.6532961978228486e-05 -0.012719069597721582 0 0.0001886469111339546 -0.012593347354990325 0 0.00018002774346374324 -0.012604094121866822 0 0.00025266473664980148 -0.012631880658390606 0 0.00017331139039948631 -0.012601040440137077 0 0.00020834441952002263 -0.012661304827549328 0 0.00025266473664980148 -0.012631880658390606 0 0.00016436175923586276 -0.012969565008763395 0 0.00018622372141245333 -0.012709139306823694 0 0.00019333979413930754 -0.012796720176368645 0 0.00016436175923586276 -0.012969565008763395 0 0.0001886469111339546 -0.012593347354990325 0 0.00031698363325195094 -0.012635496429429443 0 0.00025266473664980148 -0.012631880658390606 0 0.00019333979413930754 -0.012796720176368645 0 0.00029056574141921981 -0.012612722245816471 0 0.00020834441952002263 -0.012661304827549328 0 0.00025266473664980148 -0.012631880658390606 0 0.00023633117414690908 -0.012701769466635556 0 0.00025266473664980148 -0.012631880658390606 0 0.00028711141031820687 -0.012678326334267015 0 0.00023633117414690908 -0.012701769466635556 0 0.00031698363325195094 -0.012635496429429443 0 0.00025266473664980148 -0.012631880658390606 0 0.00028711141031820687 -0.012678326334267015 0 0.00031698363325195094 -0.012635496429429443 0 0.00028711141031820687 -0.012678326334267015 0 0.00033872738928772688 -0.012684903978314744 0 0.00028711141031820687 -0.012678326334267015 0 0.00028784510310437238 -0.012737558175658178 0 0.00033872738928772688 -0.012684903978314744 0 0.00028711141031820687 -0.012678326334267015 0 0.00023633117414690908 -0.012701769466635556 0 0.00028784510310437238 -0.012737558175658178 0 0.00023633117414690908 -0.012701769466635556 0 0.00028784510310437238 -0.012737558175658178 0 0.00021214126853492929 -0.012783750270236576 0 0.00028784510310437238 -0.012737558175658178 0 0.00021214126853492929 -0.012783750270236576 0 0.00029082220455127743 -0.012802987471370915 0 0.00028784510310437238 -0.012737558175658178 0 0.00029082220455127743 -0.012802987471370915 0 0.00034516966256459145 -0.012740562857810271 0 0.00016851086535430769 -0.012709791917398797 0 0.00011724331987168948 -0.01279262865052706 0 6.6532961978228486e-05 -0.012719069597721582 0 0.00023633117414690908 -0.012701769466635556 0 0.00016851086535430769 -0.012709791917398797 0 0.00021214126853492929 -0.012783750270236576 0 0.00020834441952002263 -0.012661304827549328 0 0.00023633117414690908 -0.012701769466635556 0 0.00016851086535430769 -0.012709791917398797 0 0.00016851086535430769 -0.012709791917398797 0 0.00021214126853492929 -0.012783750270236576 0 0.00011724331987168948 -0.01279262865052706 0 4.4610423733031906e-05 -0.013180843395648886 0 -1.0467078947036035e-06 -0.013194175216100045 0 0.00011724331987168948 -0.01279262865052706 0 6.6532961978228486e-05 -0.012719069597721582 0 -4.6947605901277728e-05 -0.012850010024044137 0 5.2439063629029146e-05 -0.013593410422983581 0 1.3195859225869509e-05 -0.013590789889627473 0 6.3920965168156663e-06 -0.013639015311720319 0 2.8937319712379585e-05 -0.013510975106800403 0 0.00010172790511569192 -0.013530910317971177 0 5.2439063629029146e-05 -0.013593410422983581 0 2.8937319712379585e-05 -0.013510975106800403 0 5.2439063629029146e-05 -0.013593410422983581 0 1.3195859225869509e-05 -0.013590789889627473 0 2.8937319712379585e-05 -0.013510975106800403 0 -1.1628488505945176e-05 -0.013541540805772065 0 1.3195859225869509e-05 -0.013590789889627473 0 -1.1628488505945176e-05 -0.013541540805772065 0 -1.9253667566299454e-05 -0.013596340163556417 0 1.3195859225869509e-05 -0.013590789889627473 0 -5.7305693586820506e-05 -0.013572919489041402 0 -1.1628488505945176e-05 -0.013541540805772065 0 -1.9253667566299454e-05 -0.013596340163556417 0 -1.9253667566299454e-05 -0.013596340163556417 0 -5.0733856007025358e-06 -0.013616498786194402 0 -1.9497266679265306e-05 -0.013636185864814115 0 1.3195859225869509e-05 -0.013590789889627473 0 -5.0733856007025358e-06 -0.013616498786194402 0 6.3920965168156663e-06 -0.013639015311720319 0 -1.8396319258144032e-05 -0.013598099758903701 0 -2.7880020050015685e-05 -0.013688480705033363 0 -1.9253667566299454e-05 -0.013596340163556417 0 1.3195859225869509e-05 -0.013590789889627473 0 -5.0733856007025358e-06 -0.013616498786194402 0 -7.182454511479477e-05 -0.013654885569512646 0 -1.0467078947036035e-06 -0.013194175216100045 0 -5.0733856007025358e-06 -0.013616498786194402 0 -1.9497266679265306e-05 -0.013636185864814115 0 6.3920965168156663e-06 -0.013639015311720319 0 -2.5349153421011166e-05 -0.013672681537551063 0 -1.9497266679265306e-05 -0.013636185864814115 0 6.3920965168156663e-06 -0.013639015311720319 0 0.00011724331987168948 -0.01279262865052706 0 -4.6947605901277728e-05 -0.012850010024044137 0 0.00013157275592194745 -0.012887915845997766 0 -4.6947605901277728e-05 -0.012850010024044137 0 4.5874377870008194e-05 -0.012977632159733956 0 0.00013157275592194745 -0.012887915845997766 0 -4.6947605901277728e-05 -0.012850010024044137 0 4.5874377870008194e-05 -0.012977632159733956 0 -5.4249383663043326e-05 -0.01301712245955383 0 4.5874377870008194e-05 -0.012977632159733956 0 -5.4249383663043326e-05 -0.01301712245955383 0 3.3231227990205586e-05 -0.013082066922918056 0 4.5874377870008194e-05 -0.012977632159733956 0 3.3231227990205586e-05 -0.013082066922918056 0 0.00013654849180019216 -0.013004909980565828 0 -0.0001717158909156606 -0.012998464453402154 0 -4.6947605901277728e-05 -0.012850010024044137 0 -5.4249383663043326e-05 -0.01301712245955383 0 -0.0001717158909156606 -0.012998464453402154 0 -5.4249383663043326e-05 -0.01301712245955383 0 -0.00011528730283290495 -0.013097655933077913 0 -0.00011528730283290495 -0.013097655933077913 0 -0.00010918064699349252 -0.013176925634605997 0 -5.3212466633366853e-05 -0.013105355656789861 0 -0.00019205765529115189 -0.013191969678673181 0 -0.00010918064699349252 -0.013176925634605997 0 -9.3986246518770354e-05 -0.013258705069645575 0 -0.00019205765529115189 -0.013191969678673181 0 -0.00011528730283290495 -0.013097655933077913 0 -0.00010918064699349252 -0.013176925634605997 0 -0.00010918064699349252 -0.013176925634605997 0 -2.550486809603318e-05 -0.013190374495890689 0 -9.3986246518770354e-05 -0.013258705069645575 0 -0.00010918064699349252 -0.013176925634605997 0 -2.550486809603318e-05 -0.013190374495890689 0 -5.3212466633366853e-05 -0.013105355656789861 0 -5.4249383663043326e-05 -0.01301712245955383 0 -0.00011528730283290495 -0.013097655933077913 0 -5.3212466633366853e-05 -0.013105355656789861 0 -5.4249383663043326e-05 -0.01301712245955383 0 -5.3212466633366853e-05 -0.013105355656789861 0 3.3231227990205586e-05 -0.013082066922918056 0 -2.550486809603318e-05 -0.013190374495890689 0 -5.3212466633366853e-05 -0.013105355656789861 0 3.3231227990205586e-05 -0.013082066922918056 0 3.3231227990205586e-05 -0.013082066922918056 0 0.00010012433741598805 -0.013122103815139315 0 0.00013654849180019216 -0.013004909980565828 0 3.3231227990205586e-05 -0.013082066922918056 0 0.00010012433741598805 -0.013122103815139315 0 5.6927256929796339e-05 -0.013193858780209422 0 0.00010012433741598805 -0.013122103815139315 0 5.6927256929796339e-05 -0.013193858780209422 0 0.00016522019529464929 -0.013229595801970946 0 -2.550486809603318e-05 -0.013190374495890689 0 3.3231227990205586e-05 -0.013082066922918056 0 5.6927256929796339e-05 -0.013193858780209422 0 5.6927256929796339e-05 -0.013193858780209422 0 4.0871168267516478e-06 -0.013297149261872664 0 0.00016522019529464929 -0.013229595801970946 0 -0.0005088245875964028 -0.013252995450274307 0 -0.00042402481305129562 -0.013367591938406819 0 -0.00057018176013754547 -0.013365579299823035 0 -0.00019524294166841369 -0.013331919480896176 0 -0.00023844658357194531 -0.013330443190162935 0 -2.550486809603318e-05 -0.013190374495890689 0 5.6927256929796339e-05 -0.013193858780209422 0 4.0871168267516478e-06 -0.013297149261872664 0 -0.00016102714773278046 -0.013366093137606163 0 -0.00019524294166841369 -0.013331919480896176 0 -0.00015187327111663781 -0.013380308128164089 0 4.0871168267516478e-06 -0.013297149261872664 0 -9.3986246518770354e-05 -0.013258705069645575 0 -2.550486809603318e-05 -0.013190374495890689 0 4.0871168267516478e-06 -0.013297149261872664 0 -9.3986246518770354e-05 -0.013258705069645575 0 -0.00057136034993558076 -0.01315410078526808 0 -0.00045377707396286897 -0.012267604693900737 0 -0.00059335651335597358 -0.01333497010413223 0 -0.00057018176013754547 -0.013365579299823035 0 -0.00061206043309150872 -0.013348314000978495 0 -0.00023844658357194531 -0.013330443190162935 0 -1.107572991946563e-05 -0.012872241072842818 0 -0.00048448986274379297 -0.012752810016038037 0 -0.00042354157240055885 -0.012781705772767531 0 -0.00050320012272058292 -0.012832914347001866 0 -0.00059335651335597358 -0.01333497010413223 0 -0.00061206043309150872 -0.013348314000978495 0 -0.00061933430395262991 -0.013343909213458007 0 -0.0005088245875964028 -0.013252995450274307 0 -0.00059335651335597358 -0.01333497010413223 0 -0.00057018176013754547 -0.013365579299823035 0 0.00010012433741598805 -0.013122103815139315 0 0.00016522019529464929 -0.013229595801970946 0 0.00032487515835777451 -0.013182135293206219 0 0.00010012433741598805 -0.013122103815139315 0 0.00019258870369035847 -0.013068023393261134 0 0.00029639423526471587 -0.013120660262885121 0 0.00025418049201640235 -0.013211286110853723 0 -1.107572991946563e-05 -0.012872241072842818 0 0.00010012433741598805 -0.013122103815139315 0 0.00019258870369035847 -0.013068023393261134 0 0.00013654849180019216 -0.013004909980565828 0 0.00019258870369035847 -0.013068023393261134 0 0.00029639423526471587 -0.013120660262885121 0 0.0002329843649323518 -0.013017555348381529 0 0.00029639423526471587 -0.013120660262885121 0 0.00030358970986813134 -0.013017276911991518 0 0.0002329843649323518 -0.013017555348381529 0 -1.107572991946563e-05 -0.012872241072842818 0 -0.00045377707396286897 -0.012267604693900737 0 0.00029639423526471587 -0.013120660262885121 0 0.00030358970986813134 -0.013017276911991518 0 0.00035877133494234569 -0.013029894737126376 0 0.00030358970986813134 -0.013017276911991518 0 0.00028283126921473079 -0.012950667298429929 0 0.00034732123679290651 -0.012960731423884682 0 0.00030358970986813134 -0.013017276911991518 0 0.0002329843649323518 -0.013017555348381529 0 0.00028283126921473079 -0.012950667298429929 0 0.0002329843649323518 -0.013017555348381529 0 0.00021717801073664237 -0.012929905971760551 0 0.00028283126921473079 -0.012950667298429929 0 0.00021717801073664237 -0.012929905971760551 0 0.00028283126921473079 -0.012950667298429929 0 0.00028036630157754575 -0.01287155313948978 0 0.00028283126921473079 -0.012950667298429929 0 0.00031636447317726605 -0.012904866294372937 0 0.00034732123679290651 -0.012960731423884682 0 0.00028283126921473079 -0.012950667298429929 0 0.00031636447317726605 -0.012904866294372937 0 0.00028036630157754575 -0.01287155313948978 0 0.00019258870369035847 -0.013068023393261134 0 0.0002329843649323518 -0.013017555348381529 0 0.00013654849180019216 -0.013004909980565828 0 0.0002329843649323518 -0.013017555348381529 0 0.00021717801073664237 -0.012929905971760551 0 0.00013654849180019216 -0.013004909980565828 0 0.00021717801073664237 -0.012929905971760551 0 0.00013654849180019216 -0.013004909980565828 0 0.00013157275592194745 -0.012887915845997766 0 4.5874377870008194e-05 -0.012977632159733956 0 0.00013654849180019216 -0.013004909980565828 0 0.00013157275592194745 -0.012887915845997766 0 0.00021717801073664237 -0.012929905971760551 0 0.00013157275592194745 -0.012887915845997766 0 0.00022746095655202153 -0.012859895877139827 0 0.00021214126853492929 -0.012783750270236576 0 0.00013157275592194745 -0.012887915845997766 0 0.00022746095655202153 -0.012859895877139827 0 0.00021214126853492929 -0.012783750270236576 0 0.00011724331987168948 -0.01279262865052706 0 0.00013157275592194745 -0.012887915845997766 0 0.00031636447317726605 -0.012904866294372937 0 0.00028036630157754575 -0.01287155313948978 0 0.0003317868990601321 -0.012848604789814777 0 0.00021717801073664237 -0.012929905971760551 0 0.00028036630157754575 -0.01287155313948978 0 0.00022746095655202153 -0.012859895877139827 0 0.00028036630157754575 -0.01287155313948978 0 0.00022746095655202153 -0.012859895877139827 0 0.00029082220455127743 -0.012802987471370915 0 0.00021214126853492929 -0.012783750270236576 0 0.00022746095655202153 -0.012859895877139827 0 0.00029082220455127743 -0.012802987471370915 0 0.00028036630157754575 -0.01287155313948978 0 0.00029082220455127743 -0.012802987471370915 0 0.0003317868990601321 -0.012848604789814777 0 0.00035421959868755609 -0.012797679375266185 0 0.00038506416459428683 -0.012832012964472674 0 0.0003317868990601321 -0.012848604789814777 0 0.00029082220455127743 -0.012802987471370915 0 0.00035421959868755609 -0.012797679375266185 0 0.0003317868990601321 -0.012848604789814777 0 0.00035421959868755609 -0.012797679375266185 0 0.00041341619172223016 -0.012776006040035598 0 0.00038506416459428683 -0.012832012964472674 0 0.00041341619172223016 -0.012776006040035598 0 0.00038506416459428683 -0.012832012964472674 0 0.00043175629105272553 -0.012853405334011477 0 0.00036481464497936292 -0.012882273685688778 0 0.00043175629105272553 -0.012853405334011477 0 0.00040481524197673183 -0.012920958256008754 0 0.00038506416459428683 -0.012832012964472674 0 0.00036481464497936292 -0.012882273685688778 0 0.00043175629105272553 -0.012853405334011477 0 0.00038506416459428683 -0.012832012964472674 0 0.00036481464497936292 -0.012882273685688778 0 0.0003317868990601321 -0.012848604789814777 0 0.00031636447317726605 -0.012904866294372937 0 0.00036481464497936292 -0.012882273685688778 0 0.0003317868990601321 -0.012848604789814777 0 0.00048603357618165499 -0.012781977201284579 0 0.00051867868334566506 -0.012860448927437595 0 0.00058451631871152395 -0.012782803298007198 0 0.00041341619172223016 -0.012776006040035598 0 0.00048603357618165499 -0.012781977201284579 0 0.00043175629105272553 -0.012853405334011477 0 0.00043175629105272553 -0.012853405334011477 0 0.00051867868334566506 -0.012860448927437595 0 0.00046845929162763356 -0.012939268455469255 0 0.00048603357618165499 -0.012781977201284579 0 0.00043175629105272553 -0.012853405334011477 0 0.00051867868334566506 -0.012860448927437595 0 0.00046845929162763356 -0.012939268455469255 0 0.00041921845852027482 -0.012994218347517647 0 0.00054987365664926034 -0.012980063668314576 0 0.00051867868334566506 -0.012860448927437595 0 0.00052321004834496863 -0.012914674762717888 0 0.00055261356938070001 -0.01288450641463198 0 0.00051867868334566506 -0.012860448927437595 0 0.00052321004834496863 -0.012914674762717888 0 0.00046845929162763356 -0.012939268455469255 0 0.00043175629105272553 -0.012853405334011477 0 0.00046845929162763356 -0.012939268455469255 0 0.00040481524197673183 -0.012920958256008754 0 0.00046845929162763356 -0.012939268455469255 0 0.00040481524197673183 -0.012920958256008754 0 0.00041921845852027482 -0.012994218347517647 0 0.00052321004834496863 -0.012914674762717888 0 0.00046845929162763356 -0.012939268455469255 0 0.00054987365664926034 -0.012980063668314576 0 0.00036481464497936292 -0.012882273685688778 0 0.00040481524197673183 -0.012920958256008754 0 0.00034732123679290651 -0.012960731423884682 0 0.00031636447317726605 -0.012904866294372937 0 0.00036481464497936292 -0.012882273685688778 0 0.00034732123679290651 -0.012960731423884682 0 0.00040481524197673183 -0.012920958256008754 0 0.00041921845852027482 -0.012994218347517647 0 0.00034732123679290651 -0.012960731423884682 0 0.00041921845852027482 -0.012994218347517647 0 0.00034732123679290651 -0.012960731423884682 0 0.00035877133494234569 -0.013029894737126376 0 0.00030358970986813134 -0.013017276911991518 0 0.00034732123679290651 -0.012960731423884682 0 0.00035877133494234569 -0.013029894737126376 0 0.00029639423526471587 -0.013120660262885121 0 0.00035877133494234569 -0.013029894737126376 0 0.00040059630289650581 -0.013080342647691279 0 -6.4286139170085464e-05 -0.011702581262375859 0 -0.00045377707396286897 -0.012267604693900737 0 -1.107572991946563e-05 -0.012872241072842818 0 -6.4286139170085464e-05 -0.011702581262375859 0 -0.00030905639678587693 -0.012301328142991024 0 1.1106609283991266e-05 -0.012202010439904426 0 -0.00019110427593226279 -0.01232652466283791 0 0.00041921845852027482 -0.012994218347517647 0 0.00035877133494234569 -0.013029894737126376 0 0.00040059630289650581 -0.013080342647691279 0 0.00041921845852027482 -0.012994218347517647 0 0.00040059630289650581 -0.013080342647691279 0 0.00054987365664926034 -0.012980063668314576 0 -6.4286139170085464e-05 -0.011702581262375859 0 0.00015762779740708882 -0.012155753359755134 0 -0.00037370914999463071 -0.011091323911983078 0 -0.00017645040745118312 -0.01100659945397937 0 -0.00021737306126320873 -0.010972687672011653 0 -6.4286139170085464e-05 -0.011702581262375859 0 -0.00043442471172583044 -0.0108634232831177 0 -0.00039238336740205062 -0.01057579656322763 0 -0.00044882014153119123 -0.01051791231081756 0 -0.00049991828057599822 -0.010583149427905557 0 -0.00039238336740205062 -0.01057579656322763 0 -0.00044882014153119123 -0.01051791231081756 0 -0.00035443240521862744 -0.010564378506457594 0 -0.0005867276138200691 -0.011607368530771127 0 -0.00045377707396286897 -0.012267604693900737 0 -0.00069824400764290117 -0.01281717353578927 0 -0.00055835124408187614 -0.012729117421362651 0 -0.00050320012272058292 -0.012832914347001866 0 -0.00048448986274379297 -0.012752810016038037 0 -0.00055835124408187614 -0.012729117421362651 0 -0.00050320012272058292 -0.012832914347001866 0 -0.00066220245382965569 -0.010419158289789497 0 -0.00055009804164074538 -0.010471113337643915 0 -0.00060598095119268061 -0.010519110924953487 0 -0.0010856991656551986 -0.011662619171998782 0 -0.00080128593008171292 -0.011603725570686904 0 -0.00044882014153119123 -0.01051791231081756 0 -0.00055009804164074538 -0.010471113337643915 0 -0.00049991828057599822 -0.010583149427905557 0 -0.0005867276138200691 -0.011607368530771127 0 -0.00080128593008171292 -0.011603725570686904 0 -0.00055009804164074538 -0.010471113337643915 0 -0.00049991828057599822 -0.010583149427905557 0 -0.00060598095119268061 -0.010519110924953487 0 -0.00049991828057599822 -0.010583149427905557 0 -0.00060598095119268061 -0.010519110924953487 0 -0.00061745571926153015 -0.010600210544496953 0 -0.00043442471172583044 -0.0108634232831177 0 -0.00020422969552286784 -0.0094561108233666858 0 -0.00017645040745118312 -0.01100659945397937 0 -5.7948286768865525e-05 -0.010861895746052556 0 2.3308286489466608e-05 -0.010928617668276241 0 6.1878956551973609e-05 -0.010684736989093212 0 0.00050739819403591597 -0.012010871700500384 0 -8.4997427613672471e-05 -0.008245930477251211 0 -1.3762502371494324e-05 -0.0082304451678669507 0 -1.1930520911545492e-05 -0.0083016013174861177 0 6.1878956551973609e-05 -0.010684736989093212 0 -0.00020422969552286784 -0.0094561108233666858 0 0.00056349085581658919 -0.012921902006541679 0 0.0005923189930585643 -0.012858422843381538 0 0.0006691106865524 -0.012861489207444314 0 0.00072417899002082868 -0.01284294318261577 0 0.00054987365664926034 -0.012980063668314576 0 0.00056349085581658919 -0.012921902006541679 0 0.00072417899002082868 -0.01284294318261577 0 0.00056349085581658919 -0.012921902006541679 0 0.00069385229548354303 -0.012817194974748187 0 0.00051327968075465258 -0.012973102028742691 0 0.00050739819403591597 -0.012010871700500384 0 6.1878956551973609e-05 -0.010684736989093212 0 0.00015762779740708882 -0.012155753359755134 0 -0.00017645040745118312 -0.01100659945397937 0 -5.7948286768865525e-05 -0.010861895746052556 0 -0.00021737306126320873 -0.010972687672011653 0 0.00052321004834496863 -0.012914674762717888 0 0.00054987365664926034 -0.012980063668314576 0 0.00056349085581658919 -0.012921902006541679 0 0.00055261356938070001 -0.01288450641463198 0 0.00056349085581658919 -0.012921902006541679 0 0.0005923189930585643 -0.012858422843381538 0 0.00052321004834496863 -0.012914674762717888 0 0.00055261356938070001 -0.01288450641463198 0 0.00056349085581658919 -0.012921902006541679 0 0.00051867868334566506 -0.012860448927437595 0 0.00055261356938070001 -0.01288450641463198 0 0.0005923189930585643 -0.012858422843381538 0 0.00051867868334566506 -0.012860448927437595 0 0.0005923189930585643 -0.012858422843381538 0 0.00058451631871152395 -0.012782803298007198 0 0.00059301549784186811 -0.012751250310170683 0 0.00050739819403591597 -0.012010871700500384 0 0.0005923189930585643 -0.012858422843381538 0 0.00058451631871152395 -0.012782803298007198 0 0.0006691106865524 -0.012861489207444314 0 -8.3799306515376911e-05 -0.01072900262638218 0 -0.0002088631858333815 -0.010618610710277582 0 0.00040958471209057168 -0.010261884694017405 0 0.00050739819403591597 -0.012010871700500384 0 5.7287895929982542e-05 -0.010118582356413776 0 0.00048949952354684077 -0.012596713665917816 0 0.00044331126204999834 -0.012523723858368526 0 0.00042359431694441262 -0.012569968976530706 0 0.00044331126204999834 -0.012523723858368526 0 0.00042359431694441262 -0.012569968976530706 0 0.00036990115696064745 -0.012549419158022188 0 6.1878956551973609e-05 -0.010684736989093212 0 -7.7820626601920927e-05 -0.0090441192803349928 0 0.00045558543262986091 -0.012614021659646681 0 0.00041568701723768592 -0.012616506609575339 0 0.00045657602031812992 -0.012664943480738608 0 0.00042359431694441262 -0.012569968976530706 0 0.00041568701723768592 -0.012616506609575339 0 0.00036990115696064745 -0.012549419158022188 0 0.00042359431694441262 -0.012569968976530706 0 0.00045558543262986091 -0.012614021659646681 0 0.00041568701723768592 -0.012616506609575339 0 0.00053588255378993188 -0.0093149500808663403 0 0.00017596059442254283 -0.009293255231405697 0 0.00024220791805291259 -0.0097210041591205259 0 0.00028941737701076428 -0.0089538522648991183 0 0.00053588255378993188 -0.0093149500808663403 0 0.00017596059442254283 -0.009293255231405697 0 0.0004015885584672498 -0.010856643353813646 0 0.00042966547372916031 -0.010966273878882852 0 0.00049750414023885835 -0.012862732403500903 0 0.00043934787952725043 -0.01166871873638016 0 0.00049704359078548267 -0.012610164608409139 0 0.00048468313869753888 -0.012587813953284276 0 0.00051954105920612068 -0.012554380039332919 0 0.00055844968331201464 -0.012589304944284931 0 0.00049704359078548267 -0.012610164608409139 0 0.00049238603781418401 -0.012473865053337934 0 0.00042966547372916031 -0.010966273878882852 0 0.00017677055543046077 -0.012831905064421003 0 0.00055844968331201464 -0.012589304944284931 0 0.00049704359078548267 -0.012610164608409139 0 0.00048833437227765444 -0.01264036836211165 0 0.00049704359078548267 -0.012610164608409139 0 0.00048292169958172705 -0.012640508169335436 0 0.00048833437227765444 -0.01264036836211165 0 0.00049704359078548267 -0.012610164608409139 0 0.00048292169958172705 -0.012640508169335436 0 0.00046970621566232179 -0.012628010240389382 0 0.00048949952354684077 -0.012596713665917816 0 0.00042359431694441262 -0.012569968976530706 0 0.00045558543262986091 -0.012614021659646681 0 0.00048949952354684077 -0.012596713665917816 0 0.00048833437227765444 -0.01264036836211165 0 0.00047797239224829993 -0.012676661231521775 0 0.00045558543262986091 -0.012614021659646681 0 0.00045657602031812992 -0.012664943480738608 0 0.00048833437227765444 -0.01264036836211165 0 0.00048292169958172705 -0.012640508169335436 0 0.00048833437227765444 -0.01264036836211165 0 0.00047797239224829993 -0.012676661231521775 0 0.00048949952354684077 -0.012596713665917816 0 0.00045558543262986091 -0.012614021659646681 0 0.00048833437227765444 -0.01264036836211165 0 0.00059301549784186811 -0.012751250310170683 0 0.00046207011098367773 -0.012649531039592113 0 0.00048603357618165499 -0.012781977201284579 0 0.00058451631871152395 -0.012782803298007198 0 0.00047797239224829993 -0.012676661231521775 0 0.00041341619172223016 -0.012776006040035598 0 0.00048603357618165499 -0.012781977201284579 0 0.00047797239224829993 -0.012676661231521775 0 0.00041341619172223016 -0.012776006040035598 0 0.00047797239224829993 -0.012676661231521775 0 0.00039475206897974732 -0.012695859989337104 0 0.00029082220455127743 -0.012802987471370915 0 0.00035421959868755609 -0.012797679375266185 0 0.00034516966256459145 -0.012740562857810271 0 0.00035421959868755609 -0.012797679375266185 0 0.00041341619172223016 -0.012776006040035598 0 0.00034516966256459145 -0.012740562857810271 0 0.00041341619172223016 -0.012776006040035598 0 0.00034516966256459145 -0.012740562857810271 0 0.00039475206897974732 -0.012695859989337104 0 0.00047797239224829993 -0.012676661231521775 0 0.00039475206897974732 -0.012695859989337104 0 0.00039648232347026672 -0.012635813854036391 0 0.00034516966256459145 -0.012740562857810271 0 0.00039475206897974732 -0.012695859989337104 0 0.00033872738928772688 -0.012684903978314744 0 0.00028784510310437238 -0.012737558175658178 0 0.00034516966256459145 -0.012740562857810271 0 0.00033872738928772688 -0.012684903978314744 0 0.00031698363325195094 -0.012635496429429443 0 0.00033872738928772688 -0.012684903978314744 0 0.00039648232347026672 -0.012635813854036391 0 0.00039475206897974732 -0.012695859989337104 0 0.00033872738928772688 -0.012684903978314744 0 0.00039648232347026672 -0.012635813854036391 0 0.00039648232347026672 -0.012635813854036391 0 0.00043439649754200958 -0.012600044303591724 0 0.00037304867149999218 -0.012597646031222697 0 0.00031698363325195094 -0.012635496429429443 0 0.00039648232347026672 -0.012635813854036391 0 0.00037304867149999218 -0.012597646031222697 0 0.00048292169958172705 -0.012640508169335436 0 0.00047797239224829993 -0.012676661231521775 0 0.00046970621566232179 -0.012628010240389382 0 0.00047797239224829993 -0.012676661231521775 0 0.00039648232347026672 -0.012635813854036391 0 0.00046970621566232179 -0.012628010240389382 0 0.00039648232347026672 -0.012635813854036391 0 0.00046970621566232179 -0.012628010240389382 0 0.00043439649754200958 -0.012600044303591724 0 0.00049704359078548267 -0.012610164608409139 0 0.00046970621566232179 -0.012628010240389382 0 0.00048468313869753888 -0.012587813953284276 0 0.00046970621566232179 -0.012628010240389382 0 0.00043439649754200958 -0.012600044303591724 0 0.00048468313869753888 -0.012587813953284276 0 0.00043439649754200958 -0.012600044303591724 0 0.00046270196383213009 -0.012520208752332718 0 0.00041105859022342282 -0.01254607126786856 0 0.00043439649754200958 -0.012600044303591724 0 0.00048468313869753888 -0.012587813953284276 0 0.00046270196383213009 -0.012520208752332718 0 0.00048468313869753888 -0.012587813953284276 0 0.00046270196383213009 -0.012520208752332718 0 0.00051954105920612068 -0.012554380039332919 0 0.00046270196383213009 -0.012520208752332718 0 0.00041105859022342282 -0.01254607126786856 0 0.00042618014635965667 -0.012480045249533549 0 0.00030967710062888458 -0.012583218618397039 0 0.00031698363325195094 -0.012635496429429443 0 0.00037304867149999218 -0.012597646031222697 0 0.00030967710062888458 -0.012583218618397039 0 0.00037304867149999218 -0.012597646031222697 0 0.00035250201792136294 -0.012527106084935399 0 0.00043439649754200958 -0.012600044303591724 0 0.00037304867149999218 -0.012597646031222697 0 0.00041105859022342282 -0.01254607126786856 0 0.00037304867149999218 -0.012597646031222697 0 0.00041105859022342282 -0.01254607126786856 0 0.00035250201792136294 -0.012527106084935399 0 0.00042618014635965667 -0.012480045249533549 0 0.00037666038440565571 -0.012419325692898942 0 0.00047971236289461456 -0.012424094182371094 0 0.00035250201792136294 -0.012527106084935399 0 0.00042618014635965667 -0.012480045249533549 0 0.00037666038440565571 -0.012419325692898942 0 0.00041105859022342282 -0.01254607126786856 0 0.00035250201792136294 -0.012527106084935399 0 0.00042618014635965667 -0.012480045249533549 0 0.00044009555911987171 -0.012153218753832889 0 0.00043934787952725043 -0.01166871873638016 0 0.00046270196383213009 -0.012520208752332718 0 0.00047971236289461456 -0.012424094182371094 0 0.00051954105920612068 -0.012554380039332919 0 0.00046270196383213009 -0.012520208752332718 0 0.00042618014635965667 -0.012480045249533549 0 0.00047971236289461456 -0.012424094182371094 0 0.00017781887184778006 -0.010349832696537824 0 0.00038056250032211184 -0.010126160731776981 0 0.00039791276456832596 -0.010493145466656062 0 0.00035352092197121695 -0.011702842716823623 0 0.00038081546805570867 -0.01173681478922569 0 0.00038123312234924497 -0.011698138477257492 0 0.00043934787952725043 -0.01166871873638016 0 0.00038496804181131452 -0.010937731681597486 0 0.00017781887184778006 -0.010349832696537824 0 4.7748854156671348e-05 -0.010161275935385568 0 -0.00016656224177712697 -0.010408005481530183 0 0.00042966547372916031 -0.010966273878882852 0 0.00022734031880329822 -0.0097378619984879542 0 0.00023428991528817367 -0.0099253578269416706 0 4.7748854156671348e-05 -0.010161275935385568 0 0.00038056250032211184 -0.010126160731776981 0 0.00017781887184778006 -0.010349832696537824 0 4.7748854156671348e-05 -0.010161275935385568 0 0.00038056250032211184 -0.010126160731776981 0 0.00042966547372916031 -0.010966273878882852 0 0.00043934787952725043 -0.01166871873638016 0 0.00041481734382981563 -0.010935128416421967 0 8.4376121865484683e-05 -0.010688817637226915 0 5.4468778186171617e-05 -0.011172525860045147 0 0.00017781887184778006 -0.010349832696537824 0 8.4376121865484683e-05 -0.010688817637226915 0 0.00039791276456832596 -0.010493145466656062 0 0.00017781887184778006 -0.010349832696537824 0 8.4376121865484683e-05 -0.010688817637226915 0 -0.00016656224177712697 -0.010408005481530183 0 0.00039287569421410536 -0.011647182300343737 0 0.00038123312234924497 -0.011698138477257492 0 0.00035573854869834303 -0.011675218730276396 0 0.00039692001050026487 -0.01132884528495668 0 0.00038496804181131452 -0.010937731681597486 0 0.00041481734382981563 -0.010935128416421967 0 8.4376121865484683e-05 -0.010688817637226915 0 0.00039791276456832596 -0.010493145466656062 0 0.00035352092197121695 -0.011702842716823623 0 0.00032490247319981621 -0.011674261344200682 0 0.00035573854869834303 -0.011675218730276396 0 0.00035352092197121695 -0.011702842716823623 0 0.00038123312234924497 -0.011698138477257492 0 0.00035573854869834303 -0.011675218730276396 0 0.00037666038440565571 -0.012419325692898942 0 0.00043076271143047563 -0.012212946047218802 0 0.00029111444661374558 -0.012336186557551046 0 0.00044009555911987171 -0.012153218753832889 0 0.00036042629226732342 -0.011917117552412286 0 0.00037666038440565571 -0.012419325692898942 0 0.00047971236289461456 -0.012424094182371094 0 0.00043076271143047563 -0.012212946047218802 0 0.00039287569421410536 -0.011647182300343737 0 0.00035573854869834303 -0.011675218730276396 0 0.000339144200672121 -0.011642958444917974 0 0.00032490247319981621 -0.011674261344200682 0 0.00035573854869834303 -0.011675218730276396 0 0.000339144200672121 -0.011642958444917974 0 0.000339144200672121 -0.011642958444917974 0 0.00033936167290941644 -0.011632314023230627 0 0.00035529108263733218 -0.011483109017857929 0 0.00032490247319981621 -0.011674261344200682 0 0.00033936167290941644 -0.011632314023230627 0 0.00032522802668450709 -0.011702052068966531 0 0.00032490247319981621 -0.011674261344200682 0 0.000339144200672121 -0.011642958444917974 0 0.00033936167290941644 -0.011632314023230627 0 0.00034144458355510164 -0.011625007588123373 0 0.00035818882448906085 -0.011602798033615858 0 0.000293802965469775 -0.011634481838033504 0 0.00033936167290941644 -0.011632314023230627 0 0.00034144458355510164 -0.011625007588123373 0 0.00035666965798538015 -0.011592348847139172 0 0.00032522802668450709 -0.011702052068966531 0 0.00034144458355510164 -0.011625007588123373 0 0.000293802965469775 -0.011634481838033504 0 0.00033936167290941644 -0.011632314023230627 0 0.00032522802668450709 -0.011702052068966531 0 0.00034144458355510164 -0.011625007588123373 0 0.00033936167290941644 -0.011632314023230627 0 0.00035529108263733218 -0.011483109017857929 0 0.00035666965798538015 -0.011592348847139172 0 0.00035529108263733218 -0.011483109017857929 0 0.00031245933636627897 -0.011593009270160097 0 0.00035666965798538015 -0.011592348847139172 0 0.00035529108263733218 -0.011483109017857929 0 0.00010768214184544573 -0.011478246327352816 0 0.00031245933636627897 -0.011593009270160097 0 0.00039287569421410536 -0.011647182300343737 0 0.000339144200672121 -0.011642958444917974 0 0.00035529108263733218 -0.011483109017857929 0 0.00039692001050026487 -0.01132884528495668 0 0.00036635578807192544 -0.011454780622943965 0 0.00041481734382981563 -0.010935128416421967 0 0.00035529108263733218 -0.011483109017857929 0 5.4468778186171617e-05 -0.011172525860045147 0 0.00035529108263733218 -0.011483109017857929 0 5.4468778186171617e-05 -0.011172525860045147 0 0.00010768214184544573 -0.011478246327352816 0 0.00010768214184544573 -0.011478246327352816 0 0.00013970745187409672 -0.011659696605951494 0 0.00031245933636627897 -0.011593009270160097 0 0.00010768214184544573 -0.011478246327352816 0 0.00013970745187409672 -0.011659696605951494 0 -0.00022614101058840926 -0.011457699260546373 0 0.00013970745187409672 -0.011659696605951494 0 0.00031245933636627897 -0.011593009270160097 0 0.00031027380048944818 -0.011649750879380295 0 0.00018121289150143036 -0.0093061215345229768 0 0.00040558794022466142 -0.0092789410083016412 0 0.00013970745187409672 -0.011659696605951494 0 0.00031027380048944818 -0.011649750879380295 0 0.0003064752233690572 -0.011704833941291489 0 0.00019576765283537805 -0.0068600149244789519 0 1.586139059846527e-05 -0.0074024530088887602 0 0.00062062453822839757 -0.0075319345324011177 0 0.00019576765283537805 -0.0068600149244789519 0 1.586139059846527e-05 -0.0074024530088887602 0 -0.0002100842074310814 -0.007143465197439601 0 1.586139059846527e-05 -0.0074024530088887602 0 0.00013189993819515976 -0.0077711212504887588 0 -2.9407988073036843e-05 -0.0077150581843129741 0 1.586139059846527e-05 -0.0074024530088887602 0 -2.9407988073036843e-05 -0.0077150581843129741 0 -0.0001832660236864464 -0.0075134020621100842 0 0.00013189993819515976 -0.0077711212504887588 0 4.876012511274681e-05 -0.008053440505329407 0 5.1286816556741931e-05 -0.0080008365354046242 0 1.586139059846527e-05 -0.0074024530088887602 0 0.00013189993819515976 -0.0077711212504887588 0 0.00062062453822839757 -0.0075319345324011177 0 0.00033943932430466491 -0.0077618813615188765 0 0.00040558794022466142 -0.0092789410083016412 0 4.876012511274681e-05 -0.008053440505329407 0 5.1286816556741931e-05 -0.0080008365354046242 0 4.3742547902299786e-05 -0.008052290789068689 0 0.00040558794022466142 -0.0092789410083016412 0 0.00063058823078054069 -0.009616967840848754 0 5.1286816556741931e-05 -0.0080008365354046242 0 1.0471901397422649e-05 -0.0082600441207227003 0 4.3742547902299786e-05 -0.008052290789068689 0 1.5981997799195557e-08 -0.0080937201837673646 0 -4.1101523482580541e-08 -0.008709757308085167 0 1.0471901397422649e-05 -0.0082600441207227003 0 5.1286816556741931e-05 -0.0080008365354046242 0 1.5981997799195557e-08 -0.0080937201837673646 0 1.0471901397422649e-05 -0.0082600441207227003 0 0.00013189993819515976 -0.0077711212504887588 0 5.1286816556741931e-05 -0.0080008365354046242 0 1.5981997799195557e-08 -0.0080937201837673646 0 0.00013189993819515976 -0.0077711212504887588 0 1.5981997799195557e-08 -0.0080937201837673646 0 -2.9407988073036843e-05 -0.0077150581843129741 0 1.5981997799195557e-08 -0.0080937201837673646 0 -2.9407988073036843e-05 -0.0077150581843129741 0 -2.538866185086739e-07 -0.0074802585993309738 0 4.244954410161858e-07 -0.0093247015747289861 0 -4.1101523482580541e-08 -0.008709757308085167 0 9.9250790939225885e-05 -0.008463911724885996 0 2.021855649077487e-06 -0.0093283274695890265 0 0.00094744997288402427 -0.010000380512233719 0 0.00062227280998021831 -0.010641035903437814 0 1.5777083354251435e-07 -0.0093252563753908058 0 0.00045918873159819649 -0.0092187667866292598 0 -4.1101523482580541e-08 -0.008709757308085167 0 1.0471901397422649e-05 -0.0082600441207227003 0 9.9250790939225885e-05 -0.008463911724885996 0 0.00045918873159819649 -0.0092187667866292598 0 0.00063058823078054069 -0.009616967840848754 0 0.00094744997288402427 -0.010000380512233719 0 0.0015251115479133859 -0.010587579809429346 0 0.0010479526474022637 -0.01052662409251497 0 1.0471901397422649e-05 -0.0082600441207227003 0 9.9250790939225885e-05 -0.008463911724885996 0 4.3742547902299786e-05 -0.008052290789068689 0 0.00063058823078054069 -0.009616967840848754 0 0.0005061337908069634 -0.01106196325846741 0 0.00087991956315762281 -0.0099949428380072675 0 0.00066046650765070919 -0.0097963091360766565 0 0.00018179505112181631 -0.010349918985079934 0 0.0015251115479133859 -0.010587579809429346 0 0.0010479526474022637 -0.01052662409251497 0 0.0011468555155945048 -0.010969059744378005 0 0.0010479526474022637 -0.01052662409251497 0 0.00062227280998021831 -0.010641035903437814 0 0.0011468555155945048 -0.010969059744378005 0 0.00094744997288402427 -0.010000380512233719 0 0.0010479526474022637 -0.01052662409251497 0 0.00062227280998021831 -0.010641035903437814 0 0.0005061337908069634 -0.01106196325846741 0 0.00033623591632954045 -0.01171299940682803 0 0.0005061337908069634 -0.01106196325846741 0 0.00037648432467932423 -0.011549220089244567 0 0.00055773278108442199 -0.011473805840940699 0 0.00039949688431034939 -0.011664573961348424 0 0.0002696020734182813 -0.011631596493368883 0 0.00062227280998021831 -0.010641035903437814 0 0.0011468555155945048 -0.010969059744378005 0 0.00034046252895099502 -0.011429511203070347 0 0.00035218309167997958 -0.011665813366283584 0 0.00034530355883416052 -0.011621001080397726 0 0.00035818882448906085 -0.011602798033615858 0 0.00031027380048944818 -0.011649750879380295 0 0.0003064752233690572 -0.011704833941291489 0 0.00035218309167997958 -0.011665813366283584 0 0.00040558794022466142 -0.0092789410083016412 0 0.0005061337908069634 -0.01106196325846741 0 0.00031027380048944818 -0.011649750879380295 0 0.00035218309167997958 -0.011665813366283584 0 0.00034530355883416052 -0.011621001080397726 0 0.00034530355883416052 -0.011621001080397726 0 0.00035666965798538015 -0.011592348847139172 0 0.00035818882448906085 -0.011602798033615858 0 0.00031245933636627897 -0.011593009270160097 0 0.00034530355883416052 -0.011621001080397726 0 0.00035666965798538015 -0.011592348847139172 0 0.00031245933636627897 -0.011593009270160097 0 0.00031027380048944818 -0.011649750879380295 0 0.00034530355883416052 -0.011621001080397726 0 0.00034144458355510164 -0.011625007588123373 0 0.00035666965798538015 -0.011592348847139172 0 0.00035818882448906085 -0.011602798033615858 0 0.00033623591632954045 -0.01171299940682803 0 0.00027895402531699496 -0.011729337644698341 0 2.021855649077487e-06 -0.0093283274695890265 0 -8.0364308803158912e-05 -0.011086291820429483 0 -1.1002704837372668e-06 -0.011369492179348281 0 0.00039949688431034939 -0.011664573961348424 0 0.0002696020734182813 -0.011631596493368883 0 0.00024274075975490972 -0.011834912261812649 0 0.00034046252895099502 -0.011429511203070347 0 4.924906156445273e-05 -0.011411072817662368 0 5.5842855267885456e-06 -0.011771074536933362 0 0.0002696020734182813 -0.011631596493368883 0 5.5842855267885456e-06 -0.011771074536933362 0 0.00011590457868555993 -0.011860368129933721 0 0.00037648432467932423 -0.011549220089244567 0 -2.1873319043129628e-05 -0.01175609584497336 0 4.924906156445273e-05 -0.011411072817662368 0 0.00018494071421661489 -0.0110938602588857 0 -8.0364308803158912e-05 -0.011086291820429483 0 0.00034046252895099502 -0.011429511203070347 0 4.924906156445273e-05 -0.011411072817662368 0 0.00018494071421661489 -0.0110938602588857 0 0.00062227280998021831 -0.010641035903437814 0 0.00034046252895099502 -0.011429511203070347 0 0.00018494071421661489 -0.0110938602588857 0 2.021855649077487e-06 -0.0093283274695890265 0 0.00018494071421661489 -0.0110938602588857 0 -8.0364308803158912e-05 -0.011086291820429483 0 2.021855649077487e-06 -0.0093283274695890265 0 0.00062227280998021831 -0.010641035903437814 0 0.00018494071421661489 -0.0110938602588857 0 -8.0364308803158912e-05 -0.011086291820429483 0 -0.0001316205318934071 -0.011671242895964794 0 -1.1002704837372668e-06 -0.011369492179348281 0 4.924906156445273e-05 -0.011411072817662368 0 -8.0364308803158912e-05 -0.011086291820429483 0 -9.6491515418893785e-05 -0.011603162574411982 0 -8.0364308803158912e-05 -0.011086291820429483 0 -0.0001316205318934071 -0.011671242895964794 0 -9.6491515418893785e-05 -0.011603162574411982 0 4.924906156445273e-05 -0.011411072817662368 0 -9.6491515418893785e-05 -0.011603162574411982 0 5.5842855267885456e-06 -0.011771074536933362 0 -9.6491515418893785e-05 -0.011603162574411982 0 5.5842855267885456e-06 -0.011771074536933362 0 -0.00016666496690032992 -0.011893566054109872 0 -0.0001316205318934071 -0.011671242895964794 0 -0.00016666496690032992 -0.011893566054109872 0 -0.00020240045827456767 -0.012037894087694789 0 -0.0001316205318934071 -0.011671242895964794 0 -9.6491515418893785e-05 -0.011603162574411982 0 -0.00016666496690032992 -0.011893566054109872 0 -0.00016666496690032992 -0.011893566054109872 0 -0.00020378114947675153 -0.011988284403199247 0 -9.414359830406998e-05 -0.011977481338596274 0 -0.00019911214471644918 -0.011940382928040014 0 -0.00022392420928921838 -0.011974670438422801 0 -0.00016666496690032992 -0.011893566054109872 0 -0.00020378114947675153 -0.011988284403199247 0 -0.000310788158137012 -0.011957632211706464 0 -0.00020378114947675153 -0.011988284403199247 0 -0.00020037114171042518 -0.012100454151397298 0 -0.00035259294683075284 -0.012058864119329602 0 -0.00020378114947675153 -0.011988284403199247 0 -0.00020037114171042518 -0.012100454151397298 0 -9.414359830406998e-05 -0.011977481338596274 0 -0.00020037114171042518 -0.012100454151397298 0 -9.783236173696835e-05 -0.012104042546083955 0 -9.414359830406998e-05 -0.011977481338596274 0 7.6683058863973392e-07 -0.012072533856389119 0 -9.783236173696835e-05 -0.012104042546083955 0 -9.414359830406998e-05 -0.011977481338596274 0 7.6683058863973392e-07 -0.012072533856389119 0 -9.414359830406998e-05 -0.011977481338596274 0 3.2715600824807151e-05 -0.011928982164851698 0 5.5842855267885456e-06 -0.011771074536933362 0 -9.414359830406998e-05 -0.011977481338596274 0 3.2715600824807151e-05 -0.011928982164851698 0 5.5842855267885456e-06 -0.011771074536933362 0 -0.00016666496690032992 -0.011893566054109872 0 -9.414359830406998e-05 -0.011977481338596274 0 0.00011590457868555993 -0.011860368129933721 0 0.00024274075975490972 -0.011834912261812649 0 0.00011155017549089634 -0.011956487846008628 0 5.5842855267885456e-06 -0.011771074536933362 0 0.00011590457868555993 -0.011860368129933721 0 3.2715600824807151e-05 -0.011928982164851698 0 0.0002696020734182813 -0.011631596493368883 0 0.00011590457868555993 -0.011860368129933721 0 0.00024274075975490972 -0.011834912261812649 0 0.00027895402531699496 -0.011729337644698341 0 0.0001210567338703973 -0.011934345501990542 0 0.00032522802668450709 -0.011702052068966531 0 0.000293802965469775 -0.011634481838033504 0 0.00027489687200723932 -0.011799127726533699 0 0.00027489687200723932 -0.011799127726533699 0 0.00011155017549089634 -0.011956487846008628 0 0.0002313124098886645 -0.012150594001041608 0 0.00036042629226732342 -0.011917117552412286 0 0.00027925317890936798 -0.011805311824411241 0 0.00032490247319981621 -0.011674261344200682 0 0.00032522802668450709 -0.011702052068966531 0 0.00027489687200723932 -0.011799127726533699 0 0.000293802965469775 -0.011634481838033504 0 0.00027489687200723932 -0.011799127726533699 0 0.00011155017549089634 -0.011956487846008628 0 7.6683058863973392e-07 -0.012072533856389119 0 0.00011155017549089634 -0.011956487846008628 0 6.3645150892641933e-05 -0.012213694917991664 0 7.6683058863973392e-07 -0.012072533856389119 0 3.2715600824807151e-05 -0.011928982164851698 0 0.00011155017549089634 -0.011956487846008628 0 0.00011590457868555993 -0.011860368129933721 0 3.2715600824807151e-05 -0.011928982164851698 0 0.00011155017549089634 -0.011956487846008628 0 0.00011155017549089634 -0.011956487846008628 0 6.3645150892641933e-05 -0.012213694917991664 0 0.0002313124098886645 -0.012150594001041608 0 6.3645150892641933e-05 -0.012213694917991664 0 0.0002313124098886645 -0.012150594001041608 0 0.00015104795137214092 -0.012376898646058171 0 0.00043076271143047563 -0.012212946047218802 0 0.00027489687200723932 -0.011799127726533699 0 0.0002313124098886645 -0.012150594001041608 0 0.00043076271143047563 -0.012212946047218802 0 0.0002313124098886645 -0.012150594001041608 0 0.00029111444661374558 -0.012336186557551046 0 0.0002313124098886645 -0.012150594001041608 0 0.00029111444661374558 -0.012336186557551046 0 0.00015104795137214092 -0.012376898646058171 0 0.00025426735034571698 -0.012472003990594751 0 0.00029111444661374558 -0.012336186557551046 0 0.00015104795137214092 -0.012376898646058171 0 0.00025426735034571698 -0.012472003990594751 0 0.00037666038440565571 -0.012419325692898942 0 0.00029111444661374558 -0.012336186557551046 0 6.3645150892641933e-05 -0.012213694917991664 0 0.00015104795137214092 -0.012376898646058171 0 -1.0154156721870988e-05 -0.012386028539656715 0 8.1489854276530461e-05 -0.012503170470266113 0 0.00015104795137214092 -0.012376898646058171 0 -1.0154156721870988e-05 -0.012386028539656715 0 -1.0154156721870988e-05 -0.012386028539656715 0 -0.00012873685400390975 -0.012425374343891262 0 -0.00010062825723319263 -0.012288622889086921 0 -7.3857717560776431e-05 -0.012495297662355376 0 -1.0154156721870988e-05 -0.012386028539656715 0 -0.00012873685400390975 -0.012425374343891262 0 -7.3857717560776431e-05 -0.012495297662355376 0 -0.00015634294152111125 -0.012501676675746917 0 -0.00012873685400390975 -0.012425374343891262 0 -0.00015634294152111125 -0.012501676675746917 0 -0.00012873685400390975 -0.012425374343891262 0 -0.00018864904010038291 -0.012496837832144293 0 -0.00012873685400390975 -0.012425374343891262 0 -0.00017899374057400749 -0.012388561653744169 0 -0.00018864904010038291 -0.012496837832144293 0 -0.00012873685400390975 -0.012425374343891262 0 -0.00010062825723319263 -0.012288622889086921 0 -0.00017899374057400749 -0.012388561653744169 0 -0.00020037114171042518 -0.012100454151397298 0 -0.00010062825723319263 -0.012288622889086921 0 -0.00035023516921580842 -0.01216566065348269 0 -0.00010062825723319263 -0.012288622889086921 0 -0.0002235166384073049 -0.012408417964931636 0 -0.00017899374057400749 -0.012388561653744169 0 -7.7162855803223837e-05 -0.012275073022410043 0 -0.00036126088284248311 -0.012405393922777945 0 -0.00020037114171042518 -0.012100454151397298 0 -9.783236173696835e-05 -0.012104042546083955 0 -0.00010062825723319263 -0.012288622889086921 0 7.6683058863973392e-07 -0.012072533856389119 0 -9.783236173696835e-05 -0.012104042546083955 0 -0.00010062825723319263 -0.012288622889086921 0 6.3645150892641933e-05 -0.012213694917991664 0 -1.0154156721870988e-05 -0.012386028539656715 0 -0.00010062825723319263 -0.012288622889086921 0 7.6683058863973392e-07 -0.012072533856389119 0 6.3645150892641933e-05 -0.012213694917991664 0 -0.00010062825723319263 -0.012288622889086921 0 -0.0004205985842868884 -0.012432867104868519 0 -0.00027259491924503472 -0.012355255080148968 0 -0.000526391760636439 -0.012299154186434303 0 -0.00041652482109998042 -0.012519724964038489 0 -0.0004205985842868884 -0.012432867104868519 0 -0.00029831272738197655 -0.012457499799540812 0 -0.00041652482109998042 -0.012519724964038489 0 -0.00050442788479325461 -0.012530253731284561 0 -0.0004205985842868884 -0.012432867104868519 0 -0.00050442788479325461 -0.012530253731284561 0 -0.00050313474351749239 -0.012610906069226513 0 -0.00061035796179258791 -0.012604036625163732 0 -0.00041652482109998042 -0.012519724964038489 0 -0.00050442788479325461 -0.012530253731284561 0 -0.00050313474351749239 -0.012610906069226513 0 -0.00050442788479325461 -0.012530253731284561 0 -0.0004205985842868884 -0.012432867104868519 0 -0.00057308567946078113 -0.012485915179202991 0 -0.00050442788479325461 -0.012530253731284561 0 -0.00057308567946078113 -0.012485915179202991 0 -0.00061035796179258791 -0.012604036625163732 0 -0.0004205985842868884 -0.012432867104868519 0 -0.00057308567946078113 -0.012485915179202991 0 -0.000526391760636439 -0.012299154186434303 0 -0.0004205985842868884 -0.012432867104868519 0 -0.00027259491924503472 -0.012355255080148968 0 -0.00029831272738197655 -0.012457499799540812 0 -0.00036126088284248311 -0.012405393922777945 0 -0.00021059796787539415 -0.012423706521569875 0 -0.00017899374057400749 -0.012388561653744169 0 -0.00029831272738197655 -0.012457499799540812 0 -0.00018864904010038291 -0.012496837832144293 0 -0.00027259491924503472 -0.012355255080148968 0 -0.00017899374057400749 -0.012388561653744169 0 -0.00029831272738197655 -0.012457499799540812 0 -0.00041652482109998042 -0.012519724964038489 0 -0.00029831272738197655 -0.012457499799540812 0 -0.00034959040182696563 -0.012565464197994845 0 -0.00029831272738197655 -0.012457499799540812 0 -0.00034959040182696563 -0.012565464197994845 0 -0.00018864904010038291 -0.012496837832144293 0 -0.00034959040182696563 -0.012565464197994845 0 -0.00028230909700812013 -0.01263446870047746 0 -0.00043402461834311345 -0.012685322167535271 0 -0.00034959040182696563 -0.012565464197994845 0 -0.00018864904010038291 -0.012496837832144293 0 -0.00028230909700812013 -0.01263446870047746 0 -0.00033287439405144744 -0.012772851748530368 0 -0.00028230909700812013 -0.01263446870047746 0 -0.00043402461834311345 -0.012685322167535271 0 -0.00043570695766146652 -0.012810654806842937 0 -0.00033287439405144744 -0.012772851748530368 0 -0.00043402461834311345 -0.012685322167535271 0 -0.00043570695766146652 -0.012810654806842937 0 -0.00043402461834311345 -0.012685322167535271 0 -0.00051983480599693233 -0.012769796545601194 0 -0.00041652482109998042 -0.012519724964038489 0 -0.00034959040182696563 -0.012565464197994845 0 -0.00050313474351749239 -0.012610906069226513 0 -0.00034959040182696563 -0.012565464197994845 0 -0.00043402461834311345 -0.012685322167535271 0 -0.00050313474351749239 -0.012610906069226513 0 -0.00050313474351749239 -0.012610906069226513 0 -0.00058849992074089382 -0.012734581664650978 0 -0.00061035796179258791 -0.012604036625163732 0 -0.00043402461834311345 -0.012685322167535271 0 -0.00050313474351749239 -0.012610906069226513 0 -0.00051074305437434164 -0.012696772308553579 0 -0.00050313474351749239 -0.012610906069226513 0 -0.00051074305437434164 -0.012696772308553579 0 -0.00058849992074089382 -0.012734581664650978 0 -0.00051074305437434164 -0.012696772308553579 0 -0.00051983480599693233 -0.012769796545601194 0 -0.00058849992074089382 -0.012734581664650978 0 -0.00043402461834311345 -0.012685322167535271 0 -0.00051074305437434164 -0.012696772308553579 0 -0.00051983480599693233 -0.012769796545601194 0 -0.00056709036388966072 -0.012828789464472022 0 -0.00051983480599693233 -0.012769796545601194 0 -0.00058849992074089382 -0.012734581664650978 0 -0.00065214493250951439 -0.012847344883919582 0 -0.00056709036388966072 -0.012828789464472022 0 -0.00058849992074089382 -0.012734581664650978 0 -0.00065214493250951439 -0.012847344883919582 0 -0.00058849992074089382 -0.012734581664650978 0 -0.00072088806521392274 -0.012758688964122309 0 -0.00078025659773928386 -0.012887804888647205 0 -0.00065214493250951439 -0.012847344883919582 0 -0.00072088806521392274 -0.012758688964122309 0 -0.00072088806521392274 -0.012758688964122309 0 -0.00080277193687642657 -0.012580130482330148 0 -0.00061035796179258791 -0.012604036625163732 0 -0.00058849992074089382 -0.012734581664650978 0 -0.00072088806521392274 -0.012758688964122309 0 -0.00061035796179258791 -0.012604036625163732 0 -0.00078025659773928386 -0.012887804888647205 0 -0.00084020955615897626 -0.012854150308417731 0 -0.00091326341436543236 -0.012945434782377162 0 -0.0013863176452077143 -0.013203414369748404 0 -0.0008576728611298704 -0.012987891821026063 0 -0.00079682804198652143 -0.012985643960537896 0 -0.00063474454664560402 -0.013124943798595095 0 -0.0017076243643956769 -0.013763703257469909 0 -0.0010406396118846286 -0.013619222548884953 0 -0.00089825861120366893 -0.013030848560072748 0 -0.00084020955615897626 -0.012854150308417731 0 -0.00080277193687642657 -0.012580130482330148 0 -0.00089825861120366893 -0.013030848560072748 0 -0.00084020955615897626 -0.012854150308417731 0 -0.00091326341436543236 -0.012945434782377162 0 -0.00089825861120366893 -0.013030848560072748 0 -0.00078025659773928386 -0.012887804888647205 0 -0.00072088806521392274 -0.012758688964122309 0 -0.00084020955615897626 -0.012854150308417731 0 -0.00072088806521392274 -0.012758688964122309 0 -0.00084020955615897626 -0.012854150308417731 0 -0.00080277193687642657 -0.012580130482330148 0 -0.0017076243643956769 -0.013763703257469909 0 -0.0013022355117785402 -0.014065529703367691 0 -0.0010406396118846286 -0.013619222548884953 0 -0.0017076243643956769 -0.013763703257469909 0 -0.0013022355117785402 -0.014065529703367691 0 -0.001619225893494911 -0.014193866072694912 0 -0.0013022355117785402 -0.014065529703367691 0 -0.00096031085202213592 -0.014010540126115427 0 -0.0010406396118846286 -0.013619222548884953 0 -0.0013022355117785402 -0.014065529703367691 0 -0.001143148187940355 -0.014284456525061979 0 -0.00096031085202213592 -0.014010540126115427 0 -0.0013863176452077143 -0.013203414369748404 0 -0.00056681746489192113 -0.01345380644781527 0 -0.00080277193687642657 -0.012580130482330148 0 -0.00057308567946078113 -0.012485915179202991 0 -0.00061035796179258791 -0.012604036625163732 0 -0.00080277193687642657 -0.012580130482330148 0 -0.00057308567946078113 -0.012485915179202991 0 -0.000526391760636439 -0.012299154186434303 0 -0.0017076243643956769 -0.013763703257469909 0 -0.0021451198206391409 -0.014439100100232204 0 -0.002430936870270867 -0.014342953554236964 0 -0.0017076243643956769 -0.013763703257469909 0 -0.0021451198206391409 -0.014439100100232204 0 -0.001619225893494911 -0.014193866072694912 0 -0.0021451198206391409 -0.014439100100232204 0 -0.001619225893494911 -0.014193866072694912 0 -0.001437140979358592 -0.014356078994375946 0 0.00084365438171987836 -0.014611133180622328 0 0.00082057279934701999 -0.014496381380900442 0 0.00095578669450207404 -0.014640867290989495 0 -0.00017518595041162747 -0.014467678888212283 0 0.00084382147261682623 -0.014629759062250834 0 -0.00017518595041162747 -0.014467678888212283 0 -0.00056681746489192113 -0.01345380644781527 0 0.00083984280210802501 -0.014674184597422807 0 0.00070791048354660571 -0.014607560227650234 0 0.00084365438171987836 -0.014611133180622328 0 0.00083984280210802501 -0.014674184597422807 0 0.00084365438171987836 -0.014611133180622328 0 0.00090183722717725092 -0.014674971075687181 0 -0.00017518595041162747 -0.014467678888212283 0 0.00038385587103929327 -0.014688149500822695 0 -5.1455116812654528e-05 -0.014623227147311364 0 2.9109007087591583e-05 -0.014648385788483428 0 2.5856661685448757e-05 -0.014638230646170945 0 -0.00017518595041162747 -0.014467678888212283 0 -0.00076099896132852582 -0.014610472161023635 0 -0.0021451198206391409 -0.014439100100232204 0 -0.001437140979358592 -0.014356078994375946 0 -0.0011573420130560931 -0.014597345115282287 0 0.00083984280210802501 -0.014674184597422807 0 0.00070791048354660571 -0.014607560227650234 0 0.00049577498150735872 -0.014645815033689299 0 -0.0013022355117785402 -0.014065529703367691 0 -0.001143148187940355 -0.014284456525061979 0 -0.001437140979358592 -0.014356078994375946 0 -0.001143148187940355 -0.014284456525061979 0 -0.001437140979358592 -0.014356078994375946 0 -0.0011573420130560931 -0.014597345115282287 0 -0.0013022355117785402 -0.014065529703367691 0 -0.001619225893494911 -0.014193866072694912 0 -0.001437140979358592 -0.014356078994375946 0 0.00065166837223278062 -0.014467015454094075 0 0.00082057279934701999 -0.014496381380900442 0 0.00065569659317355118 -0.014194743029194875 0 0.00049577498150735872 -0.014645815033689299 0 0.00059389223487795926 -0.014554487563654371 0 0.00051100203919038237 -0.014486925022814 0 0.00059389223487795926 -0.014554487563654371 0 0.00065166837223278062 -0.014467015454094075 0 0.00051100203919038237 -0.014486925022814 0 0.00070791048354660571 -0.014607560227650234 0 0.00059389223487795926 -0.014554487563654371 0 0.00065166837223278062 -0.014467015454094075 0 0.00070791048354660571 -0.014607560227650234 0 0.00049577498150735872 -0.014645815033689299 0 0.00059389223487795926 -0.014554487563654371 0 0.00051100203919038237 -0.014486925022814 0 0.00065569659317355118 -0.014194743029194875 0 0.00030150532625338383 -0.01443534951959223 0 0.00065166837223278062 -0.014467015454094075 0 0.00051100203919038237 -0.014486925022814 0 0.00065569659317355118 -0.014194743029194875 0 0.00044473344190533107 -0.013446240320493392 0 0.00027225008833498091 -0.013421616897502773 0 0.00070791048354660571 -0.014607560227650234 0 0.00084365438171987836 -0.014611133180622328 0 0.00082057279934701999 -0.014496381380900442 0 0.00070791048354660571 -0.014607560227650234 0 0.00065166837223278062 -0.014467015454094075 0 0.00082057279934701999 -0.014496381380900442 0 0.00044473344190533107 -0.013446240320493392 0 -7.7903250222352471e-05 -0.012977674256405853 0 -0.00010155709479593932 -0.012231903269993277 0 -0.00019636728031463679 -0.012185203210944875 0 -0.00018185432168470864 -0.012119363693417982 0 -0.00019636728031463679 -0.012185203210944875 0 -0.00018185432168470864 -0.012119363693417982 0 -0.0002068549424541068 -0.012106534983640936 0 -0.0004758343445301812 -0.012844478712041474 0 -0.00029911554154908934 -0.01300407857769793 0 -0.00020881389976048183 -0.01293774720353163 0 -0.00036126088284248311 -0.012405393922777945 0 -0.00056681746489192113 -0.01345380644781527 0 0.00084365438171987836 -0.014611133180622328 0 0.00095578669450207404 -0.014640867290989495 0 0.00090183722717725092 -0.014674971075687181 0 0.00074003128696744237 -0.014648474291550091 0 0.00090183722717725092 -0.014674971075687181 0 0.00089228210404700223 -0.014692749540351732 0 -7.7903250222352471e-05 -0.012977674256405853 0 -0.00056681746489192113 -0.01345380644781527 0 0.00095578669450207404 -0.014640867290989495 0 0.00090183722717725092 -0.014674971075687181 0 0.00089228210404700223 -0.014692749540351732 0 -0.00020037114171042518 -0.012100454151397298 0 -0.00035023516921580842 -0.01216566065348269 0 -0.00035259294683075284 -0.012058864119329602 0 -0.00035023516921580842 -0.01216566065348269 0 -0.00045836622877929817 -0.012065632141838046 0 -0.00035259294683075284 -0.012058864119329602 0 -0.00036126088284248311 -0.012405393922777945 0 -7.7903250222352471e-05 -0.012977674256405853 0 -0.00045836622877929817 -0.012065632141838046 0 -0.00035259294683075284 -0.012058864119329602 0 -0.000310788158137012 -0.011957632211706464 0 -7.7903250222352471e-05 -0.012977674256405853 0 -0.00022392420928921838 -0.011974670438422801 0 -0.00020378114947675153 -0.011988284403199247 0 -0.00035259294683075284 -0.012058864119329602 0 -0.000310788158137012 -0.011957632211706464 0 -0.00016666496690032992 -0.011893566054109872 0 -0.0002068549424541068 -0.012106534983640936 0 -0.00020240045827456767 -0.012037894087694789 0 -0.00019636728031463679 -0.012185203210944875 0 -0.0002068549424541068 -0.012106534983640936 0 -0.00020240045827456767 -0.012037894087694789 0 -0.00019636728031463679 -0.012185203210944875 0 -0.00020240045827456767 -0.012037894087694789 0 -0.00017000252939166694 -0.012188504926125001 0 -0.00019636728031463679 -0.012185203210944875 0 -0.00017000252939166694 -0.012188504926125001 0 -0.00011961086566967031 -0.012437456016282839 0 -0.0001316205318934071 -0.011671242895964794 0 -0.00020240045827456767 -0.012037894087694789 0 -0.00017000252939166694 -0.012188504926125001 0 -0.00017000252939166694 -0.012188504926125001 0 -1.1002704837372668e-06 -0.011369492179348281 0 -5.7413111568118548e-05 -0.012796436805460326 0 -0.0001316205318934071 -0.011671242895964794 0 -0.00017000252939166694 -0.012188504926125001 0 -1.1002704837372668e-06 -0.011369492179348281 0 3.0268210016884882e-07 -0.012926554738691455 0 -5.7413111568118548e-05 -0.012796436805460326 0 0.00013776696355928582 -0.013619940776036073 0 -1.1002704837372668e-06 -0.011369492179348281 0 3.0268210016884882e-07 -0.012926554738691455 0 -5.7413111568118548e-05 -0.012796436805460326 0 -5.7413111568118548e-05 -0.012796436805460326 0 1.9945799209030227e-05 -0.012691224420390831 0 0.00013776696355928582 -0.013619940776036073 0 -5.7413111568118548e-05 -0.012796436805460326 0 -0.00011961086566967031 -0.012437456016282839 0 1.9945799209030227e-05 -0.012691224420390831 0 -0.00017000252939166694 -0.012188504926125001 0 -5.7413111568118548e-05 -0.012796436805460326 0 -0.00011961086566967031 -0.012437456016282839 0 -0.00010155709479593932 -0.012231903269993277 0 -0.00011961086566967031 -0.012437456016282839 0 1.9945799209030227e-05 -0.012691224420390831 0 -0.00010155709479593932 -0.012231903269993277 0 -0.00019636728031463679 -0.012185203210944875 0 -0.00011961086566967031 -0.012437456016282839 0 0.00027225008833498091 -0.013421616897502773 0 0.00015949411672253251 -0.013550675997593698 0 1.8997657719639712e-05 -0.014355196761057626 0 0.00013776696355928582 -0.013619940776036073 0 0.00030150532625338383 -0.01443534951959223 0 0.00065569659317355118 -0.014194743029194875 0 0.00013776696355928582 -0.013619940776036073 0 0.00030150532625338383 -0.01443534951959223 0 -1.431729020099452e-07 -0.014998793177880627 0 -3.5170493616942402e-05 -0.014474899624063156 0 -1.3645002900533192e-07 -0.014999149521048643 0 3.0268210016884882e-07 -0.012926554738691455 0 -1.431729020099452e-07 -0.014998793177880627 0 -3.5170493616942402e-05 -0.014474899624063156 0 1.8997657719639712e-05 -0.014355196761057626 0 0.00013776696355928582 -0.013619940776036073 0 -3.5170493616942402e-05 -0.014474899624063156 0 3.0268210016884882e-07 -0.012926554738691455 0 0.00013776696355928582 -0.013619940776036073 0 -3.5170493616942402e-05 -0.014474899624063156 0 1.8997657719639712e-05 -0.014355196761057626 0 -3.5170493616942402e-05 -0.014474899624063156 0 -2.9146610803924266e-05 -0.014656606664759458 0 -3.5170493616942402e-05 -0.014474899624063156 0 -1.3645002900533192e-07 -0.014999149521048643 0 -2.9146610803924266e-05 -0.014656606664759458 0 -1.3645002900533192e-07 -0.014999149521048643 0 -2.9001808863273458e-05 -0.014840526687890244 0 -2.9146610803924266e-05 -0.014656606664759458 0 -1.3645002900533192e-07 -0.014999149521048643 0 9.2772762877912926e-08 -0.014999921710929266 0 -2.9001808863273458e-05 -0.014840526687890244 0 -6.3631236513685597e-08 -0.014999907554385922 0 -3.3025846816671652e-05 -0.014861846502283345 0 9.2772762877912926e-08 -0.014999921710929266 0 -5.2658656207981219e-05 -0.014686693405513079 0 -2.9001808863273458e-05 -0.014840526687890244 0 -5.2658656207981219e-05 -0.014686693405513079 0 -2.9001808863273458e-05 -0.014840526687890244 0 -0.00025096448504667709 -0.014739422005467509 0 -5.2413948861902022e-05 -0.014808478522971361 0 -7.7557878102920959e-05 -0.014712095639600256 0 4.4582047305495956e-06 -0.014705166753637061 0 -2.9001808863273458e-05 -0.014840526687890244 0 3.6642829476106303e-05 -0.014652455111845019 0 4.4582047305495956e-06 -0.014705166753637061 0 -2.9001808863273458e-05 -0.014840526687890244 0 -2.9146610803924266e-05 -0.014656606664759458 0 4.4582047305495956e-06 -0.014705166753637061 0 -2.9146610803924266e-05 -0.014656606664759458 0 3.7739656444134625e-05 -0.014626921076043796 0 1.8997657719639712e-05 -0.014355196761057626 0 3.7739656444134625e-05 -0.014626921076043796 0 0.00030150532625338383 -0.01443534951959223 0 1.8997657719639712e-05 -0.014355196761057626 0 -2.9146610803924266e-05 -0.014656606664759458 0 3.7739656444134625e-05 -0.014626921076043796 0 4.4582047305495956e-06 -0.014705166753637061 0 3.7739656444134625e-05 -0.014626921076043796 0 3.6642829476106303e-05 -0.014652455111845019 0 0.00038385587103929327 -0.014688149500822695 0 -9.9768170074489286e-06 -0.014601877544803767 0 2.9109007087591583e-05 -0.014648385788483428 0 3.7739656444134625e-05 -0.014626921076043796 0 3.6642829476106303e-05 -0.014652455111845019 0 0.00049577498150735872 -0.014645815033689299 0 3.7739656444134625e-05 -0.014626921076043796 0 0.00030150532625338383 -0.01443534951959223 0 0.00049577498150735872 -0.014645815033689299 0 0.00051100203919038237 -0.014486925022814 0 0.00030150532625338383 -0.01443534951959223 0 -0.00076099896132852582 -0.014610472161023635 0 -7.7557878102920959e-05 -0.014712095639600256 0 -0.0011573420130560931 -0.014597345115282287 0 -0.00084416897382245991 -0.014364759872016694 0 -0.00025096448504667709 -0.014739422005467509 0 2.9109007087591583e-05 -0.014648385788483428 0 2.5856661685448757e-05 -0.014638230646170945 0 3.6642829476106303e-05 -0.014652455111845019 0 -0.00084416897382245991 -0.014364759872016694 0 -0.00025096448504667709 -0.014739422005467509 0 -0.0004425846213639316 -0.014457988605802906 0 -0.00084416897382245991 -0.014364759872016694 0 -0.0004425846213639316 -0.014457988605802906 0 -0.00064682690725454284 -0.01391080704499134 0 -0.001143148187940355 -0.014284456525061979 0 -0.0011573420130560931 -0.014597345115282287 0 -0.00084416897382245991 -0.014364759872016694 0 -0.001143148187940355 -0.014284456525061979 0 -0.00084416897382245991 -0.014364759872016694 0 -0.00096031085202213592 -0.014010540126115427 0 -5.2658656207981219e-05 -0.014686693405513079 0 -0.00025096448504667709 -0.014739422005467509 0 -0.00025016268946241517 -0.014582287253989155 0 -5.2658656207981219e-05 -0.014686693405513079 0 -0.00025016268946241517 -0.014582287253989155 0 -0.00031599632036812702 -0.014436637463472349 0 -0.0004425846213639316 -0.014457988605802906 0 -0.00025016268946241517 -0.014582287253989155 0 -0.00031599632036812702 -0.014436637463472349 0 -0.00025096448504667709 -0.014739422005467509 0 -0.0004425846213639316 -0.014457988605802906 0 -0.00025016268946241517 -0.014582287253989155 0 -0.00030993306574587351 -0.014443902847637054 0 -0.00020352687185896389 -0.014454727325116334 0 -0.00023967098125626498 -0.013919169567738776 0 -0.00056754406732188809 -0.013457775502163868 0 -0.00020066198669605324 -0.013381774806189507 0 -3.3025846816671652e-05 -0.014861846502283345 0 -0.00020352687185896389 -0.014454727325116334 0 -0.0004425846213639316 -0.014457988605802906 0 -0.00017723760902072817 -0.014058435768273437 0 -0.00064682690725454284 -0.01391080704499134 0 -0.00084416897382245991 -0.014364759872016694 0 -0.00096031085202213592 -0.014010540126115427 0 -0.00064682690725454284 -0.01391080704499134 0 -0.00096031085202213592 -0.014010540126115427 0 -0.00064682690725454284 -0.01391080704499134 0 -0.0008002291105906952 -0.013686185167410875 0 -0.00020352687185896389 -0.014454727325116334 0 -0.0006002299414224403 -0.014077053966802595 0 -0.00023967098125626498 -0.013919169567738776 0 -0.00064682690725454284 -0.01391080704499134 0 -0.00056754406732188809 -0.013457775502163868 0 -0.00064682690725454284 -0.01391080704499134 0 -0.0008002291105906952 -0.013686185167410875 0 -0.00056754406732188809 -0.013457775502163868 0 -0.0008002291105906952 -0.013686185167410875 0 -0.00080871609104920736 -0.013444532404672856 0 -0.00056754406732188809 -0.013457775502163868 0 -0.00096031085202213592 -0.014010540126115427 0 -0.0008002291105906952 -0.013686185167410875 0 -0.0010406396118846286 -0.013619222548884953 0 -0.0008002291105906952 -0.013686185167410875 0 -0.0010406396118846286 -0.013619222548884953 0 -0.00080871609104920736 -0.013444532404672856 0 -0.00063474454664560402 -0.013124943798595095 0 -0.00025917862990459299 -0.013329240386226834 0 -0.00027524630359801835 -0.013180314726659422 0 -0.00042910670643647774 -0.013258772955359013 0 -0.00020066198669605324 -0.013381774806189507 0 -0.00056754406732188809 -0.013457775502163868 0 -0.00089825861120366893 -0.013030848560072748 0 -0.00020066198669605324 -0.013381774806189507 0 -0.00091326341436543236 -0.012945434782377162 0 -0.00089825861120366893 -0.013030848560072748 0 -0.00020066198669605324 -0.013381774806189507 0 -0.00080871609104920736 -0.013444532404672856 0 -0.00056754406732188809 -0.013457775502163868 0 -0.00089825861120366893 -0.013030848560072748 0 -0.0010406396118846286 -0.013619222548884953 0 -0.00080871609104920736 -0.013444532404672856 0 -0.00089825861120366893 -0.013030848560072748 0 -0.00027524630359801835 -0.013180314726659422 0 -0.00020066198669605324 -0.013381774806189507 0 4.5373806244751558e-05 -0.013235224665386026 0 -0.00023967098125626498 -0.013919169567738776 0 -0.00020066198669605324 -0.013381774806189507 0 4.5373806244751558e-05 -0.013235224665386026 0 -0.00020352687185896389 -0.014454727325116334 0 6.5962894239375802e-05 -0.014047237725868621 0 8.8804833569221069e-07 -0.014993725807312125 0 2.5956830256442729e-06 -0.0149913954609583 0 1.5880393597561669e-09 -0.014999988838775232 0 -1.8372567967259241e-10 -0.014999993351525045 0 8.8804833569221069e-07 -0.014993725807312125 0 1.5880393597561669e-09 -0.014999988838775232 0 8.8804833569221069e-07 -0.014993725807312125 0 8.8648743728863364e-07 -0.014987709148074554 0 2.5956830256442729e-06 -0.0149913954609583 0 0.00027528358768496826 -0.0045552971286065948 0 0.00025492219101024797 -0.0044511819284928245 0 0.0003583202161350386 -0.0044606633553233395 0 0.00027528358768496826 -0.0045552971286065948 0 0.0003583202161350386 -0.0044606633553233395 0 0.00041565049778779074 -0.0045302214191457217 0 0.000342494324642014 -0.0035023581387906492 0 0.00043084503948879701 -0.0033640484527662244 0 0.00027528358768496826 -0.0045552971286065948 0 0.00041565049778779074 -0.0045302214191457217 0 0.00034849088736930327 -0.00461591494236256 0 0.00028597607545504013 -0.0024551864548537582 0 0.00023126726285710789 -0.0022912555759910516 0 0.00042208205883716724 -0.002232336076998387 0 0.00027528358768496826 -0.0045552971286065948 0 0.00027886330178356853 -0.0046263809901602873 0 0.00034849088736930327 -0.00461591494236256 0 0.00027528358768496826 -0.0045552971286065948 0 0.00027886330178356853 -0.0046263809901602873 0 0.00020418295620039135 -0.0046358053519209245 0 0.00027528358768496826 -0.0045552971286065948 0 0.00018473134223192497 -0.004519975420922989 0 0.00020418295620039135 -0.0046358053519209245 0 -0.00022734084676961537 -0.0050241956597992356 0 -9.5895812484146493e-05 -0.0054481749242844841 0 0.00011079747857307824 -0.0045670025336675517 0 0.00018473134223192497 -0.004519975420922989 0 0.00020418295620039135 -0.0046358053519209245 0 0.00011079747857307824 -0.0045670025336675517 0 0.00018473134223192497 -0.004519975420922989 0 0.00010188915774267155 -0.0044798038917389068 0 0.00027528358768496826 -0.0045552971286065948 0 0.00018473134223192497 -0.004519975420922989 0 0.00025492219101024797 -0.0044511819284928245 0 0.00018473134223192497 -0.004519975420922989 0 0.0001626422519866284 -0.0044152807916236284 0 0.00025492219101024797 -0.0044511819284928245 0 0.00018473134223192497 -0.004519975420922989 0 0.0001626422519866284 -0.0044152807916236284 0 0.00010188915774267155 -0.0044798038917389068 0 0.0001626422519866284 -0.0044152807916236284 0 3.985302744290724e-05 -0.004381110726677611 0 0.00015673369793520661 -0.0043117752241289822 0 0.0001626422519866284 -0.0044152807916236284 0 0.00025332916679353 -0.0043446126057095167 0 0.00025492219101024797 -0.0044511819284928245 0 0.0001626422519866284 -0.0044152807916236284 0 0.00025332916679353 -0.0043446126057095167 0 0.00015673369793520661 -0.0043117752241289822 0 0.00025332916679353 -0.0043446126057095167 0 0.00025492219101024797 -0.0044511819284928245 0 0.00036708370164966202 -0.0043676301797129242 0 0.00025492219101024797 -0.0044511819284928245 0 0.0003583202161350386 -0.0044606633553233395 0 0.00036708370164966202 -0.0043676301797129242 0 0.0003583202161350386 -0.0044606633553233395 0 0.00036708370164966202 -0.0043676301797129242 0 0.00048896575553123258 -0.0044382608255535546 0 0.00036708370164966202 -0.0043676301797129242 0 0.00046525830779146042 -0.0043281755753482587 0 0.00048896575553123258 -0.0044382608255535546 0 0.00020754155578643328 -0.0034845176873435197 0 0.00032361155370796009 -0.0035681457564495011 0 0.00046525830779146042 -0.0043281755753482587 0 0.00055756956737787163 -0.004340793311840555 0 0.00048896575553123258 -0.0044382608255535546 0 1.4695509677732728e-05 -0.002880510503766177 0 0.00014936179262056029 -0.0026691888721016481 0 -7.7896726414626971e-06 -0.0025749497620359838 0 0.0005360622288734597 -0.0017542495845113578 0 0.00053233353107249573 -0.0018701379392307995 0 0.00045849727745855227 -0.0017589729245601601 0 0.00064359066107536023 -0.0024108649720337117 0 0.00064501259360676339 -0.0018045963431008469 0 0.00086820686210138827 -0.0022493810040077056 0 0.0011506308550009198 -0.0023645205444934362 0 0.00079199051805007789 -0.0019385189096047038 0 0.00014447813392577688 -0.00224061809437286 0 0.00064359066107536023 -0.0024108649720337117 0 1.962583664093659e-05 -0.0028660977069625638 0 -0.00010812797110079219 -0.0028099289628967946 0 -0.00015904779303742482 -0.0029650166311906362 0 0.00020754155578643328 -0.0034845176873435197 0 -0.00024849394518675039 -0.002501664593193678 0 -0.00010812797110079219 -0.0028099289628967946 0 -0.00015424270325705723 -0.0027178479791833744 0 -0.00015904779303742482 -0.0029650166311906362 0 1.962583664093659e-05 -0.0028660977069625638 0 -0.00010812797110079219 -0.0028099289628967946 0 -0.00013827723114580065 -0.0026894123819332285 0 1.4695509677732728e-05 -0.002880510503766177 0 -0.00013827723114580065 -0.0026894123819332285 0 -7.7896726414626971e-06 -0.0025749497620359838 0 -0.00013827723114580065 -0.0026894123819332285 0 -0.00015424270325705723 -0.0027178479791833744 0 -0.00014680913957971882 -0.0024517292135314644 0 -0.00010812797110079219 -0.0028099289628967946 0 -0.00013827723114580065 -0.0026894123819332285 0 -0.00015424270325705723 -0.0027178479791833744 0 0.0005360622288734597 -0.0017542495845113578 0 0.00049830160578823168 -0.0017048252455268773 0 0.00045849727745855227 -0.0017589729245601601 0 0.00049830160578823168 -0.0017048252455268773 0 0.00045849727745855227 -0.0017589729245601601 0 0.00046154923541203189 -0.0016951139117050513 0 0.00047122901905113321 -0.0016658601431631256 0 0.00049830160578823168 -0.0017048252455268773 0 0.00052760674898181897 -0.0016692651917218945 0 0.00047122901905113321 -0.0016658601431631256 0 0.00049830160578823168 -0.0017048252455268773 0 0.00046154923541203189 -0.0016951139117050513 0 -0.00014680913957971882 -0.0024517292135314644 0 -7.7896726414626971e-06 -0.0025749497620359838 0 -9.0626525388814217e-06 -0.0023615397319002524 0 0.00014447813392577688 -0.00224061809437286 0 0.00019138731964276462 -0.0020621590713556267 0 0.0005360622288734597 -0.0017542495845113578 0 0.00049830160578823168 -0.0017048252455268773 0 0.00052760674898181897 -0.0016692651917218945 0 -0.00013827723114580065 -0.0026894123819332285 0 -0.00014680913957971882 -0.0024517292135314644 0 -7.7896726414626971e-06 -0.0025749497620359838 0 -0.00014680913957971882 -0.0024517292135314644 0 -9.0626525388814217e-06 -0.0023615397319002524 0 -0.00013163465761254278 -0.0021787751793606838 0 0.00052760674898181897 -0.0016692651917218945 0 0.00048332081216762593 -0.0016309753688769555 0 0.00052564210109390982 -0.001609503194661278 0 0.00019138731964276462 -0.0020621590713556267 0 0.00024056865757006855 -0.0018835030505251723 0 0.00047122901905113321 -0.0016658601431631256 0 0.00052760674898181897 -0.0016692651917218945 0 0.00048332081216762593 -0.0016309753688769555 0 0.00032361155370796009 -0.0035681457564495011 0 0.000342494324642014 -0.0035023581387906492 0 0.0003583202161350386 -0.0044606633553233395 0 0.00048896575553123258 -0.0044382608255535546 0 0.00041565049778779074 -0.0045302214191457217 0 0.00014936179262056029 -0.0026691888721016481 0 0.00028597607545504013 -0.0024551864548537582 0 0.00012125948890845741 -0.0024742184935729562 0 0.00012125948890845741 -0.0024742184935729562 0 -7.7896726414626971e-06 -0.0025749497620359838 0 -9.0626525388814217e-06 -0.0023615397319002524 0 0.00014936179262056029 -0.0026691888721016481 0 0.00012125948890845741 -0.0024742184935729562 0 -7.7896726414626971e-06 -0.0025749497620359838 0 0.00012125948890845741 -0.0024742184935729562 0 -9.0626525388814217e-06 -0.0023615397319002524 0 9.035104754168431e-05 -0.0022868948092760618 0 -9.0626525388814217e-06 -0.0023615397319002524 0 2.1894386101841766e-05 -0.0022013596841201338 0 -0.00013163465761254278 -0.0021787751793606838 0 -9.0626525388814217e-06 -0.0023615397319002524 0 9.035104754168431e-05 -0.0022868948092760618 0 2.1894386101841766e-05 -0.0022013596841201338 0 0.00012125948890845741 -0.0024742184935729562 0 9.035104754168431e-05 -0.0022868948092760618 0 0.00023126726285710789 -0.0022912555759910516 0 9.035104754168431e-05 -0.0022868948092760618 0 0.00023126726285710789 -0.0022912555759910516 0 0.00013728418686695753 -0.0021865853248359359 0 0.00028597607545504013 -0.0024551864548537582 0 0.00012125948890845741 -0.0024742184935729562 0 0.00023126726285710789 -0.0022912555759910516 0 0.00025927421239452583 -0.0021174793941141638 0 0.00013728418686695753 -0.0021865853248359359 0 7.2110362457952811e-05 -0.0020494949442790475 0 0.00023126726285710789 -0.0022912555759910516 0 0.00025927421239452583 -0.0021174793941141638 0 0.00013728418686695753 -0.0021865853248359359 0 9.035104754168431e-05 -0.0022868948092760618 0 0.00013728418686695753 -0.0021865853248359359 0 2.1894386101841766e-05 -0.0022013596841201338 0 0.00014444508143842061 -0.0019661102046854254 0 0.00024056865757006855 -0.0018835030505251723 0 2.1894386101841766e-05 -0.0022013596841201338 0 7.2110362457952811e-05 -0.0020494949442790475 0 -0.00013163465761254278 -0.0021787751793606838 0 0.00013728418686695753 -0.0021865853248359359 0 2.1894386101841766e-05 -0.0022013596841201338 0 7.2110362457952811e-05 -0.0020494949442790475 0 0.00030128207642676497 -0.0017848273201478556 0 0.00028268371291961862 -0.001834359931322417 0 0.00027174388051536192 -0.0018459770117892017 0 0.00028388326270582998 -0.0018451129339882221 0 0.00028137343034481454 -0.0018439153174372002 0 0.00027174388051536192 -0.0018459770117892017 0 0.00029387389790068284 -0.0019005282643495532 0 0.00028137343034481454 -0.0018439153174372002 0 0.00025927421239452583 -0.0021174793941141638 0 7.2110362457952811e-05 -0.0020494949442790475 0 0.00029387389790068284 -0.0019005282643495532 0 0.00014444508143842061 -0.0019661102046854254 0 0.00029948866373585213 -0.0018910413811645225 0 0.00038130240145129471 -0.0016888321866558877 0 0.00038853211871999355 -0.001749403413388022 0 0.00029934669269772007 -0.0017469471242923874 0 0.00047295392631170114 -0.0016298745443533871 0 0.00024056865757006855 -0.0018835030505251723 0 0.00027174388051536192 -0.0018459770117892017 0 0.00029802473276719949 -0.0017897438855858558 0 0.00029746442308183649 -0.0018070433516719825 0 0.00038853211871999355 -0.001749403413388022 0 0.00029934669269772007 -0.0017469471242923874 0 0.00029746442308183649 -0.0018070433516719825 0 0.00024056865757006855 -0.0018835030505251723 0 0.00027825703542687494 -0.0017840870797889916 0 0.00038853211871999355 -0.001749403413388022 0 0.00029746442308183649 -0.0018070433516719825 0 0.00028388326270582998 -0.0018451129339882221 0 0.0003093060613497415 -0.0017240810871508466 0 0.00034210321779972071 -0.0017371565167622687 0 0.00036339174924153006 -0.0017051002046316287 0 0.00027174388051536192 -0.0018459770117892017 0 0.00029746442308183649 -0.0018070433516719825 0 0.00028388326270582998 -0.0018451129339882221 0 0.0003093060613497415 -0.0017240810871508466 0 0.00034210321779972071 -0.0017371565167622687 0 0.00031757496491190449 -0.0017688920102510426 0 0.00038631262332630538 -0.001702105318680416 0 0.00030128207642676497 -0.0017848273201478556 0 0.0003913104311723614 -0.0016522389469590414 0 0.0003093060613497415 -0.0017240810871508466 0 0.00036339174924153006 -0.0017051002046316287 0 0.00034210321779972071 -0.0017371565167622687 0 0.00036339174924153006 -0.0017051002046316287 0 0.00037294422858237514 -0.0017267069530128014 0 0.00036339174924153006 -0.0017051002046316287 0 0.00037294422858237514 -0.0017267069530128014 0 0.00040134051967877758 -0.0016844398667221886 0 0.0003913104311723614 -0.0016522389469590414 0 0.00036339174924153006 -0.0017051002046316287 0 0.00040134051967877758 -0.0016844398667221886 0 0.00036495108743250836 -0.0017634577036832043 0 0.00036854096782112331 -0.0018023289523093451 0 0.00041817799704246171 -0.0017163181490932821 0 0.00037294422858237514 -0.0017267069530128014 0 0.00036495108743250836 -0.0017634577036832043 0 0.00041817799704246171 -0.0017163181490932821 0 0.00037294422858237514 -0.0017267069530128014 0 0.00036495108743250836 -0.0017634577036832043 0 0.00034134481495548628 -0.0017607255705605674 0 0.00034210321779972071 -0.0017371565167622687 0 0.00037294422858237514 -0.0017267069530128014 0 0.00034134481495548628 -0.0017607255705605674 0 0.00036495108743250836 -0.0017634577036832043 0 0.00034134481495548628 -0.0017607255705605674 0 0.00033693197327273753 -0.0017851359750924172 0 0.00032363895341010787 -0.0017826546895780557 0 0.00034134481495548628 -0.0017607255705605674 0 0.00033693197327273753 -0.0017851359750924172 0 0.00032363895341010787 -0.0017826546895780557 0 0.00034134481495548628 -0.0017607255705605674 0 0.00031757496491190449 -0.0017688920102510426 0 0.00034210321779972071 -0.0017371565167622687 0 0.00034134481495548628 -0.0017607255705605674 0 0.00031757496491190449 -0.0017688920102510426 0 0.0003093060613497415 -0.0017240810871508466 0 0.00031757496491190449 -0.0017688920102510426 0 0.00029890179137383426 -0.0017970863959955951 0 0.00032363895341010787 -0.0017826546895780557 0 0.00031757496491190449 -0.0017688920102510426 0 0.00030586398983229655 -0.001798685935198408 0 0.00032023475617060988 -0.0017992440673813297 0 0.00030586398983229655 -0.001798685935198408 0 0.00030599365454479392 -0.0018123335611701114 0 0.00032363895341010787 -0.0017826546895780557 0 0.00032023475617060988 -0.0017992440673813297 0 0.00030586398983229655 -0.001798685935198408 0 0.00032173118896542242 -0.0018144182651831117 0 0.00032023475617060988 -0.0017992440673813297 0 0.00030599365454479392 -0.0018123335611701114 0 0.00032173118896542242 -0.0018144182651831117 0 0.00032023475617060988 -0.0017992440673813297 0 0.00033869305381134491 -0.0017988177477651275 0 0.00032023475617060988 -0.0017992440673813297 0 0.00033693197327273753 -0.0017851359750924172 0 0.00033869305381134491 -0.0017988177477651275 0 0.00032363895341010787 -0.0017826546895780557 0 0.00032023475617060988 -0.0017992440673813297 0 0.00033693197327273753 -0.0017851359750924172 0 0.00032173118896542242 -0.0018144182651831117 0 0.00033869305381134491 -0.0017988177477651275 0 0.00036075961794489934 -0.0017988239067653516 0 0.00036495108743250836 -0.0017634577036832043 0 0.00035403466663176626 -0.0017930753377648004 0 0.00036854096782112331 -0.0018023289523093451 0 0.00036495108743250836 -0.0017634577036832043 0 0.00033693197327273753 -0.0017851359750924172 0 0.00035403466663176626 -0.0017930753377648004 0 0.00033693197327273753 -0.0017851359750924172 0 0.00033869305381134491 -0.0017988177477651275 0 0.00035403466663176626 -0.0017930753377648004 0 0.00033869305381134491 -0.0017988177477651275 0 0.00035403466663176626 -0.0017930753377648004 0 0.00036075961794489934 -0.0017988239067653516 0 0.00062919562782196752 -0.0011149040631599355 0 -3.3060455449726029e-06 -2.743333110511532e-05 0 0.00028137343034481454 -0.0018439153174372002 0 0.00029122801121971356 -0.0018208979227297886 0 0.0003037542196522919 -0.0018379981008603539 0 0.00030308982486314647 -0.0018600520920613679 0 0.0003037542196522919 -0.0018379981008603539 0 0.00031760658391980341 -0.0018516651303482428 0 0.00030308982486314647 -0.0018600520920613679 0 0.00028137343034481454 -0.0018439153174372002 0 0.0003037542196522919 -0.0018379981008603539 0 0.00029387389790068284 -0.0019005282643495532 0 0.00030308982486314647 -0.0018600520920613679 0 0.00028137343034481454 -0.0018439153174372002 0 0.00029387389790068284 -0.0019005282643495532 0 0.00030308982486314647 -0.0018600520920613679 0 0.00032294373034878044 -0.0018791816734071839 0 0.0003093060613497415 -0.0017240810871508466 0 0.00028137343034481454 -0.0018439153174372002 0 0.00029890179137383426 -0.0017970863959955951 0 0.00031757496491190449 -0.0017688920102510426 0 0.00029890179137383426 -0.0017970863959955951 0 0.00030586398983229655 -0.001798685935198408 0 0.00029890179137383426 -0.0017970863959955951 0 0.00030586398983229655 -0.001798685935198408 0 0.00029122801121971356 -0.0018208979227297886 0 0.00028137343034481454 -0.0018439153174372002 0 0.00029890179137383426 -0.0017970863959955951 0 0.00029122801121971356 -0.0018208979227297886 0 0.00029865631613787007 -0.0018248682680788418 0 0.00029122801121971356 -0.0018208979227297886 0 0.00030599365454479392 -0.0018123335611701114 0 0.00030586398983229655 -0.001798685935198408 0 0.00029122801121971356 -0.0018208979227297886 0 0.00030599365454479392 -0.0018123335611701114 0 0.00029122801121971356 -0.0018208979227297886 0 0.00030224446278953018 -0.0018218980210712137 0 0.0003037542196522919 -0.0018379981008603539 0 0.00029865631613787007 -0.0018248682680788418 0 0.00029122801121971356 -0.0018208979227297886 0 0.00030224446278953018 -0.0018218980210712137 0 0.00030224446278953018 -0.0018218980210712137 0 0.000346781305604515 -0.0018423843069784835 0 0.00032140301107700113 -0.0018495886297310688 0 0.00030224446278953018 -0.0018218980210712137 0 0.0003037542196522919 -0.0018379981008603539 0 0.00032140301107700113 -0.0018495886297310688 0 0.00025283482037124133 -0.002059970104706758 0 9.3115936596430016e-05 -0.0028375661889285318 0 5.2734489998556297e-05 -0.0022513996460513551 0 4.9476406841177499e-06 -0.0020180114027796587 0 -0.00031264140084325887 -0.0021358784848689665 0 5.2734489998556297e-05 -0.0022513996460513551 0 4.9476406841177499e-06 -0.0020180114027796587 0 0.00031804109419155188 -0.0018681591758265897 0 4.9476406841177499e-06 -0.0020180114027796587 0 5.9410780201413439e-05 -0.0018470494280359816 0 0.00031804109419155188 -0.0018681591758265897 0 9.3115936596430016e-05 -0.0028375661889285318 0 0.00043044569180807502 -0.0016335513269182947 0 4.9476406841177499e-06 -0.0020180114027796587 0 5.9410780201413439e-05 -0.0018470494280359816 0 -0.00013168240199517059 -0.0018653505639316373 0 0.000346781305604515 -0.0018423843069784835 0 0.00032140301107700113 -0.0018495886297310688 0 0.00031804109419155188 -0.0018681591758265897 0 0.00031760658391980341 -0.0018516651303482428 0 0.00032140301107700113 -0.0018495886297310688 0 0.00034602274320752382 -0.0018682817969604664 0 0.00032140301107700113 -0.0018495886297310688 0 0.00031804109419155188 -0.0018681591758265897 0 0.00034602274320752382 -0.0018682817969604664 0 0.0003037542196522919 -0.0018379981008603539 0 0.00031760658391980341 -0.0018516651303482428 0 0.00032140301107700113 -0.0018495886297310688 0 0.00034602274320752382 -0.0018682817969604664 0 0.00032294373034878044 -0.0018791816734071839 0 0.00037424863501347061 -0.0019378175820223375 0 0.00034602274320752382 -0.0018682817969604664 0 0.00032026334043402444 -0.0018635599224886309 0 0.00032294373034878044 -0.0018791816734071839 0 0.00031760658391980341 -0.0018516651303482428 0 0.00034602274320752382 -0.0018682817969604664 0 0.00032026334043402444 -0.0018635599224886309 0 0.00030308982486314647 -0.0018600520920613679 0 0.00031760658391980341 -0.0018516651303482428 0 0.00032026334043402444 -0.0018635599224886309 0 0.00030308982486314647 -0.0018600520920613679 0 0.00032026334043402444 -0.0018635599224886309 0 0.00032294373034878044 -0.0018791816734071839 0 0.00031804109419155188 -0.0018681591758265897 0 0.00034602274320752382 -0.0018682817969604664 0 3.9426749413591803e-05 -0.0016379211591984514 0 0.00029387389790068284 -0.0019005282643495532 0 0.00032294373034878044 -0.0018791816734071839 0 0.00037424863501347061 -0.0019378175820223375 0 0.00034602274320752382 -0.0018682817969604664 0 0.00037424863501347061 -0.0019378175820223375 0 0.00054343696203422757 -0.0020123927542916396 0 0.00025927421239452583 -0.0021174793941141638 0 0.00029387389790068284 -0.0019005282643495532 0 0.00037894979973880389 -0.002034942931706201 0 0.00029387389790068284 -0.0019005282643495532 0 0.00037894979973880389 -0.002034942931706201 0 0.00037424863501347061 -0.0019378175820223375 0 0.00037894979973880389 -0.002034942931706201 0 0.00037424863501347061 -0.0019378175820223375 0 0.00054343696203422757 -0.0020123927542916396 0 0.00018483247251973814 -0.0013693273092776656 0 0.00016420317797654252 -0.0036222716895844935 0 5.9410780201413439e-05 -0.0018470494280359816 0 0.00031804109419155188 -0.0018681591758265897 0 3.9426749413591803e-05 -0.0016379211591984514 0 5.9410780201413439e-05 -0.0018470494280359816 0 3.9426749413591803e-05 -0.0016379211591984514 0 -0.00013168240199517059 -0.0018653505639316373 0 0.00016420317797654252 -0.0036222716895844935 0 -0.00029981314044571041 -0.0038184831117167206 0 0.00016420317797654252 -0.0036222716895844935 0 0.00043084503948879701 -0.0033640484527662244 0 0.0002877472972512833 -0.0046947719620691244 0 0.00027886330178356853 -0.0046263809901602873 0 0.00020418295620039135 -0.0046358053519209245 0 0.0002877472972512833 -0.0046947719620691244 0 0.00027886330178356853 -0.0046263809901602873 0 0.00034849088736930327 -0.00461591494236256 0 0.00025927421239452583 -0.0021174793941141638 0 0.00037894979973880389 -0.002034942931706201 0 0.00042208205883716724 -0.002232336076998387 0 0.00023126726285710789 -0.0022912555759910516 0 0.00025927421239452583 -0.0021174793941141638 0 0.00042208205883716724 -0.002232336076998387 0 0.00037894979973880389 -0.002034942931706201 0 0.00054343696203422757 -0.0020123927542916396 0 0.00042208205883716724 -0.002232336076998387 0 -0.0004918242389686505 -0.0057503494900534051 0 -0.00050610454268139684 -0.0057686855062197969 0 -0.00052056295105152477 -0.0057782045650668617 0 -0.00051110411393116395 -0.0057328381458321325 0 -0.0004918242389686505 -0.0057503494900534051 0 -0.00052056295105152477 -0.0057782045650668617 0 -0.00047662894052561067 -0.0057449796014386097 0 -0.0004918242389686505 -0.0057503494900534051 0 -0.00049182010983205536 -0.0057587011464202212 0 0.00016420317797654252 -0.0036222716895844935 0 -9.5895812484146493e-05 -0.0054481749242844841 0 -0.0004918242389686505 -0.0057503494900534051 0 -0.00049182010983205536 -0.0057587011464202212 0 -0.00050610454268139684 -0.0057686855062197969 0 -0.00047662894052561067 -0.0057449796014386097 0 -0.00049182010983205536 -0.0057587011464202212 0 -0.00048496557389306216 -0.0057607704072040068 0 -0.00049182010983205536 -0.0057587011464202212 0 -0.00050610454268139684 -0.0057686855062197969 0 -0.0005000754956071932 -0.0057698811627865301 0 -0.00049182010983205536 -0.0057587011464202212 0 -0.00048496557389306216 -0.0057607704072040068 0 -0.0005000754956071932 -0.0057698811627865301 0 -0.00050610454268139684 -0.0057686855062197969 0 -0.0005000754956071932 -0.0057698811627865301 0 -0.00053044448194922091 -0.0057890985677503054 0 -0.00050316795014875883 -0.0042295670517867477 0 -0.00026840857667166375 -0.0055237013908467315 0 -0.0005000754956071932 -0.0057698811627865301 0 -0.00049442764184981589 -0.0057743502141388257 0 -0.00053044448194922091 -0.0057890985677503054 0 4.9476406841177499e-06 -0.0020180114027796587 0 -0.00013168240199517059 -0.0018653505639316373 0 -0.00031264140084325887 -0.0021358784848689665 0 -0.00048496557389306216 -0.0057607704072040068 0 -0.0005000754956071932 -0.0057698811627865301 0 -0.00049442764184981589 -0.0057743502141388257 0 -0.00029981314044571041 -0.0038184831117167206 0 -0.00050316795014875883 -0.0042295670517867477 0 -0.00048766834335534906 -0.0046008043773055254 0 -0.00037285396173756109 -0.0046476132450587243 0 -0.00038663029275940993 -0.0045699326101005834 0 -0.00027832203778401302 -0.00455860716506173 0 -0.00037285396173756109 -0.0046476132450587243 0 -0.00038663029275940993 -0.0045699326101005834 0 9.3115936596430016e-05 -0.0028375661889285318 0 -0.00050316795014875883 -0.0042295670517867477 0 -0.00039595572649319777 -0.0044642756315608004 0 -0.00048766834335534906 -0.0046008043773055254 0 -0.00038663029275940993 -0.0045699326101005834 0 -0.00027832203778401302 -0.00455860716506173 0 -0.00043208187782940109 -0.0047845506428230268 0 -9.6436651673977893e-05 -0.0049174848613147545 0 -0.00033086532785482202 -0.0047001482660542424 0 -0.00050316795014875883 -0.0042295670517867477 0 2.1671976543984606e-05 -0.0045638821955506035 0 -0.00027832203778401302 -0.00455860716506173 0 -9.6436651673977893e-05 -0.0049174848613147545 0 -9.6436651673977893e-05 -0.0049174848613147545 0 0.00021592028401640835 -0.004796179807050464 0 0.00022400951584249066 -0.005053969692276822 0 -0.00026840857667166375 -0.0055237013908467315 0 -0.00016422192763819899 -0.0052621354525031611 0 2.1671976543984606e-05 -0.0045638821955506035 0 -9.6436651673977893e-05 -0.0049174848613147545 0 0.00021592028401640835 -0.004796179807050464 0 0.00021592028401640835 -0.004796179807050464 0 0.00045914065140422258 -0.0047021227309753943 0 0.00047264124140931988 -0.0049138171814770929 0 0.00045914065140422258 -0.0047021227309753943 0 0.00047264124140931988 -0.0049138171814770929 0 0.00065707524152187739 -0.0047047483159924092 0 0.00047264124140931988 -0.0049138171814770929 0 0.0005513103640692067 -0.005189336771187378 0 0.00070815618171030624 -0.0049327773527653735 0 0.00021592028401640835 -0.004796179807050464 0 0.00047264124140931988 -0.0049138171814770929 0 0.00022400951584249066 -0.005053969692276822 0 -0.00051787120992719069 -0.0057747999689194566 0 -0.00041317262264465156 -0.0060425058191081026 0 -0.00054581005703571923 -0.0058351326287865053 0 -0.00051787120992719069 -0.0057747999689194566 0 -2.129552847096627e-05 -0.0059226146702358821 0 -0.00041317262264465156 -0.0060425058191081026 0 -0.00016422192763819899 -0.0052621354525031611 0 0.00020334265694681066 -0.0064836368035933803 0 0.00047264124140931988 -0.0049138171814770929 0 0.00022400951584249066 -0.005053969692276822 0 0.0005513103640692067 -0.005189336771187378 0 -0.0001722854428848202 -0.0062322467046562417 0 -0.00014448482544963004 -0.0064294866231109898 0 -0.0002960897236542667 -0.0063703431722634263 0 -2.129552847096627e-05 -0.0059226146702358821 0 -0.00041317262264465156 -0.0060425058191081026 0 -0.0002960897236542667 -0.0063703431722634263 0 0.00020334265694681066 -0.0064836368035933803 0 -0.00033987558333986936 -0.0062304486718030216 0 -0.00041317262264465156 -0.0060425058191081026 0 -0.00066228017665952079 -0.0063577104573177166 0 -0.0002960897236542667 -0.0063703431722634263 0 -0.00053511897362794911 -0.0057887254355155401 0 -0.00064630841907026184 -0.0061829698920086605 0 -0.00053883379292419447 -0.0057944965198098494 0 -0.00054581005703571923 -0.0058351326287865053 0 -0.00055069304941760032 -0.0057525340895818455 0 -0.00041317262264465156 -0.0060425058191081026 0 -0.00054581005703571923 -0.0058351326287865053 0 -0.00066228017665952079 -0.0063577104573177166 0 -0.00053883379292419447 -0.0057944965198098494 0 -0.00052056295105152477 -0.0057782045650668617 0 -0.00055069304941760032 -0.0057525340895818455 0 -0.00053044448194922091 -0.0057890985677503054 0 -0.00052056295105152477 -0.0057782045650668617 0 -0.0005403815856161859 -0.0058032673943236605 0 -0.00050610454268139684 -0.0057686855062197969 0 -0.00053044448194922091 -0.0057890985677503054 0 -0.00052056295105152477 -0.0057782045650668617 0 -0.00053883379292419447 -0.0057944965198098494 0 -0.00052056295105152477 -0.0057782045650668617 0 -0.0005403815856161859 -0.0058032673943236605 0 -0.00053044448194922091 -0.0057890985677503054 0 -0.00051787120992719069 -0.0057747999689194566 0 -0.0005403815856161859 -0.0058032673943236605 0 -0.00051787120992719069 -0.0057747999689194566 0 -0.00054581005703571923 -0.0058351326287865053 0 -0.0005403815856161859 -0.0058032673943236605 0 -0.00053883379292419447 -0.0057944965198098494 0 -0.00054581005703571923 -0.0058351326287865053 0 -0.0005403815856161859 -0.0058032673943236605 0 -0.00060598095119268061 -0.010519110924953487 0 -0.00071199166608148894 -0.010514480980460055 0 -0.00061745571926153015 -0.010600210544496953 0 -0.00024475011958745079 -0.0095449175075674048 0 -0.00020422969552286784 -0.0094561108233666858 0 -0.00066220245382965569 -0.010419158289789497 0 -0.00060598095119268061 -0.010519110924953487 0 -0.00071199166608148894 -0.010514480980460055 0 -0.00073686767314936914 -0.010436290108444388 0 -0.00071199166608148894 -0.010514480980460055 0 -0.0008137101387080671 -0.010408365375632994 0 -0.00024475011958745079 -0.0095449175075674048 0 0.0002855355793612203 -0.0074865286982504402 0 -0.00066220245382965569 -0.010419158289789497 0 -0.00073686767314936914 -0.010436290108444388 0 -0.00071199166608148894 -0.010514480980460055 0 0.00024078177281997948 -0.0081171550437173293 0 0.00022585811238577609 -0.0081172463777736837 0 0.00023738913581554575 -0.0081382768067058825 0 0.00022585811238577609 -0.0081172463777736837 0 0.0002233947377445244 -0.008085320516661389 0 0.0002126215802584335 -0.0081056893200213455 0 0.0002855355793612203 -0.0074865286982504402 0 0.00056079826219074041 -0.0063340153660647472 0 0.00024078177281997948 -0.0081171550437173293 0 0.00022585811238577609 -0.0081172463777736837 0 0.0002233947377445244 -0.008085320516661389 0 0.00086347800742092107 -0.0046859980599958271 0 0.00065707524152187739 -0.0047047483159924092 0 0.00070815618171030624 -0.0049327773527653735 0 0.00047264124140931988 -0.0049138171814770929 0 0.00065707524152187739 -0.0047047483159924092 0 0.00070815618171030624 -0.0049327773527653735 0 0.00020334265694681066 -0.0064836368035933803 0 0.00056079826219074041 -0.0063340153660647472 0 0.00021272125679239187 -0.0081185840050765744 0 0.0002126215802584335 -0.0081056893200213455 0 0.00021125289872925325 -0.0081399579621704646 0 0.00020334265694681066 -0.0064836368035933803 0 8.9178071191419085e-05 -0.0072815168944000714 0 -0.0001722854428848202 -0.0062322467046562417 0 -4.1830710761745518e-05 -0.0063965686150005748 0 2.5211826185716035e-05 -0.006314688986064472 0 0.00021272125679239187 -0.0081185840050765744 0 0.00021125289872925325 -0.0081399579621704646 0 0.0002048242618361748 -0.0081466404952683265 0 -0.0001722854428848202 -0.0062322467046562417 0 -4.1830710761745518e-05 -0.0063965686150005748 0 -0.00014448482544963004 -0.0064294866231109898 0 2.5211826185716035e-05 -0.006314688986064472 0 5.9827492571521543e-05 -0.006406448982520528 0 0.0002422829801697118 -0.0063984997781459281 0 0.00021125289872925325 -0.0081399579621704646 0 0.0002048242618361748 -0.0081466404952683265 0 0.00012976314067127294 -0.0082284307866092761 0 -4.1830710761745518e-05 -0.0063965686150005748 0 2.5211826185716035e-05 -0.006314688986064472 0 5.9827492571521543e-05 -0.006406448982520528 0 0.00015804409405752065 -0.0081793572411278988 0 0.00028987333411154584 -0.008054316483981418 0 0.00022585811238577609 -0.0081172463777736837 0 0.00021125289872925325 -0.0081399579621704646 0 0.00023738913581554575 -0.0081382768067058825 0 0.00022585811238577609 -0.0081172463777736837 0 0.0002126215802584335 -0.0081056893200213455 0 0.00021125289872925325 -0.0081399579621704646 0 0.00024078177281997948 -0.0081171550437173293 0 0.00023738913581554575 -0.0081382768067058825 0 0.00025314014570470829 -0.0081451858451180182 0 0.0002048242618361748 -0.0081466404952683265 0 8.4852781743137787e-05 -0.0081310070010192671 0 0.00010542903583558755 -0.0081770181046155934 0 8.9178071191419085e-05 -0.0072815168944000714 0 0.00018216437755703263 -0.0074857365408817628 0 0.0002048242618361748 -0.0081466404952683265 0 0.00012976314067127294 -0.0082284307866092761 0 0.00010542903583558755 -0.0081770181046155934 0 8.4852781743137787e-05 -0.0081310070010192671 0 0.00010542903583558755 -0.0081770181046155934 0 4.4728974834025002e-05 -0.0081898975301818531 0 0.00012976314067127294 -0.0082284307866092761 0 0.00010542903583558755 -0.0081770181046155934 0 4.4728974834025002e-05 -0.0081898975301818531 0 -8.4997427613672471e-05 -0.008245930477251211 0 2.4919705178723838e-05 -0.0081667702009824965 0 -1.3762502371494324e-05 -0.0082304451678669507 0 -8.3799306515376911e-05 -0.01072900262638218 0 0.00049282011644741816 -0.010380111829293983 0 0.00040958471209057168 -0.010261884694017405 0 -0.0001960380884807247 -0.0086460695764793236 0 -7.7820626601920927e-05 -0.0090441192803349928 0 0.00038545197567283591 -0.008622819040052937 0 -0.00017929921207553379 -0.0089560433956440092 0 7.5661416593887323e-05 -0.0085175608264005352 0 8.4852781743137787e-05 -0.0081310070010192671 0 4.4728974834025002e-05 -0.0081898975301818531 0 2.6902145122327442e-05 -0.0081652250281162766 0 0.00018216437755703263 -0.0074857365408817628 0 -7.7820626601920927e-05 -0.0090441192803349928 0 -0.00017929921207553379 -0.0089560433956440092 0 7.5661416593887323e-05 -0.0085175608264005352 0 -0.00032791075859061756 -0.0087443352392947288 0 0.00013379482125706779 -0.0080583801672164269 0 5.7287895929982542e-05 -0.010118582356413776 0 -0.00011631587277323931 -0.0086722284206840351 0 3.8575517157112316e-05 -0.0085891489753167783 0 -1.9308621316120215e-06 -0.0087134759273737039 0 0.00018216437755703263 -0.0074857365408817628 0 0.00013379482125706779 -0.0080583801672164269 0 -7.7820626601920927e-05 -0.0090441192803349928 0 5.7287895929982542e-05 -0.010118582356413776 0 4.4728974834025002e-05 -0.0081898975301818531 0 2.4919705178723838e-05 -0.0081667702009824965 0 -1.3762502371494324e-05 -0.0082304451678669507 0 0.00012976314067127294 -0.0082284307866092761 0 4.4728974834025002e-05 -0.0081898975301818531 0 -1.1930520911545492e-05 -0.0083016013174861177 0 4.4728974834025002e-05 -0.0081898975301818531 0 -1.3762502371494324e-05 -0.0082304451678669507 0 -1.1930520911545492e-05 -0.0083016013174861177 0 0.00028987333411154584 -0.008054316483981418 0 -0.00020422969552286784 -0.0094561108233666858 0 0.00017596059442254283 -0.009293255231405697 0 -0.00020587610900929963 -0.0092279360633442057 0 -0.00022704658798252935 -0.0096791501984323982 0 -0.00020587610900929963 -0.0092279360633442057 0 2.0462585823362586e-05 -0.0090290629100470924 0 -0.00015612650568326989 -0.0089540960103382927 0 0.00017596059442254283 -0.009293255231405697 0 -0.00020587610900929963 -0.0092279360633442057 0 2.0462585823362586e-05 -0.0090290629100470924 0 0.00028941737701076428 -0.0089538522648991183 0 0.00017596059442254283 -0.009293255231405697 0 2.0462585823362586e-05 -0.0090290629100470924 0 0.00028941737701076428 -0.0089538522648991183 0 2.0462585823362586e-05 -0.0090290629100470924 0 -1.9308621316120215e-06 -0.0087134759273737039 0 0.00028941737701076428 -0.0089538522648991183 0 3.8575517157112316e-05 -0.0085891489753167783 0 -1.9308621316120215e-06 -0.0087134759273737039 0 0.0004015885584672498 -0.010856643353813646 0 5.7287895929982542e-05 -0.010118582356413776 0 -0.0001198118146958242 -0.0086669450335295981 0 -1.9308621316120215e-06 -0.0087134759273737039 0 -0.00015612650568326989 -0.0089540960103382927 0 0.00013379482125706779 -0.0080583801672164269 0 0.00011196823647124532 -0.0082046599924968516 0 2.0462585823362586e-05 -0.0090290629100470924 0 -1.9308621316120215e-06 -0.0087134759273737039 0 -0.00015612650568326989 -0.0089540960103382927 0 0.00013379482125706779 -0.0080583801672164269 0 -0.00032358600099696813 -0.0076865965933034736 0 -0.00020587610900929963 -0.0092279360633442057 0 -0.00015612650568326989 -0.0089540960103382927 0 -0.00069595046594405708 -0.008971600073959517 0 -0.0001198118146958242 -0.0086669450335295981 0 -0.00015612650568326989 -0.0089540960103382927 0 -0.00069595046594405708 -0.008971600073959517 0 0.00018216437755703263 -0.0074857365408817628 0 0.00010309798373067867 -0.0062059806445671729 0 0.00012309127558578884 -0.0065169957800786521 0 0.00013885597962947017 -0.0065281415988924091 0 5.2724647599275785e-05 -0.0065243766277996379 0 0.00012309127558578884 -0.0065169957800786521 0 5.2724647599275785e-05 -0.0065243766277996379 0 1.9741190280752766e-05 -0.0065165535479857137 0 -0.00020587610900929963 -0.0092279360633442057 0 -0.00069595046594405708 -0.008971600073959517 0 -0.00062837855975432879 -0.0094524447263904313 0 -0.00032358600099696813 -0.0076865965933034736 0 -0.00061382008524035075 -0.0079512508054020627 0 -0.00083947604576288873 -0.0093051989914293073 0 -0.00069595046594405708 -0.008971600073959517 0 -0.0010585674208952174 -0.0092124042029841195 0 5.2724647599275785e-05 -0.0065243766277996379 0 1.9741190280752766e-05 -0.0065165535479857137 0 -9.5228801825905508e-05 -0.0066180480480427283 0 -0.00083947604576288873 -0.0093051989914293073 0 -0.00069595046594405708 -0.008971600073959517 0 -0.00062837855975432879 -0.0094524447263904313 0 5.9827492571521543e-05 -0.006406448982520528 0 0.0002422829801697118 -0.0063984997781459281 0 1.9741190280752766e-05 -0.0065165535479857137 0 -4.1830710761745518e-05 -0.0063965686150005748 0 5.9827492571521543e-05 -0.006406448982520528 0 1.9741190280752766e-05 -0.0065165535479857137 0 1.9741190280752766e-05 -0.0065165535479857137 0 -6.4659450145039467e-05 -0.006489751045039926 0 -9.5228801825905508e-05 -0.0066180480480427283 0 -6.4659450145039467e-05 -0.006489751045039926 0 -0.00014448482544963004 -0.0064294866231109898 0 -9.5228801825905508e-05 -0.0066180480480427283 0 -4.1830710761745518e-05 -0.0063965686150005748 0 -6.4659450145039467e-05 -0.006489751045039926 0 -0.00014448482544963004 -0.0064294866231109898 0 -4.1830710761745518e-05 -0.0063965686150005748 0 1.9741190280752766e-05 -0.0065165535479857137 0 -6.4659450145039467e-05 -0.006489751045039926 0 -0.00069595046594405708 -0.008971600073959517 0 -0.0011436499661066708 -0.0092056307253619973 0 -0.0010585674208952174 -0.0092124042029841195 0 -0.0011436499661066708 -0.0092056307253619973 0 -0.0010585674208952174 -0.0092124042029841195 0 -0.0011418579676615269 -0.0091212356399271617 0 -0.00083947604576288873 -0.0093051989914293073 0 -0.0010585674208952174 -0.0092124042029841195 0 -0.00099094684935943319 -0.009618579727095497 0 -0.00099094684935943319 -0.009618579727095497 0 -0.0011269245890050507 -0.010065129936633331 0 -0.0014078636965405384 -0.0096887983658150816 0 -0.00099142769917023063 -0.0090504824137356207 0 -0.0014373728922518442 -0.0098645148748971005 0 -0.0010585674208952174 -0.0092124042029841195 0 -0.00099094684935943319 -0.009618579727095497 0 -0.0014078636965405384 -0.0096887983658150816 0 -0.00099094684935943319 -0.009618579727095497 0 -0.0011269245890050507 -0.010065129936633331 0 -0.00070653215074530367 -0.009857292215305789 0 -0.0011269245890050507 -0.010065129936633331 0 -0.00070653215074530367 -0.009857292215305789 0 -0.0007573334595481426 -0.010409682580812095 0 -0.00070653215074530367 -0.009857292215305789 0 -0.00042796760990966354 -0.01013904601170627 0 -0.0007573334595481426 -0.010409682580812095 0 -0.00099094684935943319 -0.009618579727095497 0 -0.00070653215074530367 -0.009857292215305789 0 -0.00062837855975432879 -0.0094524447263904313 0 -0.00083947604576288873 -0.0093051989914293073 0 -0.00099094684935943319 -0.009618579727095497 0 -0.00062837855975432879 -0.0094524447263904313 0 -0.00020587610900929963 -0.0092279360633442057 0 -0.00062837855975432879 -0.0094524447263904313 0 -0.00022704658798252935 -0.0096791501984323982 0 -0.00070653215074530367 -0.009857292215305789 0 -0.00062837855975432879 -0.0094524447263904313 0 -0.00022704658798252935 -0.0096791501984323982 0 -0.00070653215074530367 -0.009857292215305789 0 -0.00022704658798252935 -0.0096791501984323982 0 -0.00042796760990966354 -0.01013904601170627 0 -0.00022704658798252935 -0.0096791501984323982 0 -0.00042796760990966354 -0.01013904601170627 0 -5.1302248842551272e-05 -0.0101514044530263 0 0.00024220791805291259 -0.0097210041591205259 0 -0.00022704658798252935 -0.0096791501984323982 0 -5.1302248842551272e-05 -0.0101514044530263 0 0.00022734031880329822 -0.0097378619984879542 0 -0.00014054175851441157 -0.010325578123867104 0 0.00017596059442254283 -0.009293255231405697 0 0.00024220791805291259 -0.0097210041591205259 0 -0.00022704658798252935 -0.0096791501984323982 0 -0.00064630841907026184 -0.0061829698920086605 0 -0.0004014284303343439 -0.0056783753073972407 0 -0.00066228017665952079 -0.0063577104573177166 0 -0.00052987402210490444 -0.0065532366844391213 0 -0.00072590732075321091 -0.006747239063542884 0 -0.00052987402210490444 -0.0065532366844391213 0 -0.00051805272590720638 -0.0067297690011475161 0 -0.00072590732075321091 -0.006747239063542884 0 0.00011079747857307824 -0.0045670025336675517 0 1.7168696462684818e-05 -0.0044946487074163837 0 0.00010188915774267155 -0.0044798038917389068 0 -0.00022734084676961537 -0.0050241956597992356 0 -0.0004014284303343439 -0.0056783753073972407 0 -0.00051110411393116395 -0.0057328381458321325 0 -0.00055069304941760032 -0.0057525340895818455 0 -0.00054021927032333488 -0.0057052902510297361 0 -0.00051110411393116395 -0.0057328381458321325 0 -0.00052056295105152477 -0.0057782045650668617 0 -0.00055069304941760032 -0.0057525340895818455 0 -0.0002960897236542667 -0.0063703431722634263 0 -0.00052987402210490444 -0.0065532366844391213 0 -0.00036659465450110726 -0.0065850628531268348 0 -0.00066228017665952079 -0.0063577104573177166 0 -0.0002960897236542667 -0.0063703431722634263 0 -0.00052987402210490444 -0.0065532366844391213 0 -0.0002960897236542667 -0.0063703431722634263 0 -0.00021935654081525543 -0.0065070083756434164 0 -0.00036659465450110726 -0.0065850628531268348 0 -0.00014448482544963004 -0.0064294866231109898 0 -9.5228801825905508e-05 -0.0066180480480427283 0 -0.00021935654081525543 -0.0065070083756434164 0 -0.00014448482544963004 -0.0064294866231109898 0 -0.0002960897236542667 -0.0063703431722634263 0 -0.00021935654081525543 -0.0065070083756434164 0 -9.5228801825905508e-05 -0.0066180480480427283 0 -0.00021935654081525543 -0.0065070083756434164 0 -0.00034321288229653061 -0.0067803238099360241 0 -0.00021935654081525543 -0.0065070083756434164 0 -0.00036659465450110726 -0.0065850628531268348 0 -0.00034321288229653061 -0.0067803238099360241 0 -0.00061382008524035075 -0.0079512508054020627 0 -0.00075598397001395252 -0.0077010342368143709 0 -0.00040740156748920753 -0.006340061359032912 0 -0.00075598397001395252 -0.0077010342368143709 0 -0.00036659465450110726 -0.0065850628531268348 0 -0.00051805272590720638 -0.0067297690011475161 0 -0.0003413753555733854 -0.0068313728039116756 0 -0.00052987402210490444 -0.0065532366844391213 0 -0.00036659465450110726 -0.0065850628531268348 0 -0.00051805272590720638 -0.0067297690011475161 0 -0.00091125383148571155 -0.0070948778266812871 0 -0.00079619632771571621 -0.0070278771786353809 0 -0.00093906955415358744 -0.0069002200684630558 0 -0.00051805272590720638 -0.0067297690011475161 0 -0.0003413753555733854 -0.0068313728039116756 0 -0.00053017135826469869 -0.0069293126919644215 0 -0.00075598397001395252 -0.0077010342368143709 0 -0.00069301936819850122 -0.0061801200235020864 0 -0.0011436499661066708 -0.0092056307253619973 0 -0.0010280314007301476 -0.0091422462755389317 0 -0.0011418579676615269 -0.0091212356399271617 0 -0.0010280314007301476 -0.0091422462755389317 0 -0.0011418579676615269 -0.0091212356399271617 0 -0.0010388446302297008 -0.0089467579139106655 0 -0.0011418579676615269 -0.0091212356399271617 0 -0.0010388446302297008 -0.0089467579139106655 0 -0.0010435795200871244 -0.0089218219082334242 0 -0.0011269245890050507 -0.010065129936633331 0 -0.0014078636965405384 -0.0096887983658150816 0 -0.0017305073654494095 -0.010154202678903932 0 -0.0014373728922518442 -0.0098645148748971005 0 -0.0012089710199800377 -0.0070679392345752434 0 -0.0012109134227043783 -0.0071399081919550061 0 -0.0012089710199800377 -0.0070679392345752434 0 -0.00075598397001395252 -0.0077010342368143709 0 -0.0012109134227043783 -0.0071399081919550061 0 -0.00079101777929765102 -0.005512594354321782 0 -0.0011334213739996085 -0.0052009768369135397 0 -0.00083077271248197708 -0.0051336242771810384 0 -0.00069301936819850122 -0.0061801200235020864 0 -0.0012109134227043783 -0.0071399081919550061 0 -0.0011334213739996085 -0.0052009768369135397 0 -0.0011405066880528435 -0.0051489153694778741 0 -0.00083077271248197708 -0.0051336242771810384 0 -0.00069301936819850122 -0.0061801200235020864 0 -0.00019701925116056545 -0.0047611425529747791 0 -0.00079101777929765102 -0.005512594354321782 0 -0.00083077271248197708 -0.0051336242771810384 0 -0.00039945750240708158 -0.0052844058055229459 0 -0.00069916195142425764 -0.0054992160955183471 0 -0.00034405020873230524 -0.0058265623178956494 0 -0.00021791576244337775 -0.0052299494171557095 0 -0.00051805272590720638 -0.0067297690011475161 0 -0.00053017135826469869 -0.0069293126919644215 0 -0.00072590732075321091 -0.006747239063542884 0 -0.00069301936819850122 -0.0061801200235020864 0 -0.0004014284303343439 -0.0056783753073972407 0 -0.0004014284303343439 -0.0056783753073972407 0 -0.00019701925116056545 -0.0047611425529747791 0 0.0001626422519866284 -0.0044152807916236284 0 0.00010188915774267155 -0.0044798038917389068 0 3.985302744290724e-05 -0.004381110726677611 0 1.7168696462684818e-05 -0.0044946487074163837 0 0.00010188915774267155 -0.0044798038917389068 0 3.985302744290724e-05 -0.004381110726677611 0 -0.00019701925116056545 -0.0047611425529747791 0 6.3179301123082008e-05 -0.0043303470507956802 0 -0.00019701925116056545 -0.0047611425529747791 0 -0.00031761598086542636 -0.0046239096422153753 0 -0.00039945750240708158 -0.0052844058055229459 0 -0.00031608147100238787 -0.0048122680281782911 0 -0.00062833858469222767 -0.0048929443337592544 0 -0.00032570339955640646 -0.0045825584462279804 0 -0.00028077560844059362 -0.0043638203653040396 0 -8.2809013802705479e-05 -0.0044495739584183656 0 -0.00031761598086542636 -0.0046239096422153753 0 -0.00023959668682468078 -0.0042385075679537915 0 -0.00028077560844059362 -0.0043638203653040396 0 -0.00024291653437995446 -0.0042220151668226459 0 -0.00010093793999365126 -0.0042451601475372571 0 -0.00031608147100238787 -0.0048122680281782911 0 -0.00024291653437995446 -0.0042220151668226459 0 -0.00068451549624738337 -0.0044782150432198693 0 -0.00062833858469222767 -0.0048929443337592544 0 -0.00090528840604234718 -0.0047965176115004988 0 -0.00068451549624738337 -0.0044782150432198693 0 -0.00031608147100238787 -0.0048122680281782911 0 -0.00062833858469222767 -0.0048929443337592544 0 -0.00068451549624738337 -0.0044782150432198693 0 -0.00083077271248197708 -0.0051336242771810384 0 -0.00062833858469222767 -0.0048929443337592544 0 -0.00090528840604234718 -0.0047965176115004988 0 -0.00083077271248197708 -0.0051336242771810384 0 -0.00039945750240708158 -0.0052844058055229459 0 -0.00062833858469222767 -0.0048929443337592544 0 -0.0012043355940805709 -0.0054440026007025874 0 -0.00092955386985272442 -0.0050124780699451945 0 -0.0012613458436475395 -0.0049725956019568964 0 -0.0011405066880528435 -0.0051489153694778741 0 -0.00083077271248197708 -0.0051336242771810384 0 -0.00090528840604234718 -0.0047965176115004988 0 -0.0012089710199800377 -0.0070679392345752434 0 -0.00078708844622437746 -0.0046321724581331906 0 -0.0012089710199800377 -0.0070679392345752434 0 -0.0013369904242792414 -0.0077617478098707003 0 -0.0013239038805958267 -0.0048902678200629431 0 -0.0013317108318616198 -0.0048011317911942622 0 -0.0013591203069039063 -0.0047396583021912285 0 -0.0012089710199800377 -0.0070679392345752434 0 -0.0013402149279024061 -0.004545366546497163 0 -0.0013317108318616198 -0.0048011317911942622 0 -0.001371891665684235 -0.0047640593134681041 0 -0.0013591203069039063 -0.0047396583021912285 0 -0.0013317108318616198 -0.0048011317911942622 0 -0.0013791356685346689 -0.0047469567001831702 0 -0.0013168588262454314 -0.0046665040985622045 0 -0.0012613458436475395 -0.0049725956019568964 0 -0.0011545654914534586 -0.0046712673922707009 0 -0.0013168588262454314 -0.0046665040985622045 0 -0.0013402149279024061 -0.004545366546497163 0 -0.0013016436448921773 -0.0048020501194779297 0 -0.0013317108318616198 -0.0048011317911942622 0 -0.0013791356685346689 -0.0047469567001831702 0 -0.001371891665684235 -0.0047640593134681041 0 -0.0013791356685346689 -0.0047469567001831702 0 -0.001371891665684235 -0.0047640593134681041 0 -0.0013713488402012359 -0.0048050574755247166 0 -0.00092955386985272442 -0.0050124780699451945 0 -0.0010106560064161651 -0.0047173329932710074 0 -0.00068451549624738337 -0.0044782150432198693 0 -0.00078708844622437746 -0.0046321724581331906 0 -0.00076124582985685632 -0.0046209510170380063 0 -0.00092955386985272442 -0.0050124780699451945 0 -0.0012613458436475395 -0.0049725956019568964 0 -0.0010106560064161651 -0.0047173329932710074 0 -0.0012613458436475395 -0.0049725956019568964 0 -0.0010106560064161651 -0.0047173329932710074 0 -0.0011545654914534586 -0.0046712673922707009 0 -0.0010106560064161651 -0.0047173329932710074 0 -0.00097244272655476038 -0.0044414147130197425 0 -0.00068451549624738337 -0.0044782150432198693 0 -0.0011545654914534586 -0.0046712673922707009 0 -0.00097244272655476038 -0.0044414147130197425 0 -0.0011836392056149185 -0.0044955550997882463 0 -0.0010106560064161651 -0.0047173329932710074 0 -0.0011545654914534586 -0.0046712673922707009 0 -0.00097244272655476038 -0.0044414147130197425 0 -0.00097244272655476038 -0.0044414147130197425 0 -0.0010867614660914598 -0.0042849197589051565 0 -0.0011836392056149185 -0.0044955550997882463 0 -0.00097244272655476038 -0.0044414147130197425 0 -0.0010867614660914598 -0.0042849197589051565 0 -0.00092720446635154174 -0.0042026167847431994 0 -0.00097244272655476038 -0.0044414147130197425 0 -0.00092720446635154174 -0.0042026167847431994 0 -0.00073303925646543765 -0.00416757949590106 0 -0.00097244272655476038 -0.0044414147130197425 0 -0.00073303925646543765 -0.00416757949590106 0 -0.00068451549624738337 -0.0044782150432198693 0 -0.0013791356685346689 -0.0047469567001831702 0 -0.0014506160026736552 -0.0047267563483712922 0 -0.0013168588262454314 -0.0046665040985622045 0 -0.0013791356685346689 -0.0047469567001831702 0 -0.0014506160026736552 -0.0047267563483712922 0 -0.0013713488402012359 -0.0048050574755247166 0 -0.0011545654914534586 -0.0046712673922707009 0 -0.0013168588262454314 -0.0046665040985622045 0 -0.0011836392056149185 -0.0044955550997882463 0 -0.0013168588262454314 -0.0046665040985622045 0 -0.0011836392056149185 -0.0044955550997882463 0 -0.0013024224998505619 -0.0045595658766581764 0 -0.0014506160026736552 -0.0047267563483712922 0 -0.0013168588262454314 -0.0046665040985622045 0 -0.0013024224998505619 -0.0045595658766581764 0 -0.0011836392056149185 -0.0044955550997882463 0 -0.0013024224998505619 -0.0045595658766581764 0 -0.0012730402623724734 -0.0043009155013223306 0 -0.0010867614660914598 -0.0042849197589051565 0 -0.0011836392056149185 -0.0044955550997882463 0 -0.0012730402623724734 -0.0043009155013223306 0 -0.0014506160026736552 -0.0047267563483712922 0 -0.0013024224998505619 -0.0045595658766581764 0 -0.0012730402623724734 -0.0043009155013223306 0 -0.0012595121910935648 -0.0039891569085342225 0 -0.0010161440713227527 -0.0038131144650076576 0 -0.0015422888334210875 -0.0038157416313052981 0 -0.0014506160026736552 -0.0047267563483712922 0 -0.0012730402623724734 -0.0043009155013223306 0 -0.0015422888334210875 -0.0038157416313052981 0 -0.0014506160026736552 -0.0047267563483712922 0 -0.0013376365567169827 -0.0049971691016022024 0 -0.0015054859881117233 -0.0053807594074691953 0 -0.0014858069704373178 -0.0044759519142839634 0 -0.0014537802998699026 -0.0051869446977435077 0 -0.0012730402623724734 -0.0043009155013223306 0 -0.0011648415383404239 -0.0041561787025009688 0 -0.0012595121910935648 -0.0039891569085342225 0 -0.0011648415383404239 -0.0041561787025009688 0 -0.0012595121910935648 -0.0039891569085342225 0 -0.001038043120570233 -0.0040700940165032161 0 -0.0010867614660914598 -0.0042849197589051565 0 -0.0012730402623724734 -0.0043009155013223306 0 -0.0011648415383404239 -0.0041561787025009688 0 -0.0012730402623724734 -0.0043009155013223306 0 -0.0012595121910935648 -0.0039891569085342225 0 -0.0015422888334210875 -0.0038157416313052981 0 -0.00092720446635154174 -0.0042026167847431994 0 -0.00085012815164644954 -0.0039958041226636947 0 -0.00073303925646543765 -0.00416757949590106 0 -0.00092720446635154174 -0.0042026167847431994 0 -0.001038043120570233 -0.0040700940165032161 0 -0.00085012815164644954 -0.0039958041226636947 0 -0.0010867614660914598 -0.0042849197589051565 0 -0.00092720446635154174 -0.0042026167847431994 0 -0.001038043120570233 -0.0040700940165032161 0 -0.0010867614660914598 -0.0042849197589051565 0 -0.0011648415383404239 -0.0041561787025009688 0 -0.001038043120570233 -0.0040700940165032161 0 -0.001038043120570233 -0.0040700940165032161 0 -0.00085012815164644954 -0.0039958041226636947 0 -0.0010161440713227527 -0.0038131144650076576 0 -0.0012595121910935648 -0.0039891569085342225 0 -0.001038043120570233 -0.0040700940165032161 0 -0.0010161440713227527 -0.0038131144650076576 0 -0.00085012815164644954 -0.0039958041226636947 0 -0.00068019648005762396 -0.0039018759888312872 0 -0.00076028126936263367 -0.0037789208492668915 0 -0.00085012815164644954 -0.0039958041226636947 0 -0.00076028126936263367 -0.0037789208492668915 0 -0.0010161440713227527 -0.0038131144650076576 0 -0.00085012815164644954 -0.0039958041226636947 0 -0.00068019648005762396 -0.0039018759888312872 0 -0.00073303925646543765 -0.00416757949590106 0 -0.00068019648005762396 -0.0039018759888312872 0 -0.00073303925646543765 -0.00416757949590106 0 -0.00053605573229955868 -0.0039727860580569072 0 -0.00073303925646543765 -0.00416757949590106 0 -0.00053605573229955868 -0.0039727860580569072 0 -0.00049161230532016032 -0.0041653937317168797 0 -0.00068019648005762396 -0.0039018759888312872 0 -0.00053605573229955868 -0.0039727860580569072 0 -0.00048736424909438071 -0.0036752369964706054 0 -0.00026844453974365261 -0.0039439907184867151 0 -0.00048736424909438071 -0.0036752369964706054 0 -0.00013945227583246587 -0.003664526859845856 0 -0.00053605573229955868 -0.0039727860580569072 0 -0.00026844453974365261 -0.0039439907184867151 0 -0.00048736424909438071 -0.0036752369964706054 0 -0.00053605573229955868 -0.0039727860580569072 0 -0.00026844453974365261 -0.0039439907184867151 0 -0.00049161230532016032 -0.0041653937317168797 0 -0.00026844453974365261 -0.0039439907184867151 0 -0.00024291653437995446 -0.0042220151668226459 0 -0.00049161230532016032 -0.0041653937317168797 0 -0.00024291653437995446 -0.0042220151668226459 0 -0.00068451549624738337 -0.0044782150432198693 0 -0.00049161230532016032 -0.0041653937317168797 0 -0.00073303925646543765 -0.00416757949590106 0 -0.00068451549624738337 -0.0044782150432198693 0 -0.00049161230532016032 -0.0041653937317168797 0 8.4376121865484683e-05 -0.010688817637226915 0 5.4468778186171617e-05 -0.011172525860045147 0 -0.00024954535121507628 -0.011016375469971073 0 8.4376121865484683e-05 -0.010688817637226915 0 -0.00038868971371615324 -0.010628318106204114 0 -0.00024954535121507628 -0.011016375469971073 0 8.4376121865484683e-05 -0.010688817637226915 0 -0.00016656224177712697 -0.010408005481530183 0 -0.00038868971371615324 -0.010628318106204114 0 -0.00014054175851441157 -0.010325578123867104 0 -0.00035369388990081089 -0.010590152623977847 0 -0.00042796760990966354 -0.01013904601170627 0 -5.1302248842551272e-05 -0.0101514044530263 0 -0.00038868971371615324 -0.010628318106204114 0 -0.00042796760990966354 -0.01013904601170627 0 -0.00038868971371615324 -0.010628318106204114 0 -0.0007573334595481426 -0.010409682580812095 0 -0.00038868971371615324 -0.010628318106204114 0 -0.00067681343887576447 -0.011093472316961523 0 -0.00024954535121507628 -0.011016375469971073 0 -0.00038868971371615324 -0.010628318106204114 0 -0.0007573334595481426 -0.010409682580812095 0 -0.00067681343887576447 -0.011093472316961523 0 -0.0013591203069039063 -0.0047396583021912285 0 -0.0012557226272206874 -0.0049473623591687133 0 -0.00099219943056878487 -0.0049992906678041774 0 -0.0013369904242792414 -0.0077617478098707003 0 -0.00082784015354549364 -0.0080486027892556801 0 -0.0007573334595481426 -0.010409682580812095 0 -0.0011920749502703336 -0.010623477536685176 0 -0.00067681343887576447 -0.011093472316961523 0 -0.0011269245890050507 -0.010065129936633331 0 -0.0017305073654494095 -0.010154202678903932 0 -0.0011920749502703336 -0.010623477536685176 0 -0.0011269245890050507 -0.010065129936633331 0 -0.0007573334595481426 -0.010409682580812095 0 -0.0011920749502703336 -0.010623477536685176 0 -0.0013591203069039063 -0.0047396583021912285 0 -0.0013713488402012359 -0.0048050574755247166 0 -0.0012557226272206874 -0.0049473623591687133 0 -0.001371891665684235 -0.0047640593134681041 0 -0.0013591203069039063 -0.0047396583021912285 0 -0.0013713488402012359 -0.0048050574755247166 0 -0.0012557226272206874 -0.0049473623591687133 0 -0.0013376365567169827 -0.0049971691016022024 0 -0.001214932344338792 -0.0051682182004573691 0 -0.0012557226272206874 -0.0049473623591687133 0 -0.001214932344338792 -0.0051682182004573691 0 -0.0011383761288967437 -0.005092372801987031 0 -0.0013713488402012359 -0.0048050574755247166 0 -0.0013553016164294786 -0.0048615206690733855 0 -0.0012557226272206874 -0.0049473623591687133 0 -0.0014506160026736552 -0.0047267563483712922 0 -0.0013713488402012359 -0.0048050574755247166 0 -0.0013553016164294786 -0.0048615206690733855 0 -0.0013553016164294786 -0.0048615206690733855 0 -0.0012557226272206874 -0.0049473623591687133 0 -0.0013376365567169827 -0.0049971691016022024 0 -0.0014506160026736552 -0.0047267563483712922 0 -0.0013553016164294786 -0.0048615206690733855 0 -0.0013376365567169827 -0.0049971691016022024 0 -0.0013376365567169827 -0.0049971691016022024 0 -0.001214932344338792 -0.0051682182004573691 0 -0.0015054859881117233 -0.0053807594074691953 0 -0.0014803402873347405 -0.0055351970474926951 0 -0.0014537802998699026 -0.0051869446977435077 0 -0.0014803402873347405 -0.0055351970474926951 0 -0.0010178458419357044 -0.0052586465697369283 0 -0.0016037456989213856 -0.0057796204327792448 0 -0.00099024160881683375 -0.0060950526709831043 0 -0.0010217444030660597 -0.005278148619680947 0 -0.0012557226272206874 -0.0049473623591687133 0 -0.0011383761288967437 -0.005092372801987031 0 -0.00099219943056878487 -0.0049992906678041774 0 -0.0010217444030660597 -0.005278148619680947 0 -0.0011383761288967437 -0.005092372801987031 0 -0.00099219943056878487 -0.0049992906678041774 0 -0.001214932344338792 -0.0051682182004573691 0 -0.0010217444030660597 -0.005278148619680947 0 -0.0011383761288967437 -0.005092372801987031 0 -0.00082784015354549364 -0.0080486027892556801 0 -0.00026398030896817524 -0.0087087630273517368 0 -0.00067681343887576447 -0.011093472316961523 0 -0.00022614101058840926 -0.011457699260546373 0 -0.00024954535121507628 -0.011016375469971073 0 -0.0010217444030660597 -0.005278148619680947 0 -0.00099219943056878487 -0.0049992906678041774 0 -0.00024961762504103704 -0.0060144889768177345 0 -0.00099024160881683375 -0.0060950526709831043 0 -0.0010217444030660597 -0.005278148619680947 0 -0.00024961762504103704 -0.0060144889768177345 0 5.4468778186171617e-05 -0.011172525860045147 0 0.00010768214184544573 -0.011478246327352816 0 -0.00022614101058840926 -0.011457699260546373 0 5.4468778186171617e-05 -0.011172525860045147 0 -0.00022614101058840926 -0.011457699260546373 0 -0.00024954535121507628 -0.011016375469971073 0 0.00019576765283537805 -0.0068600149244789519 0 -0.0002100842074310814 -0.007143465197439601 0 -0.00053616805083677875 -0.0066100889356868623 0 1.586139059846527e-05 -0.0074024530088887602 0 -0.0002100842074310814 -0.007143465197439601 0 -0.0001832660236864464 -0.0075134020621100842 0 0.00019576765283537805 -0.0068600149244789519 0 -0.00024961762504103704 -0.0060144889768177345 0 -0.00053616805083677875 -0.0066100889356868623 0 0.00018121289150143036 -0.0093061215345229768 0 -0.00026398030896817524 -0.0087087630273517368 0 -0.00099024160881683375 -0.0060950526709831043 0 -0.00024961762504103704 -0.0060144889768177345 0 -0.00053616805083677875 -0.0066100889356868623 0 -0.00053616805083677875 -0.0066100889356868623 0 -0.00051861818662313046 -0.0070787191972973779 0 -0.00092814768889513109 -0.0070573299020699858 0 -0.0002100842074310814 -0.007143465197439601 0 -0.00053616805083677875 -0.0066100889356868623 0 -0.00051861818662313046 -0.0070787191972973779 0 -0.0002100842074310814 -0.007143465197439601 0 -0.00051861818662313046 -0.0070787191972973779 0 -0.00050792674568590605 -0.0073916984868618984 0 -0.00051861818662313046 -0.0070787191972973779 0 -0.00092814768889513109 -0.0070573299020699858 0 -0.00050792674568590605 -0.0073916984868618984 0 -0.00092814768889513109 -0.0070573299020699858 0 -0.0014318338936995482 -0.0069880143563298015 0 -0.0012100636098767324 -0.0075197656098247405 0 -0.00092814768889513109 -0.0070573299020699858 0 -0.0012405635235006286 -0.0065940440295776193 0 -0.0014318338936995482 -0.0069880143563298015 0 -0.00053616805083677875 -0.0066100889356868623 0 -0.00092814768889513109 -0.0070573299020699858 0 -0.0012405635235006286 -0.0065940440295776193 0 -0.0016037456989213856 -0.0057796204327792448 0 -0.00099024160881683375 -0.0060950526709831043 0 -0.0012405635235006286 -0.0065940440295776193 0 -0.00099024160881683375 -0.0060950526709831043 0 -0.00053616805083677875 -0.0066100889356868623 0 -0.0012405635235006286 -0.0065940440295776193 0 -0.0017225105119552109 -0.0065740488843221969 0 -0.0021076975174235658 -0.0061432869861527961 0 -0.0020088943324439892 -0.0071216954501144283 0 -0.0016037456989213856 -0.0057796204327792448 0 -0.0012405635235006286 -0.0065940440295776193 0 -0.0017225105119552109 -0.0065740488843221969 0 -0.0016037456989213856 -0.0057796204327792448 0 -0.0017225105119552109 -0.0065740488843221969 0 -0.0021076975174235658 -0.0061432869861527961 0 -0.0012405635235006286 -0.0065940440295776193 0 -0.0017225105119552109 -0.0065740488843221969 0 -0.0014318338936995482 -0.0069880143563298015 0 -0.0014318338936995482 -0.0069880143563298015 0 -0.0012100636098767324 -0.0075197656098247405 0 -0.0020088943324439892 -0.0071216954501144283 0 -0.0017225105119552109 -0.0065740488843221969 0 -0.0014318338936995482 -0.0069880143563298015 0 -0.0020088943324439892 -0.0071216954501144283 0 0.00011853777716559472 -0.0061436752517644057 0 -8.0528877219371821e-05 -0.0061835801089705723 0 0.00012164189075481233 -0.0062932311121269699 0 0.00011853777716559472 -0.0061436752517644057 0 -2.6700853018869412e-05 -0.0059979282146213715 0 -8.0528877219371821e-05 -0.0061835801089705723 0 -0.00066754929255617506 -0.0069452821321475799 0 -0.00060329272317281358 -0.005863659826000546 0 0.00012497007048586174 -0.0054374546040702682 0 -0.00060329272317281358 -0.005863659826000546 0 0.00012497007048586174 -0.0054374546040702682 0 0.00010749008959421932 -0.0056096399508379713 0 0.00011853777716559472 -0.0061436752517644057 0 6.4289200822123681e-05 -0.0056309668679723514 0 -2.6700853018869412e-05 -0.0059979282146213715 0 6.4289200822123681e-05 -0.0056309668679723514 0 4.4273841781200833e-07 -0.0057539778387506683 0 -2.6700853018869412e-05 -0.0059979282146213715 0 4.4273841781200833e-07 -0.0057539778387506683 0 -2.6700853018869412e-05 -0.0059979282146213715 0 -5.3187873729238981e-05 -0.0061782698253557491 0 -2.6700853018869412e-05 -0.0059979282146213715 0 -5.3187873729238981e-05 -0.0061782698253557491 0 -8.0528877219371821e-05 -0.0061835801089705723 0 4.4273841781200833e-07 -0.0057539778387506683 0 -5.3187873729238981e-05 -0.0061782698253557491 0 -3.4344414012229302e-07 -0.0066162868097020509 0 -5.3187873729238981e-05 -0.0061782698253557491 0 -8.0528877219371821e-05 -0.0061835801089705723 0 2.0956955330083322e-05 -0.006577359887564178 0 -5.3187873729238981e-05 -0.0061782698253557491 0 -3.4344414012229302e-07 -0.0066162868097020509 0 2.0956955330083322e-05 -0.006577359887564178 0 -0.00092814768889513109 -0.0070573299020699858 0 -0.0012100636098767324 -0.0075197656098247405 0 -0.00050792674568590605 -0.0073916984868618984 0 -0.00066754929255617506 -0.0069452821321475799 0 -0.00026971808016431562 -0.0071293002595172418 0 -0.0012100636098767324 -0.0075197656098247405 0 -0.00050792674568590605 -0.0073916984868618984 0 -0.00042625252566022147 -0.0077487217410873175 0 -0.00050792674568590605 -0.0073916984868618984 0 -0.00042625252566022147 -0.0077487217410873175 0 -0.0001832660236864464 -0.0075134020621100842 0 -3.4344414012229302e-07 -0.0066162868097020509 0 2.0956955330083322e-05 -0.006577359887564178 0 4.0052198890906509e-07 -0.0074779993821662743 0 -2.9407988073036843e-05 -0.0077150581843129741 0 -0.00042625252566022147 -0.0077487217410873175 0 -2.538866185086739e-07 -0.0074802585993309738 0 -0.00026971808016431562 -0.0071293002595172418 0 -2.0108716750491412e-07 -0.0074784335573819527 0 -2.9407988073036843e-05 -0.0077150581843129741 0 -0.00042625252566022147 -0.0077487217410873175 0 -0.0001832660236864464 -0.0075134020621100842 0 -0.0002100842074310814 -0.007143465197439601 0 -0.00050792674568590605 -0.0073916984868618984 0 -0.0001832660236864464 -0.0075134020621100842 0 -0.00022535662744528644 -0.0038008603824757955 0 -0.00053061313542602975 -0.004137368348155139 0 -8.9948322050180089e-05 -0.0043170256293461997 0 -6.4553694817983805e-05 -0.0044045139042652752 0 -7.4430247294876651e-05 -0.0045250768637822318 0 -0.0003447032285825803 -0.003362758052985363 0 -0.00086357665130630177 -0.0035457504023667557 0 -0.00075170109866473179 -0.0036107938119272032 0 -0.0003447032285825803 -0.003362758052985363 0 -0.00025835147110257387 -0.0035234996578800146 0 -0.00048736424909438071 -0.0036752369964706054 0 -0.0003447032285825803 -0.003362758052985363 0 -0.00025835147110257387 -0.0035234996578800146 0 -8.3296614000038336e-05 -0.0034207136129190108 0 -0.00025835147110257387 -0.0035234996578800146 0 -0.00048736424909438071 -0.0036752369964706054 0 -0.00013945227583246587 -0.003664526859845856 0 -0.0003447032285825803 -0.003362758052985363 0 -0.00048736424909438071 -0.0036752369964706054 0 -0.00075170109866473179 -0.0036107938119272032 0 -0.00068019648005762396 -0.0039018759888312872 0 -0.00048736424909438071 -0.0036752369964706054 0 -0.00076028126936263367 -0.0037789208492668915 0 -0.00048736424909438071 -0.0036752369964706054 0 -0.00076028126936263367 -0.0037789208492668915 0 -0.00075170109866473179 -0.0036107938119272032 0 -0.00076028126936263367 -0.0037789208492668915 0 -0.0010161440713227527 -0.0038131144650076576 0 -0.00075170109866473179 -0.0036107938119272032 0 -0.00053061313542602975 -0.004137368348155139 0 -0.00085393055488066651 -0.0037927481074316077 0 -0.0010161440713227527 -0.0038131144650076576 0 -0.00092304932847781375 -0.0034952695515105504 0 -0.00075170109866473179 -0.0036107938119272032 0 -0.00053061313542602975 -0.004137368348155139 0 -0.0014537802998699026 -0.0051869446977435077 0 -0.00089300837655319166 -0.0051016107690539762 0 -0.0008167481014497999 -0.005054803957933944 0 -0.00080591750064381185 -0.0051600279754466074 0 -0.0014537802998699026 -0.0051869446977435077 0 -0.00060329272317281358 -0.005863659826000546 0 -0.0010161440713227527 -0.0038131144650076576 0 -0.00092304932847781375 -0.0034952695515105504 0 -0.0015422888334210875 -0.0038157416313052981 0 -0.00053061313542602975 -0.004137368348155139 0 -0.00060329272317281358 -0.005863659826000546 0 -6.4553694817983805e-05 -0.0044045139042652752 0 0.00020630015023531491 -0.0045230383081672366 0 3.2825349404242909e-05 -0.0045894005495314286 0 -6.4553694817983805e-05 -0.0044045139042652752 0 -7.4430247294876651e-05 -0.0045250768637822318 0 3.2825349404242909e-05 -0.0045894005495314286 0 -7.4430247294876651e-05 -0.0045250768637822318 0 -3.0457412953005761e-05 -0.0048439340049438095 0 -8.661352205824614e-05 -0.0044677429731693327 0 -7.4430247294876651e-05 -0.0045250768637822318 0 -3.0457412953005761e-05 -0.0048439340049438095 0 3.2825349404242909e-05 -0.0045894005495314286 0 0.00024737490023890514 -0.0048566120328301082 0 -3.0457412953005761e-05 -0.0048439340049438095 0 3.2825349404242909e-05 -0.0045894005495314286 0 0.00024737490023890514 -0.0048566120328301082 0 0.00020630015023531491 -0.0045230383081672366 0 3.2825349404242909e-05 -0.0045894005495314286 0 0.00024737490023890514 -0.0048566120328301082 0 6.4289200822123681e-05 -0.0056309668679723514 0 -3.0457412953005761e-05 -0.0048439340049438095 0 6.4289200822123681e-05 -0.0056309668679723514 0 4.4273841781200833e-07 -0.0057539778387506683 0 -3.004779440977384e-07 -0.0048916530406287514 0 6.4289200822123681e-05 -0.0056309668679723514 0 -3.0457412953005761e-05 -0.0048439340049438095 0 -3.004779440977384e-07 -0.0048916530406287514 0 -3.0457412953005761e-05 -0.0048439340049438095 0 -3.004779440977384e-07 -0.0048916530406287514 0 -8.661352205824614e-05 -0.0044677429731693327 0 -3.004779440977384e-07 -0.0048916530406287514 0 -8.661352205824614e-05 -0.0044677429731693327 0 -2.5285152549803633e-08 -0.0040295665315769587 0 -8.9948322050180089e-05 -0.0043170256293461997 0 -8.661352205824614e-05 -0.0044677429731693327 0 -2.5285152549803633e-08 -0.0040295665315769587 0 -8.9948322050180089e-05 -0.0043170256293461997 0 -2.5285152549803633e-08 -0.0040295665315769587 0 -6.0437637780941541e-05 -0.0034830730080766107 0 -8.9948322050180089e-05 -0.0043170256293461997 0 -7.4430247294876651e-05 -0.0045250768637822318 0 -8.661352205824614e-05 -0.0044677429731693327 0 -0.00022535662744528644 -0.0038008603824757955 0 -0.00010227747580191497 -0.003559468480147719 0 -2.5285152549803633e-08 -0.0040295665315769587 0 -4.4187570632086304e-07 -0.0031671285240856928 0 -6.0437637780941541e-05 -0.0034830730080766107 0 -4.4187570632086304e-07 -0.0031671285240856928 0 -6.0437637780941541e-05 -0.0034830730080766107 0 -2.7415713285280156e-05 -0.0030751423044772957 0 -6.0437637780941541e-05 -0.0034830730080766107 0 1.5925465980147325e-05 -0.0033068069678471343 0 -8.3296614000038336e-05 -0.0034207136129190108 0 -6.0437637780941541e-05 -0.0034830730080766107 0 -2.7415713285280156e-05 -0.0030751423044772957 0 1.5925465980147325e-05 -0.0033068069678471343 0 -0.0003447032285825803 -0.003362758052985363 0 -6.0437637780941541e-05 -0.0034830730080766107 0 -8.3296614000038336e-05 -0.0034207136129190108 0 -4.9749248513714753e-09 -0.0023050414921925522 0 3.0039882101850238e-05 -0.0024546184285804359 0 7.8178416277944428e-07 -0.0023066658012541636 0 -2.7415713285280156e-05 -0.0030751423044772957 0 0.00027720672125906002 -0.0030202648531311204 0 3.1789554080744906e-07 -0.0023041724816686205 0 -0.00017311621087909225 -0.001871430702703569 0 -7.9124859291106781e-07 -0.0016342036725473562 0 -4.4187570632086304e-07 -0.0031671285240856928 0 7.8178416277944428e-07 -0.0023066658012541636 0 -2.7415713285280156e-05 -0.0030751423044772957 0 -2.7415713285280156e-05 -0.0030751423044772957 0 0.00015670105859534524 -0.0032148584162488879 0 1.5925465980147325e-05 -0.0033068069678471343 0 -2.7415713285280156e-05 -0.0030751423044772957 0 0.00027720672125906002 -0.0030202648531311204 0 0.00015670105859534524 -0.0032148584162488879 0 0.00027720672125906002 -0.0030202648531311204 0 0.00015670105859534524 -0.0032148584162488879 0 0.00021012797384400834 -0.0031981827061216368 0 0.00015670105859534524 -0.0032148584162488879 0 0.00016560539176128835 -0.0032713258972393191 0 0.00021012797384400834 -0.0031981827061216368 0 0.00015670105859534524 -0.0032148584162488879 0 1.5925465980147325e-05 -0.0033068069678471343 0 0.00016560539176128835 -0.0032713258972393191 0 1.5925465980147325e-05 -0.0033068069678471343 0 0.00011562187575133862 -0.0035045835433464394 0 0.00016560539176128835 -0.0032713258972393191 0 1.5925465980147325e-05 -0.0033068069678471343 0 0.00011562187575133862 -0.0035045835433464394 0 -8.3296614000038336e-05 -0.0034207136129190108 0 0.00011562187575133862 -0.0035045835433464394 0 -8.3296614000038336e-05 -0.0034207136129190108 0 -0.00013945227583246587 -0.003664526859845856 0 -0.00025835147110257387 -0.0035234996578800146 0 -8.3296614000038336e-05 -0.0034207136129190108 0 -0.00013945227583246587 -0.003664526859845856 0 -0.00026844453974365261 -0.0039439907184867151 0 -0.00013945227583246587 -0.003664526859845856 0 -1.5330903720492677e-05 -0.0039761152962633113 0 -0.00026844453974365261 -0.0039439907184867151 0 -0.00024291653437995446 -0.0042220151668226459 0 -1.5330903720492677e-05 -0.0039761152962633113 0 -0.00024291653437995446 -0.0042220151668226459 0 -1.5330903720492677e-05 -0.0039761152962633113 0 -0.00010093793999365126 -0.0042451601475372571 0 0.00011562187575133862 -0.0035045835433464394 0 -0.00013945227583246587 -0.003664526859845856 0 -1.5330903720492677e-05 -0.0039761152962633113 0 0.00011562187575133862 -0.0035045835433464394 0 -1.5330903720492677e-05 -0.0039761152962633113 0 0.00041112828289395373 -0.0040006441044885639 0 0.00016560539176128835 -0.0032713258972393191 0 0.00011829425244326843 -0.0032742501752729357 0 0.00013542630880543607 -0.0031671343973794105 0 0.00011562187575133862 -0.0035045835433464394 0 0.00016560539176128835 -0.0032713258972393191 0 0.00011829425244326843 -0.0032742501752729357 0 -1.5330903720492677e-05 -0.0039761152962633113 0 0.00041112828289395373 -0.0040006441044885639 0 0.00024583783728913949 -0.0042450523855752072 0 0.00012502174211448058 -0.0035077315104040056 0 0.00023865253297584234 -0.0036132455621938069 0 0.00041112828289395373 -0.0040006441044885639 0 0.00024583783728913949 -0.0042450523855752072 0 0.0003687323694887312 -0.0042770981688525595 0 0.00041112828289395373 -0.0040006441044885639 0 0.0003687323694887312 -0.0042770981688525595 0 0.00048618463627731861 -0.0042214369577020074 0 0.00023865253297584234 -0.0036132455621938069 0 0.00039341441705605768 -0.003876466548031456 0 0.00036708370164966202 -0.0043676301797129242 0 0.00046525830779146042 -0.0043281755753482587 0 0.0003687323694887312 -0.0042770981688525595 0 0.00025332916679353 -0.0043446126057095167 0 0.00036708370164966202 -0.0043676301797129242 0 0.0003687323694887312 -0.0042770981688525595 0 0.00025332916679353 -0.0043446126057095167 0 0.00024583783728913949 -0.0042450523855752072 0 0.0003687323694887312 -0.0042770981688525595 0 0.00022323823327492336 -0.0042701810242220936 0 6.3179301123082008e-05 -0.0043303470507956802 0 0.00025332916679353 -0.0043446126057095167 0 0.00024583783728913949 -0.0042450523855752072 0 0.00015673369793520661 -0.0043117752241289822 0 -0.00028077560844059362 -0.0043638203653040396 0 -8.2809013802705479e-05 -0.0044495739584183656 0 -0.00010093793999365126 -0.0042451601475372571 0 -1.5330903720492677e-05 -0.0039761152962633113 0 0.00024583783728913949 -0.0042450523855752072 0 -0.00010093793999365126 -0.0042451601475372571 0 0.00024583783728913949 -0.0042450523855752072 0 -8.2809013802705479e-05 -0.0044495739584183656 0 -0.00010093793999365126 -0.0042451601475372571 0 0.00067617177909518533 -0.0033823029269055647 0 0.00054551518896529632 -0.0035800775779109093 0 0.00036229719325054266 -0.0033710117808264531 0 0.00045563991054738774 -0.0030832609971496948 0 0.00033737953186961623 -0.0033941841193076477 0 0.0010837006309361169 -0.0028028881978367538 0 0.0011373632638621307 -0.002505241294068782 0 0.0012673748253328215 -0.0025211133434907755 0 0.00089830070917290333 -0.0030459644645802891 0 0.00045563991054738774 -0.0030832609971496948 0 0.0010837006309361169 -0.0028028881978367538 0 0.00083208490652480257 -0.0028454545786675226 0 0.00095060970772669099 -0.0026144259725284585 0 0.00083208490652480257 -0.0028454545786675226 0 0.00095060970772669099 -0.0026144259725284585 0 0.00071300471191912721 -0.0025948282577650593 0 0.0010837006309361169 -0.0028028881978367538 0 0.00095060970772669099 -0.0026144259725284585 0 0.0011373632638621307 -0.002505241294068782 0 0.00098331934573561556 -0.0024151727812000857 0 0.0011506308550009198 -0.0023645205444934362 0 0.0011373632638621307 -0.002505241294068782 0 0.00095060970772669099 -0.0026144259725284585 0 0.00098331934573561556 -0.0024151727812000857 0 0.0011373632638621307 -0.002505241294068782 0 0.00095060970772669099 -0.0026144259725284585 0 0.00083711503178108117 -0.0024168203660998623 0 0.00098331934573561556 -0.0024151727812000857 0 0.00095060970772669099 -0.0026144259725284585 0 0.00083711503178108117 -0.0024168203660998623 0 0.00071300471191912721 -0.0025948282577650593 0 0.00086820686210138827 -0.0022493810040077056 0 0.00083711503178108117 -0.0024168203660998623 0 0.00098331934573561556 -0.0024151727812000857 0 0.00086820686210138827 -0.0022493810040077056 0 0.00098331934573561556 -0.0024151727812000857 0 0.0011506308550009198 -0.0023645205444934362 0 0.00020754155578643328 -0.0034845176873435197 0 0.00045563991054738774 -0.0030832609971496948 0 1.962583664093659e-05 -0.0028660977069625638 0 -0.00015904779303742482 -0.0029650166311906362 0 -9.4355097840612376e-05 -0.0030435722022593855 0 0.00064359066107536023 -0.0024108649720337117 0 0.00082780541998291914 -0.0024336568316838101 0 0.0011448794317351892 -0.0023717732558696985 0 0.0011373632638621307 -0.002505241294068782 0 0.0012673748253328215 -0.0025211133434907755 0 0.00064359066107536023 -0.0024108649720337117 0 0.00045563991054738774 -0.0030832609971496948 0 0.00020754155578643328 -0.0034845176873435197 0 0.00039341441705605768 -0.003876466548031456 0 0.00027407180651029298 -0.0034622321497681796 0 0.00032888084440040733 -0.003377688984018527 0 0.00026377709825878482 -0.0033752497659918419 0 0.00027407180651029298 -0.0034622321497681796 0 0.00026377709825878482 -0.0033752497659918419 0 0.00018616786004229316 -0.0033576665588029033 0 0.00046525830779146042 -0.0043281755753482587 0 0.00055756956737787163 -0.004340793311840555 0 0.00048618463627731861 -0.0042214369577020074 0 0.00046525830779146042 -0.0043281755753482587 0 0.0003687323694887312 -0.0042770981688525595 0 0.00048618463627731861 -0.0042214369577020074 0 0.00018616786004229316 -0.0033576665588029033 0 0.00026655316300372163 -0.0033044190661637774 0 0.00019915021678452297 -0.0032290763982493662 0 0.00032888084440040733 -0.003377688984018527 0 0.00026377709825878482 -0.0033752497659918419 0 0.00026655316300372163 -0.0033044190661637774 0 0.00026377709825878482 -0.0033752497659918419 0 0.00018616786004229316 -0.0033576665588029033 0 0.00026655316300372163 -0.0033044190661637774 0 0.00036229719325054266 -0.0033710117808264531 0 0.00037124448975606921 -0.0031902508983919905 0 0.00019915021678452297 -0.0032290763982493662 0 0.00033737953186961623 -0.0033941841193076477 0 0.00019715361782652989 -0.0032145743179603017 0 0.00011829425244326843 -0.0032742501752729357 0 0.00018616786004229316 -0.0033576665588029033 0 0.00019915021678452297 -0.0032290763982493662 0 0.00019915021678452297 -0.0032290763982493662 0 0.00013542630880543607 -0.0031671343973794105 0 0.0001234265397489589 -0.0029849286067063006 0 0.00011829425244326843 -0.0032742501752729357 0 0.00019915021678452297 -0.0032290763982493662 0 0.00013542630880543607 -0.0031671343973794105 0 0.00037124448975606921 -0.0031902508983919905 0 0.00019915021678452297 -0.0032290763982493662 0 0.0001234265397489589 -0.0029849286067063006 0 0.00037124448975606921 -0.0031902508983919905 0 0.00047025723042764297 -0.003043706715711678 0 0.0001234265397489589 -0.0029849286067063006 0 0.00047025723042764297 -0.003043706715711678 0 0.00057876731139397907 -0.003181533232914991 0 0.00070582482425214416 -0.0029765416786759298 0 0.00037124448975606921 -0.0031902508983919905 0 0.00047025723042764297 -0.003043706715711678 0 0.00057876731139397907 -0.003181533232914991 0 0.00067617177909518533 -0.0033823029269055647 0 0.00036229719325054266 -0.0033710117808264531 0 0.00057876731139397907 -0.003181533232914991 0 0.00036229719325054266 -0.0033710117808264531 0 0.00037124448975606921 -0.0031902508983919905 0 0.00057876731139397907 -0.003181533232914991 0 0.00067617177909518533 -0.0033823029269055647 0 0.00057876731139397907 -0.003181533232914991 0 0.00082286470521350985 -0.0030910645399414584 0 0.0010837006309361169 -0.0028028881978367538 0 0.00083208490652480257 -0.0028454545786675226 0 0.00082286470521350985 -0.0030910645399414584 0 0.00083208490652480257 -0.0028454545786675226 0 0.00082286470521350985 -0.0030910645399414584 0 0.00076194606346167732 -0.003015692059341637 0 0.00089830070917290333 -0.0030459644645802891 0 0.00083089279153220682 -0.0031087825739450682 0 0.00082286470521350985 -0.0030910645399414584 0 0.00070582482425214416 -0.0029765416786759298 0 0.00087371180624273956 -0.002987957333067514 0 0.00057876731139397907 -0.003181533232914991 0 0.00082286470521350985 -0.0030910645399414584 0 0.00070582482425214416 -0.0029765416786759298 0 0.0004075799656872077 -0.0012185592957603369 0 0.00042991971679956964 -0.001612642514030507 0 0.00070582482425214416 -0.0029765416786759298 0 0.00087784451091668875 -0.0025727065427777738 0 0.00087371180624273956 -0.002987957333067514 0 0.00070582482425214416 -0.0029765416786759298 0 0.000530508139722747 -0.0027039690074898699 0 0.00087784451091668875 -0.0025727065427777738 0 0.00047025723042764297 -0.003043706715711678 0 0.00070582482425214416 -0.0029765416786759298 0 0.000530508139722747 -0.0027039690074898699 0 0.000530508139722747 -0.0027039690074898699 0 0.00021409707630211467 -0.0023173861553289869 0 0.00066373644312331241 -0.0018995568937193491 0 0.000530508139722747 -0.0027039690074898699 0 0.00087784451091668875 -0.0025727065427777738 0 0.00066373644312331241 -0.0018995568937193491 0 0.0004075799656872077 -0.0012185592957603369 0 0.00031925978215389847 -0.0009992742327829345 0 -3.9129259258914708e-05 6.9335198222566006e-05 0 -4.8573045594308288e-05 4.3276275837009826e-05 0 -4.8181876339415936e-05 7.6825025215954349e-05 0 0.00016560539176128835 -0.0032713258972393191 0 0.0001234265397489589 -0.0029849286067063006 0 0.00021012797384400834 -0.0031981827061216368 0 0.00016560539176128835 -0.0032713258972393191 0 0.00013542630880543607 -0.0031671343973794105 0 0.0001234265397489589 -0.0029849286067063006 0 0.00047025723042764297 -0.003043706715711678 0 0.000530508139722747 -0.0027039690074898699 0 0.0001234265397489589 -0.0029849286067063006 0 0.000530508139722747 -0.0027039690074898699 0 0.0001234265397489589 -0.0029849286067063006 0 0.00021409707630211467 -0.0023173861553289869 0 0.00011101973707494435 -0.002964215412225604 0 1.6992517174576696e-05 -0.0027250669712053006 0 0.0001234265397489589 -0.0029849286067063006 0 0.00021409707630211467 -0.0023173861553289869 0 -0.0002356160154571789 -0.0022499536793765002 0 -0.00017311621087909225 -0.001871430702703569 0 -0.0002356160154571789 -0.0022499536793765002 0 -3.3419083799961199e-05 -0.0017713434971220355 0 3.0039882101850238e-05 -0.0024546184285804359 0 1.6992517174576696e-05 -0.0027250669712053006 0 0.00021409707630211467 -0.0023173861553289869 0 -0.0002356160154571789 -0.0022499536793765002 0 -3.3419083799961199e-05 -0.0017713434971220355 0 0.00021409707630211467 -0.0023173861553289869 0 -3.3419083799961199e-05 -0.0017713434971220355 0 0.00066373644312331241 -0.0018995568937193491 0 -3.3419083799961199e-05 -0.0017713434971220355 0 1.3281407267787066e-06 -0.00096472617888801882 0 0.00066373644312331241 -0.0018995568937193491 0 -3.3419083799961199e-05 -0.0017713434971220355 0 1.3281407267787066e-06 -0.00096472617888801882 0 -7.9124859291106781e-07 -0.0016342036725473562 0 -0.00017311621087909225 -0.001871430702703569 0 -3.3419083799961199e-05 -0.0017713434971220355 0 -7.9124859291106781e-07 -0.0016342036725473562 0 -3.9129259258914708e-05 6.9335198222566006e-05 0 -4.8573045594308288e-05 4.3276275837009826e-05 0 4.8517814200994064e-05 -7.7228890447395018e-05 0 1.0309951762784119e-07 -0.00096330451117248043 0 0.00031925978215389847 -0.0009992742327829345 0 5.8319555155899435e-07 -0.00096214242240078571 0 4.8517814200994064e-05 -7.7228890447395018e-05 0 -3.0494503216882157e-07 -0.0002877552642573501 0 -4.8573045594308288e-05 4.3276275837009826e-05 0 -3.0494503216882157e-07 -0.0002877552642573501 0 -6.7873083456386325e-05 0.0002144779095507643 0 -4.8573045594308288e-05 4.3276275837009826e-05 0 4.8517814200994064e-05 -7.7228890447395018e-05 0 -3.0494503216882157e-07 -0.0002877552642573501 0 -3.0494503216882157e-07 -0.0002877552642573501 0 -2.2861644122203796e-07 0.00038846533531461597 0 -6.7873083456386325e-05 0.0002144779095507643 0 -2.2861644122203796e-07 0.00038846533531461597 0 -6.7873083456386325e-05 0.0002144779095507643 0 -1.3483585608760705e-05 0.0004706357263381132 0 -4.8573045594308288e-05 4.3276275837009826e-05 0 -6.7873083456386325e-05 0.0002144779095507643 0 -4.8181876339415936e-05 7.6825025215954349e-05 0 -6.7873083456386325e-05 0.0002144779095507643 0 -4.8181876339415936e-05 7.6825025215954349e-05 0 3.8959369416305113e-05 6.3204310959745854e-05 0 0.00019158025792841924 0.0011500996711752325 0 0.00010950186234304202 0.00073801330042096939 0 -6.7873083456386325e-05 0.0002144779095507643 0 8.9950057164722613e-05 0.0002950635794228904 0 6.0236365434870844e-05 0.00019224661727084346 0 -3.8388646445094956e-05 -2.018649920182927e-05 0 0.00010950186234304202 0.00073801330042096939 0 -2.2861644122203796e-07 0.00038846533531461597 0 -1.3483585608760705e-05 0.0004706357263381132 0 5.2419713408841793e-07 0.0010630991263867206 0 8.9950057164722613e-05 0.0002950635794228904 0 -1.3483585608760705e-05 0.0004706357263381132 0 5.2419713408841793e-07 0.0010630991263867206 0 -6.7873083456386325e-05 0.0002144779095507643 0 8.9950057164722613e-05 0.0002950635794228904 0 -1.3483585608760705e-05 0.0004706357263381132 0 0.00031810558544400041 0.0018461573842115493 0 8.0158635936819563e-07 0.0010656275877997108 0 -2.2371782988315135e-05 0.0018709578819138281 0 0.00019158025792841924 0.0011500996711752325 0 7.0467749586115428e-08 0.0010640630199093813 0 -3.3350678167890267e-07 0.0017947395168137305 0 -2.2371782988315135e-05 0.0018709578819138281 0 -8.7052986872242013e-05 0.0021333629289085614 0 8.0158635936819563e-07 0.0010656275877997108 0 -3.3350678167890267e-07 0.0017947395168137305 0 -2.2371782988315135e-05 0.0018709578819138281 0 -2.2371782988315135e-05 0.0018709578819138281 0 -4.2635215081039934e-05 0.0021680935308303812 0 -8.7052986872242013e-05 0.0021333629289085614 0 -2.2371782988315135e-05 0.0018709578819138281 0 0.00011138316246447535 0.0020740007833591123 0 -4.2635215081039934e-05 0.0021680935308303812 0 0.00031810558544400041 0.0018461573842115493 0 -2.2371782988315135e-05 0.0018709578819138281 0 0.00011138316246447535 0.0020740007833591123 0 0.00031810558544400041 0.0018461573842115493 0 0.00011138316246447535 0.0020740007833591123 0 0.00032312504267274257 0.0021508924915944272 0 0.00011138316246447535 0.0020740007833591123 0 5.4879794511916071e-05 0.002231454001976536 0 0.00032312504267274257 0.0021508924915944272 0 5.4879794511916071e-05 0.002231454001976536 0 -4.2635215081039934e-05 0.0021680935308303812 0 -4.3134685443129262e-05 0.0022807992696993445 0 0.00011138316246447535 0.0020740007833591123 0 5.4879794511916071e-05 0.002231454001976536 0 -4.2635215081039934e-05 0.0021680935308303812 0 5.4879794511916071e-05 0.002231454001976536 0 3.9200679411328159e-05 0.0023222962013124677 0 -4.3134685443129262e-05 0.0022807992696993445 0 5.4879794511916071e-05 0.002231454001976536 0 3.9200679411328159e-05 0.0023222962013124677 0 0.00016063068721734801 0.0023138019109975039 0 5.4879794511916071e-05 0.002231454001976536 0 0.00016063068721734801 0.0023138019109975039 0 0.00032312504267274257 0.0021508924915944272 0 2.0315624618470246e-05 2.2294437023267296e-05 0 0.00010950186234304202 0.00073801330042096939 0 0.0002415065154988843 0.0001848895952364524 0 5.9053290527713342e-05 0.0001989435600976414 0 0.0001470166802482132 6.3502528757798264e-05 0 0.0002415065154988843 0.0001848895952364524 0 5.9053290527713342e-05 0.0001989435600976414 0 0.00011226809033312736 0.00040927935775127416 0 0.00017136638859185119 0.0013212228712405464 0 0.00010950186234304202 0.00073801330042096939 0 1.9111957227871377e-05 2.6986415884885949e-05 0 -1.7684297371832994e-05 4.95447113034374e-05 0 3.8959369416305113e-05 6.3204310959745854e-05 0 1.9111957227871377e-05 2.6986415884885949e-05 0 -1.7684297371832994e-05 4.95447113034374e-05 0 -2.2853557380477977e-05 1.3280217106418585e-05 0 -3.9129259258914708e-05 6.9335198222566006e-05 0 -1.7684297371832994e-05 4.95447113034374e-05 0 -2.2853557380477977e-05 1.3280217106418585e-05 0 -3.9129259258914708e-05 6.9335198222566006e-05 0 -1.7684297371832994e-05 4.95447113034374e-05 0 -4.8181876339415936e-05 7.6825025215954349e-05 0 -1.7684297371832994e-05 4.95447113034374e-05 0 -4.8181876339415936e-05 7.6825025215954349e-05 0 3.8959369416305113e-05 6.3204310959745854e-05 0 0.00039635243862738597 0.0027311622775751604 0 0.0001354282986356159 0.0024337245546310767 0 0.00035076238706827068 0.0024849611658064102 0 0.00039635243862738597 0.0027311622775751604 0 -2.3190952715300446e-05 0.0025997796912768357 0 0.0001354282986356159 0.0024337245546310767 0 0.00020009101697103098 0.0035959882852474763 0 4.282334673550984e-08 0.0032566035717644993 0 0.00016557285053596312 0.0043377199992776306 0 5.6561630828886217e-07 0.0032572148882676517 0 1.3278183853072149e-08 0.0039812314923847259 0 0.00039635243862738597 0.0027311622775751604 0 6.7579214189629482e-07 0.0032548574579687097 0 -2.3190952715300446e-05 0.0025997796912768357 0 6.7579214189629482e-07 0.0032548574579687097 0 -2.3190952715300446e-05 0.0025997796912768357 0 -3.7256155717379378e-07 0.002525961659895676 0 -2.3190952715300446e-05 0.0025997796912768357 0 -3.3868364657085176e-05 0.0023517588625718679 0 0.0001354282986356159 0.0024337245546310767 0 -2.3190952715300446e-05 0.0025997796912768357 0 -6.2686112098873345e-05 0.002343456806517165 0 -3.3868364657085176e-05 0.0023517588625718679 0 -2.3190952715300446e-05 0.0025997796912768357 0 -6.2686112098873345e-05 0.002343456806517165 0 -3.7256155717379378e-07 0.002525961659895676 0 -6.2686112098873345e-05 0.002343456806517165 0 -3.7256155717379378e-07 0.002525961659895676 0 -8.7052986872242013e-05 0.0021333629289085614 0 -3.3350678167890267e-07 0.0017947395168137305 0 -3.7256155717379378e-07 0.002525961659895676 0 -8.7052986872242013e-05 0.0021333629289085614 0 -6.2686112098873345e-05 0.002343456806517165 0 -8.7052986872242013e-05 0.0021333629289085614 0 -7.919068996539064e-05 0.0022629095767579513 0 -4.2635215081039934e-05 0.0021680935308303812 0 -8.7052986872242013e-05 0.0021333629289085614 0 -7.919068996539064e-05 0.0022629095767579513 0 -4.2635215081039934e-05 0.0021680935308303812 0 -7.919068996539064e-05 0.0022629095767579513 0 -4.3134685443129262e-05 0.0022807992696993445 0 -4.3134685443129262e-05 0.0022807992696993445 0 -5.9554293820660591e-05 0.0022713361676991606 0 -6.2101597117686033e-05 0.0023314214797490523 0 -7.919068996539064e-05 0.0022629095767579513 0 -4.3134685443129262e-05 0.0022807992696993445 0 -5.9554293820660591e-05 0.0022713361676991606 0 -0.00021454416259165238 0.0019862445101385844 0 0.00066395845128171217 0.0029131529690906363 0 -7.5570504178594581e-06 0.0022394084269478885 0 4.5329732099127176e-05 0.0021952811947920656 0 -9.7687777708203895e-05 0.0021634998051462554 0 -5.9554293820660591e-05 0.0022713361676991606 0 -7.5570504178594581e-06 0.0022394084269478885 0 -9.7687777708203895e-05 0.0021634998051462554 0 -5.9554293820660591e-05 0.0022713361676991606 0 -7.5570504178594581e-06 0.0022394084269478885 0 4.2530636067098942e-05 0.0022997236393976646 0 -5.9554293820660591e-05 0.0022713361676991606 0 -3.3868364657085176e-05 0.0023517588625718679 0 4.2530636067098942e-05 0.0022997236393976646 0 -7.919068996539064e-05 0.0022629095767579513 0 -5.9554293820660591e-05 0.0022713361676991606 0 -3.3868364657085176e-05 0.0023517588625718679 0 -6.2686112098873345e-05 0.002343456806517165 0 -7.919068996539064e-05 0.0022629095767579513 0 -3.3868364657085176e-05 0.0023517588625718679 0 -3.3868364657085176e-05 0.0023517588625718679 0 0.0001354282986356159 0.0024337245546310767 0 4.2530636067098942e-05 0.0022997236393976646 0 0.0001354282986356159 0.0024337245546310767 0 4.2530636067098942e-05 0.0022997236393976646 0 0.00016350123833380796 0.0022973615144785374 0 -7.5570504178594581e-06 0.0022394084269478885 0 4.2530636067098942e-05 0.0022997236393976646 0 4.5329732099127176e-05 0.0021952811947920656 0 0.0010191159697024578 0.0050438387110934117 0 0.00093849721112067611 0.0053255245345510951 0 4.5329732099127176e-05 0.0021952811947920656 0 0.00016350123833380796 0.0022973615144785374 0 5.6508842466887872e-05 0.0021785985845462047 0 4.2530636067098942e-05 0.0022997236393976646 0 4.5329732099127176e-05 0.0021952811947920656 0 0.00016350123833380796 0.0022973615144785374 0 0.00093849721112067611 0.0053255245345510951 0 0.00108321831499707 0.0050040371072780677 0 0.00016350123833380796 0.0022973615144785374 0 5.6508842466887872e-05 0.0021785985845462047 0 0.00039529352560463616 0.002247989257788185 0 0.0001354282986356159 0.0024337245546310767 0 0.00016350123833380796 0.0022973615144785374 0 0.00035076238706827068 0.0024849611658064102 0 0.00016350123833380796 0.0022973615144785374 0 0.00035076238706827068 0.0024849611658064102 0 0.00039529352560463616 0.002247989257788185 0 0.0018401567178236366 0.0083582275284693943 0 0.0020172198923129213 0.0080422987574352567 0 0.0016490342255062636 0.0079669539492016675 0 0.0010382051561428208 0.0055337152832892695 0 0.001125956338719369 0.0054240219869815046 0 0.0011613070653599857 0.0055142994572794889 0 0.0014655091775009749 0.0071874206054311071 0 0.00093849721112067611 0.0053255245345510951 0 0.0010382051561428208 0.0055337152832892695 0 0.0011613070653599857 0.0055142994572794889 0 0.0011216164435420939 0.0055950762090700911 0 0.0011613070653599857 0.0055142994572794889 0 0.0011878149746358286 0.0055957843921554135 0 0.0011216164435420939 0.0055950762090700911 0 0.0012308841422926189 0.0055171203513419845 0 0.0011613070653599857 0.0055142994572794889 0 0.0012140375212705099 0.0054685545760787121 0 0.0012308841422926189 0.0055171203513419845 0 0.0011613070653599857 0.0055142994572794889 0 0.0011878149746358286 0.0055957843921554135 0 0.001125956338719369 0.0054240219869815046 0 0.0011613070653599857 0.0055142994572794889 0 0.0012140375212705099 0.0054685545760787121 0 4.5329732099127176e-05 0.0021952811947920656 0 5.2711554519329025e-05 0.0021866618651450961 0 -9.7687777708203895e-05 0.0021634998051462554 0 0.00093849721112067611 0.0053255245345510951 0 0.00066395845128171217 0.0029131529690906363 0 0.00066395845128171217 0.0029131529690906363 0 0.00050492316166895568 0.0020790108633717986 0 0.0011683461153508697 0.0018402542508052832 0 0.0010314903065851855 0.0017912989709596213 0 0.0010822028503165773 0.0016443264857551516 0 -4.3134685443129262e-05 0.0022807992696993445 0 -6.2101597117686033e-05 0.0023314214797490523 0 -1.3397990601299962e-05 0.0023673377668922313 0 0.0012308841422926189 0.0055171203513419845 0 0.0012140375212705099 0.0054685545760787121 0 0.0011396968732492133 0.0054945857694286317 0 0.0010314903065851855 0.0017912989709596213 0 0.0010822028503165773 0.0016443264857551516 0 0.00099480861444219658 0.0016541371166155306 0 0.00066395845128171217 0.0029131529690906363 0 0.0012113942572390477 0.0037489364869659034 0 0.0011396968732492133 0.0054945857694286317 0 0.0010852053865371431 0.0051416903145170079 0 0.00096099999796045292 0.0051395266222951097 0 0.0011808988285678939 0.0053981345985815018 0 0.0012746734089667099 0.0057113353148111985 0 0.0012308841422926189 0.0055171203513419845 0 0.0011396968732492133 0.0054945857694286317 0 0.0010852053865371431 0.0051416903145170079 0 0.0012308841422926189 0.0055171203513419845 0 0.0012502952283068025 0.0056462449905209109 0 0.001331653948199933 0.0057202647435499378 0 0.0012113942572390477 0.0037489364869659034 0 0.00090626179747607118 0.0031361945334590162 0 0.0012502952283068025 0.0056462449905209109 0 0.001331653948199933 0.0057202647435499378 0 0.0012777077346751414 0.0057090879788466217 0 0.0012502952283068025 0.0056462449905209109 0 0.0012777077346751414 0.0057090879788466217 0 0.0012291820999321928 0.0056868288193712849 0 0.001331653948199933 0.0057202647435499378 0 0.0012991538535631342 0.0057447159599620795 0 0.0013064645668537096 0.0057772846717697463 0 0.001331653948199933 0.0057202647435499378 0 0.0012991538535631342 0.0057447159599620795 0 0.0012777077346751414 0.0057090879788466217 0 0.0012991538535631342 0.0057447159599620795 0 0.0013064645668537096 0.0057772846717697463 0 0.0012745717565822308 0.0057618760476584284 0 0.0013064645668537096 0.0057772846717697463 0 0.0012745717565822308 0.0057618760476584284 0 0.0012837710060864464 0.0058222780214547193 0 0.0012991538535631342 0.0057447159599620795 0 0.0012745717565822308 0.0057618760476584284 0 0.0012777077346751414 0.0057090879788466217 0 0.0012745717565822308 0.0057618760476584284 0 0.0012777077346751414 0.0057090879788466217 0 0.0012291820999321928 0.0056868288193712849 0 0.0012745717565822308 0.0057618760476584284 0 0.0012207270800974898 0.0057575596154464349 0 0.0012291820999321928 0.0056868288193712849 0 0.0012745717565822308 0.0057618760476584284 0 0.0012207270800974898 0.0057575596154464349 0 0.0012562856215558732 0.0058001546789218719 0 0.0012207270800974898 0.0057575596154464349 0 0.0011571504780408255 0.0057589146479661221 0 0.0012350868811700508 0.0058414258179750218 0 0.0012207270800974898 0.0057575596154464349 0 0.001161882078552763 0.0056767842853255477 0 0.0011571504780408255 0.0057589146479661221 0 0.0012207270800974898 0.0057575596154464349 0 0.0012291820999321928 0.0056868288193712849 0 0.001161882078552763 0.0056767842853255477 0 0.0012291820999321928 0.0056868288193712849 0 0.0011878149746358286 0.0055957843921554135 0 0.001161882078552763 0.0056767842853255477 0 0.0012502952283068025 0.0056462449905209109 0 0.0012291820999321928 0.0056868288193712849 0 0.0011878149746358286 0.0055957843921554135 0 0.0012308841422926189 0.0055171203513419845 0 0.0012502952283068025 0.0056462449905209109 0 0.0011878149746358286 0.0055957843921554135 0 0.0010382051561428208 0.0055337152832892695 0 0.0011216164435420939 0.0055950762090700911 0 0.0010644532042165 0.0056780818618982236 0 0.0011878149746358286 0.0055957843921554135 0 0.0011216164435420939 0.0055950762090700911 0 0.001161882078552763 0.0056767842853255477 0 0.0011216164435420939 0.0055950762090700911 0 0.001161882078552763 0.0056767842853255477 0 0.0010644532042165 0.0056780818618982236 0 0.0011571504780408255 0.0057589146479661221 0 0.0010301917306181736 0.005792875127122267 0 0.0010644532042165 0.0056780818618982236 0 0.0011571504780408255 0.0057589146479661221 0 0.0010301917306181736 0.005792875127122267 0 0.0011494850898552552 0.0058554929505727936 0 0.001161882078552763 0.0056767842853255477 0 0.0011571504780408255 0.0057589146479661221 0 0.0010644532042165 0.0056780818618982236 0 0.0010301917306181736 0.005792875127122267 0 0.0010644532042165 0.0056780818618982236 0 0.00092290305305668067 0.0056833216017915609 0 0.0014655091775009749 0.0071874206054311071 0 0.0012954716982448568 0.0071301664232373864 0 0.0010382051561428208 0.0055337152832892695 0 0.0010644532042165 0.0056780818618982236 0 0.00092290305305668067 0.0056833216017915609 0 0.00055456847842203514 -0.00073625847537272648 0 0.0005376258376528656 0.0008041512532244706 0 3.1849604263530414e-05 -8.7291860633575448e-05 0 2.5706057100708911e-05 -1.8039657858404912e-05 0 0.00018493957754494501 -6.2410249049321836e-05 0 0.00067080333101648992 0.0016230589056238447 0 0.00078731021520416324 0.0016720573294448479 0 0.00084919815727160048 0.0015666447887916497 0 0.00067133384263986075 -0.0029983638759660978 0 0.00076194606346167732 -0.003015692059341637 0 0.00087371180624273956 -0.002987957333067514 0 0.00065939965798597437 -0.0029988687127598694 0 0.00067133384263986075 -0.0029983638759660978 0 0.00087371180624273956 -0.002987957333067514 0 0.00058341825163007424 -0.0030108954851255938 0 0.00067133384263986075 -0.0029983638759660978 0 0.0006484671689170068 -0.0028293320625861823 0 0.00082286470521350985 -0.0030910645399414584 0 0.00076194606346167732 -0.003015692059341637 0 0.00087371180624273956 -0.002987957333067514 0 0.00067133384263986075 -0.0029983638759660978 0 0.00076194606346167732 -0.003015692059341637 0 0.0006484671689170068 -0.0028293320625861823 0 0.00055456847842203514 -0.00073625847537272648 0 0.00044466837183210591 -0.0010232753687714816 0 0.00083208490652480257 -0.0028454545786675226 0 0.00076194606346167732 -0.003015692059341637 0 0.0006484671689170068 -0.0028293320625861823 0 0.00055456847842203514 -0.00073625847537272648 0 0.00042991971679956964 -0.001612642514030507 0 1.9111957227871377e-05 2.6986415884885949e-05 0 -2.2853557380477977e-05 1.3280217106418585e-05 0 2.5706057100708911e-05 -1.8039657858404912e-05 0 3.1849604263530414e-05 -8.7291860633575448e-05 0 -2.2853557380477977e-05 1.3280217106418585e-05 0 2.5706057100708911e-05 -1.8039657858404912e-05 0 5.9053290527713342e-05 0.0001989435600976414 0 2.5706057100708911e-05 -1.8039657858404912e-05 0 0.0001470166802482132 6.3502528757798264e-05 0 2.5706057100708911e-05 -1.8039657858404912e-05 0 0.0001470166802482132 6.3502528757798264e-05 0 0.00018493957754494501 -6.2410249049321836e-05 0 2.0315624618470246e-05 2.2294437023267296e-05 0 3.1057711197753342e-05 2.8016460295503347e-05 0 0.00017136638859185119 0.0013212228712405464 0 0.00040866713818053167 0.0013083726713204271 0 0.0001470166802482132 6.3502528757798264e-05 0 0.00035443029705973779 -1.0360998576086116e-05 0 0.00018493957754494501 -6.2410249049321836e-05 0 3.9200679411328159e-05 0.0023222962013124677 0 0.00016063068721734801 0.0023138019109975039 0 6.7579858301087536e-05 0.0024010871875471355 0 0.0002415065154988843 0.0001848895952364524 0 0.0001470166802482132 6.3502528757798264e-05 0 0.00035443029705973779 -1.0360998576086116e-05 0 3.9200679411328159e-05 0.0023222962013124677 0 -4.3134685443129262e-05 0.0022807992696993445 0 -1.3397990601299962e-05 0.0023673377668922313 0 0.0010314903065851855 0.0017912989709596213 0 0.00089493890262515741 0.0017411466169336123 0 0.00092925441307908148 0.0016884159725631376 0 3.9200679411328159e-05 0.0023222962013124677 0 -1.3397990601299962e-05 0.0023673377668922313 0 6.7579858301087536e-05 0.0024010871875471355 0 0.00050492316166895568 0.0020790108633717986 0 0.00040866713818053167 0.0013083726713204271 0 0.0010314903065851855 0.0017912989709596213 0 0.00092925441307908148 0.0016884159725631376 0 0.00099480861444219658 0.0016541371166155306 0 0.0009040955715432815 0.0017205602594592263 0 0.00092925441307908148 0.0016884159725631376 0 0.00087562948396571012 0.001653496528694556 0 0.00040866713818053167 0.0013083726713204271 0 0.00055788714069962195 0.0014644762367097793 0 0.00090814411438466889 0.0016172199531197485 0 0.00099480861444219658 0.0016541371166155306 0 0.00096546470475156849 0.0015792097364883345 0 0.00092925441307908148 0.0016884159725631376 0 0.00090814411438466889 0.0016172199531197485 0 0.00087562948396571012 0.001653496528694556 0 0.00092925441307908148 0.0016884159725631376 0 0.00090814411438466889 0.0016172199531197485 0 0.00099480861444219658 0.0016541371166155306 0 0.0010822028503165773 0.0016443264857551516 0 0.00099480861444219658 0.0016541371166155306 0 0.00096546470475156849 0.0015792097364883345 0 0.0009040955715432815 0.0017205602594592263 0 0.00078731021520416324 0.0016720573294448479 0 0.00087562948396571012 0.001653496528694556 0 0.00040866713818053167 0.0013083726713204271 0 0.0005376258376528656 0.0008041512532244706 0 0.00090814411438466889 0.0016172199531197485 0 0.00087562948396571012 0.001653496528694556 0 0.00084919815727160048 0.0015666447887916497 0 0.00078731021520416324 0.0016720573294448479 0 0.00087562948396571012 0.001653496528694556 0 0.00084919815727160048 0.0015666447887916497 0 0.00084919815727160048 0.0015666447887916497 0 0.00088939155273466642 0.001421823164296533 0 0.00078023553647833669 0.0014462641422450463 0 0.00084919815727160048 0.0015666447887916497 0 0.00096546470475156849 0.0015792097364883345 0 0.00088939155273466642 0.001421823164296533 0 0.0010822028503165773 0.0016443264857551516 0 0.00096546470475156849 0.0015792097364883345 0 0.00099919668437082102 0.0014756203252051547 0 0.00096546470475156849 0.0015792097364883345 0 0.00099919668437082102 0.0014756203252051547 0 0.00088939155273466642 0.001421823164296533 0 0.00090814411438466889 0.0016172199531197485 0 0.00084919815727160048 0.0015666447887916497 0 0.00096546470475156849 0.0015792097364883345 0 0.0010852053865371431 0.0051416903145170079 0 0.00096099999796045292 0.0051395266222951097 0 0.00074780980979841408 0.0045959207351482243 0 0.00099919668437082102 0.0014756203252051547 0 0.00088939155273466642 0.001421823164296533 0 0.00092416857956880794 0.0013170134637029019 0 0.00090626179747607118 0.0031361945334590162 0 0.0011053450066224879 0.0036289356264718685 0 0.0012746734089667099 0.0057113353148111985 0 0.0011053450066224879 0.0036289356264718685 0 0.001331653948199933 0.0057202647435499378 0 0.0013064645668537096 0.0057772846717697463 0 0.0013160103898979386 0.0058003082331184817 0 0.0005720047111699352 -0.00061947240243840273 0 0.00034828928018510775 0.00010271054101547131 0 0.00088939155273466642 0.001421823164296533 0 0.00078023553647833669 0.0014462641422450463 0 0.00088656396770137632 0.0012653937652747566 0 0.00027171287909309917 -0.002500122098757896 0 0.00064170355098338715 -0.0022628844946958639 0 0.00042212251764236407 -0.0020727428596750645 0 0.00055456847842203514 -0.00073625847537272648 0 0.0005720047111699352 -0.00061947240243840273 0 0.00067080333101648992 0.0016230589056238447 0 0.00084919815727160048 0.0015666447887916497 0 0.00078023553647833669 0.0014462641422450463 0 0.00058341825163007424 -0.0030108954851255938 0 0.00027171287909309917 -0.002500122098757896 0 0.0006484671689170068 -0.0028293320625861823 0 0.00027171287909309917 -0.002500122098757896 0 0.0006484671689170068 -0.0028293320625861823 0 0.00071300471191912721 -0.0025948282577650593 0 0.00083208490652480257 -0.0028454545786675226 0 0.0006484671689170068 -0.0028293320625861823 0 0.00071300471191912721 -0.0025948282577650593 0 0.00027171287909309917 -0.002500122098757896 0 0.00071300471191912721 -0.0025948282577650593 0 0.00064170355098338715 -0.0022628844946958639 0 0.00083711503178108117 -0.0024168203660998623 0 0.00071300471191912721 -0.0025948282577650593 0 0.00064170355098338715 -0.0022628844946958639 0 0.00086820686210138827 -0.0022493810040077056 0 0.00083711503178108117 -0.0024168203660998623 0 0.00064170355098338715 -0.0022628844946958639 0 0.00064170355098338715 -0.0022628844946958639 0 0.00042212251764236407 -0.0020727428596750645 0 0.00079199051805007789 -0.0019385189096047038 0 0.00086820686210138827 -0.0022493810040077056 0 0.00064170355098338715 -0.0022628844946958639 0 0.00079199051805007789 -0.0019385189096047038 0 0.00042212251764236407 -0.0020727428596750645 0 0.00033187440186800129 -0.0018989183700456114 0 0.00049570305246021825 -0.001830803095097315 0 0.00049570305246021825 -0.001830803095097315 0 0.00034017420018064192 -0.0016956032833264601 0 0.00042069834701669593 -0.0017264391195928046 0 0.00033187440186800129 -0.0018989183700456114 0 0.00049570305246021825 -0.001830803095097315 0 0.00034017420018064192 -0.0016956032833264601 0 0.00064501259360676339 -0.0018045963431008469 0 0.00045111376346635367 -0.0016900151175390477 0 0.00045849727745855227 -0.0017589729245601601 0 0.00046154923541203189 -0.0016951139117050513 0 0.00043716536584876566 -0.0016619666557380053 0 0.00049570305246021825 -0.001830803095097315 0 0.00079199051805007789 -0.0019385189096047038 0 0.00043716536584876566 -0.0016619666557380053 0 0.00042212251764236407 -0.0020727428596750645 0 0.00049570305246021825 -0.001830803095097315 0 0.00079199051805007789 -0.0019385189096047038 0 0.00046154923541203189 -0.0016951139117050513 0 0.00044661697633792229 -0.0016709070046434622 0 0.00043716536584876566 -0.0016619666557380053 0 0.00047122901905113321 -0.0016658601431631256 0 0.00044661697633792229 -0.0016709070046434622 0 0.00042794562735644516 -0.0016537001093196594 0 0.00047122901905113321 -0.0016658601431631256 0 0.00046154923541203189 -0.0016951139117050513 0 0.00044661697633792229 -0.0016709070046434622 0 0.00044661697633792229 -0.0016709070046434622 0 0.00043716536584876566 -0.0016619666557380053 0 0.00042794562735644516 -0.0016537001093196594 0 0.00049570305246021825 -0.001830803095097315 0 0.00043716536584876566 -0.0016619666557380053 0 0.00042069834701669593 -0.0017264391195928046 0 0.00034017420018064192 -0.0016956032833264601 0 0.00042069834701669593 -0.0017264391195928046 0 0.00035070655432590787 -0.0016718768191591536 0 0.00043716536584876566 -0.0016619666557380053 0 0.00042069834701669593 -0.0017264391195928046 0 0.00035070655432590787 -0.0016718768191591536 0 0.00043716536584876566 -0.0016619666557380053 0 0.00041801268497150302 -0.0016577231473574293 0 0.00035070655432590787 -0.0016718768191591536 0 0.00043716536584876566 -0.0016619666557380053 0 0.00041801268497150302 -0.0016577231473574293 0 0.00042794562735644516 -0.0016537001093196594 0 -1.8144724091905472e-05 -0.00027171183180545866 0 0.00012094310382805141 0.00022901818490287033 0 0.00041801268497150302 -0.0016577231473574293 0 0.00043056877832216295 -0.0016498980729006117 0 0.00035070655432590787 -0.0016718768191591536 0 0.00043056877832216295 -0.0016498980729006117 0 0.00035070655432590787 -0.0016718768191591536 0 0.00043856111662768561 -0.0016361794039417485 0 0.00041801268497150302 -0.0016577231473574293 0 0.00043056877832216295 -0.0016498980729006117 0 0.00042794562735644516 -0.0016537001093196594 0 0.00038130240145129471 -0.0016888321866558877 0 0.00043056877832216295 -0.0016498980729006117 0 0.00042794562735644516 -0.0016537001093196594 0 0.00047295392631170114 -0.0016298745443533871 0 0.00041279494799217664 -0.0016656239282579173 0 0.00038130240145129471 -0.0016888321866558877 0 0.00038853211871999355 -0.001749403413388022 0 0.00043056877832216295 -0.0016498980729006117 0 0.00047122901905113321 -0.0016658601431631256 0 0.00048332081216762593 -0.0016309753688769555 0 0.00042794562735644516 -0.0016537001093196594 0 -0.00043373315689709802 0.001820957353320729 0 -0.00051521049075423629 0.0019624879707333758 0 -0.00036965755606766567 0.0019849120702947901 0 -0.00028927312143391516 0.0018258724575124178 0 -0.00043373315689709802 0.001820957353320729 0 -0.00036965755606766567 0.0019849120702947901 0 -0.00028927312143391516 0.0018258724575124178 0 -0.00021453158669760075 0.0019738742505909538 0 -0.00036965755606766567 0.0019849120702947901 0 0.0012405381950658853 0.0058167527076324445 0 0.0013049685086599506 0.0058079817685273184 0 0.0012894895791175566 0.0058316677403194008 0 0.00038410266374266352 0.0042118793879662034 0 -1.0728355428002967e-05 0.0016355693742154355 0 -0.00028927312143391516 0.0018258724575124178 0 -0.00043373315689709802 0.001820957353320729 0 -0.00035465265923133825 0.0016830188096771837 0 0.00034017420018064192 -0.0016956032833264601 0 0.00035070655432590787 -0.0016718768191591536 0 0.00034240932749590383 -0.0016516357689362699 0 0.00033187440186800129 -0.0018989183700456114 0 0.00034017420018064192 -0.0016956032833264601 0 3.6163347962828106e-05 -0.002012220355295702 0 0.00034017420018064192 -0.0016956032833264601 0 0.00034046780940761488 -0.0016475039027346418 0 0.00034240932749590383 -0.0016516357689362699 0 7.7448857361383814e-05 -0.0023517044524670266 0 0.00034828928018510775 0.00010271054101547131 0 -1.8144724091905472e-05 -0.00027171183180545866 0 -1.0728355428002967e-05 0.0016355693742154355 0 0.00042212251764236407 -0.0020727428596750645 0 0.00033187440186800129 -0.0018989183700456114 0 3.6163347962828106e-05 -0.002012220355295702 0 0.00027171287909309917 -0.002500122098757896 0 0.00042212251764236407 -0.0020727428596750645 0 3.6163347962828106e-05 -0.002012220355295702 0 0.00088939155273466642 0.001421823164296533 0 0.00088656396770137632 0.0012653937652747566 0 0.00092416857956880794 0.0013170134637029019 0 -0.00033865011065054918 0.0011028710625632454 0 4.7471135447831004e-06 0.00048950869823467975 0 0.0012906904517855555 0.003278140274288124 0 0.00034828928018510775 0.00010271054101547131 0 -1.0728355428002967e-05 0.0016355693742154355 0 0.0012894895791175566 0.0058316677403194008 0 0.0013160103898979386 0.0058003082331184817 0 0.0012997415001673256 0.0058083838199564615 0 -1.0728355428002967e-05 0.0016355693742154355 0 0.0011053450066224879 0.0036289356264718685 0 0.0013049685086599506 0.0058079817685273184 0 0.0012894895791175566 0.0058316677403194008 0 0.0013160103898979386 0.0058003082331184817 0 0.00034828928018510775 0.00010271054101547131 0 0.0011053450066224879 0.0036289356264718685 0 0.0013064645668537096 0.0057772846717697463 0 0.0013160103898979386 0.0058003082331184817 0 0.0012997415001673256 0.0058083838199564615 0 0.0013064645668537096 0.0057772846717697463 0 0.0012997415001673256 0.0058083838199564615 0 0.0012837710060864464 0.0058222780214547193 0 0.0012894895791175566 0.0058316677403194008 0 0.0012997415001673256 0.0058083838199564615 0 0.0012837710060864464 0.0058222780214547193 0 0.0012745717565822308 0.0057618760476584284 0 0.0012837710060864464 0.0058222780214547193 0 0.0012562856215558732 0.0058001546789218719 0 0.0012837710060864464 0.0058222780214547193 0 0.0012350868811700508 0.0058414258179750218 0 0.0012896038360120361 0.0058967842858550544 0 0.0012207270800974898 0.0057575596154464349 0 0.0012562856215558732 0.0058001546789218719 0 0.0012350868811700508 0.0058414258179750218 0 0.0012837710060864464 0.0058222780214547193 0 0.0012562856215558732 0.0058001546789218719 0 0.0012350868811700508 0.0058414258179750218 0 0.0012350868811700508 0.0058414258179750218 0 0.0012167110123729493 0.0059069652545643368 0 0.0011494850898552552 0.0058554929505727936 0 0.0012896038360120361 0.0058967842858550544 0 0.001205120671394351 0.0060093823348506183 0 0.0012325813419948517 0.0061477161078095739 0 0.0012350868811700508 0.0058414258179750218 0 0.0012896038360120361 0.0058967842858550544 0 0.0012167110123729493 0.0059069652545643368 0 0.0012896038360120361 0.0058967842858550544 0 0.0012167110123729493 0.0059069652545643368 0 0.001205120671394351 0.0060093823348506183 0 0.0012894895791175566 0.0058316677403194008 0 0.0012837710060864464 0.0058222780214547193 0 0.0012896038360120361 0.0058967842858550544 0 0.0012405381950658853 0.0058167527076324445 0 0.0012894895791175566 0.0058316677403194008 0 0.0012896038360120361 0.0058967842858550544 0 0.0010301917306181736 0.005792875127122267 0 0.0010383282985811314 0.0059264814689304118 0 0.00078014403204081551 0.0058675753264539601 0 0.0010301917306181736 0.005792875127122267 0 0.0010383282985811314 0.0059264814689304118 0 0.0011494850898552552 0.0058554929505727936 0 0.0010383282985811314 0.0059264814689304118 0 0.0011494850898552552 0.0058554929505727936 0 0.0011561706382398381 0.0059455331372453889 0 0.0011571504780408255 0.0057589146479661221 0 0.0012350868811700508 0.0058414258179750218 0 0.0011494850898552552 0.0058554929505727936 0 0.0012167110123729493 0.0059069652545643368 0 0.0011494850898552552 0.0058554929505727936 0 0.0011561706382398381 0.0059455331372453889 0 0.0012167110123729493 0.0059069652545643368 0 0.001205120671394351 0.0060093823348506183 0 0.0011561706382398381 0.0059455331372453889 0 0.001205120671394351 0.0060093823348506183 0 0.0010993804319370647 0.0060604403127719015 0 0.0011615263588558129 0.0061478851672642377 0 0.001205120671394351 0.0060093823348506183 0 0.0011561706382398381 0.0059455331372453889 0 0.0010993804319370647 0.0060604403127719015 0 0.0010383282985811314 0.0059264814689304118 0 0.0011561706382398381 0.0059455331372453889 0 0.0010993804319370647 0.0060604403127719015 0 0.0010383282985811314 0.0059264814689304118 0 0.0010993804319370647 0.0060604403127719015 0 0.00095899921443488986 0.0060570682783547686 0 0.0010993804319370647 0.0060604403127719015 0 0.0010458375873013458 0.0062850299076886666 0 0.0011615263588558129 0.0061478851672642377 0 0.0010993804319370647 0.0060604403127719015 0 0.00095899921443488986 0.0060570682783547686 0 0.0010458375873013458 0.0062850299076886666 0 0.0010458375873013458 0.0062850299076886666 0 0.0011615263588558129 0.0061478851672642377 0 0.0012158099690203733 0.0062496274832228704 0 0.001205120671394351 0.0060093823348506183 0 0.0011615263588558129 0.0061478851672642377 0 0.0012325813419948517 0.0061477161078095739 0 0.0011615263588558129 0.0061478851672642377 0 0.0012325813419948517 0.0061477161078095739 0 0.0012158099690203733 0.0062496274832228704 0 0.0012309903516617147 0.0061566155181489888 0 0.0013095602806836766 0.0060248592709032404 0 0.0013095602806836766 0.0060248592709032404 0 0.0013218681336152813 0.0059346981121207367 0 0.0013095602806836766 0.0060248592709032404 0 0.0011448234999864215 0.0063595403410329114 0 0.0013609689057129577 0.0057711229315802678 0 0.0013994160875513304 0.0056454026459275657 0 0.0013181518247786901 0.0056682435036852401 0 0.0010458375873013458 0.0062850299076886666 0 0.0012158099690203733 0.0062496274832228704 0 0.0010740440823323637 0.0065324491815173464 0 0.0013934150296242944 0.0059938554922386355 0 0.0012416242124761157 0.0061431461865447774 0 0.0012549886614021991 0.0062071369755800944 0 0.0012405381950658853 0.0058167527076324445 0 0.0012896038360120361 0.0058967842858550544 0 0.0012854206608376077 0.0057828629867574905 0 0.0012896038360120361 0.0058967842858550544 0 0.0012325813419948517 0.0061477161078095739 0 0.0012264842409046488 0.0062474237881834736 0 0.0012896038360120361 0.0058967842858550544 0 0.0013609689057129577 0.0057711229315802678 0 0.0012854206608376077 0.0057828629867574905 0 0.0012808957758730552 0.0059159555111598927 0 0.0013095602806836766 0.0060248592709032404 0 0.0013609689057129577 0.0057711229315802678 0 0.0012854206608376077 0.0057828629867574905 0 0.0013181518247786901 0.0056682435036852401 0 0.0012854206608376077 0.0057828629867574905 0 0.0012343843343516872 0.0056953370911284867 0 0.0013181518247786901 0.0056682435036852401 0 0.0012405381950658853 0.0058167527076324445 0 0.0012854206608376077 0.0057828629867574905 0 0.0012343843343516872 0.0056953370911284867 0 0.00038410266374266352 0.0042118793879662034 0 0.00038219849150194135 0.0037476997012456416 0 -0.00051521049075423629 0.0019624879707333758 0 -0.00060102035155971695 0.0021086115316273453 0 -0.00048426418171520922 0.0020685718250774039 0 0.00038219849150194135 0.0037476997012456416 0 0.00032556894190005007 0.003857007193640728 0 0.0012343843343516872 0.0056953370911284867 0 0.0012643973976065438 0.0055715775970227406 0 0.0013181518247786901 0.0056682435036852401 0 -0.00060102035155971695 0.0021086115316273453 0 -0.00048426418171520922 0.0020685718250774039 0 -0.00053279711341089905 0.0022141429877410115 0 -0.00048426418171520922 0.0020685718250774039 0 -0.00053279711341089905 0.0022141429877410115 0 -0.00038561589698703978 0.0021211005761111929 0 0.0012416242124761157 0.0061431461865447774 0 0.0012549886614021991 0.0062071369755800944 0 0.001076284852633347 0.0063006949422289311 0 0.0013994160875513304 0.0056454026459275657 0 0.0013181518247786901 0.0056682435036852401 0 0.0013541323764377634 0.0055545121023435895 0 0.0012643973976065438 0.0055715775970227406 0 0.0013181518247786901 0.0056682435036852401 0 0.0013541323764377634 0.0055545121023435895 0 0.0012643973976065438 0.0055715775970227406 0 0.0013541323764377634 0.0055545121023435895 0 0.00129676420789766 0.005466046854862361 0 0.0013994160875513304 0.0056454026459275657 0 0.0013541323764377634 0.0055545121023435895 0 0.0014408106585385516 0.0055374619847497778 0 0.0013218681336152813 0.0059346981121207367 0 0.0013610650154069679 0.0058184699516681529 0 0.0013541323764377634 0.0055545121023435895 0 0.0013670542748123325 0.0054654456253195108 0 0.0014408106585385516 0.0055374619847497778 0 0.0013541323764377634 0.0055545121023435895 0 0.0013670542748123325 0.0054654456253195108 0 0.00129676420789766 0.005466046854862361 0 0.00030817658361625348 0.0038566376696959276 0 0.0002648490116054404 0.0039044846858270394 0 -0.00068898097126063903 0.0022622983084862967 0 -0.00061001685494362198 0.0023901168265459951 0 -0.00077585092880387986 0.0024214132605331041 0 0.0013670542748123325 0.0054654456253195108 0 0.00129676420789766 0.005466046854862361 0 0.0013257220757574373 0.0053627342634431988 0 0.0013670542748123325 0.0054654456253195108 0 0.0014148516634596353 0.0054002285499929973 0 0.0013257220757574373 0.0053627342634431988 0 -0.00060102035155971695 0.0021086115316273453 0 -0.00068898097126063903 0.0022622983084862967 0 -0.00053279711341089905 0.0022141429877410115 0 0.00032556894190005007 0.003857007193640728 0 0.00030817658361625348 0.0038566376696959276 0 -0.00068898097126063903 0.0022622983084862967 0 -0.00053279711341089905 0.0022141429877410115 0 -0.00061001685494362198 0.0023901168265459951 0 -0.00053279711341089905 0.0022141429877410115 0 -0.0004311211368424662 0.0023417807298087199 0 -0.00061001685494362198 0.0023901168265459951 0 -0.0004311211368424662 0.0023417807298087199 0 -0.00026264414230995698 0.0022679580020734708 0 -0.00038561589698703978 0.0021211005761111929 0 -0.00053279711341089905 0.0022141429877410115 0 -0.0004311211368424662 0.0023417807298087199 0 -0.00038561589698703978 0.0021211005761111929 0 -0.00026264414230995698 0.0022679580020734708 0 -0.00026202320650686056 0.0021369905965005196 0 -0.00038561589698703978 0.0021211005761111929 0 -0.0004311211368424662 0.0023417807298087199 0 -0.00026264414230995698 0.0022679580020734708 0 -0.00030403835603252233 0.0024053104854134498 0 -5.1001681845369474e-05 0.0022869476022890512 0 -0.00026264414230995698 0.0022679580020734708 0 -0.00013390216294093411 0.0021279361134169204 0 -3.3060455449726029e-06 -2.743333110511532e-05 0 0.00017146376763194844 0.00025413275658491582 0 -0.00026264414230995698 0.0022679580020734708 0 -0.00013390216294093411 0.0021279361134169204 0 -0.00026202320650686056 0.0021369905965005196 0 -0.00013390216294093411 0.0021279361134169204 0 -0.00026202320650686056 0.0021369905965005196 0 -0.00021453158669760075 0.0019738742505909538 0 0.00017146376763194844 0.00025413275658491582 0 0.00012094310382805141 0.00022901818490287033 0 0.00041817799704246171 -0.0017163181490932821 0 0.00040134051967877758 -0.0016844398667221886 0 0.00043856111662768561 -0.0016361794039417485 0 0.00037294422858237514 -0.0017267069530128014 0 0.00041817799704246171 -0.0017163181490932821 0 0.00040134051967877758 -0.0016844398667221886 0 0.0003913104311723614 -0.0016522389469590414 0 0.00040134051967877758 -0.0016844398667221886 0 0.00043856111662768561 -0.0016361794039417485 0 0.00038631262332630538 -0.001702105318680416 0 0.00042710097018914514 -0.0016564245628449849 0 0.0003913104311723614 -0.0016522389469590414 0 0.00043056877832216295 -0.0016498980729006117 0 0.00043856111662768561 -0.0016361794039417485 0 -0.00026202320650686056 0.0021369905965005196 0 -0.00021453158669760075 0.0019738742505909538 0 -0.00036965755606766567 0.0019849120702947901 0 -0.00051521049075423629 0.0019624879707333758 0 -0.00048426418171520922 0.0020685718250774039 0 -0.00036965755606766567 0.0019849120702947901 0 -0.00048426418171520922 0.0020685718250774039 0 -0.00036965755606766567 0.0019849120702947901 0 -0.00038561589698703978 0.0021211005761111929 0 -0.00026202320650686056 0.0021369905965005196 0 -0.00036965755606766567 0.0019849120702947901 0 -0.00038561589698703978 0.0021211005761111929 0 0.0007075080189631245 0.010776607427436616 0 0.001044837542528577 0.010490766514278761 0 0.00071284558267691023 0.010286467633800325 0 0.0007075080189631245 0.010776607427436616 0 0.00071284558267691023 0.010286467633800325 0 0.00027763782952674738 0.010658643587645759 0 0.0007075080189631245 0.010776607427436616 0 0.00027763782952674738 0.010658643587645759 0 0.00050354040541702181 0.011026238386083399 0 0.0007075080189631245 0.010776607427436616 0 0.0009869319762429692 0.010894387309479206 0 0.00074248423521643462 0.011103796799907226 0 0.00052936973950773035 0.0089931834874321694 0 0.00079495238486348855 0.0086406144160464486 0 5.6126999013067791e-05 0.007140986960948832 0 0.0001911677985276884 0.0070730885850220308 0 0.00022258312335570165 0.0067919331876289341 0 0.0009869319762429692 0.010894387309479206 0 0.001044837542528577 0.010490766514278761 0 0.001382311409641027 0.010266670999413705 0 0.0007075080189631245 0.010776607427436616 0 0.0009869319762429692 0.010894387309479206 0 0.001044837542528577 0.010490766514278761 0 0.001044837542528577 0.010490766514278761 0 0.00071284558267691023 0.010286467633800325 0 0.001382311409641027 0.010266670999413705 0 0.00063039817513834849 0.0097828006287845569 0 0.00092178627469636468 0.009771990916948076 0 0.0008597616896804085 0.0095561121400543833 0 0.00075604749360198701 0.010111587530663163 0 0.00079495238486348855 0.0086406144160464486 0 0.00071284558267691023 0.010286467633800325 0 5.7528964596006486e-05 0.010293697334467699 0 0.00027763782952674738 0.010658643587645759 0 0.00075604749360198701 0.010111587530663163 0 0.00014508223817144138 0.010588810343390521 0 0.00063039817513834849 0.0097828006287845569 0 0.00034053079808371144 0.0097902192069437843 0 0.00042586417396228422 0.0095575629915245919 0 0.00014508223817144138 0.010588810343390521 0 0.00024207654485163118 0.01092122403673821 0 0.00014015220698717981 0.011103774925556134 0 7.4157547230065869e-05 0.011216636391628228 0 1.441411148396614e-05 0.011109408723609628 0 8.2773988736712148e-05 0.011114186868971341 0 3.0817396351937063e-05 0.011028475726935678 0 -1.0055862029262634e-05 0.011120042519968223 0 0.00014508223817144138 0.010588810343390521 0 -5.7459264688618528e-06 0.01113584768314939 0 0.00014015220698717981 0.011103774925556134 0 7.4157547230065869e-05 0.011216636391628228 0 0.00019334260211543273 0.011187954456756858 0 7.4157547230065869e-05 0.011216636391628228 0 0.00019334260211543273 0.011187954456756858 0 0.00024691978236568755 0.011272989652928738 0 0.00018051268157699856 0.011206474589860349 0 0.00046642871803965596 0.011165718958247117 0 0.00024207654485163118 0.01092122403673821 0 0.00046642871803965596 0.011165718958247117 0 0.00029690058042576789 0.011174779204632957 0 0.00049233967372332599 0.01135342122098325 0 0.00058978891095964761 0.011209275535701196 0 0.00029690058042576789 0.011174779204632957 0 0.00049233967372332599 0.01135342122098325 0 0.00035540098127899319 0.011401877414091112 0 0.00029690058042576789 0.011174779204632957 0 0.00024541714344542475 0.011333873219952169 0 0.00035540098127899319 0.011401877414091112 0 0.00035540098127899319 0.011401877414091112 0 0.00020059857893039231 0.011457769297185175 0 0.00026741167718213324 0.01164127213159309 0 0.00024541714344542475 0.011333873219952169 0 0.00035540098127899319 0.011401877414091112 0 0.00020059857893039231 0.011457769297185175 0 0.00049233967372332599 0.01135342122098325 0 0.0006327710825448238 0.011422238564010777 0 0.00047173878716679423 0.011644985235907689 0 0.00049233967372332599 0.01135342122098325 0 0.00035540098127899319 0.011401877414091112 0 0.00047173878716679423 0.011644985235907689 0 0.00027021635107723867 0.0094386521438073363 0 0.00010378698345121939 0.009719485350513684 0 -5.4067718016906649e-05 0.0076047635067006264 0 -9.4485681282430658e-05 0.0074637899809609142 0 -0.00026978896396664086 0.0077761379155423102 0 -5.4067718016906649e-05 0.0076047635067006264 0 2.3714051893828349e-05 0.007488472005692701 0 -9.4485681282430658e-05 0.0074637899809609142 0 -5.4067718016906649e-05 0.0076047635067006264 0 2.3714051893828349e-05 0.007488472005692701 0 7.5653848440226972e-05 0.0075915426002827625 0 2.3714051893828349e-05 0.007488472005692701 0 -9.4485681282430658e-05 0.0074637899809609142 0 5.873768377377699e-05 0.0073688161800167786 0 0.00049233967372332599 0.01135342122098325 0 0.00066168539021391843 0.011249861925550875 0 0.00058978891095964761 0.011209275535701196 0 0.00052936973950773035 0.0089931834874321694 0 0.00027021635107723867 0.0094386521438073363 0 0.0006327710825448238 0.011422238564010777 0 0.00066168539021391843 0.011249861925550875 0 0.00074248423521643462 0.011103796799907226 0 0.0009869319762429692 0.010894387309479206 0 0.0006327710825448238 0.011422238564010777 0 0.00074248423521643462 0.011103796799907226 0 0.00049233967372332599 0.01135342122098325 0 0.0006327710825448238 0.011422238564010777 0 0.00066168539021391843 0.011249861925550875 0 5.6126999013067791e-05 0.007140986960948832 0 -9.4485681282430658e-05 0.0074637899809609142 0 5.873768377377699e-05 0.0073688161800167786 0 0.0007075080189631245 0.010776607427436616 0 0.00074248423521643462 0.011103796799907226 0 0.00050354040541702181 0.011026238386083399 0 0.00064406861270264407 0.011147465361105738 0 0.00046642871803965596 0.011165718958247117 0 0.00066168539021391843 0.011249861925550875 0 0.00074248423521643462 0.011103796799907226 0 0.00052731734969293045 0.011030561704995263 0 0.00059388468716236123 0.011244134170154891 0 0.00046642871803965596 0.011165718958247117 0 0.0001911677985276884 0.0070730885850220308 0 0.00017821246054645226 0.0072847221136947155 0 0.00027456552016879053 0.0071614876092029947 0 5.6126999013067791e-05 0.007140986960948832 0 0.0001911677985276884 0.0070730885850220308 0 0.00017821246054645226 0.0072847221136947155 0 5.6126999013067791e-05 0.007140986960948832 0 5.873768377377699e-05 0.0073688161800167786 0 0.00017821246054645226 0.0072847221136947155 0 5.873768377377699e-05 0.0073688161800167786 0 0.00017821246054645226 0.0072847221136947155 0 0.00013422648338031962 0.0074734231905862697 0 0.00017821246054645226 0.0072847221136947155 0 0.00013422648338031962 0.0074734231905862697 0 0.00027647983925168013 0.0074507124365202964 0 2.3714051893828349e-05 0.007488472005692701 0 5.873768377377699e-05 0.0073688161800167786 0 0.00013422648338031962 0.0074734231905862697 0 0.00013422648338031962 0.0074734231905862697 0 7.5653848440226972e-05 0.0075915426002827625 0 0.00025428921385096487 0.0075967778852623962 0 2.3714051893828349e-05 0.007488472005692701 0 0.00013422648338031962 0.0074734231905862697 0 7.5653848440226972e-05 0.0075915426002827625 0 0.00013422648338031962 0.0074734231905862697 0 0.00025428921385096487 0.0075967778852623962 0 0.00027647983925168013 0.0074507124365202964 0 0.00025428921385096487 0.0075967778852623962 0 0.00027647983925168013 0.0074507124365202964 0 0.00039937886204117611 0.0075867601418067492 0 0.00027647983925168013 0.0074507124365202964 0 0.00040177685847423718 0.007428720246347071 0 0.00031799977742980425 0.0073123790799396182 0 0.00027647983925168013 0.0074507124365202964 0 0.00040177685847423718 0.007428720246347071 0 0.00039937886204117611 0.0075867601418067492 0 0.00040177685847423718 0.007428720246347071 0 0.00039937886204117611 0.0075867601418067492 0 0.00052750727469802765 0.007544518610627121 0 0.00039937886204117611 0.0075867601418067492 0 0.00052750727469802765 0.007544518610627121 0 0.00048696837671448058 0.00768225808535961 0 0.00052750727469802765 0.007544518610627121 0 0.00062172083426476868 0.007414595466369695 0 0.00081972637137152219 0.0075195859887258005 0 0.00052750727469802765 0.007544518610627121 0 0.00081972637137152219 0.0075195859887258005 0 0.00057825021079330435 0.0078437594067311215 0 0.00040177685847423718 0.007428720246347071 0 0.00052750727469802765 0.007544518610627121 0 0.00051334676020271493 0.0073564639930138323 0 0.00052750727469802765 0.007544518610627121 0 0.00062172083426476868 0.007414595466369695 0 0.00051334676020271493 0.0073564639930138323 0 0.00051334676020271493 0.0073564639930138323 0 0.00063294285512921131 0.0072410759209677504 0 0.00052168483335474579 0.0072095616539832059 0 0.00051334676020271493 0.0073564639930138323 0 0.00052168483335474579 0.0072095616539832059 0 0.00042305774758686086 0.0073043846751986181 0 0.00062172083426476868 0.007414595466369695 0 0.00051334676020271493 0.0073564639930138323 0 0.00063294285512921131 0.0072410759209677504 0 0.00061785150549365788 0.0071533630576496093 0 0.0008036482713927194 0.0068892507102600387 0 0.00063294285512921131 0.0072410759209677504 0 0.00062921822259515018 0.0071451525251373599 0 0.00052168483335474579 0.0072095616539832059 0 0.00062921822259515018 0.0071451525251373599 0 0.00052168483335474579 0.0072095616539832059 0 0.00056912212571419928 0.0070941862966889457 0 0.00062921822259515018 0.0071451525251373599 0 0.00069913434710054819 0.007131275831696096 0 0.00063172940725823769 0.0070940187953753885 0 0.00063294285512921131 0.0072410759209677504 0 0.00062921822259515018 0.0071451525251373599 0 0.00069913434710054819 0.007131275831696096 0 0.00052168483335474579 0.0072095616539832059 0 0.0004020036597836162 0.0071985050965009175 0 0.00047141555682408764 0.0071110565799001159 0 0.00052168483335474579 0.0072095616539832059 0 0.0004020036597836162 0.0071985050965009175 0 0.00042305774758686086 0.0073043846751986181 0 0.00052168483335474579 0.0072095616539832059 0 0.00047141555682408764 0.0071110565799001159 0 0.00056912212571419928 0.0070941862966889457 0 0.0004020036597836162 0.0071985050965009175 0 0.00027456552016879053 0.0071614876092029947 0 0.00035234101385449719 0.0070851108955519194 0 0.0004020036597836162 0.0071985050965009175 0 0.00027456552016879053 0.0071614876092029947 0 0.00031799977742980425 0.0073123790799396182 0 0.00017821246054645226 0.0072847221136947155 0 0.00027456552016879053 0.0071614876092029947 0 0.00031799977742980425 0.0073123790799396182 0 0.00017821246054645226 0.0072847221136947155 0 0.00027647983925168013 0.0074507124365202964 0 0.00031799977742980425 0.0073123790799396182 0 0.00040177685847423718 0.007428720246347071 0 0.00051334676020271493 0.0073564639930138323 0 0.00042305774758686086 0.0073043846751986181 0 0.00040177685847423718 0.007428720246347071 0 0.00031799977742980425 0.0073123790799396182 0 0.00042305774758686086 0.0073043846751986181 0 0.0004020036597836162 0.0071985050965009175 0 0.00031799977742980425 0.0073123790799396182 0 0.00042305774758686086 0.0073043846751986181 0 0.0014148516634596353 0.0054002285499929973 0 0.001499120245015663 0.0054380701315516295 0 0.0014408106585385516 0.0055374619847497778 0 0.00062172083426476868 0.007414595466369695 0 0.00063294285512921131 0.0072410759209677504 0 0.00081972637137152219 0.0075195859887258005 0 0.0008696612192573771 0.0068706184495646297 0 0.0008036482713927194 0.0068892507102600387 0 0.0008696612192573771 0.0068706184495646297 0 0.0013610650154069679 0.0058184699516681529 0 0.00063294285512921131 0.0072410759209677504 0 0.00081972637137152219 0.0075195859887258005 0 0.00073912565172605136 0.0071371294485357267 0 0.00094208077228581731 0.0066879385267085874 0 0.00089909109055420105 0.0064689996968471733 0 0.0011051949420594659 0.0064388875018009774 0 0.0013670542748123325 0.0054654456253195108 0 0.0014148516634596353 0.0054002285499929973 0 0.0014408106585385516 0.0055374619847497778 0 0.00089909109055420105 0.0064689996968471733 0 0.0011051949420594659 0.0064388875018009774 0 0.001076284852633347 0.0063006949422289311 0 0.0012549886614021991 0.0062071369755800944 0 0.0011051949420594659 0.0064388875018009774 0 0.001076284852633347 0.0063006949422289311 0 0.0008036482713927194 0.0068892507102600387 0 0.00098940970194076302 0.0065513998096256845 0 0.00069913434710054819 0.007131275831696096 0 0.00089883596675231271 0.006827973428911777 0 0.00067309948911689361 0.0068665736413785726 0 0.00069913434710054819 0.007131275831696096 0 0.00067309948911689361 0.0068665736413785726 0 0.00063163743292544039 0.0070226648636694013 0 0.00067309948911689361 0.0068665736413785726 0 0.00080845972661547903 0.0066180567329614569 0 0.00060498113580878651 0.0066626160220739934 0 0.00089883596675231271 0.006827973428911777 0 0.00067309948911689361 0.0068665736413785726 0 0.00080845972661547903 0.0066180567329614569 0 0.0010740440823323637 0.0065324491815173464 0 0.00089883596675231271 0.006827973428911777 0 0.00080845972661547903 0.0066180567329614569 0 0.0011448234999864215 0.0063595403410329114 0 0.00098940970194076302 0.0065513998096256845 0 0.0001911677985276884 0.0070730885850220308 0 0.0002723429554970456 0.0069869217233705719 0 0.00022258312335570165 0.0067919331876289341 0 0.00037074045653855234 0.0069911793839364245 0 0.00037531341437399828 0.0068961693681326691 0 0.0002723429554970456 0.0069869217233705719 0 0.00037074045653855234 0.0069911793839364245 0 0.00044889505122139089 0.0070127743797834281 0 0.00045148945826349439 0.0069140248961728993 0 0.00037074045653855234 0.0069911793839364245 0 0.00037531341437399828 0.0068961693681326691 0 0.00045148945826349439 0.0069140248961728993 0 0.00037531341437399828 0.0068961693681326691 0 0.0002723429554970456 0.0069869217233705719 0 0.00029620145928032537 0.0068666759040412039 0 0.00027456552016879053 0.0071614876092029947 0 0.0002723429554970456 0.0069869217233705719 0 0.00035234101385449719 0.0070851108955519194 0 0.0001911677985276884 0.0070730885850220308 0 0.00027456552016879053 0.0071614876092029947 0 0.0002723429554970456 0.0069869217233705719 0 0.0004020036597836162 0.0071985050965009175 0 0.00035234101385449719 0.0070851108955519194 0 0.00047141555682408764 0.0071110565799001159 0 0.00035234101385449719 0.0070851108955519194 0 0.00047141555682408764 0.0071110565799001159 0 0.00044889505122139089 0.0070127743797834281 0 0.00037074045653855234 0.0069911793839364245 0 0.0002723429554970456 0.0069869217233705719 0 0.00035234101385449719 0.0070851108955519194 0 0.00037074045653855234 0.0069911793839364245 0 0.00035234101385449719 0.0070851108955519194 0 0.00044889505122139089 0.0070127743797834281 0 0.00047141555682408764 0.0071110565799001159 0 0.00056912212571419928 0.0070941862966889457 0 0.00054166222635869811 0.006980281336230831 0 0.00047141555682408764 0.0071110565799001159 0 0.00044889505122139089 0.0070127743797834281 0 0.00054166222635869811 0.006980281336230831 0 0.00069913434710054819 0.007131275831696096 0 0.00063172940725823769 0.0070940187953753885 0 0.00063163743292544039 0.0070226648636694013 0 0.00063172940725823769 0.0070940187953753885 0 0.00056912212571419928 0.0070941862966889457 0 0.00063163743292544039 0.0070226648636694013 0 0.00062921822259515018 0.0071451525251373599 0 0.00063172940725823769 0.0070940187953753885 0 0.00056912212571419928 0.0070941862966889457 0 0.00056912212571419928 0.0070941862966889457 0 0.00063163743292544039 0.0070226648636694013 0 0.00054166222635869811 0.006980281336230831 0 0.00067309948911689361 0.0068665736413785726 0 0.00063163743292544039 0.0070226648636694013 0 0.00054166222635869811 0.006980281336230831 0 0.00067309948911689361 0.0068665736413785726 0 0.00054166222635869811 0.006980281336230831 0 0.00054104977348426637 0.0068391036744862993 0 0.00054166222635869811 0.006980281336230831 0 0.00045148945826349439 0.0069140248961728993 0 0.00054104977348426637 0.0068391036744862993 0 0.00044889505122139089 0.0070127743797834281 0 0.00054166222635869811 0.006980281336230831 0 0.00045148945826349439 0.0069140248961728993 0 0.00045148945826349439 0.0069140248961728993 0 0.00043137579573760966 0.0067661540596437534 0 0.00054104977348426637 0.0068391036744862993 0 0.00067309948911689361 0.0068665736413785726 0 0.00054104977348426637 0.0068391036744862993 0 0.00060498113580878651 0.0066626160220739934 0 0.00043137579573760966 0.0067661540596437534 0 0.00054104977348426637 0.0068391036744862993 0 0.00060498113580878651 0.0066626160220739934 0 0.00029737824448158813 0.00678177424840554 0 0.00021687864476985065 0.0067865516131458111 0 0.00041133683001197988 0.0064332198375617444 0 0.00043137579573760966 0.0067661540596437534 0 0.00029737824448158813 0.00678177424840554 0 0.00041133683001197988 0.0064332198375617444 0 0.00037531341437399828 0.0068961693681326691 0 0.00045148945826349439 0.0069140248961728993 0 0.00043137579573760966 0.0067661540596437534 0 0.00043137579573760966 0.0067661540596437534 0 0.00033661234680948924 0.0068392334188279377 0 0.00029737824448158813 0.00678177424840554 0 0.00037531341437399828 0.0068961693681326691 0 0.00043137579573760966 0.0067661540596437534 0 0.00033661234680948924 0.0068392334188279377 0 0.00037531341437399828 0.0068961693681326691 0 0.00033661234680948924 0.0068392334188279377 0 0.00029620145928032537 0.0068666759040412039 0 0.0002723429554970456 0.0069869217233705719 0 0.00029620145928032537 0.0068666759040412039 0 0.00022258312335570165 0.0067919331876289341 0 0.00044615521116751875 0.0081771644102151524 0 0.00079495238486348855 0.0086406144160464486 0 0.00033661234680948924 0.0068392334188279377 0 0.00029620145928032537 0.0068666759040412039 0 0.00029737824448158813 0.00678177424840554 0 0.00029620145928032537 0.0068666759040412039 0 0.00029737824448158813 0.00678177424840554 0 0.00022258312335570165 0.0067919331876289341 0 0.00079495238486348855 0.0086406144160464486 0 0.00073989229428489986 0.0079067892152340138 0 0.00060498113580878651 0.0066626160220739934 0 0.00041133683001197988 0.0064332198375617444 0 0.00080852089243334236 0.0063689257272125169 0 0.00041133683001197988 0.0064332198375617444 0 0.00080852089243334236 0.0063689257272125169 0 0.00059524985612853596 0.0061198283142300386 0 0.00092178627469636468 0.009771990916948076 0 0.0010999072874974839 0.0094982364520171895 0 0.0008597616896804085 0.0095561121400543833 0 0.00043137579573760966 0.0067661540596437534 0 0.00060498113580878651 0.0066626160220739934 0 0.00041133683001197988 0.0064332198375617444 0 0.00073989229428489986 0.0079067892152340138 0 0.00094063867501468926 0.0076811308631270486 0 0.0010999072874974839 0.0094982364520171895 0 0.0010400384298501107 0.0091873075606050975 0 0.0012822846221165712 0.0092230253254079689 0 0.0010999072874974839 0.0094982364520171895 0 0.00081447278041763211 0.0093108719446051633 0 0.0008597616896804085 0.0095561121400543833 0 0.0010999072874974839 0.0094982364520171895 0 0.0010400384298501107 0.0091873075606050975 0 0.00081447278041763211 0.0093108719446051633 0 0.0010458375873013458 0.0062850299076886666 0 0.0010740440823323637 0.0065324491815173464 0 0.00080852089243334236 0.0063689257272125169 0 0.0010740440823323637 0.0065324491815173464 0 0.00080845972661547903 0.0066180567329614569 0 0.00080852089243334236 0.0063689257272125169 0 0.00080845972661547903 0.0066180567329614569 0 0.00060498113580878651 0.0066626160220739934 0 0.00080852089243334236 0.0063689257272125169 0 0.00080852089243334236 0.0063689257272125169 0 0.00080464088369666686 0.006137756671632336 0 0.00059524985612853596 0.0061198283142300386 0 0.00095899921443488986 0.0060570682783547686 0 0.0010458375873013458 0.0062850299076886666 0 0.00080464088369666686 0.006137756671632336 0 0.0010458375873013458 0.0062850299076886666 0 0.00080852089243334236 0.0063689257272125169 0 0.00080464088369666686 0.006137756671632336 0 0.00095899921443488986 0.0060570682783547686 0 0.00080464088369666686 0.006137756671632336 0 0.00078014403204081551 0.0058675753264539601 0 0.00080464088369666686 0.006137756671632336 0 0.00078014403204081551 0.0058675753264539601 0 0.00059524985612853596 0.0061198283142300386 0 0.0014380535172493437 0.0089220522068609084 0 0.0011604904536514345 0.0089480366000656841 0 0.0014690671815470878 0.0089489072284366176 0 0.0012822846221165712 0.0092230253254079689 0 0.0011524573352618076 0.0089368085309421506 0 0.0014592476128972255 0.00891773477920621 0 0.0014690671815470878 0.0089489072284366176 0 0.0011524573352618076 0.0089368085309421506 0 0.0011209066657845317 0.0074162720672556245 0 0.00094063867501468926 0.0076811308631270486 0 0.0010383282985811314 0.0059264814689304118 0 0.00095899921443488986 0.0060570682783547686 0 0.00078014403204081551 0.0058675753264539601 0 0.0010400384298501107 0.0091873075606050975 0 0.0012822846221165712 0.0092230253254079689 0 0.0011524573352618076 0.0089368085309421506 0 0.0011604904536514345 0.0089480366000656841 0 0.00085202891137719345 0.0089815668956462948 0 0.0010400384298501107 0.0091873075606050975 0 0.0011524573352618076 0.0089368085309421506 0 0.00085129106080181248 0.0089633062189267004 0 0.00085129106080181248 0.0089633062189267004 0 0.00055243823537453436 0.0089938804263397613 0 0.0006171455916891065 0.0091941073367978257 0 0.00085202891137719345 0.0089815668956462948 0 0.00054437053305938501 0.0090121633161196184 0 0.00055243823537453436 0.0089938804263397613 0 0.0006171455916891065 0.0091941073367978257 0 0.00044409451198988242 0.0091869937606097636 0 0.0010400384298501107 0.0091873075606050975 0 0.00085129106080181248 0.0089633062189267004 0 0.00081447278041763211 0.0093108719446051633 0 0.00085129106080181248 0.0089633062189267004 0 0.0006171455916891065 0.0091941073367978257 0 0.00081447278041763211 0.0093108719446051633 0 0.00081447278041763211 0.0093108719446051633 0 0.00063812792108700522 0.0094594600324128617 0 0.0008597616896804085 0.0095561121400543833 0 0.0006171455916891065 0.0091941073367978257 0 0.00081447278041763211 0.0093108719446051633 0 0.00063812792108700522 0.0094594600324128617 0 0.0006171455916891065 0.0091941073367978257 0 0.00063812792108700522 0.0094594600324128617 0 0.00047294487324963801 0.0093447912332109608 0 0.00063039817513834849 0.0097828006287845569 0 0.00063812792108700522 0.0094594600324128617 0 0.00042586417396228422 0.0095575629915245919 0 0.00063039817513834849 0.0097828006287845569 0 0.00063812792108700522 0.0094594600324128617 0 0.0008597616896804085 0.0095561121400543833 0 0.00034053079808371144 0.0097902192069437843 0 0.00020448851720882596 0.0095628829832358261 0 0.00042586417396228422 0.0095575629915245919 0 0.00014508223817144138 0.010588810343390521 0 0.0001116339416682773 0.010262720441289858 0 0.00063812792108700522 0.0094594600324128617 0 0.00042586417396228422 0.0095575629915245919 0 0.00047294487324963801 0.0093447912332109608 0 0.00042586417396228422 0.0095575629915245919 0 0.00047294487324963801 0.0093447912332109608 0 0.0002698897285491193 0.0092905107424087613 0 0.00020448851720882596 0.0095628829832358261 0 0.0002698897285491193 0.0092905107424087613 0 7.2641275427990255e-05 0.0093416715409967016 0 0.00020448851720882596 0.0095628829832358261 0 0.00042586417396228422 0.0095575629915245919 0 0.0002698897285491193 0.0092905107424087613 0 0.0002698897285491193 0.0092905107424087613 0 0.00022181988725024747 0.0091063836447053646 0 0.00012714599324214625 0.0092165408062287579 0 0.0002698897285491193 0.0092905107424087613 0 0.00034705956177153206 0.0091251546012649804 0 0.00022181988725024747 0.0091063836447053646 0 0.0002698897285491193 0.0092905107424087613 0 7.2641275427990255e-05 0.0093416715409967016 0 0.00012714599324214625 0.0092165408062287579 0 0.00047294487324963801 0.0093447912332109608 0 0.0002698897285491193 0.0092905107424087613 0 0.00044409451198988242 0.0091869937606097636 0 0.0006171455916891065 0.0091941073367978257 0 0.00047294487324963801 0.0093447912332109608 0 0.00044409451198988242 0.0091869937606097636 0 0.0002698897285491193 0.0092905107424087613 0 0.00044409451198988242 0.0091869937606097636 0 0.00034705956177153206 0.0091251546012649804 0 0.00054437053305938501 0.0090121633161196184 0 0.0002781929862909291 0.0090361223100960276 0 0.00055243823537453436 0.0089938804263397613 0 0.00044409451198988242 0.0091869937606097636 0 0.00034705956177153206 0.0091251546012649804 0 0.00055243823537453436 0.0089938804263397613 0 0.00034705956177153206 0.0091251546012649804 0 0.00025712609547158088 0.0090402292610370586 0 0.00054095018833928774 0.0090296525849048945 0 0.00025712609547158088 0.0090402292610370586 0 0.00039073303254990173 0.0089408093051445339 0 0.00022181988725024747 0.0091063836447053646 0 0.00025712609547158088 0.0090402292610370586 0 0.00013965086541245468 0.009036164442482477 0 0.00034705956177153206 0.0091251546012649804 0 0.00022181988725024747 0.0091063836447053646 0 0.00025712609547158088 0.0090402292610370586 0 0.00025712609547158088 0.0090402292610370586 0 0.00020170398103272678 0.008932265996344892 0 0.00013965086541245468 0.009036164442482477 0 0.00025712609547158088 0.0090402292610370586 0 0.00020170398103272678 0.008932265996344892 0 0.00039073303254990173 0.0089408093051445339 0 0.00020170398103272678 0.008932265996344892 0 0.00032167931130851538 0.0087906458880784421 0 3.1832025892230318e-05 0.0088150111049519597 0 0.00020170398103272678 0.008932265996344892 0 0.00032167931130851538 0.0087906458880784421 0 0.00039073303254990173 0.0089408093051445339 0 0.00032063416186646672 0.0088169102227560799 0 0.00018557656908670955 0.0085561493721334776 0 3.1832025892230318e-05 0.0088150111049519597 0 0.00031776636296361368 0.0088043535292056264 0 5.1337384196943363e-05 0.0088096444151387759 0 0.00032063416186646672 0.0088169102227560799 0 0.00018557656908670955 0.0085561493721334776 0 0.00037131914822528128 0.0086202351629660005 0 0.00032063416186646672 0.0088169102227560799 0 0.00059164461427899042 0.0085806009037672267 0 0.00037131914822528128 0.0086202351629660005 0 0.00032167931130851538 0.0087906458880784421 0 0.00039073303254990173 0.0089408093051445339 0 0.00063288056994504781 0.0087858615357146851 0 0.00031776636296361368 0.0088043535292056264 0 0.00064668058578827927 0.0087957299037323394 0 0.00054095018833928774 0.0090296525849048945 0 0.00039073303254990173 0.0089408093051445339 0 0.00063288056994504781 0.0087858615357146851 0 0.00085403821984622586 0.0090007017529458912 0 0.00054095018833928774 0.0090296525849048945 0 0.00063288056994504781 0.0087858615357146851 0 0.00085403821984622586 0.0090007017529458912 0 0.00063288056994504781 0.0087858615357146851 0 0.00096732772962989896 0.0087912736469795329 0 0.00064668058578827927 0.0087957299037323394 0 0.0009461042704192455 0.0087957430939769685 0 0.00065198175347781567 0.0088058519765109797 0 0.00080579520170622409 0.0086744562869406436 0 0.00096732772962989896 0.0087912736469795329 0 0.00080579520170622409 0.0086744562869406436 0 0.00059164461427899042 0.0085806009037672267 0 0.00084576903326672879 0.0085192610887415005 0 0.00080579520170622409 0.0086744562869406436 0 0.00096732772962989896 0.0087912736469795329 0 0.00096816300762060192 0.0086273613091688173 0 0.00080579520170622409 0.0086744562869406436 0 0.00084576903326672879 0.0085192610887415005 0 0.00096816300762060192 0.0086273613091688173 0 0.00065198175347781567 0.0088058519765109797 0 0.00080579520170622409 0.0086744562869406436 0 0.00059164461427899042 0.0085806009037672267 0 0.00032063416186646672 0.0088169102227560799 0 0.00065198175347781567 0.0088058519765109797 0 0.00059164461427899042 0.0085806009037672267 0 0.00059164461427899042 0.0085806009037672267 0 0.00083626847931901876 0.0083023448648227791 0 0.00055840120123547277 0.0083348439915814764 0 0.00084576903326672879 0.0085192610887415005 0 0.00083626847931901876 0.0083023448648227791 0 0.0010766513740766816 0.008436624207386308 0 0.00059164461427899042 0.0085806009037672267 0 0.00084576903326672879 0.0085192610887415005 0 0.00083626847931901876 0.0083023448648227791 0 0.00083626847931901876 0.0083023448648227791 0 0.00055840120123547277 0.0083348439915814764 0 0.00075895739312024815 0.0080539874658197494 0 0.00055840120123547277 0.0083348439915814764 0 0.00033712062909215087 0.0083564388357189549 0 0.00045002096082815682 0.0080340851498904246 0 0.00033712062909215087 0.0083564388357189549 0 0.00018557656908670955 0.0085561493721334776 0 0.00012480390691142656 0.0081867197025102412 0 0.00033712062909215087 0.0083564388357189549 0 0.00018557656908670955 0.0085561493721334776 0 0.00037131914822528128 0.0086202351629660005 0 0.00059164461427899042 0.0085806009037672267 0 0.00055840120123547277 0.0083348439915814764 0 0.00037131914822528128 0.0086202351629660005 0 0.00055840120123547277 0.0083348439915814764 0 0.00033712062909215087 0.0083564388357189549 0 0.00037131914822528128 0.0086202351629660005 0 0.0016565139260449916 0.0086644776460454327 0 0.0014477610587070632 0.0086749711917551361 0 0.0015180956409653072 0.0084515983659443315 0 0.0018401567178236366 0.0083582275284693943 0 0.0016565139260449916 0.0086644776460454327 0 0.0015180956409653072 0.0084515983659443315 0 0.0010301917306181736 0.005792875127122267 0 0.00078014403204081551 0.0058675753264539601 0 0.00092290305305668067 0.0056833216017915609 0 0.0014592476128972255 0.00891773477920621 0 0.0014690671815470878 0.0089489072284366176 0 0.0016565139260449916 0.0086644776460454327 0 0.0011209066657845317 0.0074162720672556245 0 0.0012954716982448568 0.0071301664232373864 0 0.0014592476128972255 0.00891773477920621 0 0.0016565139260449916 0.0086644776460454327 0 0.0014477610587070632 0.0086749711917551361 0 0.0014592476128972255 0.00891773477920621 0 0.0011624775517238243 0.0089593945863174675 0 0.0013092491850887655 0.0087846267415670268 0 0.0014592476128972255 0.00891773477920621 0 0.0013092491850887655 0.0087846267415670268 0 0.0014477610587070632 0.0086749711917551361 0 0.0014477610587070632 0.0086749711917551361 0 0.0012968129743876299 0.0085771676142675692 0 0.0015180956409653072 0.0084515983659443315 0 0.0013092491850887655 0.0087846267415670268 0 0.0014477610587070632 0.0086749711917551361 0 0.0012968129743876299 0.0085771676142675692 0 0.0012968129743876299 0.0085771676142675692 0 0.0011406592703080583 0.0087161054608286773 0 0.0010766513740766816 0.008436624207386308 0 0.0013092491850887655 0.0087846267415670268 0 0.0012968129743876299 0.0085771676142675692 0 0.0011406592703080583 0.0087161054608286773 0 0.0011624775517238243 0.0089593945863174675 0 0.0013092491850887655 0.0087846267415670268 0 0.0011406592703080583 0.0087161054608286773 0 0.0011624775517238243 0.0089593945863174675 0 0.0011406592703080583 0.0087161054608286773 0 0.00096732772962989896 0.0087912736469795329 0 0.0011624775517238243 0.0089593945863174675 0 0.00085403821984622586 0.0090007017529458912 0 0.00096732772962989896 0.0087912736469795329 0 0.0011406592703080583 0.0087161054608286773 0 0.00096816300762060192 0.0086273613091688173 0 0.0010766513740766816 0.008436624207386308 0 0.0011406592703080583 0.0087161054608286773 0 0.00096732772962989896 0.0087912736469795329 0 0.00096816300762060192 0.0086273613091688173 0 0.00084576903326672879 0.0085192610887415005 0 0.00096816300762060192 0.0086273613091688173 0 0.0010766513740766816 0.008436624207386308 0 0.00083626847931901876 0.0083023448648227791 0 0.0010312961123210723 0.0082171327457256187 0 0.0009636559631739166 0.0080645726524878492 0 0.0010766513740766816 0.008436624207386308 0 0.0010312961123210723 0.0082171327457256187 0 0.0011802618017758137 0.0082231616680583913 0 0.00083626847931901876 0.0083023448648227791 0 0.0010766513740766816 0.008436624207386308 0 0.0010312961123210723 0.0082171327457256187 0 0.0010837915536160635 0.0081475138835727587 0 0.00098491062400046705 0.0081301914517702255 0 0.0011802618017758137 0.0082231616680583913 0 0.0013546067637433014 0.0081047317974701945 0 0.0011508363751338109 0.0080482363658679352 0 0.0011802618017758137 0.0082231616680583913 0 0.0013242132698132031 0.0083251549400506584 0 0.0013546067637433014 0.0081047317974701945 0 0.0010312961123210723 0.0082171327457256187 0 0.0011802618017758137 0.0082231616680583913 0 0.0011508363751338109 0.0080482363658679352 0 0.0010766513740766816 0.008436624207386308 0 0.0011802618017758137 0.0082231616680583913 0 0.0013242132698132031 0.0083251549400506584 0 0.0012968129743876299 0.0085771676142675692 0 0.0010766513740766816 0.008436624207386308 0 0.0013242132698132031 0.0083251549400506584 0 0.0012968129743876299 0.0085771676142675692 0 0.0013242132698132031 0.0083251549400506584 0 0.0015180956409653072 0.0084515983659443315 0 0.0013242132698132031 0.0083251549400506584 0 0.0015403964125442532 0.0082251393601619482 0 0.0015180956409653072 0.0084515983659443315 0 0.0013242132698132031 0.0083251549400506584 0 0.0013546067637433014 0.0081047317974701945 0 0.0015403964125442532 0.0082251393601619482 0 0.0018401567178236366 0.0083582275284693943 0 0.0015403964125442532 0.0082251393601619482 0 0.0016490342255062636 0.0079669539492016675 0 0.0013546067637433014 0.0081047317974701945 0 0.0015403964125442532 0.0082251393601619482 0 0.0016490342255062636 0.0079669539492016675 0 0.0018401567178236366 0.0083582275284693943 0 0.0015403964125442532 0.0082251393601619482 0 0.0015180956409653072 0.0084515983659443315 0 0.00035076238706827068 0.0024849611658064102 0 0.00039529352560463616 0.002247989257788185 0 0.00054796858523582857 0.0025195353522958373 0 0.00108321831499707 0.0050040371072780677 0 0.00075053034004199295 0.0056844734549440093 0 0.0013546067637433014 0.0081047317974701945 0 0.0016490342255062636 0.0079669539492016675 0 0.001287059516647605 0.0078876144579715264 0 0.00039529352560463616 0.002247989257788185 0 0.00054796858523582857 0.0025195353522958373 0 0.00072599982304034417 0.0023732477739372023 0 6.4104083210988252e-05 0.0050294380451203049 0 -3.143704141158103e-05 0.0053295922317069351 0 -9.3633287913697836e-05 0.0052076104393385609 0 0.00035141473296763063 0.0035374978667867727 0 0.00075053034004199295 0.0056844734549440093 0 0.00075053034004199295 0.0056844734549440093 0 0.00041753069790270638 0.0068313371170663946 0 -3.143704141158103e-05 0.0053295922317069351 0 -0.0001060106420993152 0.0055603714655423535 0 -9.3633287913697836e-05 0.0052076104393385609 0 0.0013546067637433014 0.0081047317974701945 0 0.001287059516647605 0.0078876144579715264 0 0.0011508363751338109 0.0080482363658679352 0 0.00075053034004199295 0.0056844734549440093 0 0.00098491062400046705 0.0081301914517702255 0 0.0013206673573821833 0.0079152021296216273 0 0.0011843993476217767 0.0080656664446505412 0 0.00097815524270571585 0.0078266248774952717 0 0.0010312961123210723 0.0082171327457256187 0 0.0011843993476217767 0.0080656664446505412 0 0.0009636559631739166 0.0080645726524878492 0 0.0011843993476217767 0.0080656664446505412 0 0.0009636559631739166 0.0080645726524878492 0 0.00097815524270571585 0.0078266248774952717 0 -0.0001060106420993152 0.0055603714655423535 0 -9.3633287913697836e-05 0.0052076104393385609 0 -5.9059590811333516e-05 0.00584198959497123 0 -1.6330624220267974e-07 0.0054302525912733757 0 -9.3633287913697836e-05 0.0052076104393385609 0 -5.9059590811333516e-05 0.00584198959497123 0 -1.6330624220267974e-07 0.0054302525912733757 0 -1.224331121229282e-07 0.0047058760927975582 0 -9.3633287913697836e-05 0.0052076104393385609 0 6.4104083210988252e-05 0.0050294380451203049 0 -9.3633287913697836e-05 0.0052076104393385609 0 -7.0707467249339559e-06 0.0046411722363434455 0 -1.224331121229282e-07 0.0047058760927975582 0 -7.0707467249339559e-06 0.0046411722363434455 0 1.3278183853072149e-08 0.0039812314923847259 0 -1.224331121229282e-07 0.0047058760927975582 0 -9.3633287913697836e-05 0.0052076104393385609 0 -7.0707467249339559e-06 0.0046411722363434455 0 0.00016557285053596312 0.0043377199992776306 0 -7.0707467249339559e-06 0.0046411722363434455 0 1.3278183853072149e-08 0.0039812314923847259 0 0.00039635243862738597 0.0027311622775751604 0 0.00035076238706827068 0.0024849611658064102 0 0.00054796858523582857 0.0025195353522958373 0 0.00020009101697103098 0.0035959882852474763 0 0.00035141473296763063 0.0035374978667867727 0 0.00016557285053596312 0.0043377199992776306 0 6.4104083210988252e-05 0.0050294380451203049 0 -7.0707467249339559e-06 0.0046411722363434455 0 0.00012480390691142656 0.0081867197025102412 0 0.00045002096082815682 0.0080340851498904246 0 0.00010187524635434958 0.0073896846758263485 0 0.00045002096082815682 0.0080340851498904246 0 0.00063580253394079976 0.0076689157257728248 0 0.00010187524635434958 0.0073896846758263485 0 0.00033712062909215087 0.0083564388357189549 0 0.00012480390691142656 0.0081867197025102412 0 0.00045002096082815682 0.0080340851498904246 0 0.00055840120123547277 0.0083348439915814764 0 0.00045002096082815682 0.0080340851498904246 0 0.00075895739312024815 0.0080539874658197494 0 0.0009636559631739166 0.0080645726524878492 0 0.00097815524270571585 0.0078266248774952717 0 0.00075895739312024815 0.0080539874658197494 0 0.00083626847931901876 0.0083023448648227791 0 0.0009636559631739166 0.0080645726524878492 0 0.00075895739312024815 0.0080539874658197494 0 0.00041753069790270638 0.0068313371170663946 0 0.00027153752483841283 0.0069350683548112619 0 0.00097815524270571585 0.0078266248774952717 0 0.00075895739312024815 0.0080539874658197494 0 0.00063580253394079976 0.0076689157257728248 0 0.00045002096082815682 0.0080340851498904246 0 0.00075895739312024815 0.0080539874658197494 0 0.00063580253394079976 0.0076689157257728248 0 1.3951560861833218e-05 0.0062130603345010209 0 -5.9059590811333516e-05 0.00584198959497123 0 2.3956768712645895e-05 0.0065258228685046759 0 -0.0001060106420993152 0.0055603714655423535 0 1.3951560861833218e-05 0.0062130603345010209 0 -5.9059590811333516e-05 0.00584198959497123 0 -1.6330624220267974e-07 0.0054302525912733757 0 -5.9059590811333516e-05 0.00584198959497123 0 -4.0723173251014415e-08 0.006154850662182295 0 2.3956768712645895e-05 0.0065258228685046759 0 -4.0723173251014415e-08 0.006154850662182295 0 1.8103869754628839e-07 0.0068795689938543911 0 -5.9059590811333516e-05 0.00584198959497123 0 2.3956768712645895e-05 0.0065258228685046759 0 -4.0723173251014415e-08 0.006154850662182295 0 2.3956768712645895e-05 0.0065258228685046759 0 1.8103869754628839e-07 0.0068795689938543911 0 0.00010187524635434958 0.0073896846758263485 0 0.00027153752483841283 0.0069350683548112619 0 7.4330132912741917e-05 0.0073033398798559423 0 1.3951560861833218e-05 0.0062130603345010209 0 2.3956768712645895e-05 0.0065258228685046759 0 0.00010187524635434958 0.0073896846758263485 0 1.8103869754628839e-07 0.0068795689938543911 0 -2.362825311896679e-07 0.0075775724242867432 0 -2.7371667855801385e-05 0.0075533520976504712 0 1.8103869754628839e-07 0.0068795689938543911 0 0.00010187524635434958 0.0073896846758263485 0 -2.7371667855801385e-05 0.0075533520976504712 0 -2.362825311896679e-07 0.0075775724242867432 0 -0.0001225622415200558 0.0077585971263262133 0 -0.0002709452160060424 0.0079442025063754529 0 -2.362825311896679e-07 0.0075775724242867432 0 -0.0001225622415200558 0.0077585971263262133 0 -2.7371667855801385e-05 0.0075533520976504712 0 -3.6268643815346947e-05 0.0076905322491406542 0 -0.00012224845891347161 0.0081424713727406318 0 -0.0001225622415200558 0.0077585971263262133 0 -2.7371667855801385e-05 0.0075533520976504712 0 -0.00012261828851367325 0.0077561735865622223 0 1.0063537694705699e-07 0.007578117205383701 0 -1.7554292711562341e-07 0.00834472393651183 0 1.6359852089863987e-06 0.0082918012167520847 0 -0.0002709452160060424 0.0079442025063754529 0 -0.00023839311207917888 0.0079893793309636623 0 -0.00024718948444843783 0.0081140086610106254 0 -0.0002709452160060424 0.0079442025063754529 0 -0.00019992275614776598 0.0078929584887475739 0 -0.00023839311207917888 0.0079893793309636623 0 -0.0001225622415200558 0.0077585971263262133 0 -0.0002709452160060424 0.0079442025063754529 0 -0.00019992275614776598 0.0078929584887475739 0 -0.00019992275614776598 0.0078929584887475739 0 -0.00022975382888517899 0.0079681582579670344 0 -0.00012261828851367325 0.0077561735865622223 0 -0.0001225622415200558 0.0077585971263262133 0 -0.00019992275614776598 0.0078929584887475739 0 -0.00012261828851367325 0.0077561735865622223 0 -0.00019992275614776598 0.0078929584887475739 0 -0.00023839311207917888 0.0079893793309636623 0 -0.00022975382888517899 0.0079681582579670344 0 -0.00023839311207917888 0.0079893793309636623 0 -0.00022975382888517899 0.0079681582579670344 0 -0.00024718948444843783 0.0081140086610106254 0 -0.0002174637908912208 0.0079745435524437025 0 -0.00012261828851367325 0.0077561735865622223 0 -0.00011050601432617806 0.0079570193088851562 0 -0.00022975382888517899 0.0079681582579670344 0 -0.0002174637908912208 0.0079745435524437025 0 -0.00025019913646867419 0.0080832137016643088 0 -0.00022975382888517899 0.0079681582579670344 0 -0.0002174637908912208 0.0079745435524437025 0 -0.00012261828851367325 0.0077561735865622223 0 0.00010187524635434958 0.0073896846758263485 0 -2.7371667855801385e-05 0.0075533520976504712 0 -0.00012261828851367325 0.0077561735865622223 0 0.00010187524635434958 0.0073896846758263485 0 -0.00012261828851367325 0.0077561735865622223 0 -0.00011050601432617806 0.0079570193088851562 0 0.00012480390691142656 0.0081867197025102412 0 0.00010187524635434958 0.0073896846758263485 0 -0.00011050601432617806 0.0079570193088851562 0 -0.0002174637908912208 0.0079745435524437025 0 -0.00011050601432617806 0.0079570193088851562 0 -0.00020323113937085988 0.0081406537242162211 0 -7.9357133603024659e-05 0.0083400326594812481 0 -0.00026847680045720418 0.0084618761073873353 0 -0.00020323113937085988 0.0081406537242162211 0 -0.00011050601432617806 0.0079570193088851562 0 -7.9357133603024659e-05 0.0083400326594812481 0 -0.00020323113937085988 0.0081406537242162211 0 0.00012480390691142656 0.0081867197025102412 0 -0.00011050601432617806 0.0079570193088851562 0 -7.9357133603024659e-05 0.0083400326594812481 0 -0.0004230528638119183 0.0089248478078724526 0 -0.00050855803572175009 0.008924439122585736 0 -0.00044388958813816918 0.0082019022290078826 0 -0.00026847680045720418 0.0084618761073873353 0 -0.00051509331139734985 0.0089283730002109839 0 -0.00044388958813816918 0.0082019022290078826 0 -0.00026847680045720418 0.0084618761073873353 0 -0.00020323113937085988 0.0081406537242162211 0 -0.00044388958813816918 0.0082019022290078826 0 -0.00020323113937085988 0.0081406537242162211 0 -0.00023510193498490272 0.0080396159421259761 0 -0.0002174637908912208 0.0079745435524437025 0 -0.00020323113937085988 0.0081406537242162211 0 -0.00023510193498490272 0.0080396159421259761 0 -0.0004230528638119183 0.0089248478078724526 0 -0.00013496012766581124 0.0089596188824164775 0 -0.00044388958813816918 0.0082019022290078826 0 -0.00023510193498490272 0.0080396159421259761 0 -9.4473032361802801e-05 0.008040585021767967 0 -0.00046549034484122262 0.0096508146250749941 0 -0.00012114010600432177 0.009868845162226695 0 -0.00024911557941906086 0.0098385660185896073 0 -0.00023510193498490272 0.0080396159421259761 0 -9.4473032361802801e-05 0.008040585021767967 0 -0.00025019913646867419 0.0080832137016643088 0 -9.4473032361802801e-05 0.008040585021767967 0 -0.00025019913646867419 0.0080832137016643088 0 -0.00020547559727724551 0.0083669710199247693 0 -0.0002174637908912208 0.0079745435524437025 0 -0.00023510193498490272 0.0080396159421259761 0 -0.00025019913646867419 0.0080832137016643088 0 -1.7554292711562341e-07 0.00834472393651183 0 1.6359852089863987e-06 0.0082918012167520847 0 -5.5099826071666118e-05 0.0088382999012538363 0 -0.0002709452160060424 0.0079442025063754529 0 -0.00020547559727724551 0.0083669710199247693 0 -5.5099826071666118e-05 0.0088382999012538363 0 -0.00012224845891347161 0.0081424713727406318 0 -4.3711318803553234e-05 0.0086766734445946764 0 -1.7554292711562341e-07 0.00834472393651183 0 -5.5099826071666118e-05 0.0088382999012538363 0 2.0002047697804088e-07 0.0090749441192050449 0 -0.00025019913646867419 0.0080832137016643088 0 -0.00024718948444843783 0.0081140086610106254 0 -0.00020547559727724551 0.0083669710199247693 0 -0.00022975382888517899 0.0079681582579670344 0 -0.00025019913646867419 0.0080832137016643088 0 -0.00024718948444843783 0.0081140086610106254 0 -0.0002709452160060424 0.0079442025063754529 0 -0.00024718948444843783 0.0081140086610106254 0 -0.00020547559727724551 0.0083669710199247693 0 -0.00012114010600432177 0.009868845162226695 0 4.4389128860246785e-07 0.0090778140111677993 0 -0.00011418787164415851 0.0096056290624504902 0 -0.00013496012766581124 0.0089596188824164775 0 -3.6201084063465791e-08 0.00907663852027564 0 -9.4473032361802801e-05 0.008040585021767967 0 -0.00020547559727724551 0.0083669710199247693 0 -5.5099826071666118e-05 0.0088382999012538363 0 -9.4473032361802801e-05 0.008040585021767967 0 -5.5099826071666118e-05 0.0088382999012538363 0 2.0002047697804088e-07 0.0090749441192050449 0 -4.8136719570681878e-07 0.009674179755383986 0 -0.00011102327540218131 0.010112921550148254 0 -0.00017378948768869985 0.0098770274701417173 0 -4.8136719570681878e-07 0.009674179755383986 0 -0.00011418787164415851 0.0096056290624504902 0 -0.00017378948768869985 0.0098770274701417173 0 4.4389128860246785e-07 0.0090778140111677993 0 -4.8136719570681878e-07 0.009674179755383986 0 -0.00011418787164415851 0.0096056290624504902 0 -4.8136719570681878e-07 0.009674179755383986 0 -0.00011102327540218131 0.010112921550148254 0 -5.1771134432587651e-08 0.010271773346113655 0 -0.00011102327540218131 0.010112921550148254 0 -7.0435000975010788e-05 0.010371672668097688 0 -0.00015885362935550221 0.0099740632197922209 0 -0.00011102327540218131 0.010112921550148254 0 -0.00017378948768869985 0.0098770274701417173 0 -0.00015885362935550221 0.0099740632197922209 0 -0.00012114010600432177 0.009868845162226695 0 -0.00011418787164415851 0.0096056290624504902 0 -0.00017378948768869985 0.0098770274701417173 0 -0.00017378948768869985 0.0098770274701417173 0 -0.00024911557941906086 0.0098385660185896073 0 -0.00015885362935550221 0.0099740632197922209 0 -0.00012114010600432177 0.009868845162226695 0 -0.00017378948768869985 0.0098770274701417173 0 -0.00024911557941906086 0.0098385660185896073 0 -4.4518543717610148e-07 0.011038140579067761 0 -7.0435000975010788e-05 0.010371672668097688 0 7.4495002369047135e-05 0.010629967422241003 0 -5.1771134432587651e-08 0.010271773346113655 0 -4.4518543717610148e-07 0.011038140579067761 0 -7.0435000975010788e-05 0.010371672668097688 0 -0.00011102327540218131 0.010112921550148254 0 -5.1771134432587651e-08 0.010271773346113655 0 -7.0435000975010788e-05 0.010371672668097688 0 -7.0435000975010788e-05 0.010371672668097688 0 6.1931756487161096e-06 0.0099840249662297622 0 -0.00015885362935550221 0.0099740632197922209 0 -7.0435000975010788e-05 0.010371672668097688 0 6.1931756487161096e-06 0.0099840249662297622 0 7.4495002369047135e-05 0.010629967422241003 0 6.1931756487161096e-06 0.0099840249662297622 0 7.4495002369047135e-05 0.010629967422241003 0 0.00028680635305439515 0.010013218341341806 0 6.1931756487161096e-06 0.0099840249662297622 0 -0.00018865948525255446 0.009502477970851058 0 0.00012826273104078273 0.0094756640358017955 0 -0.00032135179149764964 0.012133526794213638 0 -0.00035003534568207504 0.012126401669266089 0 -0.00035000155898805264 0.012145067944004991 0 6.1931756487161096e-06 0.0099840249662297622 0 0.00012826273104078273 0.0094756640358017955 0 0.00028680635305439515 0.010013218341341806 0 -8.3735565584148184e-05 0.010845611611267302 0 -9.3617608617384024e-05 0.010851671513942642 0 -0.00024911557941906086 0.0098385660185896073 0 -0.00015885362935550221 0.0099740632197922209 0 -0.00018865948525255446 0.009502477970851058 0 6.1931756487161096e-06 0.0099840249662297622 0 -0.00015885362935550221 0.0099740632197922209 0 -0.00018865948525255446 0.009502477970851058 0 -0.00046549034484122262 0.0096508146250749941 0 -0.00018865948525255446 0.009502477970851058 0 -0.00051509331139734985 0.0089283730002109839 0 -0.00046549034484122262 0.0096508146250749941 0 -0.00024911557941906086 0.0098385660185896073 0 -0.00018865948525255446 0.009502477970851058 0 -0.00018865948525255446 0.009502477970851058 0 -0.00034373420669392082 0.0090032778094831633 0 -0.00051509331139734985 0.0089283730002109839 0 -0.00018865948525255446 0.009502477970851058 0 -0.00011373114987733759 0.0089786771440187943 0 -0.00034373420669392082 0.0090032778094831633 0 -0.00034373420669392082 0.0090032778094831633 0 -0.00051509331139734985 0.0089283730002109839 0 -0.0004614574206431223 0.0089078411845714273 0 -0.00032135179149764964 0.012133526794213638 0 -0.00032643271155338672 0.012174044634341859 0 -0.00035000155898805264 0.012145067944004991 0 -0.00021572109909506621 0.010556332046135713 0 -8.3735565584148184e-05 0.010845611611267302 0 -0.00018865948525255446 0.009502477970851058 0 -0.00011373114987733759 0.0089786771440187943 0 0.00012826273104078273 0.0094756640358017955 0 -0.00028747894701525677 0.012167766828471961 0 -0.00032135179149764964 0.012133526794213638 0 -0.00032643271155338672 0.012174044634341859 0 -0.00032643271155338672 0.012174044634341859 0 -0.00030729813589176725 0.012210173288748708 0 -0.00036146180988123427 0.012216068240890559 0 -0.00032643271155338672 0.012174044634341859 0 -0.00028721823607680166 0.012189556547587218 0 -0.00030729813589176725 0.012210173288748708 0 -0.00028747894701525677 0.012167766828471961 0 -0.00032643271155338672 0.012174044634341859 0 -0.00028721823607680166 0.012189556547587218 0 -0.0002672642044139863 0.012196064813871321 0 -0.00030729813589176725 0.012210173288748708 0 -0.00029798107980083804 0.012252355900247733 0 -0.00028721823607680166 0.012189556547587218 0 -0.0002672642044139863 0.012196064813871321 0 -0.00030729813589176725 0.012210173288748708 0 -0.00030729813589176725 0.012210173288748708 0 -0.00036146180988123427 0.012216068240890559 0 -0.00034681840790481489 0.012280217860085015 0 -0.00034373420669392082 0.0090032778094831633 0 -0.00036167377492725503 0.0087886650580045883 0 -0.0004614574206431223 0.0089078411845714273 0 -0.00021572109909506621 0.010556332046135713 0 -0.000329590562873011 0.010558779585437475 0 -0.00011373114987733759 0.0089786771440187943 0 -0.00034373420669392082 0.0090032778094831633 0 -0.00036167377492725503 0.0087886650580045883 0 -0.00028747894701525677 0.012167766828471961 0 -0.00028721823607680166 0.012189556547587218 0 -0.00031023181842980218 0.012184630670339036 0 -0.00028721823607680166 0.012189556547587218 0 -0.0002672642044139863 0.012196064813871321 0 -0.00031023181842980218 0.012184630670339036 0 -0.00036167377492725503 0.0087886650580045883 0 -0.00043399601621532246 0.0087971651123396038 0 -0.00044467317958045264 0.0087628142991166367 0 -0.00047979445266642162 0.0087528191474668254 0 -0.00031768092380992855 0.010061908956037853 0 -0.000329590562873011 0.010558779585437475 0 -0.00031768092380992855 0.010061908956037853 0 -0.00046824460603979526 0.0091146164381178101 0 -0.00026972553882180272 0.0090918803412256017 0 -0.00043244837936004933 0.0093634163361035871 0 -0.00047979445266642162 0.0087528191474668254 0 -0.00044798775702009191 0.0089958796907133789 0 -0.00046824460603979526 0.0091146164381178101 0 -0.00039293592665484679 0.0089930432845490901 0 -0.00026972553882180272 0.0090918803412256017 0 -0.00039293592665484679 0.0089930432845490901 0 -0.0004614574206431223 0.0089078411845714273 0 -0.00034198358799932102 0.0088780318209254507 0 -0.00036167377492725503 0.0087886650580045883 0 -0.00043399601621532246 0.0087971651123396038 0 -0.0004614574206431223 0.0089078411845714273 0 -0.00046824460603979526 0.0091146164381178101 0 -0.00039293592665484679 0.0089930432845490901 0 -0.0004614574206431223 0.0089078411845714273 0 -0.00023801148516922958 0.0088360394031684279 0 -0.00016300875384063745 0.0087453859033448621 0 -0.00026972553882180272 0.0090918803412256017 0 -0.00015024745914777793 0.0086725652064692758 0 -0.00034198358799932102 0.0088780318209254507 0 -0.00039293592665484679 0.0089930432845490901 0 -0.00026972553882180272 0.0090918803412256017 0 -0.00034198358799932102 0.0088780318209254507 0 -0.00023801148516922958 0.0088360394031684279 0 -0.0003399988310501465 0.0098850116271372405 0 -0.00022394689612139664 0.0088504610330823463 0 -0.00015037092034629501 0.0089386483121537807 0 -0.00023793582280933628 0.0090905489487167462 0 -0.00015037092034629501 0.0089386483121537807 0 -3.5538383807710641e-05 0.00892848627575203 0 -4.1271648772257696e-05 0.009123571217465808 0 -3.5538383807710641e-05 0.00892848627575203 0 3.1832025892230318e-05 0.0088150111049519597 0 -0.00010655920458030084 0.0088152030954625031 0 -0.00015037092034629501 0.0089386483121537807 0 -3.5538383807710641e-05 0.00892848627575203 0 -0.00010655920458030084 0.0088152030954625031 0 -0.00022394689612139664 0.0088504610330823463 0 -0.00015037092034629501 0.0089386483121537807 0 -0.00010655920458030084 0.0088152030954625031 0 0.00020170398103272678 0.008932265996344892 0 6.6519758176413664e-05 0.0089724273197834756 0 3.1832025892230318e-05 0.0088150111049519597 0 -3.5538383807710641e-05 0.00892848627575203 0 6.6519758176413664e-05 0.0089724273197834756 0 3.1832025892230318e-05 0.0088150111049519597 0 0.00020170398103272678 0.008932265996344892 0 6.6519758176413664e-05 0.0089724273197834756 0 0.00013965086541245468 0.009036164442482477 0 3.1832025892230318e-05 0.0088150111049519597 0 -0.00010655920458030084 0.0088152030954625031 0 -0.00015024745914777793 0.0086725652064692758 0 -0.00022394689612139664 0.0088504610330823463 0 -0.00010655920458030084 0.0088152030954625031 0 -0.00015024745914777793 0.0086725652064692758 0 0.00018557656908670955 0.0085561493721334776 0 -7.9357133603024659e-05 0.0083400326594812481 0 -0.00015024745914777793 0.0086725652064692758 0 0.00018557656908670955 0.0085561493721334776 0 3.1832025892230318e-05 0.0088150111049519597 0 -0.00015024745914777793 0.0086725652064692758 0 0.00018557656908670955 0.0085561493721334776 0 0.00012480390691142656 0.0081867197025102412 0 -7.9357133603024659e-05 0.0083400326594812481 0 -7.9357133603024659e-05 0.0083400326594812481 0 -0.00026847680045720418 0.0084618761073873353 0 -0.00015024745914777793 0.0086725652064692758 0 -0.00026847680045720418 0.0084618761073873353 0 -0.00015024745914777793 0.0086725652064692758 0 -0.00036446792316823537 0.0087844983970082283 0 -0.00026847680045720418 0.0084618761073873353 0 -0.00051509331139734985 0.0089283730002109839 0 -0.00036446792316823537 0.0087844983970082283 0 -0.00051509331139734985 0.0089283730002109839 0 -0.0004614574206431223 0.0089078411845714273 0 -0.00036446792316823537 0.0087844983970082283 0 -0.0004614574206431223 0.0089078411845714273 0 -0.00036446792316823537 0.0087844983970082283 0 -0.00034198358799932102 0.0088780318209254507 0 -0.00015024745914777793 0.0086725652064692758 0 -0.00036446792316823537 0.0087844983970082283 0 -0.00034198358799932102 0.0088780318209254507 0 1.8354074051899803e-09 0.01500001284144984 0 2.4088799369909066e-06 0.015001966378853003 0 2.7839380772428792e-06 0.014997872142421848 0 2.4088799369909066e-06 0.015001966378853003 0 2.7839380772428792e-06 0.014997872142421848 0 1.6979782728613381e-05 0.014999925186148306 0 1.8354074051899803e-09 0.01500001284144984 0 2.7839380772428792e-06 0.014997872142421848 0 -5.5487864497565423e-10 0.014999990629040113 0 1.8507651814415397e-11 0.01499998341452635 0 -2.4236417993731119e-08 0.014158812583116376 0 -3.5559234056897843e-09 0.013541142449562995 0 2.7839380772428792e-06 0.014997872142421848 0 -5.5487864497565423e-10 0.014999990629040113 0 1.235483379168434e-06 0.014990299920958261 0 -5.5487864497565423e-10 0.014999990629040113 0 -4.3352736920316137e-09 0.014999968928051041 0 1.235483379168434e-06 0.014990299920958261 0 -4.3352736920316137e-09 0.014999968928051041 0 4.6914873403775727e-06 0.014971523890676989 0 1.235483379168434e-06 0.014990299920958261 0 -1.3196873847073704e-07 0.014999850810827886 0 -3.978888289636674e-05 0.01455983346360579 0 1.8507651814415397e-11 0.01499998341452635 0 -2.1261039126021792e-10 0.014999929527248303 0 -2.4236417993731119e-08 0.014158812583116376 0 4.6914873403775727e-06 0.014971523890676989 0 1.235483379168434e-06 0.014990299920958261 0 1.3787821781498868e-05 0.014981079579872606 0 2.7839380772428792e-06 0.014997872142421848 0 1.235483379168434e-06 0.014990299920958261 0 1.3787821781498868e-05 0.014981079579872606 0 -3.978888289636674e-05 0.01455983346360579 0 -2.6958601762058594e-05 0.014172728771806375 0 4.6914873403775727e-06 0.014971523890676989 0 1.3787821781498868e-05 0.014981079579872606 0 3.3197388794148915e-05 0.014942351407537744 0 -2.4236417993731119e-08 0.014158812583116376 0 -1.041878722238856e-07 0.013313621761725822 0 -3.5559234056897843e-09 0.013541142449562995 0 1.3787821781498868e-05 0.014981079579872606 0 3.3197388794148915e-05 0.014942351407537744 0 4.7328047163036509e-05 0.014977432613278859 0 1.3787821781498868e-05 0.014981079579872606 0 1.6979782728613381e-05 0.014999925186148306 0 4.7328047163036509e-05 0.014977432613278859 0 2.6744538516765868e-05 0.014823907081729955 0 -1.6924825218269832e-05 0.014834343199765079 0 2.3149740238449094e-05 0.01472398989648511 0 2.4751905777112051e-05 0.014865356105402936 0 -2.0353175050270994e-05 0.015106788375713337 0 2.7839380772428792e-06 0.014997872142421848 0 1.3787821781498868e-05 0.014981079579872606 0 1.6979782728613381e-05 0.014999925186148306 0 -2.4791190838456573e-05 0.014918849822047957 0 -1.6924825218269832e-05 0.014834343199765079 0 6.3548601588738149e-06 0.01487976652478226 0 -1.4731937748105957e-05 0.014969577736981866 0 2.4751905777112051e-05 0.014865356105402936 0 2.6744538516765868e-05 0.014823907081729955 0 -1.6924825218269832e-05 0.014834343199765079 0 6.3548601588738149e-06 0.01487976652478226 0 2.6744538516765868e-05 0.014823907081729955 0 6.3548601588738149e-06 0.01487976652478226 0 3.9791222202650593e-05 0.014886997815263788 0 2.6744538516765868e-05 0.014823907081729955 0 6.0948063530555586e-05 0.014842080226588731 0 3.9791222202650593e-05 0.014886997815263788 0 6.0948063530555586e-05 0.014842080226588731 0 3.9791222202650593e-05 0.014886997815263788 0 7.4328465936691448e-05 0.014880955535981602 0 7.4328465936691448e-05 0.014880955535981602 0 0.00010374483769174114 0.01486713854243428 0 9.3688185303357119e-05 0.014834938352463191 0 0.00010374483769174114 0.01486713854243428 0 0.0001158629906435101 0.01483941336114579 0 0.00013649741218441111 0.014853689692712507 0 0.00010374483769174114 0.01486713854243428 0 0.0001158629906435101 0.01483941336114579 0 9.3688185303357119e-05 0.014834938352463191 0 0.0001158629906435101 0.01483941336114579 0 9.3688185303357119e-05 0.014834938352463191 0 0.00013128788822652909 0.014798152350854233 0 0.0001158629906435101 0.01483941336114579 0 0.00013128788822652909 0.014798152350854233 0 0.00013649741218441111 0.014853689692712507 0 6.0948063530555586e-05 0.014842080226588731 0 7.4328465936691448e-05 0.014880955535981602 0 9.3688185303357119e-05 0.014834938352463191 0 9.3688185303357119e-05 0.014834938352463191 0 0.00013128788822652909 0.014798152350854233 0 7.9315879998033653e-05 0.014785935197098648 0 0.00013128788822652909 0.014798152350854233 0 0.00013447428803529119 0.014751211616094231 0 7.9315879998033653e-05 0.014785935197098648 0 2.6744538516765868e-05 0.014823907081729955 0 6.0948063530555586e-05 0.014842080226588731 0 7.9315879998033653e-05 0.014785935197098648 0 2.6744538516765868e-05 0.014823907081729955 0 7.9315879998033653e-05 0.014785935197098648 0 2.3149740238449094e-05 0.01472398989648511 0 6.0948063530555586e-05 0.014842080226588731 0 9.3688185303357119e-05 0.014834938352463191 0 7.9315879998033653e-05 0.014785935197098648 0 -1.041878722238856e-07 0.013313621761725822 0 -3.5559234056897843e-09 0.013541142449562995 0 5.7473915396048494e-09 0.012496722321972879 0 7.9315879998033653e-05 0.014785935197098648 0 2.3149740238449094e-05 0.01472398989648511 0 9.8330126978729996e-05 0.014715840043825019 0 2.3149740238449094e-05 0.01472398989648511 0 0.00010866065836534142 0.014598146680924401 0 9.8330126978729996e-05 0.014715840043825019 0 -2.0353175050270994e-05 0.015106788375713337 0 5.6359067806408099e-05 0.013323858236345076 0 -1.041878722238856e-07 0.013313621761725822 0 5.7473915396048494e-09 0.012496722321972879 0 2.0482945657877423e-07 0.012453720832019411 0 -2.6958601762058594e-05 0.014172728771806375 0 5.6359067806408099e-05 0.013323858236345076 0 3.3197388794148915e-05 0.014942351407537744 0 4.7328047163036509e-05 0.014977432613278859 0 9.2201564876345332e-05 0.014919433021925521 0 7.4027462287219479e-09 0.012384661002746803 0 1.7343987353294073e-07 0.012442380211199726 0 -5.1188470335396049e-09 0.011804592860432461 0 5.6359067806408099e-05 0.013323858236345076 0 0.00014719782077350079 0.012535439626237307 0 0.00010866065836534142 0.014598146680924401 0 0.00014178495970797698 0.014701176061894404 0 0.00018968679025023461 0.014693876342771209 0 1.0008610258480172e-06 0.01238727241686895 0 5.6359067806408099e-05 0.013323858236345076 0 -1.3698824837110403e-09 0.012385012390616526 0 1.6055283414796671e-09 0.012496367884783798 0 6.8121287740022154e-08 0.012446405845548902 0 -6.5923739174111061e-07 0.01249863716371615 0 5.6359067806408099e-05 0.013323858236345076 0 0.00010866065836534142 0.014598146680924401 0 0.00014178495970797698 0.014701176061894404 0 9.8330126978729996e-05 0.014715840043825019 0 0.00013447428803529119 0.014751211616094231 0 7.9315879998033653e-05 0.014785935197098648 0 9.8330126978729996e-05 0.014715840043825019 0 0.00013447428803529119 0.014751211616094231 0 0.00014178495970797698 0.014701176061894404 0 9.8330126978729996e-05 0.014715840043825019 0 0.00014719782077350079 0.012535439626237307 0 2.1695593707697553e-06 0.013418941016787802 0 0.00013447428803529119 0.014751211616094231 0 0.00014178495970797698 0.014701176061894404 0 0.00017661609054719278 0.014747066418428162 0 0.00014178495970797698 0.014701176061894404 0 0.00018968679025023461 0.014693876342771209 0 0.00017661609054719278 0.014747066418428162 0 5.6359067806408099e-05 0.013323858236345076 0 0.00016982387226305954 0.011992448143266254 0 0.00015072558546152273 0.012638663492015591 0 0.00011789778383264914 0.012596011524524706 0 0.00010931691212072701 0.012636018328427336 0 0.00014719782077350079 0.012535439626237307 0 0.00016982387226305954 0.011992448143266254 0 -4.4518543717610148e-07 0.011038140579067761 0 1.5040372661653751e-06 0.011802775063336495 0 7.4495002369047135e-05 0.010629967422241003 0 0.0005626790346002445 0.010758338884662393 0 1.5040372661653751e-06 0.011802775063336495 0 7.4495002369047135e-05 0.010629967422241003 0 0.0005626790346002445 0.010758338884662393 0 7.4495002369047135e-05 0.010629967422241003 0 0.00028680635305439515 0.010013218341341806 0 0.00014719782077350079 0.012535439626237307 0 -9.3617608617384024e-05 0.010851671513942642 0 2.1695593707697553e-06 0.013418941016787802 0 0.00012612222260595604 0.014476379874782945 0 0.00013128788822652909 0.014798152350854233 0 0.00017661609054719278 0.014747066418428162 0 0.00013649741218441111 0.014853689692712507 0 -0.00034774762802036719 0.012146151498860615 0 -0.00035003534568207504 0.012126401669266089 0 -0.00034871387535905299 0.012141255831965819 0 2.1695593707697553e-06 0.013418941016787802 0 -9.2023270488194542e-05 0.012880120956943863 0 -0.00035003534568207504 0.012126401669266089 0 -0.00034871387535905299 0.012141255831965819 0 -0.00036372436529054472 0.012141392242866813 0 0.00013128788822652909 0.014798152350854233 0 0.00013447428803529119 0.014751211616094231 0 0.00017661609054719278 0.014747066418428162 0 0.00020443971314703703 0.013404498880194723 0 0.00019441923572915162 0.013900568614041662 0 0.00011321688840436291 0.013842865986571303 0 -0.00035003534568207504 0.012126401669266089 0 -0.00036372436529054472 0.012141392242866813 0 -0.00035000155898805264 0.012145067944004991 0 -0.00032643271155338672 0.012174044634341859 0 -0.00035000155898805264 0.012145067944004991 0 -0.0003852986404637536 0.01217315323505601 0 0.00019441923572915162 0.013900568614041662 0 0.00011321688840436291 0.013842865986571303 0 2.8623624197613407e-05 0.014277429502279095 0 -0.00036372436529054472 0.012141392242866813 0 -0.00035000155898805264 0.012145067944004991 0 -0.0003852986404637536 0.01217315323505601 0 0.00019441923572915162 0.013900568614041662 0 0.00017750904228304088 0.014386382193905088 0 2.8623624197613407e-05 0.014277429502279095 0 -9.2023270488194542e-05 0.012880120956943863 0 -0.00010466057980343288 0.013310813654540565 0 -0.00032643271155338672 0.012174044634341859 0 -0.0003852986404637536 0.01217315323505601 0 -0.00036146180988123427 0.012216068240890559 0 -0.00014032693184131206 0.013493024104748175 0 -0.0001916183536152514 0.013618477394913177 0 -0.00036146180988123427 0.012216068240890559 0 -0.00040970315441678294 0.012226781096526281 0 -0.00043957054984646217 0.012306875329523039 0 0.00017750904228304088 0.014386382193905088 0 0.00013274400151652564 0.014780813894431078 0 -1.8569919010674331e-05 0.014659995692146243 0 -0.00010466057980343288 0.013310813654540565 0 -0.00014032693184131206 0.013493024104748175 0 -0.0003852986404637536 0.01217315323505601 0 -0.00036146180988123427 0.012216068240890559 0 -0.00040970315441678294 0.012226781096526281 0 1.3960685117007978e-05 0.014802517488141893 0 7.4673817809109351e-06 0.014899938874228842 0 0.00013274400151652564 0.014780813894431078 0 -1.8569919010674331e-05 0.014659995692146243 0 9.8137650610665947e-06 0.014916221353788098 0 0.00013274400151652564 0.014780813894431078 0 9.8137650610665947e-06 0.014916221353788098 0 5.4463197309782435e-05 0.014935903354568011 0 9.8137650610665947e-06 0.014916221353788098 0 2.9692967955454748e-05 0.014949307718075571 0 2.0113147020397781e-05 0.014945116706646271 0 3.8845402183799988e-05 0.014945431287639629 0 2.9692967955454748e-05 0.014949307718075571 0 4.7877597250453652e-05 0.014937354358414158 0 3.8845402183799988e-05 0.014945431287639629 0 9.8137650610665947e-06 0.014916221353788098 0 2.9692967955454748e-05 0.014949307718075571 0 2.9692967955454748e-05 0.014949307718075571 0 3.6739325466335667e-05 0.014934281469326618 0 4.7877597250453652e-05 0.014937354358414158 0 3.6739325466335667e-05 0.014934281469326618 0 4.7877597250453652e-05 0.014937354358414158 0 5.9123988905014737e-05 0.014917081677776813 0 0.00017750904228304088 0.014386382193905088 0 -1.8569919010674331e-05 0.014659995692146243 0 2.8623624197613407e-05 0.014277429502279095 0 1.3960685117007978e-05 0.014802517488141893 0 6.2934915927306335e-05 0.014568545646750112 0 3.8845402183799988e-05 0.014945431287639629 0 4.7877597250453652e-05 0.014937354358414158 0 8.8060456230192995e-05 0.01492127711405432 0 4.7877597250453652e-05 0.014937354358414158 0 8.8060456230192995e-05 0.01492127711405432 0 5.9123988905014737e-05 0.014917081677776813 0 0.00012612222260595604 0.014476379874782945 0 6.2934915927306335e-05 0.014568545646750112 0 7.4328465936691448e-05 0.014880955535981602 0 0.00010374483769174114 0.01486713854243428 0 8.8060456230192995e-05 0.01492127711405432 0 0.00010374483769174114 0.01486713854243428 0 0.00013649741218441111 0.014853689692712507 0 8.8060456230192995e-05 0.01492127711405432 0 7.4328465936691448e-05 0.014880955535981602 0 8.8060456230192995e-05 0.01492127711405432 0 5.9123988905014737e-05 0.014917081677776813 0 3.9791222202650593e-05 0.014886997815263788 0 7.4328465936691448e-05 0.014880955535981602 0 5.9123988905014737e-05 0.014917081677776813 0 3.9791222202650593e-05 0.014886997815263788 0 3.6739325466335667e-05 0.014934281469326618 0 5.9123988905014737e-05 0.014917081677776813 0 3.9791222202650593e-05 0.014886997815263788 0 3.6739325466335667e-05 0.014934281469326618 0 8.0527188335640486e-06 0.014923644413034011 0 6.3548601588738149e-06 0.01487976652478226 0 3.9791222202650593e-05 0.014886997815263788 0 8.0527188335640486e-06 0.014923644413034011 0 -2.4791190838456573e-05 0.014918849822047957 0 8.0527188335640486e-06 0.014923644413034011 0 -7.3576985459304826e-06 0.014963202701531184 0 -2.4791190838456573e-05 0.014918849822047957 0 6.3548601588738149e-06 0.01487976652478226 0 8.0527188335640486e-06 0.014923644413034011 0 8.0527188335640486e-06 0.014923644413034011 0 1.9249444723246986e-05 0.014943533651099197 0 -7.3576985459304826e-06 0.014963202701531184 0 1.9249444723246986e-05 0.014943533651099197 0 1.3831608102182878e-05 0.014959648265863424 0 -7.3576985459304826e-06 0.014963202701531184 0 3.6739325466335667e-05 0.014934281469326618 0 8.0527188335640486e-06 0.014923644413034011 0 1.9249444723246986e-05 0.014943533651099197 0 2.9692967955454748e-05 0.014949307718075571 0 3.6739325466335667e-05 0.014934281469326618 0 1.9249444723246986e-05 0.014943533651099197 0 2.9692967955454748e-05 0.014949307718075571 0 1.9249444723246986e-05 0.014943533651099197 0 1.3831608102182878e-05 0.014959648265863424 0 2.9692967955454748e-05 0.014949307718075571 0 1.9716468028350432e-05 0.014957092666794316 0 1.3831608102182878e-05 0.014959648265863424 0 2.9692967955454748e-05 0.014949307718075571 0 1.9716468028350432e-05 0.014957092666794316 0 2.0113147020397781e-05 0.014945116706646271 0 1.9716468028350432e-05 0.014957092666794316 0 1.4354033782828243e-05 0.014965589927730897 0 1.3831608102182878e-05 0.014959648265863424 0 1.9716468028350432e-05 0.014957092666794316 0 1.4354033782828243e-05 0.014965589927730897 0 1.7475354363586277e-05 0.014961347780792982 0 1.2895149037595161e-05 0.014963188911489343 0 3.5620826838359903e-06 0.014978651589003317 0 1.4354033782828243e-05 0.014965589927730897 0 1.3831608102182878e-05 0.014959648265863424 0 9.7654992694053007e-06 0.014970682696705909 0 -4.0688086626432218e-06 0.014986503307402964 0 -5.3382097677147429e-06 0.014987088914212805 0 -7.3576985459304826e-06 0.014963202701531184 0 1.3831608102182878e-05 0.014959648265863424 0 -4.0688086626432218e-06 0.014986503307402964 0 -7.3576985459304826e-06 0.014963202701531184 0 1.4354033782828243e-05 0.014965589927730897 0 9.7654992694053007e-06 0.014970682696705909 0 8.6296907716768837e-06 0.014979060293012743 0 3.5620826838359903e-06 0.014978651589003317 0 6.7713806473779663e-10 0.014999990817399897 0 9.7654992694053007e-06 0.014970682696705909 0 1.1247301382026121e-09 0.014999943605039737 0 8.6296907716768837e-06 0.014979060293012743 0 -4.0688086626432218e-06 0.014986503307402964 0 2.4729747359446069e-09 0.015000001326796039 0 -5.3382097677147429e-06 0.014987088914212805 0 2.4729747359446069e-09 0.015000001326796039 0 -2.334993595904601e-08 0.014999942639930486 0 -5.3382097677147429e-06 0.014987088914212805 0 -3.4698854806763624e-06 0.014996936606432041 0 -5.3382097677147429e-06 0.014987088914212805 0 -7.3576985459304826e-06 0.014963202701531184 0 -2.334993595904601e-08 0.014999942639930486 0 -3.4698854806763624e-06 0.014996936606432041 0 -5.3382097677147429e-06 0.014987088914212805 0 -2.4791190838456573e-05 0.014918849822047957 0 -3.4698854806763624e-06 0.014996936606432041 0 -7.3576985459304826e-06 0.014963202701531184 0 1.8354074051899803e-09 0.01500001284144984 0 2.4088799369909066e-06 0.015001966378853003 0 -3.4698854806763624e-06 0.014996936606432041 0 -1.4731937748105957e-05 0.014969577736981866 0 -6.5954348239956404e-07 0.01498592397860119 0 1.8354074051899803e-09 0.01500001284144984 0 -2.334993595904601e-08 0.014999942639930486 0 -3.4698854806763624e-06 0.014996936606432041 0 6.6966564058841482e-06 0.014990848356946898 0 1.8995096672148558e-09 0.014999981907508078 0 4.0751318457077358e-09 0.01499999251564006 0 6.6966564058841482e-06 0.014990848356946898 0 7.6013313399256434e-06 0.014982574869312863 0 1.9072558740275919e-05 0.01497993569761857 0 6.6966564058841482e-06 0.014990848356946898 0 7.6013313399256434e-06 0.014982574869312863 0 1.8995096672148558e-09 0.014999981907508078 0 7.6013313399256434e-06 0.014982574869312863 0 4.5994869610660058e-09 0.014999985969689303 0 8.6296907716768837e-06 0.014979060293012743 0 7.6013313399256434e-06 0.014982574869312863 0 1.8995096672148558e-09 0.014999981907508078 0 4.5994869610660058e-09 0.014999985969689303 0 1.1247301382026121e-09 0.014999943605039737 0 4.5994869610660058e-09 0.014999985969689303 0 8.6296907716768837e-06 0.014979060293012743 0 7.6013313399256434e-06 0.014982574869312863 0 8.6296907716768837e-06 0.014979060293012743 0 1.8275277536697729e-05 0.014963033974438818 0 1.4354033782828243e-05 0.014965589927730897 0 8.6296907716768837e-06 0.014979060293012743 0 1.7475354363586277e-05 0.014961347780792982 0 8.6296907716768837e-06 0.014979060293012743 0 1.8275277536697729e-05 0.014963033974438818 0 1.7475354363586277e-05 0.014961347780792982 0 1.8275277536697729e-05 0.014963033974438818 0 1.7475354363586277e-05 0.014961347780792982 0 2.0113147020397781e-05 0.014945116706646271 0 1.9716468028350432e-05 0.014957092666794316 0 1.7475354363586277e-05 0.014961347780792982 0 2.0113147020397781e-05 0.014945116706646271 0 1.8275277536697729e-05 0.014963033974438818 0 2.0113147020397781e-05 0.014945116706646271 0 3.2603517112526823e-05 0.014953760151102065 0 1.8275277536697729e-05 0.014963033974438818 0 3.2603517112526823e-05 0.014953760151102065 0 1.9072558740275919e-05 0.01497993569761857 0 7.6013313399256434e-06 0.014982574869312863 0 1.8275277536697729e-05 0.014963033974438818 0 1.9072558740275919e-05 0.01497993569761857 0 6.6966564058841482e-06 0.014990848356946898 0 1.9072558740275919e-05 0.01497993569761857 0 1.2171246935602133e-05 0.014991092060452724 0 1.9072558740275919e-05 0.01497993569761857 0 3.7182982627764059e-05 0.014974493995259868 0 3.2347430773541018e-05 0.014982198520529115 0 3.2603517112526823e-05 0.014953760151102065 0 1.9072558740275919e-05 0.01497993569761857 0 3.7182982627764059e-05 0.014974493995259868 0 3.1596980598766806e-05 0.0149137991199501 0 5.4979024802198594e-05 0.014971695836602204 0 6.9696780071561504e-06 0.014892578432458862 0 -3.6796569229927942e-05 0.01483813570527194 0 2.5225166318600554e-05 0.014802327740353918 0 4.7755362575871073e-05 0.014886851891646546 0 6.9696780071561504e-06 0.014892578432458862 0 2.5225166318600554e-05 0.014802327740353918 0 6.9696780071561504e-06 0.014892578432458862 0 1.0930142250302175e-06 0.014924298200411799 0 -3.6796569229927942e-05 0.01483813570527194 0 6.9696780071561504e-06 0.014892578432458862 0 2.4314682533366141e-05 0.014926887656862915 0 1.0930142250302175e-06 0.014924298200411799 0 2.4314682533366141e-05 0.014926887656862915 0 2.3750428961340428e-05 0.014942900067471464 0 1.0930142250302175e-06 0.014924298200411799 0 3.2603517112526823e-05 0.014953760151102065 0 2.4314682533366141e-05 0.014926887656862915 0 2.3750428961340428e-05 0.014942900067471464 0 4.7755362575871073e-05 0.014886851891646546 0 6.9696780071561504e-06 0.014892578432458862 0 2.4314682533366141e-05 0.014926887656862915 0 3.2603517112526823e-05 0.014953760151102065 0 4.7755362575871073e-05 0.014886851891646546 0 2.4314682533366141e-05 0.014926887656862915 0 3.8064345380241286e-05 0.014952650149004106 0 3.1596980598766806e-05 0.0149137991199501 0 2.0113147020397781e-05 0.014945116706646271 0 3.2603517112526823e-05 0.014953760151102065 0 2.3750428961340428e-05 0.014942900067471464 0 9.8137650610665947e-06 0.014916221353788098 0 2.0113147020397781e-05 0.014945116706646271 0 2.3750428961340428e-05 0.014942900067471464 0 9.8137650610665947e-06 0.014916221353788098 0 2.3750428961340428e-05 0.014942900067471464 0 5.4463197309782435e-05 0.014935903354568011 0 2.3750428961340428e-05 0.014942900067471464 0 5.4463197309782435e-05 0.014935903354568011 0 1.0930142250302175e-06 0.014924298200411799 0 -0.00043957054984646217 0.012306875329523039 0 -0.0003997959780013702 0.012361198567826571 0 -0.0004687547985855474 0.012427781752224341 0 -0.0001916183536152514 0.013618477394913177 0 -0.00023039490286265384 0.013680818514352586 0 -0.00043957054984646217 0.012306875329523039 0 -0.00034681840790481489 0.012280217860085015 0 -0.0003997959780013702 0.012361198567826571 0 -0.00036146180988123427 0.012216068240890559 0 -0.00043957054984646217 0.012306875329523039 0 -0.00034681840790481489 0.012280217860085015 0 -0.00034681840790481489 0.012280217860085015 0 -0.0003997959780013702 0.012361198567826571 0 -0.0003345504154919254 0.012366628898662834 0 -0.0003997959780013702 0.012361198567826571 0 -0.00036360957265717524 0.012461851543156814 0 -0.0003345504154919254 0.012366628898662834 0 -0.0003997959780013702 0.012361198567826571 0 -0.00036360957265717524 0.012461851543156814 0 -0.0004687547985855474 0.012427781752224341 0 -0.00023039490286265384 0.013680818514352586 0 -0.00027724190343952188 0.013669632779286213 0 -0.00036360957265717524 0.012461851543156814 0 -0.0004687547985855474 0.012427781752224341 0 -0.00048035863783878641 0.012567173413942831 0 -0.00036360957265717524 0.012461851543156814 0 -0.00048035863783878641 0.012567173413942831 0 -0.00035052803337172521 0.012577542583287365 0 -0.00048035863783878641 0.012567173413942831 0 -0.00035052803337172521 0.012577542583287365 0 -0.00038067272693803297 0.012679901502849589 0 -0.00035052803337172521 0.012577542583287365 0 -0.00038067272693803297 0.012679901502849589 0 -0.00028024328498962338 0.012647408820743104 0 -0.00048035863783878641 0.012567173413942831 0 -0.00048389426999046386 0.012714468636488386 0 -0.00038067272693803297 0.012679901502849589 0 -0.00027724190343952188 0.013669632779286213 0 -8.22666238265606e-05 0.013853210132554621 0 2.7263830872468185e-05 0.013105837491275323 0 3.9371021120531884e-05 0.013105331484397189 0 4.6692187135274751e-05 0.013091063656296325 0 -8.22666238265606e-05 0.013853210132554621 0 -0.00014420858916441441 0.01286969374685634 0 2.7263830872468185e-05 0.013105837491275323 0 2.7596479582829847e-05 0.013109197972911584 0 3.9371021120531884e-05 0.013105331484397189 0 -8.22666238265606e-05 0.013853210132554621 0 9.3640491970485771e-05 0.014305354110497862 0 -0.00010858687100091027 0.014070066374698128 0 -0.00010982559347019919 0.014116833787935639 0 -0.00013601951190506947 0.014076367771180114 0 -8.22666238265606e-05 0.013853210132554621 0 7.8390956368134669e-05 0.014042070422204365 0 7.8390956368134669e-05 0.014042070422204365 0 9.3640491970485771e-05 0.014305354110497862 0 3.9371021120531884e-05 0.013105331484397189 0 4.6692187135274751e-05 0.013091063656296325 0 6.3975817231060964e-05 0.013104617565206853 0 -0.00014420858916441441 0.01286969374685634 0 -0.00033602935799300341 0.012183870734725226 0 0.00058026889843027884 0.013745104318899077 0 0.00054258870567562133 0.013721295234893155 0 0.00060481531484495813 0.013700418270060436 0 3.9371021120531884e-05 0.013105331484397189 0 3.658272133263663e-05 0.013120355515832011 0 6.3975817231060964e-05 0.013104617565206853 0 0.00051167138121207796 0.01389898096146092 0 -9.1632137953000212e-05 0.012519370770949296 0 0.00058026889843027884 0.013745104318899077 0 0.00059395674600581461 0.013753778691652093 0 0.00060481531484495813 0.013700418270060436 0 0.00058026889843027884 0.013745104318899077 0 0.00058604352443995453 0.013761302626748583 0 0.00054258870567562133 0.013721295234893155 0 0.00069304408976389594 0.01362319282612931 0 0.00011779241581732498 0.012926616833173723 0 0.00058026889843027884 0.013745104318899077 0 0.00056248961091900224 0.013754379539648382 0 0.00057448356276602441 0.013754329866136662 0 0.00058026889843027884 0.013745104318899077 0 0.00058604352443995453 0.013761302626748583 0 0.00057448356276602441 0.013754329866136662 0 0.00058604352443995453 0.013761302626748583 0 0.00055355781812006408 0.013745839583001927 0 0.00057448356276602441 0.013754329866136662 0 0.00015200046194897786 0.013394126092358474 0 0.00011779241581732498 0.012926616833173723 0 0.00055355781812006408 0.013745839583001927 0 0.00056248961091900224 0.013754379539648382 0 0.00057448356276602441 0.013754329866136662 0 0.00075739452112969473 0.014000017985585412 0 0.00051167138121207796 0.01389898096146092 0 0.0010526573524294047 0.014165868266131589 0 0.0010894262004384999 0.014213682807388222 0 0.0010196553557142696 0.014353986075165999 0 0.00085987001123704915 0.014203904473077672 0 0.0010526573524294047 0.014165868266131589 0 0.0010196553557142696 0.014353986075165999 0 0.0010526573524294047 0.014165868266131589 0 0.0010894262004384999 0.014213682807388222 0 0.0010833416133810136 0.01420242205498959 0 0.0009618799636371383 0.014182087569355224 0 0.00063696728386662292 0.014366631625951257 0 0.0010894262004384999 0.014213682807388222 0 0.0010936150958876986 0.014337125973126641 0 0.0010196553557142696 0.014353986075165999 0 0.00063696728386662292 0.014366631625951257 0 0.00051167138121207796 0.01389898096146092 0 2.7596479582829847e-05 0.013109197972911584 0 3.9371021120531884e-05 0.013105331484397189 0 3.658272133263663e-05 0.013120355515832011 0 0.00038806040402032649 0.014021521366397845 0 0.00038645997464890506 0.014149757647613203 0 0.00046414806533312926 0.014136129580140436 0 7.8390956368134669e-05 0.014042070422204365 0 0.00051167138121207796 0.01389898096146092 0 7.8390956368134669e-05 0.014042070422204365 0 0.00063696728386662292 0.014366631625951257 0 0.00033963533993456219 0.014887920117486785 0 0.00030459185535001992 0.014917687320884472 0 0.00023959325287164294 0.014883412959773598 0 0.00063696728386662292 0.014366631625951257 0 0.00054708732765527729 0.014573011219398128 0 0.00038903293773085709 0.014940853797123767 0 0.00033963533993456219 0.014887920117486785 0 0.00030459185535001992 0.014917687320884472 0 0.00038958126797415763 0.014858856375819924 0 0.00038903293773085709 0.014940853797123767 0 0.00033963533993456219 0.014887920117486785 0 0.00038903293773085709 0.014940853797123767 0 0.00030459185535001992 0.014917687320884472 0 0.00024040664878727757 0.014973541826322162 0 0.0010894262004384999 0.014213682807388222 0 0.0010947223423816992 0.014087771595286958 0 0.00096112277375947524 0.014226338840103568 0 0.0010947223423816992 0.014087771595286958 0 0.00096112277375947524 0.014226338840103568 0 0.00081215483112618918 0.014135106724491217 0 0.0010894262004384999 0.014213682807388222 0 0.00096112277375947524 0.014226338840103568 0 0.0010833416133810136 0.01420242205498959 0 0.00096112277375947524 0.014226338840103568 0 0.0010833416133810136 0.01420242205498959 0 0.001020773740758967 0.01426890977772448 0 0.00096112277375947524 0.014226338840103568 0 0.00069276744721720408 0.014363259895829187 0 0.00086429027303412914 0.014382012768415485 0 0.00096112277375947524 0.014226338840103568 0 0.00069276744721720408 0.014363259895829187 0 0.00081215483112618918 0.014135106724491217 0 0.00024040664878727757 0.014973541826322162 0 0.00023959325287164294 0.014883412959773598 0 0.00010918696606500061 0.014931245826656362 0 0.00030459185535001992 0.014917687320884472 0 0.00024040664878727757 0.014973541826322162 0 0.00023959325287164294 0.014883412959773598 0 3.1999839416471523e-05 0.014986957912188886 0 3.3985950093637432e-05 0.014992418793928224 0 2.5730810364957229e-05 0.01499046450613852 0 3.1999839416471523e-05 0.014986957912188886 0 3.7205569122875373e-05 0.014986467271190376 0 3.8680058841738139e-05 0.014982413067925545 0 3.1999839416471523e-05 0.014986957912188886 0 3.3985950093637432e-05 0.014992418793928224 0 3.7205569122875373e-05 0.014986467271190376 0 0.00014486460488929531 0.01498848351231283 0 9.3640491970485771e-05 0.014305354110497862 0 3.3985950093637432e-05 0.014992418793928224 0 4.3203000717456408e-05 0.014984521269904892 0 3.7205569122875373e-05 0.014986467271190376 0 9.3640491970485771e-05 0.014305354110497862 0 5.4979024802198594e-05 0.014971695836602204 0 -4.2162113933776381e-05 0.014701594281548151 0 -3.1474558551973455e-05 0.014699258115356856 0 2.5225166318600554e-05 0.014802327740353918 0 0.00033963533993456219 0.014887920117486785 0 0.00023959325287164294 0.014883412959773598 0 0.00037698283697665876 0.014840072403948586 0 4.3203000717456408e-05 0.014984521269904892 0 3.7205569122875373e-05 0.014986467271190376 0 3.8680058841738139e-05 0.014982413067925545 0 0.00038958126797415763 0.014858856375819924 0 0.00033963533993456219 0.014887920117486785 0 0.00037698283697665876 0.014840072403948586 0 -3.6796569229927942e-05 0.01483813570527194 0 -4.2162113933776381e-05 0.014701594281548151 0 2.5225166318600554e-05 0.014802327740353918 0 3.7182982627764059e-05 0.014974493995259868 0 3.8680058841738139e-05 0.014982413067925545 0 3.2347430773541018e-05 0.014982198520529115 0 3.1999839416471523e-05 0.014986957912188886 0 3.2347430773541018e-05 0.014982198520529115 0 2.4768587375651824e-05 0.014987067243147046 0 3.1999839416471523e-05 0.014986957912188886 0 3.8680058841738139e-05 0.014982413067925545 0 3.2347430773541018e-05 0.014982198520529115 0 1.9072558740275919e-05 0.01497993569761857 0 3.2347430773541018e-05 0.014982198520529115 0 2.4768587375651824e-05 0.014987067243147046 0 1.9072558740275919e-05 0.01497993569761857 0 2.4768587375651824e-05 0.014987067243147046 0 1.2171246935602133e-05 0.014991092060452724 0 1.2171246935602133e-05 0.014991092060452724 0 1.5008537517509583e-05 0.014992406195714526 0 1.9647502407852937e-05 0.014991445890993637 0 2.4768587375651824e-05 0.014987067243147046 0 1.2171246935602133e-05 0.014991092060452724 0 1.9647502407852937e-05 0.014991445890993637 0 1.5008537517509583e-05 0.014992406195714526 0 1.9647502407852937e-05 0.014991445890993637 0 1.936594148703835e-05 0.01499499237083835 0 1.9647502407852937e-05 0.014991445890993637 0 2.5730810364957229e-05 0.01499046450613852 0 1.936594148703835e-05 0.01499499237083835 0 3.3985950093637432e-05 0.014992418793928224 0 2.5730810364957229e-05 0.01499046450613852 0 1.936594148703835e-05 0.01499499237083835 0 2.4768587375651824e-05 0.014987067243147046 0 1.9647502407852937e-05 0.014991445890993637 0 2.5730810364957229e-05 0.01499046450613852 0 3.1999839416471523e-05 0.014986957912188886 0 2.4768587375651824e-05 0.014987067243147046 0 2.5730810364957229e-05 0.01499046450613852 0 0.00024040664878727757 0.014973541826322162 0 0.00010918696606500061 0.014931245826656362 0 0.00010106409404099608 0.015003416910351614 0 0.00014486460488929531 0.01498848351231283 0 6.6116984698131386e-05 0.014958996136799119 0 0.00069276744721720408 0.014363259895829187 0 0.00081215483112618918 0.014135106724491217 0 0.00043833840059778918 0.014326278124249348 0 0.00069276744721720408 0.014363259895829187 0 0.00043833840059778918 0.014326278124249348 0 0.00042054408781626291 0.014560664342863273 0 0.00054708732765527729 0.014573011219398128 0 0.00027625904961274837 0.014666343826221418 0 0.00027625904961274837 0.014666343826221418 0 9.5259279716332918e-05 0.014817700363488799 0 0.00010106409404099608 0.015003416910351614 0 1.680975839691778e-05 0.014986431962522874 0 1.2756648161868881e-05 0.015012177109127786 0 0.00043833840059778918 0.014326278124249348 0 0.00012722918036030465 0.014621417505905824 0 0.00042054408781626291 0.014560664342863273 0 0.00010918696606500061 0.014931245826656362 0 0.00010106409404099608 0.015003416910351614 0 1.680975839691778e-05 0.014986431962522874 0 6.6116984698131386e-05 0.014958996136799119 0 2.1855552240517631e-05 0.014983066510103447 0 1.5008537517509583e-05 0.014992406195714526 0 1.936594148703835e-05 0.01499499237083835 0 1.680975839691778e-05 0.014986431962522874 0 1.5008537517509583e-05 0.014992406195714526 0 1.680975839691778e-05 0.014986431962522874 0 8.107405377203199e-06 0.01499468364580106 0 1.680975839691778e-05 0.014986431962522874 0 4.9554808155216865e-06 0.01499711675234125 0 8.107405377203199e-06 0.01499468364580106 0 1.680975839691778e-05 0.014986431962522874 0 1.2756648161868881e-05 0.015012177109127786 0 4.9554808155216865e-06 0.01499711675234125 0 9.5259279716332918e-05 0.014817700363488799 0 6.4455119311926274e-08 0.014999915827235559 0 1.2756648161868881e-05 0.015012177109127786 0 -4.6495831865743034e-09 0.01500001567000857 0 4.9554808155216865e-06 0.01499711675234125 0 0.00012722918036030465 0.014621417505905824 0 -1.244456241326117e-08 0.014999480220931966 0 5.6678999236485203e-05 0.014876583271148209 0 -4.6495831865743034e-09 0.01500001567000857 0 7.7247693228833137e-09 0.014999988101853755 0 4.9554808155216865e-06 0.01499711675234125 0 7.7247693228833137e-09 0.014999988101853755 0 4.9554808155216865e-06 0.01499711675234125 0 8.107405377203199e-06 0.01499468364580106 0 7.7247693228833137e-09 0.014999988101853755 0 8.107405377203199e-06 0.01499468364580106 0 4.0751318457077358e-09 0.01499999251564006 0 6.6966564058841482e-06 0.014990848356946898 0 1.2171246935602133e-05 0.014991092060452724 0 4.0751318457077358e-09 0.01499999251564006 0 1.2171246935602133e-05 0.014991092060452724 0 8.107405377203199e-06 0.01499468364580106 0 4.0751318457077358e-09 0.01499999251564006 0 1.2171246935602133e-05 0.014991092060452724 0 1.5008537517509583e-05 0.014992406195714526 0 8.107405377203199e-06 0.01499468364580106 0 -0.00017758534767366887 0.011009547160724723 0 -0.00025489042788098831 0.010911657783766775 0 -0.00018492898111889707 0.010909282861381771 0 -0.00017758534767366887 0.011009547160724723 0 -0.00029280746754378468 0.011067919636069167 0 -0.00025489042788098831 0.010911657783766775 0 -0.00029280746754378468 0.011067919636069167 0 -0.00034853160256132485 0.011014207099286731 0 -0.00039113294869633415 0.011107124041326062 0 -0.00029280746754378468 0.011067919636069167 0 -0.00032470388375202655 0.011157332135385568 0 -0.00039113294869633415 0.011107124041326062 0 -0.00029280746754378468 0.011067919636069167 0 -0.00032470388375202655 0.011157332135385568 0 -0.00023582533256636697 0.011156701089960747 0 -0.00032470388375202655 0.011157332135385568 0 -0.00039113294869633415 0.011107124041326062 0 -0.000383011816762022 0.01121323555460323 0 -0.00032470388375202655 0.011157332135385568 0 -0.00023582533256636697 0.011156701089960747 0 -0.00027731716220908949 0.011251619079198569 0 -0.00018863200986408087 0.011056832066172091 0 -0.00014815186078238627 0.011077675968155206 0 -0.00021674891653094395 0.011120176615567679 0 -0.00017758534767366887 0.011009547160724723 0 -0.00029280746754378468 0.011067919636069167 0 -0.00023582533256636697 0.011156701089960747 0 -0.0001814177256979958 0.011022544772832524 0 -0.00021292451593124301 0.011105479481282026 0 -0.00017758534767366887 0.011009547160724723 0 -0.00018863200986408087 0.011056832066172091 0 -0.00015139447938980331 0.011040408707326097 0 -0.00018863200986408087 0.011056832066172091 0 -0.00015139447938980331 0.011040408707326097 0 -0.00014815186078238627 0.011077675968155206 0 -0.00015139447938980331 0.011040408707326097 0 -0.00014815186078238627 0.011077675968155206 0 -0.00011019853316479824 0.011050962603543893 0 -0.00014815186078238627 0.011077675968155206 0 -0.00010759419867756449 0.011083922066338322 0 -0.00011019853316479824 0.011050962603543893 0 -0.00010759419867756449 0.011083922066338322 0 -0.00011019853316479824 0.011050962603543893 0 -5.7596771568295632e-05 0.011078919059268652 0 -0.00011019853316479824 0.011050962603543893 0 -5.7596771568295632e-05 0.011078919059268652 0 -6.1202885084893032e-05 0.011009539839883403 0 -0.00011019853316479824 0.011050962603543893 0 -6.1202885084893032e-05 0.011009539839883403 0 -0.00012122587688120584 0.01101141350736003 0 -0.00015139447938980331 0.011040408707326097 0 -0.00011019853316479824 0.011050962603543893 0 -0.00012122587688120584 0.01101141350736003 0 3.0817396351937063e-05 0.011028475726935678 0 -5.7596771568295632e-05 0.011078919059268652 0 -6.1202885084893032e-05 0.011009539839883403 0 3.0817396351937063e-05 0.011028475726935678 0 -5.7596771568295632e-05 0.011078919059268652 0 -1.0055862029262634e-05 0.011120042519968223 0 0.0001116339416682773 0.010262720441289858 0 4.6752904676618831e-05 0.010213637466986985 0 3.0817396351937063e-05 0.011028475726935678 0 -6.1202885084893032e-05 0.011009539839883403 0 -1.5922750904498999e-05 0.010931844009429495 0 -6.1202885084893032e-05 0.011009539839883403 0 -1.5922750904498999e-05 0.010931844009429495 0 -9.7939251945464422e-05 0.010948951436620811 0 -0.00017758534767366887 0.011009547160724723 0 -0.00015139447938980331 0.011040408707326097 0 -0.00012122587688120584 0.01101141350736003 0 -0.00017758534767366887 0.011009547160724723 0 -0.00012122587688120584 0.01101141350736003 0 -9.7939251945464422e-05 0.010948951436620811 0 -6.1202885084893032e-05 0.011009539839883403 0 -0.00012122587688120584 0.01101141350736003 0 -9.7939251945464422e-05 0.010948951436620811 0 -0.00017758534767366887 0.011009547160724723 0 -9.7939251945464422e-05 0.010948951436620811 0 -0.00018492898111889707 0.010909282861381771 0 -9.7939251945464422e-05 0.010948951436620811 0 -7.4618354758252542e-05 0.010807243192395257 0 -0.00018492898111889707 0.010909282861381771 0 0.00022181988725024747 0.0091063836447053646 0 0.00012714599324214625 0.0092165408062287579 0 -5.244774982439897e-05 0.009130277764274098 0 -1.5922750904498999e-05 0.010931844009429495 0 -9.7939251945464422e-05 0.010948951436620811 0 -7.4618354758252542e-05 0.010807243192395257 0 4.6752904676618831e-05 0.010213637466986985 0 2.1290099611249236e-05 0.0095001827272129385 0 7.2641275427990255e-05 0.0093416715409967016 0 0.00012714599324214625 0.0092165408062287579 0 -5.244774982439897e-05 0.009130277764274098 0 -3.5538383807710641e-05 0.00892848627575203 0 6.6519758176413664e-05 0.0089724273197834756 0 -4.1271648772257696e-05 0.009123571217465808 0 0.00018343718791655845 0.0090306354054483541 0 2.1290099611249236e-05 0.0095001827272129385 0 6.6519758176413664e-05 0.0089724273197834756 0 0.00013965086541245468 0.009036164442482477 0 -4.1271648772257696e-05 0.009123571217465808 0 0.00022181988725024747 0.0091063836447053646 0 0.00013965086541245468 0.009036164442482477 0 -4.1271648772257696e-05 0.009123571217465808 0 -0.00018256536351474813 0.0088314485589756214 0 2.1290099611249236e-05 0.0095001827272129385 0 -0.00015037092034629501 0.0089386483121537807 0 1.4703110320512607e-05 0.0092075080306820312 0 -0.00023793582280933628 0.0090905489487167462 0 -0.00022394689612139664 0.0088504610330823463 0 -0.00023793582280933628 0.0090905489487167462 0 -0.00038788089971568027 0.0091817638845840439 0 2.1290099611249236e-05 0.0095001827272129385 0 -0.00031936439722759613 0.010467385604852681 0 1.4703110320512607e-05 0.0092075080306820312 0 -0.00023793582280933628 0.0090905489487167462 0 -0.00035057038437716928 0.0092278161557645053 0 -0.00023793582280933628 0.0090905489487167462 0 -0.00035057038437716928 0.0092278161557645053 0 -0.00038788089971568027 0.0091817638845840439 0 -7.4618354758252542e-05 0.010807243192395257 0 -0.00018492898111889707 0.010909282861381771 0 -0.00026065523990506802 0.010816512360675861 0 -0.00013457091335022136 0.010968637175480389 0 -0.00031936439722759613 0.010467385604852681 0 -0.00025489042788098831 0.010911657783766775 0 -0.00018492898111889707 0.010909282861381771 0 -0.00029030163452622353 0.010775123300835117 0 -0.00027265763415183748 0.011069424800566717 0 -0.00041541946542056774 0.010848066664092489 0 -0.00034853160256132485 0.011014207099286731 0 -0.00031706935138935653 0.010936232567333771 0 -0.00045316765667421954 0.010948491459215504 0 -0.00029280746754378468 0.011067919636069167 0 -0.00025489042788098831 0.010911657783766775 0 -0.00033957068849583161 0.010777177644994713 0 -0.00029280746754378468 0.011067919636069167 0 -0.00034853160256132485 0.011014207099286731 0 -0.00032749567223528222 0.010952759645239426 0 -0.00025489042788098831 0.010911657783766775 0 -0.00033957068849583161 0.010777177644994713 0 -0.00029030163452622353 0.010775123300835117 0 -0.00041541946542056774 0.010848066664092489 0 -0.00031936439722759613 0.010467385604852681 0 -0.00035865710992168722 0.011016846492752882 0 -0.00041541946542056774 0.010848066664092489 0 -0.00026972553882180272 0.0090918803412256017 0 -0.00039966505141795524 0.0094023847449086692 0 -0.00043244837936004933 0.0093634163361035871 0 -0.00037494979334666106 0.012097849544216974 0 -0.00037184456819673622 0.012117399101119048 0 -0.00031399086792365915 0.012117367095832761 0 -0.00017674812571076998 0.010460487484511984 0 -0.00039104284037077728 0.010473011430324487 0 -0.00025895074712273107 0.010627361194389446 0 -0.00031936439722759613 0.010467385604852681 0 -0.0003399988310501465 0.0098850116271372405 0 -0.00036186821822495845 0.010362587298823459 0 -0.0002863780645764592 0.010208953112010245 0 -0.00040195995812535316 0.010071675109291004 0 -0.00041541946542056774 0.010848066664092489 0 -0.00031768092380992855 0.010061908956037853 0 -0.00041541946542056774 0.010848066664092489 0 -0.0003399988310501465 0.0098850116271372405 0 -0.0003399988310501465 0.0098850116271372405 0 -0.00031768092380992855 0.010061908956037853 0 -0.00031023181842980218 0.012184630670339036 0 -0.00037184456819673622 0.012117399101119048 0 -0.00031399086792365915 0.012117367095832761 0 -0.0002672642044139863 0.012196064813871321 0 -0.00031399086792365915 0.012117367095832761 0 -0.00024469198751247116 0.01212053311642545 0 -0.0002672642044139863 0.012196064813871321 0 -0.00031023181842980218 0.012184630670339036 0 -0.00031399086792365915 0.012117367095832761 0 -0.0003970560731775471 0.011568693655233234 0 -0.00030131267067696083 0.011854632378338399 0 -0.00045316765667421954 0.010948491459215504 0 -0.00059836757613708188 0.010963618008686473 0 -0.00050271439166944701 0.011066758441655136 0 -0.00045316765667421954 0.010948491459215504 0 -0.00042497112287271521 0.011040450769572193 0 -0.00050271439166944701 0.011066758441655136 0 -0.00034853160256132485 0.011014207099286731 0 -0.00045316765667421954 0.010948491459215504 0 -0.00042497112287271521 0.011040450769572193 0 -0.00041541946542056774 0.010848066664092489 0 -0.0003970560731775471 0.011568693655233234 0 -0.00034681840790481489 0.012280217860085015 0 -0.00029798107980083804 0.012252355900247733 0 -0.00029856187349314351 0.012314392594829705 0 -0.00030729813589176725 0.012210173288748708 0 -0.00034681840790481489 0.012280217860085015 0 -0.00029798107980083804 0.012252355900247733 0 -0.00029798107980083804 0.012252355900247733 0 -0.00027015149608829538 0.012279111480365486 0 -0.00029856187349314351 0.012314392594829705 0 -0.00027568633276490225 0.012333765302337606 0 -0.00030131267067696083 0.011854632378338399 0 -0.0002672642044139863 0.012196064813871321 0 -0.00027015149608829538 0.012279111480365486 0 -0.00024244388632711048 0.012318080502994558 0 -0.0002672642044139863 0.012196064813871321 0 -0.00029798107980083804 0.012252355900247733 0 -0.00027015149608829538 0.012279111480365486 0 -0.00030131267067696083 0.011854632378338399 0 -0.00044201199949419755 0.01172313872179955 0 -0.00024244388632711048 0.012318080502994558 0 -0.00029856187349314351 0.012314392594829705 0 -0.00024667190957365772 0.012422686147775593 0 -0.00027015149608829538 0.012279111480365486 0 -0.00024244388632711048 0.012318080502994558 0 -0.00029856187349314351 0.012314392594829705 0 -0.0003345504154919254 0.012366628898662834 0 -0.00029856187349314351 0.012314392594829705 0 -0.00024667190957365772 0.012422686147775593 0 -0.00034681840790481489 0.012280217860085015 0 -0.0003345504154919254 0.012366628898662834 0 -0.00029856187349314351 0.012314392594829705 0 -0.00036360957265717524 0.012461851543156814 0 -0.0003345504154919254 0.012366628898662834 0 -0.00024667190957365772 0.012422686147775593 0 -0.00059836757613708188 0.010963618008686473 0 -0.00063230403066546169 0.01108267334556289 0 -0.00050271439166944701 0.011066758441655136 0 -0.00063230403066546169 0.01108267334556289 0 -0.00057484203316251169 0.011183072843765688 0 -0.00050271439166944701 0.011066758441655136 0 -0.00044201199949419755 0.01172313872179955 0 -0.00046993664234411589 0.011850960409229828 0 -0.00063230403066546169 0.01108267334556289 0 -0.00057484203316251169 0.011183072843765688 0 -0.00066884999756007383 0.011212837051104221 0 -0.00057484203316251169 0.011183072843765688 0 -0.00066884999756007383 0.011212837051104221 0 -0.00062864909151828655 0.011273862524296453 0 -0.00036360957265717524 0.012461851543156814 0 -0.00035052803337172521 0.012577542583287365 0 -0.00026000890547905561 0.012533898341257338 0 -0.00036360957265717524 0.012461851543156814 0 -0.00024667190957365772 0.012422686147775593 0 -0.00026000890547905561 0.012533898341257338 0 -0.00039113294869633415 0.011107124041326062 0 -0.00042497112287271521 0.011040450769572193 0 -0.00050271439166944701 0.011066758441655136 0 -0.00034853160256132485 0.011014207099286731 0 -0.00039113294869633415 0.011107124041326062 0 -0.00042497112287271521 0.011040450769572193 0 -0.00057484203316251169 0.011183072843765688 0 -0.00047603372150943466 0.01119420660699578 0 -0.00054366156856714017 0.011277491174869599 0 -0.00057484203316251169 0.011183072843765688 0 -0.00050271439166944701 0.011066758441655136 0 -0.00047603372150943466 0.01119420660699578 0 -0.00046585213239351184 0.011196632831035978 0 -0.00037813955615796006 0.011226125934499804 0 -0.00039113294869633415 0.011107124041326062 0 -0.00050271439166944701 0.011066758441655136 0 -0.00047603372150943466 0.01119420660699578 0 -0.00039113294869633415 0.011107124041326062 0 -0.00047603372150943466 0.01119420660699578 0 -0.000383011816762022 0.01121323555460323 0 -0.00036780491465682825 0.01123800733299327 0 -0.00045554228812944421 0.011325453799774052 0 -0.00035805152246475464 0.011336776472457902 0 -0.00047603372150943466 0.01119420660699578 0 -0.00036780491465682825 0.01123800733299327 0 -0.00045554228812944421 0.011325453799774052 0 -0.00047603372150943466 0.01119420660699578 0 -0.00045554228812944421 0.011325453799774052 0 -0.00054366156856714017 0.011277491174869599 0 -0.00054366156856714017 0.011277491174869599 0 -0.00053618007862832567 0.011355873331985178 0 -0.00059968979090072982 0.011341033679588771 0 -0.00045554228812944421 0.011325453799774052 0 -0.00054366156856714017 0.011277491174869599 0 -0.00053618007862832567 0.011355873331985178 0 -0.00045554228812944421 0.011325453799774052 0 -0.00053618007862832567 0.011355873331985178 0 -0.00049645298369789038 0.011410892279373494 0 -0.00053618007862832567 0.011355873331985178 0 -0.00059070911879311003 0.011391760085131993 0 -0.00055275179648879569 0.011444323891357931 0 -0.00053618007862832567 0.011355873331985178 0 -0.00049645298369789038 0.011410892279373494 0 -0.00055275179648879569 0.011444323891357931 0 -0.00041530878868822099 0.011448289026803143 0 -0.00035805152246475464 0.011336776472457902 0 -0.00032714268413661964 0.011426026968918509 0 -0.00045554228812944421 0.011325453799774052 0 -0.00041530878868822099 0.011448289026803143 0 -0.00035805152246475464 0.011336776472457902 0 -0.00045554228812944421 0.011325453799774052 0 -0.00049645298369789038 0.011410892279373494 0 -0.00041530878868822099 0.011448289026803143 0 -0.00035052803337172521 0.012577542583287365 0 -0.00026000890547905561 0.012533898341257338 0 -0.00028024328498962338 0.012647408820743104 0 -0.00066884999756007383 0.011212837051104221 0 -0.00062864909151828655 0.011273862524296453 0 -0.00070152728258650614 0.01135258644371373 0 -0.00046993664234411589 0.011850960409229828 0 -0.00033602935799300341 0.012183870734725226 0 -0.00062864909151828655 0.011273862524296453 0 -0.00066423015518208379 0.011342212368594897 0 -0.00070152728258650614 0.01135258644371373 0 -0.00062864909151828655 0.011273862524296453 0 -0.00059968979090072982 0.011341033679588771 0 -0.00066423015518208379 0.011342212368594897 0 -0.00057484203316251169 0.011183072843765688 0 -0.00054366156856714017 0.011277491174869599 0 -0.00062864909151828655 0.011273862524296453 0 -0.00054366156856714017 0.011277491174869599 0 -0.00062864909151828655 0.011273862524296453 0 -0.00059968979090072982 0.011341033679588771 0 -0.00053618007862832567 0.011355873331985178 0 -0.00059968979090072982 0.011341033679588771 0 -0.00059070911879311003 0.011391760085131993 0 -0.00059968979090072982 0.011341033679588771 0 -0.00059070911879311003 0.011391760085131993 0 -0.00063315914566853919 0.011374741893801126 0 -0.00059070911879311003 0.011391760085131993 0 -0.0006299070968800324 0.011440209995600579 0 -0.00055275179648879569 0.011444323891357931 0 -0.00059070911879311003 0.011391760085131993 0 -0.0006299070968800324 0.011440209995600579 0 -0.00063315914566853919 0.011374741893801126 0 -0.0006299070968800324 0.011440209995600579 0 -0.00063315914566853919 0.011374741893801126 0 -0.00066858967849137097 0.011405751587970981 0 -0.0006299070968800324 0.011440209995600579 0 -0.00066858967849137097 0.011405751587970981 0 -0.00067318052569129464 0.011469758021321287 0 -0.00059968979090072982 0.011341033679588771 0 -0.00063315914566853919 0.011374741893801126 0 -0.00066423015518208379 0.011342212368594897 0 -0.00063315914566853919 0.011374741893801126 0 -0.00066423015518208379 0.011342212368594897 0 -0.00066858967849137097 0.011405751587970981 0 4.6692187135274751e-05 0.013091063656296325 0 6.7738132762118743e-05 0.013076702289421052 0 6.3975817231060964e-05 0.013104617565206853 0 -0.00070006225150214723 0.011352741719349507 0 -0.00066858967849137097 0.011405751587970981 0 -0.00072784292903593231 0.01148333746526199 0 -0.00033602935799300341 0.012183870734725226 0 -9.1632137953000212e-05 0.012519370770949296 0 -0.00066423015518208379 0.011342212368594897 0 -0.00070006225150214723 0.011352741719349507 0 -0.00066858967849137097 0.011405751587970981 0 -0.00049207898294456706 0.011970205767605884 0 -0.00033602935799300341 0.012183870734725226 0 0.00011779241581732498 0.012926616833173723 0 -9.1632137953000212e-05 0.012519370770949296 0 -0.00075038930066555101 0.011611683020139461 0 -0.00072375147059406384 0.011484328243057569 0 -0.00069297131959546795 0.011549169185648436 0 -9.1632137953000212e-05 0.012519370770949296 0 -0.00059728767144721397 0.012031000050532191 0 -0.00066858967849137097 0.011405751587970981 0 -0.00072784292903593231 0.01148333746526199 0 -0.00067318052569129464 0.011469758021321287 0 -0.00067318052569129464 0.011469758021321287 0 -0.00064742746553662738 0.011511968153591231 0 -0.00069297131959546795 0.011549169185648436 0 -0.00072375147059406384 0.011484328243057569 0 -0.00067318052569129464 0.011469758021321287 0 -0.00069297131959546795 0.011549169185648436 0 -0.00064742746553662738 0.011511968153591231 0 -0.00059157644201085426 0.011499876012613394 0 -0.0006341764211338734 0.011577033049501416 0 -0.0006299070968800324 0.011440209995600579 0 -0.00064742746553662738 0.011511968153591231 0 -0.00059157644201085426 0.011499876012613394 0 -0.0006299070968800324 0.011440209995600579 0 -0.00067318052569129464 0.011469758021321287 0 -0.00064742746553662738 0.011511968153591231 0 -0.0006299070968800324 0.011440209995600579 0 -0.00059157644201085426 0.011499876012613394 0 -0.00055275179648879569 0.011444323891357931 0 -0.0006341764211338734 0.011577033049501416 0 -0.00051760309750278162 0.011595212201737176 0 -0.00059937931177295666 0.011640021948270648 0 -0.00059157644201085426 0.011499876012613394 0 -0.0006341764211338734 0.011577033049501416 0 -0.00051760309750278162 0.011595212201737176 0 -0.0006341764211338734 0.011577033049501416 0 -0.00066281832890782981 0.011616347070560621 0 -0.00059937931177295666 0.011640021948270648 0 -0.00064742746553662738 0.011511968153591231 0 -0.0006341764211338734 0.011577033049501416 0 -0.00069297131959546795 0.011549169185648436 0 -0.00075038930066555101 0.011611683020139461 0 -0.00066281832890782981 0.011616347070560621 0 -0.00064201265014561732 0.011705876041658249 0 -0.0006341764211338734 0.011577033049501416 0 -0.00069297131959546795 0.011549169185648436 0 -0.00066281832890782981 0.011616347070560621 0 -0.00075038930066555101 0.011611683020139461 0 -0.00069297131959546795 0.011549169185648436 0 -0.00066281832890782981 0.011616347070560621 0 -0.00041530878868822099 0.011448289026803143 0 -0.00038154475437155675 0.011552020944433998 0 -0.00032714268413661964 0.011426026968918509 0 -0.00041530878868822099 0.011448289026803143 0 -0.00049750798517944064 0.011500791131183139 0 -0.00038154475437155675 0.011552020944433998 0 -0.00049645298369789038 0.011410892279373494 0 -0.00041530878868822099 0.011448289026803143 0 -0.00049750798517944064 0.011500791131183139 0 -0.00049645298369789038 0.011410892279373494 0 -0.00055275179648879569 0.011444323891357931 0 -0.00049750798517944064 0.011500791131183139 0 -0.00059157644201085426 0.011499876012613394 0 -0.00055275179648879569 0.011444323891357931 0 -0.00049750798517944064 0.011500791131183139 0 -0.00059157644201085426 0.011499876012613394 0 -0.00049750798517944064 0.011500791131183139 0 -0.00051760309750278162 0.011595212201737176 0 -0.00049750798517944064 0.011500791131183139 0 -0.00051760309750278162 0.011595212201737176 0 -0.00038154475437155675 0.011552020944433998 0 -0.00038154475437155675 0.011552020944433998 0 -0.00014929856278892922 0.011484779261723482 0 -0.00023139879192680992 0.011646454292742579 0 -0.00014929856278892922 0.011484779261723482 0 -9.1141716666186709e-05 0.011288957798357301 0 -0.00030480730158874067 0.011276925666838095 0 -0.00014929856278892922 0.011484779261723482 0 -9.1141716666186709e-05 0.011288957798357301 0 -6.2384531371564576e-07 0.011392343917913623 0 -0.00037901802498961163 0.011538821411223615 0 -0.0003147026049041664 0.011350317632374632 0 -0.00038154475437155675 0.011552020944433998 0 -0.00014929856278892922 0.011484779261723482 0 -0.00030480730158874067 0.011276925666838095 0 -0.00035805152246475464 0.011336776472457902 0 -0.00032714268413661964 0.011426026968918509 0 -0.00026306551140671877 0.01127591535444398 0 -0.0003147026049041664 0.011350317632374632 0 -0.00023723651322216208 0.011170672238021673 0 -0.00030480730158874067 0.011276925666838095 0 -0.00010813935509173949 0.011147791811985133 0 -0.00021373352204862318 0.011035312096075963 0 -9.1141716666186709e-05 0.011288957798357301 0 -0.00030480730158874067 0.011276925666838095 0 -0.00010813935509173949 0.011147791811985133 0 -9.1141716666186709e-05 0.011288957798357301 0 -0.00010813935509173949 0.011147791811985133 0 -3.2810747612090615e-05 0.01119337800576751 0 -0.00010813935509173949 0.011147791811985133 0 -0.00021373352204862318 0.011035312096075963 0 4.3390862847146424e-05 0.011118339106620224 0 -0.00014815186078238627 0.011077675968155206 0 -0.00021674891653094395 0.011120176615567679 0 -0.0001044670713062576 0.011121898979829953 0 -0.00023723651322216208 0.011170672238021673 0 -1.9272828474631225e-05 0.011127132314741611 0 -0.00021292451593124301 0.011105479481282026 0 -0.00023723651322216208 0.011170672238021673 0 -0.00036780491465682825 0.01123800733299327 0 -0.00035805152246475464 0.011336776472457902 0 -0.00026306551140671877 0.01127591535444398 0 -0.00037813955615796006 0.011226125934499804 0 -0.00023723651322216208 0.011170672238021673 0 -0.00032470388375202655 0.011157332135385568 0 -0.000383011816762022 0.01121323555460323 0 -0.00027731716220908949 0.011251619079198569 0 -5.7596771568295632e-05 0.011078919059268652 0 -1.0055862029262634e-05 0.011120042519968223 0 -0.0001044670713062576 0.011121898979829953 0 -5.7459264688618528e-06 0.01113584768314939 0 -9.11841731794289e-05 0.011118177172879924 0 1.441411148396614e-05 0.011109408723609628 0 -0.0001044670713062576 0.011121898979829953 0 -9.0775526088341101e-05 0.011164465966501539 0 -0.00010759419867756449 0.011083922066338322 0 -5.7596771568295632e-05 0.011078919059268652 0 -0.0001044670713062576 0.011121898979829953 0 -0.00021674891653094395 0.011120176615567679 0 -0.0001044670713062576 0.011121898979829953 0 -9.0775526088341101e-05 0.011164465966501539 0 -0.00014815186078238627 0.011077675968155206 0 -0.00010759419867756449 0.011083922066338322 0 -0.0001044670713062576 0.011121898979829953 0 4.3390862847146424e-05 0.011118339106620224 0 1.147980968375822e-05 0.011253814707357207 0 0.00012888355498555891 0.011303871662025783 0 -0.00010813935509173949 0.011147791811985133 0 4.3390862847146424e-05 0.011118339106620224 0 -3.2810747612090615e-05 0.01119337800576751 0 -9.1141716666186709e-05 0.011288957798357301 0 1.147980968375822e-05 0.011253814707357207 0 -3.2810747612090615e-05 0.01119337800576751 0 4.3390862847146424e-05 0.011118339106620224 0 1.147980968375822e-05 0.011253814707357207 0 -3.2810747612090615e-05 0.01119337800576751 0 7.4157547230065869e-05 0.011216636391628228 0 1.441411148396614e-05 0.011109408723609628 0 -9.0775526088341101e-05 0.011164465966501539 0 0.00018051268157699856 0.011206474589860349 0 -1.9272828474631225e-05 0.011127132314741611 0 0.00029690058042576789 0.011174779204632957 0 4.3390862847146424e-05 0.011118339106620224 0 0.00012888355498555891 0.011303871662025783 0 0.00024541714344542475 0.011333873219952169 0 0.00012888355498555891 0.011303871662025783 0 0.00020059857893039231 0.011457769297185175 0 0.00012888355498555891 0.011303871662025783 0 0.00020059857893039231 0.011457769297185175 0 9.1800169938797187e-05 0.011422861730154369 0 0.00029690058042576789 0.011174779204632957 0 0.00024541714344542475 0.011333873219952169 0 0.00012888355498555891 0.011303871662025783 0 -9.1141716666186709e-05 0.011288957798357301 0 1.147980968375822e-05 0.011253814707357207 0 -6.2384531371564576e-07 0.011392343917913623 0 1.147980968375822e-05 0.011253814707357207 0 0.00012888355498555891 0.011303871662025783 0 -6.2384531371564576e-07 0.011392343917913623 0 0.00012888355498555891 0.011303871662025783 0 -6.2384531371564576e-07 0.011392343917913623 0 9.1800169938797187e-05 0.011422861730154369 0 -0.00014929856278892922 0.011484779261723482 0 3.8787465236080976e-05 0.011538301342277846 0 -7.0915184896707639e-05 0.011649238619986036 0 -0.00014929856278892922 0.011484779261723482 0 -6.2384531371564576e-07 0.011392343917913623 0 3.8787465236080976e-05 0.011538301342277846 0 -6.2384531371564576e-07 0.011392343917913623 0 3.8787465236080976e-05 0.011538301342277846 0 9.1800169938797187e-05 0.011422861730154369 0 3.8787465236080976e-05 0.011538301342277846 0 0.00020059857893039231 0.011457769297185175 0 0.00010215340912184831 0.011643351148977282 0 3.8787465236080976e-05 0.011538301342277846 0 0.00020059857893039231 0.011457769297185175 0 9.1800169938797187e-05 0.011422861730154369 0 0.00010215340912184831 0.011643351148977282 0 0.00012955719062156747 0.011800485661424749 0 0.00026741167718213324 0.01164127213159309 0 0.00020059857893039231 0.011457769297185175 0 0.00010215340912184831 0.011643351148977282 0 0.00026741167718213324 0.01164127213159309 0 0.00010215340912184831 0.011643351148977282 0 2.643554419517333e-05 0.011754648668512701 0 -7.0915184896707639e-05 0.011649238619986036 0 3.8787465236080976e-05 0.011538301342277846 0 0.00010215340912184831 0.011643351148977282 0 -7.0915184896707639e-05 0.011649238619986036 0 2.643554419517333e-05 0.011754648668512701 0 -0.00015500089822957075 0.01179453615713085 0 -7.0915184896707639e-05 0.011649238619986036 0 -3.0409029671239166e-05 0.01188394606242847 0 0.00012955719062156747 0.011800485661424749 0 4.8046636738175207e-05 0.011963145578142709 0 2.643554419517333e-05 0.011754648668512701 0 -3.0409029671239166e-05 0.01188394606242847 0 0.00012955719062156747 0.011800485661424749 0 2.643554419517333e-05 0.011754648668512701 0 -3.0409029671239166e-05 0.01188394606242847 0 -0.00015500089822957075 0.01179453615713085 0 0.00012955719062156747 0.011800485661424749 0 4.8046636738175207e-05 0.011963145578142709 0 0.00032016933411520342 0.011869372507357694 0 0.00010215340912184831 0.011643351148977282 0 2.643554419517333e-05 0.011754648668512701 0 0.00012955719062156747 0.011800485661424749 0 4.8046636738175207e-05 0.011963145578142709 0 0.0001644915357300676 0.012092810046673581 0 0.00032016933411520342 0.011869372507357694 0 0.00027244504181493906 0.012266243035548794 0 0.00012462164116843713 0.010680813006743542 0 -3.0409029671239166e-05 0.01188394606242847 0 4.8046636738175207e-05 0.011963145578142709 0 -0.00010334802886931319 0.011978603406592965 0 4.8046636738175207e-05 0.011963145578142709 0 -6.0683299157160654e-05 0.012111267090915232 0 -0.00010334802886931319 0.011978603406592965 0 4.8046636738175207e-05 0.011963145578142709 0 -6.0683299157160654e-05 0.012111267090915232 0 6.9958203793686879e-05 0.012065791296398816 0 -0.00017507159724325434 0.012177954653552502 0 -0.00024055795284246069 0.012572870213727799 0 -0.00015193450479557798 0.012230909738793521 0 -0.00018415959740861166 0.012213159702871589 0 -0.00029448809958313897 0.012287756690837591 0 -6.0683299157160654e-05 0.012111267090915232 0 -0.00017507159724325434 0.012177954653552502 0 -0.00010334802886931319 0.011978603406592965 0 -0.00017507159724325434 0.012177954653552502 0 -0.00010334802886931319 0.011978603406592965 0 -0.000247036995615005 0.011917813008541167 0 -0.00010334802886931319 0.011978603406592965 0 -0.000247036995615005 0.011917813008541167 0 -0.00015500089822957075 0.01179453615713085 0 -0.00017507159724325434 0.012177954653552502 0 -0.000247036995615005 0.011917813008541167 0 -0.00038561340368491729 0.011987019439454558 0 -0.000247036995615005 0.011917813008541167 0 -0.00015500089822957075 0.01179453615713085 0 -0.00038389581913519504 0.01174682896576072 0 -0.000247036995615005 0.011917813008541167 0 -0.00038389581913519504 0.01174682896576072 0 -0.00038561340368491729 0.011987019439454558 0 -3.0409029671239166e-05 0.01188394606242847 0 -0.00010334802886931319 0.011978603406592965 0 -0.00015500089822957075 0.01179453615713085 0 -0.00014929856278892922 0.011484779261723482 0 -7.0915184896707639e-05 0.011649238619986036 0 -0.00023139879192680992 0.011646454292742579 0 -0.00015500089822957075 0.01179453615713085 0 -7.0915184896707639e-05 0.011649238619986036 0 -0.00023139879192680992 0.011646454292742579 0 -0.00015500089822957075 0.01179453615713085 0 -0.00023139879192680992 0.011646454292742579 0 -0.00038389581913519504 0.01174682896576072 0 -0.00038154475437155675 0.011552020944433998 0 -0.00023139879192680992 0.011646454292742579 0 -0.00038389581913519504 0.01174682896576072 0 -0.00051760309750278162 0.011595212201737176 0 -0.00038154475437155675 0.011552020944433998 0 -0.00038389581913519504 0.01174682896576072 0 -0.00051760309750278162 0.011595212201737176 0 -0.00054643988177984718 0.01171136130736055 0 -0.00038389581913519504 0.01174682896576072 0 -0.00051760309750278162 0.011595212201737176 0 -0.00054643988177984718 0.01171136130736055 0 -0.00059937931177295666 0.011640021948270648 0 -0.00054643988177984718 0.01171136130736055 0 -0.00052877821216495622 0.011830269043219949 0 -0.00038389581913519504 0.01174682896576072 0 -0.00052877821216495622 0.011830269043219949 0 -0.00038389581913519504 0.01174682896576072 0 -0.00038561340368491729 0.011987019439454558 0 0.00011779241581732498 0.012926616833173723 0 -0.00023977256845493318 0.012600967032119499 0 0.00055355781812006408 0.013745839583001927 0 0.00053530941133509737 0.013815502730213369 0 0.00025438470969226754 0.01359542400639193 0 0.00055355781812006408 0.013745839583001927 0 0.00054507210364805418 0.013619443951362267 0 0.00025438470969226754 0.01359542400639193 0 -0.00054643988177984718 0.01171136130736055 0 -0.00052877821216495622 0.011830269043219949 0 -0.00064201265014561732 0.011705876041658249 0 -0.00054643988177984718 0.01171136130736055 0 -0.00064201265014561732 0.011705876041658249 0 -0.00059937931177295666 0.011640021948270648 0 -0.00066281832890782981 0.011616347070560621 0 -0.00064201265014561732 0.011705876041658249 0 -0.00059937931177295666 0.011640021948270648 0 -9.8312779086044244e-05 0.013086204304429682 0 0.00025438470969226754 0.01359542400639193 0 0.00030077078716545224 0.013265982634012363 0 -9.8312779086044244e-05 0.013086204304429682 0 0.00030077078716545224 0.013265982634012363 0 0.00015191694316567245 0.012906908747298466 0 -0.00028601517671743965 0.012474670359520336 0 -0.00023977256845493318 0.012600967032119499 0 0.00054507210364805418 0.013619443951362267 0 0.00030077078716545224 0.013265982634012363 0 0.00059789371645302142 0.013308911220650518 0 0.00030077078716545224 0.013265982634012363 0 0.00040978810460153199 0.013064580326461125 0 0.00059789371645302142 0.013308911220650518 0 0.00054507210364805418 0.013619443951362267 0 0.00025438470969226754 0.01359542400639193 0 0.00030077078716545224 0.013265982634012363 0 0.00060228087511993893 0.012991444487213587 0 0.00039902292023879528 0.012747592128839349 0 0.0006522923046693663 0.012684265326089971 0 0.00060228087511993893 0.012991444487213587 0 0.00040978810460153199 0.013064580326461125 0 0.00039902292023879528 0.012747592128839349 0 0.00060228087511993893 0.012991444487213587 0 0.00040978810460153199 0.013064580326461125 0 0.00059789371645302142 0.013308911220650518 0 0.00040978810460153199 0.013064580326461125 0 0.00015191694316567245 0.012906908747298466 0 0.00039902292023879528 0.012747592128839349 0 0.00015191694316567245 0.012906908747298466 0 0.00013037653138352496 0.012607330798185722 0 -7.0121313427933281e-05 0.012685457482538919 0 0.00015191694316567245 0.012906908747298466 0 0.00013037653138352496 0.012607330798185722 0 0.00039902292023879528 0.012747592128839349 0 0.00030077078716545224 0.013265982634012363 0 0.00040978810460153199 0.013064580326461125 0 0.00015191694316567245 0.012906908747298466 0 0.00013037653138352496 0.012607330798185722 0 0.00038051506423680186 0.012482210096789235 0 0.00013487449218125498 0.012374179491559924 0 0.00013037653138352496 0.012607330798185722 0 0.00039902292023879528 0.012747592128839349 0 0.00038051506423680186 0.012482210096789235 0 0.00038051506423680186 0.012482210096789235 0 0.0006522923046693663 0.012684265326089971 0 0.00068912481833555258 0.012392206474426924 0 0.00039902292023879528 0.012747592128839349 0 0.00038051506423680186 0.012482210096789235 0 0.0006522923046693663 0.012684265326089971 0 -0.00028601517671743965 0.012474670359520336 0 -0.00029448809958313897 0.012287756690837591 0 -9.8312779086044244e-05 0.013086204304429682 0 -0.00024055795284246069 0.012572870213727799 0 -7.0121313427933281e-05 0.012685457482538919 0 -9.8312779086044244e-05 0.013086204304429682 0 0.00015191694316567245 0.012906908747298466 0 -7.0121313427933281e-05 0.012685457482538919 0 0.00013037653138352496 0.012607330798185722 0 -8.5826077803974351e-05 0.012399249348688038 0 0.00013487449218125498 0.012374179491559924 0 0.00013037653138352496 0.012607330798185722 0 -7.0121313427933281e-05 0.012685457482538919 0 -8.5826077803974351e-05 0.012399249348688038 0 -0.00024055795284246069 0.012572870213727799 0 -7.0121313427933281e-05 0.012685457482538919 0 -8.5826077803974351e-05 0.012399249348688038 0 -0.00024055795284246069 0.012572870213727799 0 -8.5826077803974351e-05 0.012399249348688038 0 -0.00015193450479557798 0.012230909738793521 0 -0.00015193450479557798 0.012230909738793521 0 -5.3917612052786856e-05 0.012175131699173771 0 -9.0640253721868805e-05 0.0120950580465299 0 -8.5826077803974351e-05 0.012399249348688038 0 -5.3917612052786856e-05 0.012175131699173771 0 0.00013487449218125498 0.012374179491559924 0 -8.5826077803974351e-05 0.012399249348688038 0 -0.00015193450479557798 0.012230909738793521 0 -5.3917612052786856e-05 0.012175131699173771 0 -5.3917612052786856e-05 0.012175131699173771 0 -8.9311316467361173e-05 0.012157188699123569 0 -0.00013674475618468361 0.012143219494036834 0 -5.3917612052786856e-05 0.012175131699173771 0 -0.00013674475618468361 0.012143219494036834 0 -9.0640253721868805e-05 0.0120950580465299 0 0.00038051506423680186 0.012482210096789235 0 0.00043414808844418685 0.012147779303167043 0 0.00068912481833555258 0.012392206474426924 0 0.00038051506423680186 0.012482210096789235 0 0.00043414808844418685 0.012147779303167043 0 0.00013487449218125498 0.012374179491559924 0 2.2614637679231895e-05 0.012829979930656861 0 0.00029033291446593291 0.012928968879355801 0 3.0224791789580587e-05 0.012013543817939731 0 2.2614637679231895e-05 0.012829979930656861 0 -5.3917612052786856e-05 0.012175131699173771 0 0.00043414808844418685 0.012147779303167043 0 0.00013487449218125498 0.012374179491559924 0 -5.3917612052786856e-05 0.012175131699173771 0 -6.0583090655682355e-05 0.012178239292671825 0 -8.9311316467361173e-05 0.012157188699123569 0 2.2614637679231895e-05 0.012829979930656861 0 -0.00016726837617128001 0.012784995358166422 0 -0.00020768084226952771 0.013420836887191293 0 -0.00019937076437049117 0.013439038523489663 0 -0.00023446733847063748 0.013447289822919855 0 -0.00020768084226952771 0.013420836887191293 0 -0.00019937076437049117 0.013439038523489663 0 -0.00018021318820830374 0.013430863416105913 0 -0.00019937076437049117 0.013439038523489663 0 -0.00018486149743394869 0.013459660531137473 0 -0.00023446733847063748 0.013447289822919855 0 -0.00019937076437049117 0.013439038523489663 0 -0.00018021318820830374 0.013430863416105913 0 -0.00018486149743394869 0.013459660531137473 0 -0.00018021318820830374 0.013430863416105913 0 -0.00017129095325575287 0.013406889247107397 0 -0.00018486149743394869 0.013459660531137473 0 -0.00018486149743394869 0.013459660531137473 0 -0.00022791795861510581 0.013527464870354302 0 -0.0001822898891630201 0.013568682491672583 0 -0.00017129095325575287 0.013406889247107397 0 -0.00018486149743394869 0.013459660531137473 0 -0.0001822898891630201 0.013568682491672583 0 -0.00013674475618468361 0.012143219494036834 0 -0.00024529782392084882 0.01223342249594524 0 -7.1289776456416078e-05 0.012164280468775482 0 -0.00013674475618468361 0.012143219494036834 0 -7.1289776456416078e-05 0.012164280468775482 0 -9.0640253721868805e-05 0.0120950580465299 0 -8.9311316467361173e-05 0.012157188699123569 0 -0.00013674475618468361 0.012143219494036834 0 -0.00024529782392084882 0.01223342249594524 0 -0.00016726837617128001 0.012784995358166422 0 -0.0001924070137205366 0.012797867323843927 0 -0.00018021318820830374 0.013430863416105913 0 -0.00017129095325575287 0.013406889247107397 0 -0.00020477519152724481 0.013324742625413112 0 -0.0001924070137205366 0.012797867323843927 0 -0.00012877694027855723 0.012847521454092346 0 -0.00024529782392084882 0.01223342249594524 0 -7.1289776456416078e-05 0.012164280468775482 0 -0.00014459977306215395 0.012821084593678315 0 -7.1289776456416078e-05 0.012164280468775482 0 0.00012059943834234218 0.011887780666749892 0 0.00014504869244377229 0.012363680645466684 0 -7.1289776456416078e-05 0.012164280468775482 0 0.00014504869244377229 0.012363680645466684 0 -0.00014459977306215395 0.012821084593678315 0 -7.1289776456416078e-05 0.012164280468775482 0 0.00012059943834234218 0.011887780666749892 0 -9.0640253721868805e-05 0.0120950580465299 0 0.00012059943834234218 0.011887780666749892 0 0.00014504869244377229 0.012363680645466684 0 0.00058378258196072899 0.011797151120924785 0 0.00014504869244377229 0.012363680645466684 0 0.00058378258196072899 0.011797151120924785 0 0.00039516835086753852 0.012579104118272288 0 0.00012059943834234218 0.011887780666749892 0 0.00058378258196072899 0.011797151120924785 0 0.00052602452403840234 0.011132391501029565 0 0.00058378258196072899 0.011797151120924785 0 0.00080281304982550449 0.011832666680999165 0 0.0010012413800504214 0.011459822996782177 0 0.00058378258196072899 0.011797151120924785 0 0.00090497132935487071 0.011322985761676299 0 0.0010012413800504214 0.011459822996782177 0 0.00012115295808486362 0.011818429383906528 0 0.00025344615481893648 0.011773057762689731 0 0.00058378258196072899 0.011797151120924785 0 0.00090497132935487071 0.011322985761676299 0 0.00052602452403840234 0.011132391501029565 0 0.00090497132935487071 0.011322985761676299 0 0.00052602452403840234 0.011132391501029565 0 0.00101425656199887 0.011013095234541076 0 0.00078043915140013425 0.010721634465934788 0 0.00052602452403840234 0.011132391501029565 0 0.00101425656199887 0.011013095234541076 0 0.00012462164116843713 0.010680813006743542 0 0.00025344615481893648 0.011773057762689731 0 -6.0683299157160654e-05 0.012111267090915232 0 -7.9853331786755862e-05 0.012127272751037331 0 -8.1536957703823784e-05 0.01213676345322416 0 -6.0683299157160654e-05 0.012111267090915232 0 6.9958203793686879e-05 0.012065791296398816 0 -7.9853331786755862e-05 0.012127272751037331 0 -6.0683299157160654e-05 0.012111267090915232 0 -0.00017507159724325434 0.012177954653552502 0 -8.1536957703823784e-05 0.01213676345322416 0 -0.00015193450479557798 0.012230909738793521 0 -8.1536957703823784e-05 0.01213676345322416 0 -9.0640253721868805e-05 0.0120950580465299 0 -0.00017507159724325434 0.012177954653552502 0 -0.00015193450479557798 0.012230909738793521 0 -8.1536957703823784e-05 0.01213676345322416 0 0.00012059943834234218 0.011887780666749892 0 -8.1536957703823784e-05 0.01213676345322416 0 -9.0640253721868805e-05 0.0120950580465299 0 0.00012059943834234218 0.011887780666749892 0 -7.9853331786755862e-05 0.012127272751037331 0 -8.1536957703823784e-05 0.01213676345322416 0 3.9243822992696052e-08 0.015000071214312228 0 8.3940833992300864e-05 0.014990552471330338 0 -8.4789250492259834e-09 0.01499985338741063 0 3.9243822992696052e-08 0.015000071214312228 0 8.3940833992300864e-05 0.014990552471330338 0 9.3878344607691637e-05 0.015054187606214707 0 8.3940833992300864e-05 0.014990552471330338 0 0.00029318023580383819 0.015035448618013897 0 9.3878344607691637e-05 0.015054187606214707 0 0.00024544474722408593 0.014876728529660998 0 6.5070535102339702e-05 0.014974606257532566 0 8.3940833992300864e-05 0.014990552471330338 0 0.00014827009602174079 0.014865798992168926 0 0.00029318023580383819 0.015035448618013897 0 0.0001208478116041673 0.014997011603067267 0 3.6796163815971531e-08 0.015000127115527151 0 1.1458606233047297e-08 0.014999921468142798 0 8.3940833992300864e-05 0.014990552471330338 0 0.00014827009602174079 0.014865798992168926 0 -8.4789250492259834e-09 0.01499985338741063 0 0.00014267896563019495 0.014923134533914913 0 3.1478949729081843e-08 0.014999986407356801 0 0.0001208478116041673 0.014997011603067267 0 1.1458606233047297e-08 0.014999921468142798 0 5.6678999236485203e-05 0.014876583271148209 0 -1.244456241326117e-08 0.014999480220931966 0 1.1458606233047297e-08 0.014999921468142798 0 5.6678999236485203e-05 0.014876583271148209 0 0.00012722918036030465 0.014621417505905824 0 5.6678999236485203e-05 0.014876583271148209 0 0.00021379495321138716 0.014770072504939009 0 0.0001208478116041673 0.014997011603067267 0 5.6678999236485203e-05 0.014876583271148209 0 0.00021379495321138716 0.014770072504939009 0 0.00014267896563019495 0.014923134533914913 0 0.00042509518010267822 0.014750280562169489 0 0.00014827009602174079 0.014865798992168926 0 0.00044714130454005904 0.014731686571099136 0 0.00036350883145946732 0.014887153668498482 0 0.0001208478116041673 0.014997011603067267 0 0.00021379495321138716 0.014770072504939009 0 0.00044714130454005904 0.014731686571099136 0 0.00012722918036030465 0.014621417505905824 0 0.00021379495321138716 0.014770072504939009 0 0.00042054408781626291 0.014560664342863273 0 0.00021379495321138716 0.014770072504939009 0 0.00042054408781626291 0.014560664342863273 0 0.00044714130454005904 0.014731686571099136 0 0.00069276744721720408 0.014363259895829187 0 0.00042054408781626291 0.014560664342863273 0 0.00063888797998035846 0.014553560767497345 0 0.00042054408781626291 0.014560664342863273 0 0.00063888797998035846 0.014553560767497345 0 0.00044714130454005904 0.014731686571099136 0 0.00063888797998035846 0.014553560767497345 0 0.00044714130454005904 0.014731686571099136 0 0.00061140552506598557 0.014737830683798827 0 0.00044714130454005904 0.014731686571099136 0 0.00061140552506598557 0.014737830683798827 0 0.00036350883145946732 0.014887153668498482 0 0.00036331371298957578 0.014588081561817567 0 0.00015341961302371197 0.014748220068966268 0 0.00031965971472392926 0.014708542603471444 0 0.00040977924681422372 0.014821134982019151 0 0.00024544474722408593 0.014876728529660998 0 0.00061140552506598557 0.014737830683798827 0 0.00057951373523113068 0.014935134746314803 0 0.00036350883145946732 0.014887153668498482 0 0.00057951373523113068 0.014935134746314803 0 0.00036350883145946732 0.014887153668498482 0 0.00029318023580383819 0.015035448618013897 0 0.00036331371298957578 0.014588081561817567 0 0.00031965971472392926 0.014708542603471444 0 0.00042962663931277726 0.014683364971308194 0 0.00014827009602174079 0.014865798992168926 0 0.00036350883145946732 0.014887153668498482 0 0.00029318023580383819 0.015035448618013897 0 0.00015341961302371197 0.014748220068966268 0 0.00011164718521342286 0.014855314209343081 0 1.8738973704147526e-05 0.014905453965951811 0 0.00015341961302371197 0.014748220068966268 0 0.00011164718521342286 0.014855314209343081 0 0.00032684501847841994 0.014813999362405404 0 0.00013265755706289055 0.014911901362075555 0 0.00025831844509123487 0.014433878889158805 0 0.00015341961302371197 0.014748220068966268 0 0.00032684501847841994 0.014813999362405404 0 0.00031965971472392926 0.014708542603471444 0 0.00032684501847841994 0.014813999362405404 0 0.00031965971472392926 0.014708542603471444 0 0.00042962663931277726 0.014683364971308194 0 -0.00015037244395903559 0.013533610534659868 0 -0.00013375059664539609 0.013508635038061533 0 -0.00014652524771731874 0.013523293256565263 0 0.00047346914542447012 0.014574754001890644 0 0.00050214419825725138 0.014571076422210179 0 0.00048691939074424739 0.014564224645241918 0 0.00025831844509123487 0.014433878889158805 0 0.0001055759777826363 0.014069327434865045 0 0.00050214419825725138 0.014571076422210179 0 0.00049936885193892103 0.014563666084459135 0 0.00048691939074424739 0.014564224645241918 0 0.00025831844509123487 0.014433878889158805 0 0.00043721004377319931 0.014627131135015774 0 0.00049484873000156244 0.014561728298840511 0 0.00051052481519004214 0.014509469653844528 0 0.00052002595421314743 0.01455606611615258 0 0.00050214419825725138 0.014571076422210179 0 0.00049936885193892103 0.014563666084459135 0 0.00052002595421314743 0.01455606611615258 0 0.00049936885193892103 0.014563666084459135 0 0.00049484873000156244 0.014561728298840511 0 0.00052002595421314743 0.01455606611615258 0 0.00049484873000156244 0.014561728298840511 0 0.00044992594695598644 0.014577004783819318 0 0.00051052481519004214 0.014509469653844528 0 0.00036331371298957578 0.014588081561817567 0 0.00044992594695598644 0.014577004783819318 0 0.00051052481519004214 0.014509469653844528 0 0.00049484873000156244 0.014561728298840511 0 0.00044992594695598644 0.014577004783819318 0 0.00042962663931277726 0.014683364971308194 0 0.00049936885193892103 0.014563666084459135 0 0.00049484873000156244 0.014561728298840511 0 0.00048691939074424739 0.014564224645241918 0 0.00049252496399392347 0.014571594243548721 0 0.00043721004377319931 0.014627131135015774 0 0.00036331371298957578 0.014588081561817567 0 0.00044992594695598644 0.014577004783819318 0 0.00042962663931277726 0.014683364971308194 0 0.00040977924681422372 0.014821134982019151 0 0.00096652568414540676 0.014232773266977677 0 0.00061140552506598557 0.014737830683798827 0 0.00081512426434846334 0.014549877546018306 0 0.00094738078000006188 0.014713950920587131 0 0.00061140552506598557 0.014737830683798827 0 0.00057951373523113068 0.014935134746314803 0 0.00094738078000006188 0.014713950920587131 0 0.0009515013351537434 0.014512999068114683 0 0.00096652568414540676 0.014232773266977677 0 0.00063888797998035846 0.014553560767497345 0 0.00061140552506598557 0.014737830683798827 0 0.00081512426434846334 0.014549877546018306 0 0.00063888797998035846 0.014553560767497345 0 0.00081512426434846334 0.014549877546018306 0 0.00086429027303412914 0.014382012768415485 0 0.00081512426434846334 0.014549877546018306 0 0.00086429027303412914 0.014382012768415485 0 0.00097768174220920945 0.014371179844308378 0 0.00069276744721720408 0.014363259895829187 0 0.00063888797998035846 0.014553560767497345 0 0.00086429027303412914 0.014382012768415485 0 0.001020773740758967 0.01426890977772448 0 0.00097768174220920945 0.014371179844308378 0 0.001152236312429479 0.014022000906901711 0 0.0010833416133810136 0.01420242205498959 0 0.001020773740758967 0.01426890977772448 0 0.001152236312429479 0.014022000906901711 0 0.00096112277375947524 0.014226338840103568 0 0.00086429027303412914 0.014382012768415485 0 0.001020773740758967 0.01426890977772448 0 0.00086429027303412914 0.014382012768415485 0 0.001020773740758967 0.01426890977772448 0 0.00097768174220920945 0.014371179844308378 0 0.00097768174220920945 0.014371179844308378 0 0.00094599370574583103 0.01461135982556259 0 0.001152236312429479 0.014022000906901711 0 0.001939777744222062 0.013510606883520496 0 0.0013476450815678458 0.013458825556308344 0 0.0014236469267492821 0.013032753276048872 0 0.00096652568414540676 0.014232773266977677 0 0.0013427411885224682 0.013971727716044756 0 0.001939777744222062 0.013510606883520496 0 0.0013476450815678458 0.013458825556308344 0 0.001152236312429479 0.014022000906901711 0 0.00081512426434846334 0.014549877546018306 0 0.00097768174220920945 0.014371179844308378 0 0.00094599370574583103 0.01461135982556259 0 0.00096652568414540676 0.014232773266977677 0 0.0010348414230576641 0.013827968173178598 0 0.0013476450815678458 0.013458825556308344 0 0.001152236312429479 0.014022000906901711 0 0.00092815784122062537 0.013315428811757906 0 0.0013476450815678458 0.013458825556308344 0 0.00092815784122062537 0.013315428811757906 0 0.0014236469267492821 0.013032753276048872 0 0.001152236312429479 0.014022000906901711 0 0.00086529119535830984 0.013805584286799245 0 0.00092815784122062537 0.013315428811757906 0 0.0010526573524294047 0.014165868266131589 0 0.001152236312429479 0.014022000906901711 0 0.00086529119535830984 0.013805584286799245 0 0.0010526573524294047 0.014165868266131589 0 0.0010833416133810136 0.01420242205498959 0 0.001152236312429479 0.014022000906901711 0 0.00075739452112969473 0.014000017985585412 0 0.00054263394849253109 0.01364241069737054 0 0.00058604352443995453 0.013761302626748583 0 0.00055355781812006408 0.013745839583001927 0 0.00054507210364805418 0.013619443951362267 0 0.00085987001123704915 0.014203904473077672 0 0.0010526573524294047 0.014165868266131589 0 0.00086529119535830984 0.013805584286799245 0 0.00085987001123704915 0.014203904473077672 0 0.00054507210364805418 0.013619443951362267 0 0.00086529119535830984 0.013805584286799245 0 0.00054507210364805418 0.013619443951362267 0 0.00086529119535830984 0.013805584286799245 0 0.00059789371645302142 0.013308911220650518 0 0.00086529119535830984 0.013805584286799245 0 0.00092815784122062537 0.013315428811757906 0 0.00059789371645302142 0.013308911220650518 0 0.00060228087511993893 0.012991444487213587 0 0.00092815784122062537 0.013315428811757906 0 0.00059789371645302142 0.013308911220650518 0 0.00060228087511993893 0.012991444487213587 0 0.00091204962037130625 0.012929991868181809 0 0.0006522923046693663 0.012684265326089971 0 0.00060228087511993893 0.012991444487213587 0 0.00092815784122062537 0.013315428811757906 0 0.00091204962037130625 0.012929991868181809 0 0.00091204962037130625 0.012929991868181809 0 0.0014236469267492821 0.013032753276048872 0 0.0010260569430610394 0.012642054002812824 0 0.00092815784122062537 0.013315428811757906 0 0.00091204962037130625 0.012929991868181809 0 0.0014236469267492821 0.013032753276048872 0 0.0010348414230576641 0.013827968173178598 0 0.00049151719517981916 0.013418034992969103 0 0.00050214419825725138 0.014571076422210179 0 0.00052002595421314743 0.01455606611615258 0 0.00052654572591929885 0.014555931473206003 0 0.0001055759777826363 0.014069327434865045 0 0.00049151719517981916 0.013418034992969103 0 -0.00013375059664539609 0.013508635038061533 0 -9.0279001022365143e-05 0.013495148245186375 0 -0.00010966484144632084 0.013517420165543262 0 -9.0279001022365143e-05 0.013495148245186375 0 -9.0756917882885661e-05 0.013513699173232798 0 -0.00010966484144632084 0.013517420165543262 0 0.00049151719517981916 0.013418034992969103 0 0.00029033291446593291 0.012928968879355801 0 -9.0279001022365143e-05 0.013495148245186375 0 -7.3367813529530651e-05 0.013510434474578586 0 -9.0756917882885661e-05 0.013513699173232798 0 0.00094386334836003534 0.01265652577493601 0 0.0006522923046693663 0.012684265326089971 0 0.00068912481833555258 0.012392206474426924 0 0.00091204962037130625 0.012929991868181809 0 0.0010260569430610394 0.012642054002812824 0 0.0006522923046693663 0.012684265326089971 0 0.00049151719517981916 0.013418034992969103 0 0.0008706351142624757 0.012735948157237068 0 -5.5833505681440656e-05 0.013522447370295823 0 -9.0482426281161769e-05 0.013531846982637732 0 -7.3367813529530651e-05 0.013510434474578586 0 2.2614637679231895e-05 0.012829979930656861 0 -0.00020077844951319011 0.01355109637518275 0 -9.0482426281161769e-05 0.013531846982637732 0 -7.3367813529530651e-05 0.013510434474578586 0 -9.0756917882885661e-05 0.013513699173232798 0 -0.00020077844951319011 0.01355109637518275 0 -0.00017242324261952815 0.013509076270629347 0 -9.0482426281161769e-05 0.013531846982637732 0 -9.0756917882885661e-05 0.013513699173232798 0 -0.00010966484144632084 0.013517420165543262 0 -9.0482426281161769e-05 0.013531846982637732 0 -0.00010966484144632084 0.013517420165543262 0 -0.00012960582519683123 0.013535032924851189 0 -0.00024965330548744157 0.013448261286442805 0 -0.00025925636165577317 0.01346929568941177 0 -0.00023446733847063748 0.013447289822919855 0 -0.00024965330548744157 0.013448261286442805 0 -0.00025925636165577317 0.01346929568941177 0 -0.00023782834660375745 0.013499077735528893 0 -0.00020768084226952771 0.013420836887191293 0 -0.00024965330548744157 0.013448261286442805 0 -0.00023446733847063748 0.013447289822919855 0 -0.00023446733847063748 0.013447289822919855 0 -0.00022791795861510581 0.013527464870354302 0 -0.00028005951937465394 0.013467370729866633 0 -0.00018486149743394869 0.013459660531137473 0 -0.00023446733847063748 0.013447289822919855 0 -0.00022791795861510581 0.013527464870354302 0 -0.00022791795861510581 0.013527464870354302 0 -0.00035660277289092728 0.013597643608281583 0 -0.00028005951937465394 0.013467370729866633 0 -0.00035660277289092728 0.013597643608281583 0 -0.00028005951937465394 0.013467370729866633 0 -0.00047492272440616636 0.013496773184330013 0 -0.00025925636165577317 0.01346929568941177 0 -0.00023446733847063748 0.013447289822919855 0 -0.00028005951937465394 0.013467370729866633 0 -0.00025925636165577317 0.01346929568941177 0 -0.00028005951937465394 0.013467370729866633 0 -0.00022481421430464686 0.013442783954391458 0 -0.00035080132205403847 0.013339896884009333 0 -0.00014491706089336806 0.014076385106965192 0 -0.00025925636165577317 0.01346929568941177 0 -0.00022481421430464686 0.013442783954391458 0 -0.00021168305656630909 0.01347896594452473 0 -0.00024140594454293327 0.013923246036614254 0 -0.00014491706089336806 0.014076385106965192 0 -0.00011342454615755132 0.01428973372615623 0 -1.8482185321494607e-06 0.014492383198144181 0 3.8254425241961174e-05 0.01441527302074572 0 -0.00014491706089336806 0.014076385106965192 0 0.00010722029535427352 0.014712832157948176 0 -1.8482185321494607e-06 0.014492383198144181 0 7.1285261777496035e-05 0.014534298112056154 0 3.8254425241961174e-05 0.01441527302074572 0 -0.00014491706089336806 0.014076385106965192 0 -4.2030043522089845e-05 0.014106760221152918 0 9.7130775064058195e-05 0.014806079881577928 0 8.2538137932180327e-05 0.014795297567280232 0 8.2562371859739602e-05 0.014817965122454412 0 -0.00022481421430464686 0.013442783954391458 0 -0.00021168305656630909 0.01347896594452473 0 -0.00015779092139063205 0.013484636510823133 0 -0.00021168305656630909 0.01347896594452473 0 -0.00023782834660375745 0.013499077735528893 0 -0.00015846218418771104 0.013522283887712825 0 -0.00017242324261952815 0.013509076270629347 0 -0.00016194743293246444 0.013522648325522897 0 -0.00021168305656630909 0.01347896594452473 0 -0.00015846218418771104 0.013522283887712825 0 -0.00015779092139063205 0.013484636510823133 0 -0.00025925636165577317 0.01346929568941177 0 -0.00021168305656630909 0.01347896594452473 0 -0.00023782834660375745 0.013499077735528893 0 -0.00013375059664539609 0.013508635038061533 0 -0.00010966484144632084 0.013517420165543262 0 -0.00012960582519683123 0.013535032924851189 0 -0.00013375059664539609 0.013508635038061533 0 -0.00012960582519683123 0.013535032924851189 0 -0.00014652524771731874 0.013523293256565263 0 -0.00015037244395903559 0.013533610534659868 0 -0.00014652524771731874 0.013523293256565263 0 -0.00015846218418771104 0.013522283887712825 0 -0.00012960582519683123 0.013535032924851189 0 -0.00014652524771731874 0.013523293256565263 0 -0.00015846218418771104 0.013522283887712825 0 -0.00015037244395903559 0.013533610534659868 0 -0.00012496432091651315 0.01353095197891363 0 -0.00015846218418771104 0.013522283887712825 0 0.00025831844509123487 0.014433878889158805 0 4.1391769228340158e-06 0.014427875664635719 0 0.00011164718521342286 0.014855314209343081 0 8.7698615823288034e-05 0.014935718070449399 0 0.00014785553262103453 0.014978230745248608 0 0.00011164718521342286 0.014855314209343081 0 0.00028500189005095341 0.014830466009201803 0 0.00014785553262103453 0.014978230745248608 0 0.00021068399581826707 0.014830991741358893 0 4.1391769228340158e-06 0.014427875664635719 0 5.6641195169208738e-05 0.014769727621622387 0 6.0961053613651755e-05 0.014804430255777941 0 2.4908995872010222e-05 0.014810129521345947 0 -0.00012496432091651315 0.01353095197891363 0 -0.00015846218418771104 0.013522283887712825 0 -0.00015779092139063205 0.013484636510823133 0 4.1391769228340158e-06 0.014427875664635719 0 -4.2030043522089845e-05 0.014106760221152918 0 5.6641195169208738e-05 0.014769727621622387 0 8.2538137932180327e-05 0.014795297567280232 0 6.0961053613651755e-05 0.014804430255777941 0 8.2538137932180327e-05 0.014795297567280232 0 8.2562371859739602e-05 0.014817965122454412 0 6.0961053613651755e-05 0.014804430255777941 0 8.2562371859739602e-05 0.014817965122454412 0 5.896503042799243e-05 0.01483745647352464 0 6.0961053613651755e-05 0.014804430255777941 0 7.1285261777496035e-05 0.014534298112056154 0 6.0531988720029515e-05 0.014653267518795084 0 7.3023738462047055e-05 0.014566127806093043 0 0.00010722029535427352 0.014712832157948176 0 6.2780471408678036e-05 0.01475017111969143 0 7.1285261777496035e-05 0.014534298112056154 0 7.3023738462047055e-05 0.014566127806093043 0 3.8254425241961174e-05 0.01441527302074572 0 5.896503042799243e-05 0.01483745647352464 0 6.0961053613651755e-05 0.014804430255777941 0 2.4908995872010222e-05 0.014810129521345947 0 6.0531988720029515e-05 0.014653267518795084 0 2.4228101238140605e-05 0.014864192857834975 0 4.4712519342126414e-05 0.014730154838603968 0 5.896503042799243e-05 0.01483745647352464 0 2.4908995872010222e-05 0.014810129521345947 0 2.4228101238140605e-05 0.014864192857834975 0 6.2780471408678036e-05 0.01475017111969143 0 3.8130133489769981e-05 0.014832952974913242 0 2.4228101238140605e-05 0.014864192857834975 0 2.2360341356479625e-08 0.014999508954451339 0 2.4994162127422976e-05 0.014857883598315087 0 2.4908995872010222e-05 0.014810129521345947 0 2.4228101238140605e-05 0.014864192857834975 0 2.2360341356479625e-08 0.014999508954451339 0 2.3934730234080532e-05 0.01500838998509065 0 -8.0599039373010726e-09 0.014999998264438595 0 1.6643679451238932e-08 0.015000039412314217 0 2.6999069347039325e-05 0.014984426122457718 0 6.1714839042193165e-08 0.014999862396075642 0 2.3934730234080532e-05 0.01500838998509065 0 1.6643679451238932e-08 0.015000039412314217 0 2.6206526206366725e-05 0.01497756139255382 0 1.6643679451238932e-08 0.015000039412314217 0 2.6206526206366725e-05 0.01497756139255382 0 -2.4824958248073546e-08 0.014999878692545848 0 4.1391769228340158e-06 0.014427875664635719 0 2.6999069347039325e-05 0.014984426122457718 0 0.00010759323721871026 0.01495953505849202 0 2.3934730234080532e-05 0.01500838998509065 0 2.6206526206366725e-05 0.01497756139255382 0 8.7698615823288034e-05 0.014935718070449399 0 2.6206526206366725e-05 0.01497756139255382 0 1.8738973704147526e-05 0.014905453965951811 0 8.7698615823288034e-05 0.014935718070449399 0 0.00010759323721871026 0.01495953505849202 0 2.6206526206366725e-05 0.01497756139255382 0 0.00011164718521342286 0.014855314209343081 0 8.7698615823288034e-05 0.014935718070449399 0 1.8738973704147526e-05 0.014905453965951811 0 2.6206526206366725e-05 0.01497756139255382 0 1.8738973704147526e-05 0.014905453965951811 0 -2.4824958248073546e-08 0.014999878692545848 0 6.5070535102339702e-05 0.014974606257532566 0 3.6111818446791875e-08 0.014999983259015595 0 3.9243822992696052e-08 0.015000071214312228 0 9.3878344607691637e-05 0.015054187606214707 0 -1.0488713723170993e-08 0.015000045020508735 0 -1.746828353834966e-09 0.014999755180865939 0 3.5871863384508099e-06 0.014894850205228991 0 -3.1800253761150389e-08 0.014999983892309039 0 3.5871863384508099e-06 0.014894850205228991 0 1.9133111610458381e-05 0.014853708054079578 0 5.0231962273485843e-05 0.014702889932653734 0 4.8654272379159489e-05 0.014718295818552786 0 2.2085100496246978e-05 0.014819389472140326 0 3.5871863384508099e-06 0.014894850205228991 0 5.0231962273485843e-05 0.014702889932653734 0 3.9460802062054412e-05 0.014975978440159686 0 1.9133111610458381e-05 0.014853708054079578 0 5.1118875868114968e-05 0.014700456585166251 0 5.0231962273485843e-05 0.014702889932653734 0 -1.746828353834966e-09 0.014999755180865939 0 3.5871863384508099e-06 0.014894850205228991 0 1.9133111610458381e-05 0.014853708054079578 0 -1.746828353834966e-09 0.014999755180865939 0 1.9133111610458381e-05 0.014853708054079578 0 2.3557100903438826e-08 0.014999830377530438 0 1.9133111610458381e-05 0.014853708054079578 0 2.3557100903438826e-08 0.014999830377530438 0 2.4994162127422976e-05 0.014857883598315087 0 2.2360341356479625e-08 0.014999508954451339 0 2.3557100903438826e-08 0.014999830377530438 0 2.4994162127422976e-05 0.014857883598315087 0 2.4994162127422976e-05 0.014857883598315087 0 5.1118875868114968e-05 0.014700456585166251 0 4.4712519342126414e-05 0.014730154838603968 0 2.4228101238140605e-05 0.014864192857834975 0 2.4994162127422976e-05 0.014857883598315087 0 4.4712519342126414e-05 0.014730154838603968 0 1.9133111610458381e-05 0.014853708054079578 0 2.4994162127422976e-05 0.014857883598315087 0 5.1118875868114968e-05 0.014700456585166251 0 5.1118875868114968e-05 0.014700456585166251 0 7.3023738462047055e-05 0.014566127806093043 0 7.7427939622141625e-05 0.014507514913222469 0 6.0531988720029515e-05 0.014653267518795084 0 4.4712519342126414e-05 0.014730154838603968 0 7.3023738462047055e-05 0.014566127806093043 0 5.1118875868114968e-05 0.014700456585166251 0 4.4712519342126414e-05 0.014730154838603968 0 7.3023738462047055e-05 0.014566127806093043 0 7.3023738462047055e-05 0.014566127806093043 0 7.7427939622141625e-05 0.014507514913222469 0 5.1209094816324833e-05 0.014379398432948588 0 5.0231962273485843e-05 0.014702889932653734 0 0.00010288426087804239 0.014320505025894397 0 5.2512583738119766e-05 0.014616176937408335 0 7.7427939622141625e-05 0.014507514913222469 0 5.0231962273485843e-05 0.014702889932653734 0 0.00010288426087804239 0.014320505025894397 0 5.1118875868114968e-05 0.014700456585166251 0 7.7427939622141625e-05 0.014507514913222469 0 5.0231962273485843e-05 0.014702889932653734 0 0.00010288426087804239 0.014320505025894397 0 0.00016297144293779417 0.014563190412250349 0 5.2512583738119766e-05 0.014616176937408335 0 0.00010288426087804239 0.014320505025894397 0 0.00035472488707148826 0.014509675037738928 0 0.00016297144293779417 0.014563190412250349 0 0.00010288426087804239 0.014320505025894397 0 3.4907119671954708e-05 0.01424404173574249 0 -6.1091699490593718e-05 0.013872010392523873 0 9.0189870704932199e-05 0.014272199931598456 0 0.0001570627989776936 0.014241737303436513 0 3.4907119671954708e-05 0.01424404173574249 0 -0.00010835103639286129 0.013955247286877038 0 -6.1091699490593718e-05 0.013872010392523873 0 7.7427939622141625e-05 0.014507514913222469 0 0.00010288426087804239 0.014320505025894397 0 3.4907119671954708e-05 0.01424404173574249 0 7.7427939622141625e-05 0.014507514913222469 0 3.4907119671954708e-05 0.01424404173574249 0 5.1209094816324833e-05 0.014379398432948588 0 7.3023738462047055e-05 0.014566127806093043 0 5.1209094816324833e-05 0.014379398432948588 0 3.8254425241961174e-05 0.01441527302074572 0 5.1209094816324833e-05 0.014379398432948588 0 3.8254425241961174e-05 0.01441527302074572 0 -5.6847353974982714e-05 0.014138897864368316 0 -0.00011342454615755132 0.01428973372615623 0 3.8254425241961174e-05 0.01441527302074572 0 -5.6847353974982714e-05 0.014138897864368316 0 3.4907119671954708e-05 0.01424404173574249 0 -5.6847353974982714e-05 0.014138897864368316 0 -0.00010835103639286129 0.013955247286877038 0 3.4907119671954708e-05 0.01424404173574249 0 5.1209094816324833e-05 0.014379398432948588 0 -5.6847353974982714e-05 0.014138897864368316 0 -5.6847353974982714e-05 0.014138897864368316 0 -0.00022898580358647491 0.013788119858558521 0 -0.00017844329633562889 0.013821519705071965 0 -5.6847353974982714e-05 0.014138897864368316 0 -0.00017844329633562889 0.013821519705071965 0 -0.00010835103639286129 0.013955247286877038 0 -0.00011342454615755132 0.01428973372615623 0 -5.6847353974982714e-05 0.014138897864368316 0 -0.00022898580358647491 0.013788119858558521 0 -0.00024140594454293327 0.013923246036614254 0 -0.00021443181183819829 0.013836789476967053 0 -0.00022791795861510581 0.013527464870354302 0 -0.00035660277289092728 0.013597643608281583 0 -0.00022898580358647491 0.013788119858558521 0 -0.00022791795861510581 0.013527464870354302 0 -0.00022898580358647491 0.013788119858558521 0 -0.0001822898891630201 0.013568682491672583 0 -0.00022898580358647491 0.013788119858558521 0 -0.00017844329633562889 0.013821519705071965 0 -0.00020052232813824183 0.01363111306412986 0 -0.00017844329633562889 0.013821519705071965 0 -0.00016864384608600682 0.013702701594255224 0 -0.00020052232813824183 0.01363111306412986 0 -0.00017844329633562889 0.013821519705071965 0 -0.00010835103639286129 0.013955247286877038 0 -0.00016864384608600682 0.013702701594255224 0 -0.00010835103639286129 0.013955247286877038 0 -0.00012649701777941918 0.013811594250806849 0 -0.00016864384608600682 0.013702701594255224 0 -0.00010835103639286129 0.013955247286877038 0 -0.00012649701777941918 0.013811594250806849 0 -6.1091699490593718e-05 0.013872010392523873 0 -0.00012649701777941918 0.013811594250806849 0 -0.00016864384608600682 0.013702701594255224 0 -0.00012947019090019744 0.013797568324388759 0 -0.00016864384608600682 0.013702701594255224 0 -0.00018580712650149414 0.013587766030380456 0 -0.00022417353787477926 0.013562057924800504 0 -0.00016864384608600682 0.013702701594255224 0 -0.00012928596156897896 0.013527910428038378 0 -0.00018580712650149414 0.013587766030380456 0 -0.00022090559194679795 0.013605325441670672 0 0.0001471453999714773 0.013950738055898922 0 -0.00018580712650149414 0.013587766030380456 0 -0.00015731985447225175 0.013520662684991859 0 -0.00022932909523297254 0.013584674347353321 0 -0.00012928596156897896 0.013527910428038378 0 -0.00018580712650149414 0.013587766030380456 0 -0.00015731985447225175 0.013520662684991859 0 0.0001471453999714773 0.013950738055898922 0 0.0001570627989776936 0.014241737303436513 0 -0.00012649701777941918 0.013811594250806849 0 -0.00012947019090019744 0.013797568324388759 0 -6.1091699490593718e-05 0.013872010392523873 0 0.00050894783278487886 0.014626278864384666 0 0.00039596489092689232 0.014621956452860282 0 0.00035472488707148826 0.014509675037738928 0 0.00048991790782838666 0.014686614892953231 0 0.00031572616000396744 0.014801038086791809 0 0.00036108776885160798 0.014699996225078232 0 0.00039596489092689232 0.014621956452860282 0 0.00048991790782838666 0.014686614892953231 0 0.00036108776885160798 0.014699996225078232 0 0.00026880609464391956 0.014147689685585583 0 0.00029627195089403156 0.01474301665971741 0 0.00050894783278487886 0.014626278864384666 0 0.00039596489092689232 0.014621956452860282 0 0.00048991790782838666 0.014686614892953231 0 0.00052602605053184842 0.013585864334663777 0 0.00051290996704193197 0.013557974545252793 0 0.00052373492576896212 0.013570739325471816 0 9.7807567237558201e-05 0.013585847352283929 0 0.00011942901706106873 0.013328733547647253 0 0.00054366313246970058 0.013593203669072513 0 0.00052602605053184842 0.013585864334663777 0 0.00052373492576896212 0.013570739325471816 0 0.00052602605053184842 0.013585864334663777 0 0.00052886197097331243 0.013632766576810031 0 0.00038553943236354645 0.013558723705835333 0 0.00052602605053184842 0.013585864334663777 0 0.00051290996704193197 0.013557974545252793 0 0.00038553943236354645 0.013558723705835333 0 0.00054366313246970058 0.013593203669072513 0 0.00052602605053184842 0.013585864334663777 0 0.00052886197097331243 0.013632766576810031 0 0.00026880609464391956 0.014147689685585583 0 9.7807567237558201e-05 0.013585847352283929 0 0.00017753086744616399 0.013819574682422829 0 0.00014032974356908152 0.013932441084145746 0 0.0002414758595031433 0.013863182577458099 0 0.0001471453999714773 0.013950738055898922 0 9.7807567237558201e-05 0.013585847352283929 0 0.0001471453999714773 0.013950738055898922 0 0.00026880609464391956 0.014147689685585583 0 0.00051290996704193197 0.013557974545252793 0 0.00052373492576896212 0.013570739325471816 0 0.00052845356233689592 0.013580676177662393 0 0.00051290996704193197 0.013557974545252793 0 0.00052845356233689592 0.013580676177662393 0 0.00053643498132866299 0.013588429488402156 0 0.00052845356233689592 0.013580676177662393 0 0.00053809741155118513 0.013603660766620469 0 0.00053643498132866299 0.013588429488402156 0 0.00053809741155118513 0.013603660766620469 0 0.00053643498132866299 0.013588429488402156 0 0.00054612472319345612 0.013592367770951873 0 0.00052845356233689592 0.013580676177662393 0 0.00053809741155118513 0.013603660766620469 0 0.00053509947177667386 0.013630359436129504 0 0.00053974061070533345 0.01360193174071618 0 0.00053809741155118513 0.013603660766620469 0 0.00053509947177667386 0.013630359436129504 0 0.00053974061070533345 0.01360193174071618 0 0.00053809741155118513 0.013603660766620469 0 0.00054612472319345612 0.013592367770951873 0 0.00024334100568148401 0.014375911921121587 0 0.00022559565163496572 0.01450593160404977 0 0.0002784684482853995 0.014496037814180355 0 0.00030964315752509531 0.014096548133757629 0 0.00036972128137639158 0.014025809138910231 0 0.00036317384635891091 0.01380499379691167 0 0.00053509947177667386 0.013630359436129504 0 0.00049549082416341515 0.01356081898556585 0 0.00052845356233689592 0.013580676177662393 0 0.00053509947177667386 0.013630359436129504 0 0.00049549082416341515 0.01356081898556585 0 0.00026880609464391956 0.014147689685585583 0 0.00036972128137639158 0.014025809138910231 0 0.00054366313246970058 0.013593203669072513 0 0.00052373492576896212 0.013570739325471816 0 0.00049549082416341515 0.01356081898556585 0 0.00019572467917161609 0.014604112506597919 0 0.00022559565163496572 0.01450593160404977 0 0.00029401318926526739 0.014549280575874016 0 0.00052373492576896212 0.013570739325471816 0 0.00052845356233689592 0.013580676177662393 0 0.00049549082416341515 0.01356081898556585 0 0.00022559565163496572 0.01450593160404977 0 0.00029401318926526739 0.014549280575874016 0 0.0002784684482853995 0.014496037814180355 0 0.00029401318926526739 0.014549280575874016 0 0.0002784684482853995 0.014496037814180355 0 0.00031496297907031886 0.01445388998919513 0 0.00024334100568148401 0.014375911921121587 0 0.0002784684482853995 0.014496037814180355 0 0.00031496297907031886 0.01445388998919513 0 0.00029401318926526739 0.014549280575874016 0 0.00031496297907031886 0.01445388998919513 0 0.00037556833371096235 0.014464034098375505 0 0.00031379093901725766 0.014389051040834747 0 0.00036432758552691912 0.014422573469256059 0 0.00031496297907031886 0.01445388998919513 0 0.00029401318926526739 0.014549280575874016 0 0.00037556833371096235 0.014464034098375505 0 0.00041510287037737199 0.014463172349849446 0 0.00036432758552691912 0.014422573469256059 0 0.00041512130100324215 0.014497717352653665 0 0.00037556833371096235 0.014464034098375505 0 0.00041512130100324215 0.014497717352653665 0 0.00037556833371096235 0.014464034098375505 0 0.00041510287037737199 0.014463172349849446 0 0.00036432758552691912 0.014422573469256059 0 0.00031496297907031886 0.01445388998919513 0 0.00037556833371096235 0.014464034098375505 0 0.00029627195089403156 0.01474301665971741 0 0.00029802690785198869 0.01466648476108573 0 0.00031572616000396744 0.014801038086791809 0 0.00021095560662881926 0.014802020030985286 0 0.00024222077920456258 0.014689459343207355 0 0.00031572616000396744 0.014801038086791809 0 0.00017707788524951482 0.014882707451616276 0 0.00021095560662881926 0.014802020030985286 0 0.00017707788524951482 0.014882707451616276 0 0.00021095560662881926 0.014802020030985286 0 0.00015636108026445097 0.014836832476460173 0 0.00021095560662881926 0.014802020030985286 0 0.00014137533734116578 0.014788003059186698 0 0.00015636108026445097 0.014836832476460173 0 0.00021095560662881926 0.014802020030985286 0 0.0001768459548488369 0.01474193361438955 0 0.00014137533734116578 0.014788003059186698 0 0.00024222077920456258 0.014689459343207355 0 0.0001768459548488369 0.01474193361438955 0 0.00011589970882454643 0.014684287558504453 0 0.00021095560662881926 0.014802020030985286 0 0.00024222077920456258 0.014689459343207355 0 0.0001768459548488369 0.01474193361438955 0 0.00031572616000396744 0.014801038086791809 0 0.00024222077920456258 0.014689459343207355 0 0.00036108776885160798 0.014699996225078232 0 0.00039596489092689232 0.014621956452860282 0 0.00024222077920456258 0.014689459343207355 0 0.00036108776885160798 0.014699996225078232 0 0.00039596489092689232 0.014621956452860282 0 0.00024222077920456258 0.014689459343207355 0 0.00035472488707148826 0.014509675037738928 0 0.00024222077920456258 0.014689459343207355 0 0.00035472488707148826 0.014509675037738928 0 0.00016297144293779417 0.014563190412250349 0 0.00024222077920456258 0.014689459343207355 0 0.00016297144293779417 0.014563190412250349 0 0.00011589970882454643 0.014684287558504453 0 0.00016297144293779417 0.014563190412250349 0 5.2512583738119766e-05 0.014616176937408335 0 0.00011589970882454643 0.014684287558504453 0 5.2512583738119766e-05 0.014616176937408335 0 4.7694542459819354e-05 0.014727963429953663 0 1.1498235048532672e-05 0.014663965939737136 0 5.0231962273485843e-05 0.014702889932653734 0 5.2512583738119766e-05 0.014616176937408335 0 1.1498235048532672e-05 0.014663965939737136 0 4.7694542459819354e-05 0.014727963429953663 0 0.00011589970882454643 0.014684287558504453 0 9.2091425208381617e-05 0.014766292450852307 0 5.2512583738119766e-05 0.014616176937408335 0 4.7694542459819354e-05 0.014727963429953663 0 0.00011589970882454643 0.014684287558504453 0 0.0001768459548488369 0.01474193361438955 0 0.00011589970882454643 0.014684287558504453 0 0.00014137533734116578 0.014788003059186698 0 0.00011589970882454643 0.014684287558504453 0 0.00014137533734116578 0.014788003059186698 0 9.2091425208381617e-05 0.014766292450852307 0 0.00014137533734116578 0.014788003059186698 0 9.2091425208381617e-05 0.014766292450852307 0 0.00011111148519418728 0.014832277267562147 0 9.2091425208381617e-05 0.014766292450852307 0 0.00011111148519418728 0.014832277267562147 0 6.855235466412785e-05 0.014825592608116223 0 0.00014137533734116578 0.014788003059186698 0 0.00011111148519418728 0.014832277267562147 0 0.00015636108026445097 0.014836832476460173 0 0.00011111148519418728 0.014832277267562147 0 0.00015636108026445097 0.014836832476460173 0 0.00011821814935397973 0.014879316732972641 0 0.00032766819032348292 0.014602894470037162 0 0.00021161585540326259 0.014627506345634655 0 0.00041510287037737199 0.014463172349849446 0 0.00017707788524951482 0.014882707451616276 0 0.00015636108026445097 0.014836832476460173 0 0.00011821814935397973 0.014879316732972641 0 7.7288129394437408e-05 0.01495683882688578 0 0.00017707788524951482 0.014882707451616276 0 0.00011821814935397973 0.014879316732972641 0 0.00014655350354998906 0.014793776122332847 0 0.00029802690785198869 0.01466648476108573 0 0.00011111148519418728 0.014832277267562147 0 0.00011821814935397973 0.014879316732972641 0 7.2932424234639672e-05 0.01488168264108706 0 0.00032766819032348292 0.014602894470037162 0 0.00041512130100324215 0.014497717352653665 0 0.00041510287037737199 0.014463172349849446 0 7.7288129394437408e-05 0.01495683882688578 0 7.2932424234639672e-05 0.01488168264108706 0 1.8906526631831197e-05 0.014913401200646549 0 7.7288129394437408e-05 0.01495683882688578 0 0.00011821814935397973 0.014879316732972641 0 7.2932424234639672e-05 0.01488168264108706 0 7.2932424234639672e-05 0.01488168264108706 0 2.5881514617852989e-05 0.014832647480103218 0 1.8906526631831197e-05 0.014913401200646549 0 4.7694542459819354e-05 0.014727963429953663 0 6.855235466412785e-05 0.014825592608116223 0 2.5881514617852989e-05 0.014832647480103218 0 4.7694542459819354e-05 0.014727963429953663 0 9.2091425208381617e-05 0.014766292450852307 0 6.855235466412785e-05 0.014825592608116223 0 7.2932424234639672e-05 0.01488168264108706 0 6.855235466412785e-05 0.014825592608116223 0 2.5881514617852989e-05 0.014832647480103218 0 0.00011111148519418728 0.014832277267562147 0 7.2932424234639672e-05 0.01488168264108706 0 6.855235466412785e-05 0.014825592608116223 0 -3.9431554639607709e-05 0.014807929322192664 0 2.5881514617852989e-05 0.014832647480103218 0 1.8906526631831197e-05 0.014913401200646549 0 4.7694542459819354e-05 0.014727963429953663 0 -3.9431554639607709e-05 0.014807929322192664 0 2.5881514617852989e-05 0.014832647480103218 0 9.845675439272914e-06 0.014968577383560725 0 1.8906526631831197e-05 0.014913401200646549 0 -1.6209284855989006e-05 0.014981506881968107 0 7.7288129394437408e-05 0.01495683882688578 0 9.845675439272914e-06 0.014968577383560725 0 1.8906526631831197e-05 0.014913401200646549 0 -3.9431554639607709e-05 0.014807929322192664 0 1.8906526631831197e-05 0.014913401200646549 0 -1.6209284855989006e-05 0.014981506881968107 0 -3.6258873957467948e-08 0.014999928730057838 0 -1.6209284855989006e-05 0.014981506881968107 0 1.6977267046488463e-08 0.015000014770085925 0 -1.1647161961107253e-05 0.014904280058422916 0 -1.8345235798449063e-05 0.014970278929895392 0 5.6347537625187819e-06 0.015003643292863333 0 -1.6209284855989006e-05 0.014981506881968107 0 1.6977267046488463e-08 0.015000014770085925 0 5.6347537625187819e-06 0.015003643292863333 0 1.6977267046488463e-08 0.015000014770085925 0 -3.1800253761150389e-08 0.014999983892309039 0 5.6347537625187819e-06 0.015003643292863333 0 3.9460802062054412e-05 0.014975978440159686 0 -3.1800253761150389e-08 0.014999983892309039 0 -1.1647161961107253e-05 0.014904280058422916 0 2.2085100496246978e-05 0.014819389472140326 0 4.7694542459819354e-05 0.014727963429953663 0 -3.9431554639607709e-05 0.014807929322192664 0 1.1498235048532672e-05 0.014663965939737136 0 3.5871863384508099e-06 0.014894850205228991 0 3.9460802062054412e-05 0.014975978440159686 0 -3.1800253761150389e-08 0.014999983892309039 0 0.00044048221988452304 0.012405600498419503 0 0.00026124350363176621 0.012529559496294664 0 0.00032126359043509314 0.012780701584111197 0 0.00044048221988452304 0.012405600498419503 0 0.00026124350363176621 0.012529559496294664 0 0.00016747445720941375 0.012327669465325137 0 0.00026124350363176621 0.012529559496294664 0 0.00032126359043509314 0.012780701584111197 0 8.0919068421721104e-05 0.012647881288237994 0 0.00026124350363176621 0.012529559496294664 0 0.00016747445720941375 0.012327669465325137 0 8.0919068421721104e-05 0.012647881288237994 0 0.00032126359043509314 0.012780701584111197 0 8.0919068421721104e-05 0.012647881288237994 0 2.8730861881192342e-05 0.012903834748740437 0 0.00032126359043509314 0.012780701584111197 0 0.00060927613518959017 0.012682204825460732 0 0.00067105369272645965 0.013109536655590412 0 0.00044048221988452304 0.012405600498419503 0 0.00032126359043509314 0.012780701584111197 0 0.00060927613518959017 0.012682204825460732 0 0.00060927613518959017 0.012682204825460732 0 0.00096921618896642797 0.012822184183177961 0 0.00071244894285237958 0.012252644501067606 0 0.0019321131111441864 0.010648723533086173 0 0.0014563436198901296 0.011327741603739618 0 0.00096921618896642797 0.012822184183177961 0 0.00071244894285237958 0.012252644501067606 0 0.001313371792706378 0.012444545629663 0 0.00065073921458823401 0.012499575409947568 0 0.0014563436198901296 0.011327741603739618 0 0.00071244894285237958 0.012252644501067606 0 0.00087875104717504674 0.011947741487480771 0 0.00096302803175066459 0.012172055391636946 0 0.00044048221988452304 0.012405600498419503 0 0.00060927613518959017 0.012682204825460732 0 0.00071244894285237958 0.012252644501067606 0 0.00044048221988452304 0.012405600498419503 0 0.00071244894285237958 0.012252644501067606 0 0.0005668693287998733 0.011992568342015767 0 0.00071244894285237958 0.012252644501067606 0 0.00087875104717504674 0.011947741487480771 0 0.0005668693287998733 0.011992568342015767 0 0.00087875104717504674 0.011947741487480771 0 0.00080281304982550449 0.011832666680999165 0 0.0005668693287998733 0.011992568342015767 0 0.00058378258196072899 0.011797151120924785 0 0.00080281304982550449 0.011832666680999165 0 0.00039516835086753852 0.012579104118272288 0 0.00078116014153450486 0.011895615367692047 0 0.00046468129775444024 0.012282578792864004 0 0.00014504869244377229 0.012363680645466684 0 0.00039516835086753852 0.012579104118272288 0 -5.4570191483802861e-05 0.01313504044710459 0 0.00046468129775444024 0.012282578792864004 0 5.9342264384124154e-05 0.012729644102934758 0 0.00044048221988452304 0.012405600498419503 0 0.0005668693287998733 0.011992568342015767 0 0.00016747445720941375 0.012327669465325137 0 0.00014504869244377229 0.012363680645466684 0 -5.4570191483802861e-05 0.01313504044710459 0 -0.00014459977306215395 0.012821084593678315 0 -0.00020477519152724481 0.013324742625413112 0 -0.00014459977306215395 0.012821084593678315 0 -0.00020596774136723392 0.013231347274533537 0 -0.00014459977306215395 0.012821084593678315 0 -0.00020596774136723392 0.013231347274533537 0 -0.00019652487580393914 0.013194419241912874 0 -0.00017129095325575287 0.013406889247107397 0 -0.00020477519152724481 0.013324742625413112 0 -0.00020596774136723392 0.013231347274533537 0 -0.00020596774136723392 0.013231347274533537 0 -0.00022611289663402643 0.013344782657207468 0 -0.00019652487580393914 0.013194419241912874 0 -0.00020596774136723392 0.013231347274533537 0 -0.00022611289663402643 0.013344782657207468 0 -0.00020810925785020052 0.013447847092714607 0 -0.00022611289663402643 0.013344782657207468 0 -0.00019652487580393914 0.013194419241912874 0 -0.0002305782510731714 0.013384079762376081 0 -5.4570191483802861e-05 0.01313504044710459 0 -0.00014459977306215395 0.012821084593678315 0 -0.00019652487580393914 0.013194419241912874 0 -5.4570191483802861e-05 0.01313504044710459 0 -0.00019652487580393914 0.013194419241912874 0 -0.0002305782510731714 0.013384079762376081 0 -0.00017129095325575287 0.013406889247107397 0 -0.0001822898891630201 0.013568682491672583 0 -0.00020810925785020052 0.013447847092714607 0 -0.00017129095325575287 0.013406889247107397 0 -0.00020596774136723392 0.013231347274533537 0 -0.00020810925785020052 0.013447847092714607 0 -0.00020810925785020052 0.013447847092714607 0 -0.00020052232813824183 0.01363111306412986 0 -0.0002242500119037614 0.013439135367361233 0 -0.00022611289663402643 0.013344782657207468 0 -0.00020810925785020052 0.013447847092714607 0 -0.0002242500119037614 0.013439135367361233 0 -0.0001822898891630201 0.013568682491672583 0 -0.00020810925785020052 0.013447847092714607 0 -0.00020052232813824183 0.01363111306412986 0 -0.00022898580358647491 0.013788119858558521 0 -0.0001822898891630201 0.013568682491672583 0 -0.00020052232813824183 0.01363111306412986 0 -0.00020052232813824183 0.01363111306412986 0 -0.00021206030653401391 0.013385346060145147 0 -0.00022417353787477926 0.013562057924800504 0 -0.0002242500119037614 0.013439135367361233 0 -0.00021206030653401391 0.013385346060145147 0 -0.0002305782510731714 0.013384079762376081 0 -0.00020052232813824183 0.01363111306412986 0 -0.0002242500119037614 0.013439135367361233 0 -0.00021206030653401391 0.013385346060145147 0 -0.00021206030653401391 0.013385346060145147 0 -0.00012966750497541508 0.013073414617993636 0 -0.00022932909523297254 0.013584674347353321 0 -0.00012966750497541508 0.013073414617993636 0 -0.00012312276380193948 0.013066069514046262 0 -0.00010513920837634316 0.013065649645979093 0 -0.00012421111965135314 0.013127340602788489 0 -0.00022897310496572125 0.013278791850335937 0 -0.00018580712650149414 0.013587766030380456 0 -0.00022417353787477926 0.013562057924800504 0 -0.00022932909523297254 0.013584674347353321 0 -0.00016864384608600682 0.013702701594255224 0 -0.00020052232813824183 0.01363111306412986 0 -0.00022417353787477926 0.013562057924800504 0 -0.00021206030653401391 0.013385346060145147 0 -0.00022417353787477926 0.013562057924800504 0 -0.00022932909523297254 0.013584674347353321 0 0.00016747445720941375 0.012327669465325137 0 8.0919068421721104e-05 0.012647881288237994 0 -8.9542808722218049e-05 0.012756399802705824 0 5.9342264384124154e-05 0.012729644102934758 0 -0.00014114798128066379 0.013072130137725133 0 8.0919068421721104e-05 0.012647881288237994 0 -8.9542808722218049e-05 0.012756399802705824 0 2.8730861881192342e-05 0.012903834748740437 0 -0.00021206030653401391 0.013385346060145147 0 -8.9542808722218049e-05 0.012756399802705824 0 -0.00012966750497541508 0.013073414617993636 0 -0.00020133767436118723 0.013328553244204138 0 -0.00014114798128066379 0.013072130137725133 0 -0.00022611289663402643 0.013344782657207468 0 -0.0002242500119037614 0.013439135367361233 0 -0.0002305782510731714 0.013384079762376081 0 -0.00012966750497541508 0.013073414617993636 0 2.8730861881192342e-05 0.012903834748740437 0 -7.1728570993151363e-05 0.013043484809663613 0 -0.00012966750497541508 0.013073414617993636 0 -7.1728570993151363e-05 0.013043484809663613 0 -0.00010513920837634316 0.013065649645979093 0 -8.9542808722218049e-05 0.012756399802705824 0 -0.00012966750497541508 0.013073414617993636 0 2.8730861881192342e-05 0.012903834748740437 0 5.1003489186886426e-05 0.013079759146064292 0 -7.1728570993151363e-05 0.013043484809663613 0 -2.106786409211961e-05 0.013120898951362304 0 2.8730861881192342e-05 0.012903834748740437 0 5.1003489186886426e-05 0.013079759146064292 0 -7.1728570993151363e-05 0.013043484809663613 0 -7.1728570993151363e-05 0.013043484809663613 0 -2.106786409211961e-05 0.013120898951362304 0 -8.4866602434418415e-05 0.013107028369275669 0 -7.1728570993151363e-05 0.013043484809663613 0 -0.00010513920837634316 0.013065649645979093 0 -8.4866602434418415e-05 0.013107028369275669 0 -2.106786409211961e-05 0.013120898951362304 0 -8.4866602434418415e-05 0.013107028369275669 0 -5.4956456099614952e-05 0.013159736123642417 0 -2.106786409211961e-05 0.013120898951362304 0 -2.2669953548969041e-06 0.013181110407073069 0 -5.4956456099614952e-05 0.013159736123642417 0 3.8731831888624222e-05 0.01304141336147125 0 0.00015591451858916073 0.013336865369660441 0 5.1003489186886426e-05 0.013079759146064292 0 -2.106786409211961e-05 0.013120898951362304 0 6.8816126530995954e-05 0.013160294117100674 0 -2.106786409211961e-05 0.013120898951362304 0 -2.2669953548969041e-06 0.013181110407073069 0 6.8816126530995954e-05 0.013160294117100674 0 9.7807567237558201e-05 0.013585847352283929 0 -0.00022897310496572125 0.013278791850335937 0 -0.0001906885906468625 0.013110526964261744 0 -0.00012312276380193948 0.013066069514046262 0 -0.00014368051978096901 0.013106694403100418 0 -0.00012312276380193948 0.013066069514046262 0 -0.00011751430755028541 0.013102314788260204 0 -0.00014368051978096901 0.013106694403100418 0 -0.00012312276380193948 0.013066069514046262 0 -0.00010513920837634316 0.013065649645979093 0 -0.00011751430755028541 0.013102314788260204 0 -0.00010513920837634316 0.013065649645979093 0 -8.4866602434418415e-05 0.013107028369275669 0 -0.00011751430755028541 0.013102314788260204 0 -8.4866602434418415e-05 0.013107028369275669 0 -9.8870228290991031e-05 0.01314383853938424 0 -0.00011751430755028541 0.013102314788260204 0 -8.4866602434418415e-05 0.013107028369275669 0 -9.8870228290991031e-05 0.01314383853938424 0 -5.4956456099614952e-05 0.013159736123642417 0 -9.8870228290991031e-05 0.01314383853938424 0 -0.00011751430755028541 0.013102314788260204 0 -0.00014323187311426926 0.013146225748134423 0 -0.0001906885906468625 0.013110526964261744 0 -0.00014323187311426926 0.013146225748134423 0 -0.00014368051978096901 0.013106694403100418 0 -0.00011751430755028541 0.013102314788260204 0 -0.00014323187311426926 0.013146225748134423 0 -0.00014368051978096901 0.013106694403100418 0 0.00051290996704193197 0.013557974545252793 0 0.00053643498132866299 0.013588429488402156 0 0.00055168428949063295 0.013588189001933218 0 0.00051290996704193197 0.013557974545252793 0 0.00038553943236354645 0.013558723705835333 0 0.00032581523253770201 0.013403302052186454 0 0.00050868283956347245 0.013551407457914987 0 0.00043244162499955899 0.013490561602713705 0 0.00011942901706106873 0.013328733547647253 0 4.8652707809189489e-05 0.013300278412169996 0 0.00038553943236354645 0.013558723705835333 0 0.00032581523253770201 0.013403302052186454 0 0.00016868503947667409 0.01339454963021401 0 -9.8870228290991031e-05 0.01314383853938424 0 -0.00014323187311426926 0.013146225748134423 0 -8.3998573415885024e-05 0.013202912250433012 0 -9.8870228290991031e-05 0.01314383853938424 0 -8.3998573415885024e-05 0.013202912250433012 0 -5.4956456099614952e-05 0.013159736123642417 0 0.00032581523253770201 0.013403302052186454 0 0.00016868503947667409 0.01339454963021401 0 0.00011168899598344084 0.013269936520040469 0 0.00055168428949063295 0.013588189001933218 0 0.00054460536477422426 0.013584809804607838 0 0.00052191533354866706 0.013587013044655791 0 0.00043244162499955899 0.013490561602713705 0 0.00031519690128195403 0.01348457693885541 0 0.00053103181524459585 0.013565112811468716 0 0.00054460536477422426 0.013584809804607838 0 0.00052191533354866706 0.013587013044655791 0 0.00055168428949063295 0.013588189001933218 0 0.00054460536477422426 0.013584809804607838 0 0.00054612472319345612 0.013592367770951873 0 0.0005524945096043322 0.0135812096494283 0 0.00054460536477422426 0.013584809804607838 0 0.00054612472319345612 0.013592367770951873 0 0.00053643498132866299 0.013588429488402156 0 0.00055168428949063295 0.013588189001933218 0 0.00054612472319345612 0.013592367770951873 0 -2.2669953548969041e-06 0.013181110407073069 0 3.1560054158012157e-05 0.013221185013327807 0 6.8816126530995954e-05 0.013160294117100674 0 -2.2669953548969041e-06 0.013181110407073069 0 7.6814751181263348e-06 0.013214446891266936 0 3.1560054158012157e-05 0.013221185013327807 0 -2.2669953548969041e-06 0.013181110407073069 0 -5.4956456099614952e-05 0.013159736123642417 0 -2.4997133950684391e-05 0.013202221683724162 0 -8.3998573415885024e-05 0.013202912250433012 0 -5.4956456099614952e-05 0.013159736123642417 0 -2.4997133950684391e-05 0.013202221683724162 0 -2.2669953548969041e-06 0.013181110407073069 0 -2.4997133950684391e-05 0.013202221683724162 0 7.6814751181263348e-06 0.013214446891266936 0 6.2440901786234847e-06 0.013231225995665209 0 0.00011168899598344084 0.013269936520040469 0 2.4776878183559385e-05 0.013252087351843791 0 -8.3998573415885024e-05 0.013202912250433012 0 -2.4997133950684391e-05 0.013202221683724162 0 2.4776878183559385e-05 0.013252087351843791 0 0.00016868503947667409 0.01339454963021401 0 0.00011168899598344084 0.013269936520040469 0 2.4776878183559385e-05 0.013252087351843791 0 4.8652707809189489e-05 0.013300278412169996 0 2.2168626906055993e-05 0.013258546239464368 0 0.000473277674318166 0.013555487328279903 0 0.00051057554872311641 0.013561291519137901 0 0.00052191533354866706 0.013587013044655791 0 0.00045261571096952144 0.012795545852526609 0 0.00031519690128195403 0.01348457693885541 0 -2.4997133950684391e-05 0.013202221683724162 0 7.6814751181263348e-06 0.013214446891266936 0 2.4776878183559385e-05 0.013252087351843791 0 0.00045261571096952144 0.012795545852526609 0 0.00054247801989707682 0.012220936492922113 0 6.2440901786234847e-06 0.013231225995665209 0 2.4776878183559385e-05 0.013252087351843791 0 3.1560054158012157e-05 0.013221185013327807 0 6.2440901786234847e-06 0.013231225995665209 0 3.1560054158012157e-05 0.013221185013327807 0 7.5529366342650051e-05 0.013214555247854601 0 7.6814751181263348e-06 0.013214446891266936 0 2.4776878183559385e-05 0.013252087351843791 0 3.1560054158012157e-05 0.013221185013327807 0 0.00077953636983121453 0.011922863305658131 0 0.00083547670155022333 0.011866527330142341 0 0.00080645395325013144 0.011797333895945328 0 0.00077953636983121453 0.011922863305658131 0 0.0006694086188571524 0.011948527254609787 0 0.00080645395325013144 0.011797333895945328 0 0.0011537734702619384 0.010812987243378092 0 0.001145375732836341 0.010792954950988238 0 0.0011726853373454844 0.010802363131740652 0 0.00094302471117814935 0.010999346006228776 0 0.0013389209771476024 0.010467932352302426 0 0.00077953636983121453 0.011922863305658131 0 0.00082152616577061094 0.011894289532169505 0 0.00085483408099664576 0.011911712164299107 0 0.00077953636983121453 0.011922863305658131 0 0.00082152616577061094 0.011894289532169505 0 0.00083547670155022333 0.011866527330142341 0 0.00082152616577061094 0.011894289532169505 0 0.00085483408099664576 0.011911712164299107 0 0.00083547670155022333 0.011866527330142341 0 0.0011851644147521543 0.011057671060661927 0 0.00094302471117814935 0.010999346006228776 0 0.0007621999428277103 0.010517132805832703 0 0.00095280731106439545 0.010580608455403073 0 0.0010245450214764185 0.010427169747842456 0 0.00084322115358837109 0.010710782436835648 0 0.0007621999428277103 0.010517132805832703 0 0.00095280731106439545 0.010580608455403073 0 0.00094302471117814935 0.010999346006228776 0 0.00054247801989707682 0.012220936492922113 0 0.0010132451716718988 0.010773564927213868 0 0.0011265934725793844 0.010508286389881551 0 0.0014855475086453952 0.010513917517418441 0 0.0013389209771476024 0.010467932352302426 0 0.0015429455892319757 0.0096587817439709855 0 0.00084322115358837109 0.010710782436835648 0 0.0010132451716718988 0.010773564927213868 0 0.00095280731106439545 0.010580608455403073 0 0.0011851644147521543 0.011057671060661927 0 0.0013389209771476024 0.010467932352302426 0 0.0010132451716718988 0.010773564927213868 0 0.00095280731106439545 0.010580608455403073 0 0.0011265934725793844 0.010508286389881551 0 0.00095280731106439545 0.010580608455403073 0 0.0011265934725793844 0.010508286389881551 0 0.0010245450214764185 0.010427169747842456 0 0.0007621999428277103 0.010517132805832703 0 0.0010245450214764185 0.010427169747842456 0 0.0010829822552271731 0.010177594065382708 0 0.0011265934725793844 0.010508286389881551 0 0.0011916417730747993 0.010353344199134548 0 0.0010245450214764185 0.010427169747842456 0 0.0011916417730747993 0.010353344199134548 0 0.0010829822552271731 0.010177594065382708 0 0.0012588051637362303 0.01018491470002798 0 0.0011916417730747993 0.010353344199134548 0 0.0010245450214764185 0.010427169747842456 0 0.0010829822552271731 0.010177594065382708 0 0.00054247801989707682 0.012220936492922113 0 0.00015591451858916073 0.013336865369660441 0 0.00054247801989707682 0.012220936492922113 0 0.00066784246509952441 0.011755909990370525 0 3.1560054158012157e-05 0.013221185013327807 0 7.5529366342650051e-05 0.013214555247854601 0 6.8816126530995954e-05 0.013160294117100674 0 0.00021984567311811141 0.013395063237065956 0 0.00038077048812534722 0.013234316023961128 0 0.00014355604743937809 0.013233573784974188 0 5.1003489186886426e-05 0.013079759146064292 0 0.00014355604743937809 0.013233573784974188 0 0.00028901563573749731 0.013081961590535388 0 0.00038077048812534722 0.013234316023961128 0 0.00014355604743937809 0.013233573784974188 0 0.00028901563573749731 0.013081961590535388 0 0.00066784246509952441 0.011755909990370525 0 0.0013395221569266831 0.011067901776455344 0 0.0010829822552271731 0.010177594065382708 0 0.0013472272978682844 0.0099197033071341308 0 0.0012588051637362303 0.01018491470002798 0 0.00038077048812534722 0.013234316023961128 0 0.00028901563573749731 0.013081961590535388 0 0.00056299061166458419 0.013049581141655657 0 0.00032126359043509314 0.012780701584111197 0 0.00028901563573749731 0.013081961590535388 0 0.00056299061166458419 0.013049581141655657 0 0.00023073369884490859 0.013487367081669671 0 0.0013395221569266831 0.011067901776455344 0 0.00032126359043509314 0.012780701584111197 0 2.8730861881192342e-05 0.012903834748740437 0 5.1003489186886426e-05 0.013079759146064292 0 0.00032126359043509314 0.012780701584111197 0 5.1003489186886426e-05 0.013079759146064292 0 0.00028901563573749731 0.013081961590535388 0 0.002601682581120506 0.0087938435661450692 0 0.0032542677801553985 0.0080370800094762846 0 0.0023848126507178546 0.0079818430486068813 0 0.002601682581120506 0.0087938435661450692 0 0.0023848126507178546 0.0079818430486068813 0 0.0017506350034977804 0.0086271733805066957 0 0.0019321131111441864 0.010648723533086173 0 0.0013395221569266831 0.011067901776455344 0 0.00060927613518959017 0.012682204825460732 0 0.00096921618896642797 0.012822184183177961 0 0.00067105369272645965 0.013109536655590412 0 0.0013395221569266831 0.011067901776455344 0 0.0020830606860390679 0.0088257454302353589 0 0.0013472272978682844 0.0099197033071341308 0 0.0014958457312193641 0.010097416481015494 0 0.0013994543127907469 0.010190021713340375 0 0.0013472272978682844 0.0099197033071341308 0 0.0012588051637362303 0.01018491470002798 0 0.0013994543127907469 0.010190021713340375 0 0.0028122286701485104 0.0075401145963302427 0 0.0023848126507178546 0.0079818430486068813 0 0.0024059894310392493 0.007061207369613326 0 0.0032542677801553985 0.0080370800094762846 0 0.0028122286701485104 0.0075401145963302427 0 0.0023848126507178546 0.0079818430486068813 0 0.0023848126507178546 0.0079818430486068813 0 0.0024055200979086425 0.0067679950593702212 0 0.0020146410965712529 0.0073340733279939913 0 0.0024433655959280689 0.0075519148876700363 0 0.0021020036353503625 0.0078090186562647405 0 0.0022779213898075162 0.0068349890245484185 0 0.0024055200979086425 0.0067679950593702212 0 0.0020146410965712529 0.0073340733279939913 0 0.0022264398946518073 0.0076768929144872605 0 0.0021020036353503625 0.0078090186562647405 0 0.0020830606860390679 0.0088257454302353589 0 0.0021020036353503625 0.0078090186562647405 0 0.0014958457312193641 0.010097416481015494 0 0.0015021591969535959 0.010262939336510324 0 0.0016355037185253605 0.010259533756535438 0 0.0021020036353503625 0.0078090186562647405 0 0.0015429455892319757 0.0096587817439709855 0 0.0015021591969535959 0.010262939336510324 0 0.0016355037185253605 0.010259533756535438 0 0.001420398573275003 0.010381835869659061 0 0.0022779213898075162 0.0068349890245484185 0 0.0023995096972380466 0.0067683819862020874 0 0.0019195334940576478 0.0065874508716908383 0 0.0011265934725793844 0.010508286389881551 0 0.0011916417730747993 0.010353344199134548 0 0.0014855475086453952 0.010513917517418441 0 0.0012588051637362303 0.01018491470002798 0 0.0013994543127907469 0.010190021713340375 0 0.001420398573275003 0.010381835869659061 0 0.0014958457312193641 0.010097416481015494 0 0.0015021591969535959 0.010262939336510324 0 0.0013994543127907469 0.010190021713340375 0 0.0015021591969535959 0.010262939336510324 0 0.0013994543127907469 0.010190021713340375 0 0.001420398573275003 0.010381835869659061 0 0.0011916417730747993 0.010353344199134548 0 0.0012588051637362303 0.01018491470002798 0 0.0014855475086453952 0.010513917517418441 0 0.0013784467283810729 0.010401162166734302 0 0.0015429455892319757 0.0096587817439709855 0 0.001619873894031685 0.0095041830222737291 0 0.0016578080641437404 0.0095292836331318086 0 0.0016106470817278092 0.0095479595407509162 0 0.001619873894031685 0.0095041830222737291 0 0.0015762995975172743 0.0094866590282345446 0 0.0016106470817278092 0.0095479595407509162 0 0.0019623566263364334 0.0078827435184100122 0 0.0015429455892319757 0.0096587817439709855 0 0.0018465202907775818 0.0080114613964633197 0 0.0019874755982241428 0.0082301119568224668 0 0.0018454808146087683 0.0081566562065941445 0 0.0021020036353503625 0.0078090186562647405 0 0.00205911650320944 0.0069060279202628983 0 0.0022700101980555848 0.006701515555686887 0 0.0022731654558450719 0.0060758889295705774 0 0.0018218904788892577 0.0061879424169658005 0 0.0018461168572187945 0.0082988707175325853 0 0.0019874755982241428 0.0082301119568224668 0 0.0018454808146087683 0.0081566562065941445 0 0.0019623566263364334 0.0078827435184100122 0 0.00205911650320944 0.0069060279202628983 0 0.0018215982068255406 0.0056839781723390832 0 0.0022731654558450719 0.0060758889295705774 0 0.0018218904788892577 0.0061879424169658005 0 0.0018218904788892577 0.0061879424169658005 0 0.0013246696477775563 0.0058339773830304231 0 0.0013575996408410722 0.0063306532918825801 0 0.0018218904788892577 0.0061879424169658005 0 0.0013575996408410722 0.0063306532918825801 0 0.0019195334940576478 0.0065874508716908383 0 0.0018215982068255406 0.0056839781723390832 0 0.0018218904788892577 0.0061879424169658005 0 0.0013246696477775563 0.0058339773830304231 0 0.0013246696477775563 0.0058339773830304231 0 0.0013575996408410722 0.0063306532918825801 0 0.00061046177385509521 0.0065283244270825857 0 0.0011967829083223663 0.0056437952329383969 0 0.00058176248601164845 0.0057432966312780205 0 0.00061046177385509521 0.0065283244270825857 0 0.0013212063386243559 0.0055004372049062503 0 0.00060123819845366694 0.0065664315684892047 0 0.00083290979592320175 0.0054153725610264292 0 0.0011967829083223663 0.0056437952329383969 0 0.00058176248601164845 0.0057432966312780205 0 0.0015382224086677868 0.0067913771999641541 0 0.00061046177385509521 0.0065283244270825857 0 0.0013514408911709584 0.0073719441016816059 0 0.00061046177385509521 0.0065283244270825857 0 0.0013514408911709584 0.0073719441016816059 0 0.00061547244914290033 0.0075066950962325088 0 0.0013575996408410722 0.0063306532918825801 0 0.0015382224086677868 0.0067913771999641541 0 0.00061046177385509521 0.0065283244270825857 0 0.0015382224086677868 0.0067913771999641541 0 0.0018462680292011772 0.0069783163523274502 0 0.0013514408911709584 0.0073719441016816059 0 0.0022779213898075162 0.0068349890245484185 0 0.0018462680292011772 0.0069783163523274502 0 0.0020146410965712529 0.0073340733279939913 0 0.0022779213898075162 0.0068349890245484185 0 0.0018462680292011772 0.0069783163523274502 0 0.0019195334940576478 0.0065874508716908383 0 0.0023995096972380466 0.0067683819862020874 0 0.0018218904788892577 0.0061879424169658005 0 0.0019195334940576478 0.0065874508716908383 0 0.0015382224086677868 0.0067913771999641541 0 0.0018462680292011772 0.0069783163523274502 0 0.0019195334940576478 0.0065874508716908383 0 0.0021020036353503625 0.0078090186562647405 0 0.0017323156320007331 0.006120973109288495 0 0.0013575996408410722 0.0063306532918825801 0 0.0015382224086677868 0.0067913771999641541 0 0.0019195334940576478 0.0065874508716908383 0 -1.5712829912995756e-05 0.0052944669530666233 0 -6.7390966331814199e-05 0.0052161552775649486 0 -8.7387633582459713e-05 0.0050709194001942069 0 -1.5712829912995756e-05 0.0052944669530666233 0 -0.00038474311752438058 0.006071283194944951 0 -8.2648249160902318e-05 0.0057807263648194801 0 -2.5722085675292529e-05 0.0052749260576117401 0 -0.00023616830846712541 0.0056307840042646917 0 -6.7390966331814199e-05 0.0052161552775649486 0 -8.7387633582459713e-05 0.0050709194001942069 0 -5.0351461403775335e-05 0.0050605228012170211 0 -0.00038474311752438058 0.006071283194944951 0 -0.00015535721351792476 0.0059560988577373186 0 -8.2648249160902318e-05 0.0057807263648194801 0 -8.2648249160902318e-05 0.0057807263648194801 0 0.00031039908335187168 0.0060864606151939324 0 0.00012413365123818121 0.006571042421886707 0 -1.5712829912995756e-05 0.0052944669530666233 0 0.00020982610827268301 0.0056073905762660291 0 -8.2648249160902318e-05 0.0057807263648194801 0 0.00020982610827268301 0.0056073905762660291 0 -8.2648249160902318e-05 0.0057807263648194801 0 0.00031039908335187168 0.0060864606151939324 0 0.00020982610827268301 0.0056073905762660291 0 0.00058176248601164845 0.0057432966312780205 0 0.00031039908335187168 0.0060864606151939324 0 0.00036567457225955829 0.0053563828362322126 0 0.00020982610827268301 0.0056073905762660291 0 0.00058176248601164845 0.0057432966312780205 0 0.00058176248601164845 0.0057432966312780205 0 0.00031039908335187168 0.0060864606151939324 0 0.00061046177385509521 0.0065283244270825857 0 -8.2648249160902318e-05 0.0057807263648194801 0 0.00012413365123818121 0.006571042421886707 0 -0.00033578877083544669 0.007343267225086437 0 0.00061046177385509521 0.0065283244270825857 0 0.00018624352411130554 0.0071273877250124526 0 0.00061547244914290033 0.0075066950962325088 0 0.00031039908335187168 0.0060864606151939324 0 0.00061046177385509521 0.0065283244270825857 0 0.00012413365123818121 0.006571042421886707 0 0.00061046177385509521 0.0065283244270825857 0 0.00018624352411130554 0.0071273877250124526 0 0.00012413365123818121 0.006571042421886707 0 0.00018624352411130554 0.0071273877250124526 0 0.00012413365123818121 0.006571042421886707 0 -0.00033578877083544669 0.007343267225086437 0 -7.0916566724221056e-05 0.0059215106853874626 0 -0.00036567671499261085 0.0069435129142235074 0 -0.00015535721351792476 0.0059560988577373186 0 -0.00044902560021992664 0.0063538039390065503 0 -0.00036374036780328505 0.0065136901037907121 0 -0.00015535721351792476 0.0059560988577373186 0 -0.00019080407976458831 0.0069005350295820089 0 -0.00035844223809284041 0.0069392571606166553 0 -0.0001570791765782599 0.0059769253313217315 0 -0.00040923108487232052 0.0067566128978287423 0 -0.00038474311752438058 0.006071283194944951 0 -0.00044902560021992664 0.0063538039390065503 0 -0.00058138242303876024 0.0064692494895946372 0 -0.00015535721351792476 0.0059560988577373186 0 -8.2648249160902318e-05 0.0057807263648194801 0 -0.00019080407976458831 0.0069005350295820089 0 -0.00038474311752438058 0.006071283194944951 0 -0.00015535721351792476 0.0059560988577373186 0 -0.00044902560021992664 0.0063538039390065503 0 -0.00023616830846712541 0.0056307840042646917 0 -0.00036078817053174754 0.0053515491727120822 0 -8.7387633582459713e-05 0.0050709194001942069 0 -4.4329340251376799e-05 0.005041870848300864 0 -5.0351461403775335e-05 0.0050605228012170211 0 -0.00019080407976458831 0.0069005350295820089 0 -0.00035844223809284041 0.0069392571606166553 0 -0.00030006148347481721 0.0080139614620786722 0 -0.00045605703571448226 0.0065740360291603522 0 -0.00036374036780328505 0.0065136901037907121 0 -0.00044734565750052975 0.0067146804674161412 0 -0.00045605703571448226 0.0065740360291603522 0 -0.00043549276013071754 0.0065220210644631165 0 -0.00036374036780328505 0.0065136901037907121 0 -0.00045605703571448226 0.0065740360291603522 0 -0.00043549276013071754 0.0065220210644631165 0 -0.00047777211954314384 0.0065146807547384984 0 -0.00043549276013071754 0.0065220210644631165 0 -0.00047777211954314384 0.0065146807547384984 0 -0.00044311341751545762 0.0064747410585682535 0 -0.00044902560021992664 0.0063538039390065503 0 -0.00048773079918703634 0.0064560922913648811 0 -0.00044311341751545762 0.0064747410585682535 0 -0.00047777211954314384 0.0065146807547384984 0 -0.00048773079918703634 0.0064560922913648811 0 -0.00044311341751545762 0.0064747410585682535 0 -0.00044902560021992664 0.0063538039390065503 0 -0.00048773079918703634 0.0064560922913648811 0 -0.00058138242303876024 0.0064692494895946372 0 -0.00044902560021992664 0.0063538039390065503 0 -0.00044311341751545762 0.0064747410585682535 0 -0.00036374036780328505 0.0065136901037907121 0 -0.00043549276013071754 0.0065220210644631165 0 -0.00044311341751545762 0.0064747410585682535 0 -0.00036374036780328505 0.0065136901037907121 0 -0.00033578877083544669 0.007343267225086437 0 0.000142073500210982 0.0076779304018823429 0 -5.8734037084897013e-05 0.0079921616680232906 0 0.000142073500210982 0.0076779304018823429 0 0.00042541079668659656 0.0081621652161840298 0 -5.8734037084897013e-05 0.0079921616680232906 0 0.00018624352411130554 0.0071273877250124526 0 -0.00033578877083544669 0.007343267225086437 0 0.000142073500210982 0.0076779304018823429 0 0.00018624352411130554 0.0071273877250124526 0 0.000142073500210982 0.0076779304018823429 0 0.00061547244914290033 0.0075066950962325088 0 0.000142073500210982 0.0076779304018823429 0 0.00042541079668659656 0.0081621652161840298 0 0.00061547244914290033 0.0075066950962325088 0 0.00042541079668659656 0.0081621652161840298 0 0.0007166547535102099 0.0092054769550731427 0 -0.00046926101930677624 0.0087803214945234437 0 0.00042541079668659656 0.0081621652161840298 0 -5.8734037084897013e-05 0.0079921616680232906 0 -0.00046926101930677624 0.0087803214945234437 0 -0.00033578877083544669 0.007343267225086437 0 -5.8734037084897013e-05 0.0079921616680232906 0 -0.00046926101930677624 0.0087803214945234437 0 -0.00040923108487232052 0.0067566128978287423 0 -6.5789136873140334e-05 0.0071440346650391787 0 -0.00045605703571448226 0.0065740360291603522 0 -0.00044734565750052975 0.0067146804674161412 0 -0.00049668610959644713 0.0066074368314020552 0 -0.00036567671499261085 0.0069435129142235074 0 0.00047323191562151964 0.0091312591257262429 0 -0.00035844223809284041 0.0069392571606166553 0 -0.00056399907940932344 0.0079154431744736554 0 -0.00030006148347481721 0.0080139614620786722 0 -6.5789136873140334e-05 0.0071440346650391787 0 0.00047323191562151964 0.0091312591257262429 0 0.0017239417304985296 0.0078949432923002098 0 0.0013514408911709584 0.0073719441016816059 0 0.0011147725393054844 0.0081446781817659675 0 0.0023848126507178546 0.0079818430486068813 0 0.0017239417304985296 0.0078949432923002098 0 0.0020146410965712529 0.0073340733279939913 0 0.0018462680292011772 0.0069783163523274502 0 0.0020146410965712529 0.0073340733279939913 0 0.0013514408911709584 0.0073719441016816059 0 0.0017239417304985296 0.0078949432923002098 0 0.0020146410965712529 0.0073340733279939913 0 0.0013514408911709584 0.0073719441016816059 0 0.00042541079668659656 0.0081621652161840298 0 0.00061547244914290033 0.0075066950962325088 0 0.0011147725393054844 0.0081446781817659675 0 0.0013514408911709584 0.0073719441016816059 0 0.00061547244914290033 0.0075066950962325088 0 0.0011147725393054844 0.0081446781817659675 0 0.00042541079668659656 0.0081621652161840298 0 0.0011147725393054844 0.0081446781817659675 0 0.0007166547535102099 0.0092054769550731427 0 0.0011147725393054844 0.0081446781817659675 0 0.0017506350034977804 0.0086271733805066957 0 0.0007166547535102099 0.0092054769550731427 0 0.0017239417304985296 0.0078949432923002098 0 0.0011147725393054844 0.0081446781817659675 0 0.0017506350034977804 0.0086271733805066957 0 0.0023848126507178546 0.0079818430486068813 0 0.0017239417304985296 0.0078949432923002098 0 0.0017506350034977804 0.0086271733805066957 0 0.0017506350034977804 0.0086271733805066957 0 0.0018661938529228471 0.0096250393785165533 0 0.0007166547535102099 0.0092054769550731427 0 0.002601682581120506 0.0087938435661450692 0 0.0017506350034977804 0.0086271733805066957 0 0.0018661938529228471 0.0096250393785165533 0 0.0014563436198901296 0.011327741603739618 0 0.0013083970710718281 0.011449873955611988 0 0.00087875104717504674 0.011947741487480771 0 0.00096302803175066459 0.012172055391636946 0 0.0011399251399851894 0.011864496320169967 0 0.0017503661436141251 0.010783009376772255 0 0.0014443301748516498 0.010662631954935765 0 0.0015619434559012227 0.010992452067862256 0 0.0014443301748516498 0.010662631954935765 0 0.0013692718463696588 0.010903603710399541 0 0.0015619434559012227 0.010992452067862256 0 0.0014563436198901296 0.011327741603739618 0 0.0011055485688955477 0.009873891862569914 0 0.0011055485688955477 0.009873891862569914 0 0.00047323191562151964 0.0091312591257262429 0 0.0014443301748516498 0.010662631954935765 0 0.0012628664998415992 0.010733490220873124 0 0.0011697862540252153 0.010568580851955139 0 0.0012628664998415992 0.010733490220873124 0 0.0011697862540252153 0.010568580851955139 0 0.0011588499719466187 0.010849121006685971 0 0.00047323191562151964 0.0091312591257262429 0 0.0013297876737463758 0.011277170887562662 0 0.0012883866871234067 0.0099254562298204691 0 0.0011588499719466187 0.010849121006685971 0 0.00091884310899952774 0.010546819707389172 0 0.0010549206652545277 0.0098317970450851923 0 0.0012883866871234067 0.0099254562298204691 0 0.00091884310899952774 0.010546819707389172 0 -6.5789136873140334e-05 0.0071440346650391787 0 0.00088577995059357451 0.0077664269056840511 0 0.0012628664998415992 0.010733490220873124 0 0.0011588499719466187 0.010849121006685971 0 0.0012647829769926627 0.010883547697640768 0 0.0011588499719466187 0.010849121006685971 0 0.0012647829769926627 0.010883547697640768 0 0.0012646231183602657 0.011059029288317276 0 0.0014443301748516498 0.010662631954935765 0 0.0012628664998415992 0.010733490220873124 0 0.0013692718463696588 0.010903603710399541 0 0.0012628664998415992 0.010733490220873124 0 0.0012647829769926627 0.010883547697640768 0 0.0013692718463696588 0.010903603710399541 0 0.0012647829769926627 0.010883547697640768 0 0.0013692718463696588 0.010903603710399541 0 0.0012646231183602657 0.011059029288317276 0 0.0012646231183602657 0.011059029288317276 0 0.0012971333559105899 0.011189843894399122 0 0.0012914843062479828 0.011242920988905621 0 0.0013692718463696588 0.010903603710399541 0 0.0012646231183602657 0.011059029288317276 0 0.0012914843062479828 0.011242920988905621 0 0.001066326622037553 0.010378291397212192 0 0.0010602913624471692 0.0085304688734250643 0 0.001170294981241592 0.011046137051209819 0 0.0012971333559105899 0.011189843894399122 0 0.00090982273671639385 0.01105397043511243 0 0.0011588499719466187 0.010849121006685971 0 0.001170294981241592 0.011046137051209819 0 0.00090982273671639385 0.01105397043511243 0 0.0011588499719466187 0.010849121006685971 0 0.0012646231183602657 0.011059029288317276 0 0.001170294981241592 0.011046137051209819 0 0.0012646231183602657 0.011059029288317276 0 0.001170294981241592 0.011046137051209819 0 0.0012971333559105899 0.011189843894399122 0 0.00077657155959506277 0.0090868772515193368 0 0.00074298383681237364 0.0091651405760667555 0 0.00088916254790831982 0.0091759566201244404 0 0.00077657155959506277 0.0090868772515193368 0 0.00066842174615651059 0.0097860657255702949 0 0.00079614852067340391 0.0092053608971035313 0 0.00077657155959506277 0.0090868772515193368 0 0.00074298383681237364 0.0091651405760667555 0 0.00066842174615651059 0.0097860657255702949 0 0.001066326622037553 0.010378291397212192 0 0.0011235769505362789 0.010542168453861056 0 0.0012971333559105899 0.011189843894399122 0 0.0012914843062479828 0.011242920988905621 0 0.0012201090824321339 0.010743586918883446 0 0.00074298383681237364 0.0091651405760667555 0 0.0012201090824321339 0.010743586918883446 0 0.00066842174615651059 0.0097860657255702949 0 0.0012914843062479828 0.011242920988905621 0 0.0010608939959779106 0.011434715803844059 0 0.0011399251399851894 0.011864496320169967 0 0.0012914843062479828 0.011242920988905621 0 0.0010608939959779106 0.011434715803844059 0 0.0012201090824321339 0.010743586918883446 0 0.00087875104717504674 0.011947741487480771 0 0.00080281304982550449 0.011832666680999165 0 0.0010608939959779106 0.011434715803844059 0 0.00087875104717504674 0.011947741487480771 0 0.0010608939959779106 0.011434715803844059 0 0.0011399251399851894 0.011864496320169967 0 0.0013692718463696588 0.010903603710399541 0 0.0012914843062479828 0.011242920988905621 0 0.0015619434559012227 0.010992452067862256 0 0.0013148410843265949 0.011280611802801965 0 0.0013083970710718281 0.011449873955611988 0 1.6832623291816798e-05 0.0070750500828931128 0 -0.00069724723898222454 0.0079217228907637188 0 0.00035240241642156577 0.0084349513922413275 0 -0.00066481206145458304 0.0069961427171040917 0 -0.00035498168265435664 0.0051704046241078765 0 1.6832623291816798e-05 0.0070750500828931128 0 -0.00069724723898222454 0.0079217228907637188 0 -0.00042208028297489913 0.0053019054138560354 0 -0.00060577287950774059 0.0053225161257287705 0 -0.00075233468150355857 0.0051285863799448656 0 -0.00088849482982321457 0.005401482464484339 0 -0.00060577287950774059 0.0053225161257287705 0 -0.00075233468150355857 0.0051285863799448656 0 -0.00058626297798041111 0.0050988361291599621 0 -0.00069724723898222454 0.0079217228907637188 0 -1.2996028911945463e-05 0.0087202373478042251 0 -0.00034798495020490648 0.0088293832427003387 0 -0.00066481206145458304 0.0069961427171040917 0 -0.00079318155899199615 0.005245820066069138 0 -0.00060577287950774059 0.0053225161257287705 0 -0.00088849482982321457 0.005401482464484339 0 -0.00076680696503561303 0.0057351613037056378 0 -0.0010602352775690692 0.0039522687890047332 0 -0.00079318155899199615 0.005245820066069138 0 -0.00069724723898222454 0.0079217228907637188 0 0.00035240241642156577 0.0084349513922413275 0 -1.2996028911945463e-05 0.0087202373478042251 0 0.00035240241642156577 0.0084349513922413275 0 0.0010347956259306058 0.0087943475255706002 0 0.00071390049081674766 0.0074607393156559581 0 0.00035240241642156577 0.0084349513922413275 0 0.0010347956259306058 0.0087943475255706002 0 0.00068425377437936229 0.008977330112684364 0 0.00077657155959506277 0.0090868772515193368 0 0.0010347956259306058 0.0087943475255706002 0 0.00079614852067340391 0.0092053608971035313 0 0.0010347956259306058 0.0087943475255706002 0 0.00079614852067340391 0.0092053608971035313 0 0.00068425377437936229 0.008977330112684364 0 0.00077657155959506277 0.0090868772515193368 0 0.0010347956259306058 0.0087943475255706002 0 0.00088916254790831982 0.0091759566201244404 0 0.001114577977982555 0.0086257605794777606 0 0.0010602913624471692 0.0085304688734250643 0 0.0010347956259306058 0.0087943475255706002 0 0.0016894942218697942 0.0075123837553106466 0 0.00071390049081674766 0.0074607393156559581 0 0.0010602913624471692 0.0085304688734250643 0 0.00036702650180290316 0.005607453569228817 0 1.6832623291816798e-05 0.0070750500828931128 0 0.00035240241642156577 0.0084349513922413275 0 0.00071390049081674766 0.0074607393156559581 0 0.0016894942218697942 0.0075123837553106466 0 0.00071390049081674766 0.0074607393156559581 0 0.00093183342520447262 0.0063251253646551524 0 1.6832623291816798e-05 0.0070750500828931128 0 0.00071390049081674766 0.0074607393156559581 0 0.00020002336613152499 0.0061702398262502281 0 0.0001739713166544602 0.0053107361135981213 0 6.0677787137722849e-05 0.0047962455838033271 0 -0.00019522202838784079 0.0049156019931212609 0 0.0001739713166544602 0.0053107361135981213 0 0.00034672093543569805 0.0050037766429114833 0 6.0677787137722849e-05 0.0047962455838033271 0 0.00071390049081674766 0.0074607393156559581 0 0.00020002336613152499 0.0061702398262502281 0 0.00093183342520447262 0.0063251253646551524 0 0.00036702650180290316 0.005607453569228817 0 -9.7610351226527417e-05 0.0050829884326015996 0 0.00020002336613152499 0.0061702398262502281 0 0.00093183342520447262 0.0063251253646551524 0 -0.00019522202838784079 0.0049156019931212609 0 0.0006236691162680182 0.0057216147733053207 0 0.00047159631940024829 0.0052768920073994552 0 0.00074343923979801492 0.0050800028623394474 0 0.0011588499719466187 0.010849121006685971 0 0.00090982273671639385 0.01105397043511243 0 0.00091884310899952774 0.010546819707389172 0 0.0010602913624471692 0.0085304688734250643 0 0.00088577995059357451 0.0077664269056840511 0 0.0006236691162680182 0.0057216147733053207 0 0.0001739713166544602 0.0053107361135981213 0 0.00047159631940024829 0.0052768920073994552 0 0.00047159631940024829 0.0052768920073994552 0 0.00034672093543569805 0.0050037766429114833 0 0.00074343923979801492 0.0050800028623394474 0 0.0001739713166544602 0.0053107361135981213 0 0.00047159631940024829 0.0052768920073994552 0 0.00034672093543569805 0.0050037766429114833 0 0.00084643046440318367 0.0045131527482007048 0 0.00074343923979801492 0.0050800028623394474 0 0.00048713953005409614 0.0047185268598902508 0 0.00034672093543569805 0.0050037766429114833 0 0.00074343923979801492 0.0050800028623394474 0 0.00048713953005409614 0.0047185268598902508 0 0.00019933391416391847 0.0045142159996526413 0 4.6348987516203939e-05 0.0049273222447703295 0 0.00048713953005409614 0.0047185268598902508 0 6.0677787137722849e-05 0.0047962455838033271 0 0.00035748178065616188 0.0043271487895242692 0 6.0677787137722849e-05 0.0047962455838033271 0 -0.00020147615007081704 0.0045912761664642053 0 -0.00019522202838784079 0.0049156019931212609 0 0.00034672093543569805 0.0050037766429114833 0 0.00048713953005409614 0.0047185268598902508 0 6.0677787137722849e-05 0.0047962455838033271 0 6.0677787137722849e-05 0.0047962455838033271 0 -0.00020147615007081704 0.0045912761664642053 0 -7.2922962657282045e-05 0.0043697633123336577 0 -0.00020147615007081704 0.0045912761664642053 0 -0.00038788937354558768 0.0046687883676609244 0 -0.00043747066902351614 0.0043404552361147675 0 -0.00020147615007081704 0.0045912761664642053 0 -0.00043747066902351614 0.0043404552361147675 0 -7.2922962657282045e-05 0.0043697633123336577 0 -0.00038788937354558768 0.0046687883676609244 0 -0.00057775947862628927 0.0046505509218220196 0 -0.00043747066902351614 0.0043404552361147675 0 -0.00038788937354558768 0.0046687883676609244 0 -0.00048299084843696894 0.0049265817322205934 0 -0.00057775947862628927 0.0046505509218220196 0 -0.00020147615007081704 0.0045912761664642053 0 -0.00038788937354558768 0.0046687883676609244 0 -0.00019522202838784079 0.0049156019931212609 0 -0.00038788937354558768 0.0046687883676609244 0 -0.00048299084843696894 0.0049265817322205934 0 -0.00019522202838784079 0.0049156019931212609 0 1.6832623291816798e-05 0.0070750500828931128 0 0.00020002336613152499 0.0061702398262502281 0 -0.00042208028297489913 0.0053019054138560354 0 0.00020002336613152499 0.0061702398262502281 0 -0.00019522202838784079 0.0049156019931212609 0 -0.00042208028297489913 0.0053019054138560354 0 -0.00060577287950774059 0.0053225161257287705 0 -0.00042208028297489913 0.0053019054138560354 0 -0.00058626297798041111 0.0050988361291599621 0 -0.00048299084843696894 0.0049265817322205934 0 -0.00019522202838784079 0.0049156019931212609 0 -0.00042208028297489913 0.0053019054138560354 0 -0.00048299084843696894 0.0049265817322205934 0 -0.00042208028297489913 0.0053019054138560354 0 -0.00058626297798041111 0.0050988361291599621 0 -0.00048299084843696894 0.0049265817322205934 0 -0.00058626297798041111 0.0050988361291599621 0 -0.00057775947862628927 0.0046505509218220196 0 -0.00075233468150355857 0.0051285863799448656 0 -0.00058626297798041111 0.0050988361291599621 0 -0.00079854227270624296 0.0046776371751268602 0 -0.00058626297798041111 0.0050988361291599621 0 -0.00079854227270624296 0.0046776371751268602 0 -0.00057775947862628927 0.0046505509218220196 0 -0.00079854227270624296 0.0046776371751268602 0 -0.00057775947862628927 0.0046505509218220196 0 -0.0007597719516584452 0.0042891354169058869 0 -0.00057775947862628927 0.0046505509218220196 0 -0.0007597719516584452 0.0042891354169058869 0 -0.00043747066902351614 0.0043404552361147675 0 -0.0007597719516584452 0.0042891354169058869 0 -0.00066665731118031033 0.0040795443973817751 0 -0.00089779345445952202 0.0039342643250949612 0 -0.0007597719516584452 0.0042891354169058869 0 -0.00066665731118031033 0.0040795443973817751 0 -0.00043747066902351614 0.0043404552361147675 0 -0.00066665731118031033 0.0040795443973817751 0 -0.00070012533279376066 0.0038961703534224055 0 -0.00089779345445952202 0.0039342643250949612 0 -0.00066665731118031033 0.0040795443973817751 0 -0.00043747066902351614 0.0043404552361147675 0 -0.00046716163241102351 0.004007819131770173 0 -0.00043747066902351614 0.0043404552361147675 0 -0.00046716163241102351 0.004007819131770173 0 -0.00023884669991198115 0.0040592600818823632 0 -0.00043747066902351614 0.0043404552361147675 0 -7.2922962657282045e-05 0.0043697633123336577 0 -0.00023884669991198115 0.0040592600818823632 0 -0.00046716163241102351 0.004007819131770173 0 -0.00070012533279376066 0.0038961703534224055 0 -0.00047695973403431553 0.0038565768728842987 0 -0.00046716163241102351 0.004007819131770173 0 -0.00033509115656749284 0.0039459453056609707 0 -0.00047695973403431553 0.0038565768728842987 0 -0.00046716163241102351 0.004007819131770173 0 -0.00033509115656749284 0.0039459453056609707 0 -0.00023884669991198115 0.0040592600818823632 0 -0.00033509115656749284 0.0039459453056609707 0 -0.00032195241965599916 0.0038839595687352093 0 -0.00047695973403431553 0.0038565768728842987 0 -0.00066665731118031033 0.0040795443973817751 0 -0.00046716163241102351 0.004007819131770173 0 -0.00070012533279376066 0.0038961703534224055 0 0.00084643046440318367 0.0045131527482007048 0 0.00048713953005409614 0.0047185268598902508 0 0.00035748178065616188 0.0043271487895242692 0 -0.00044734565750052975 0.0067146804674161412 0 -0.00049668610959644713 0.0066074368314020552 0 -0.00058195393803912756 0.0066492126701469074 0 -6.5789136873140334e-05 0.0071440346650391787 0 4.6348987516203939e-05 0.0049273222447703295 0 6.0677787137722849e-05 0.0047962455838033271 0 0.00030241707793308417 0.0041918674555363102 0 -7.2922962657282045e-05 0.0043697633123336577 0 4.6348987516203939e-05 0.0049273222447703295 0 -0.00027528631435123056 0.004072480061335133 0 0.00030241707793308417 0.0041918674555363102 0 -7.2922962657282045e-05 0.0043697633123336577 0 -0.00023884669991198115 0.0040592600818823632 0 -0.00016528294675487911 0.0041029928501571788 0 -0.00023884669991198115 0.0040592600818823632 0 -0.00022347388902973724 0.0039462959762609391 0 -0.00033509115656749284 0.0039459453056609707 0 -0.00023884669991198115 0.0040592600818823632 0 -0.00022347388902973724 0.0039462959762609391 0 -0.00033509115656749284 0.0039459453056609707 0 -0.00022347388902973724 0.0039462959762609391 0 -0.00032195241965599916 0.0038839595687352093 0 4.6348987516203939e-05 0.0049273222447703295 0 -0.00036078817053174754 0.0053515491727120822 0 -0.00049668610959644713 0.0066074368314020552 0 -0.00058195393803912756 0.0066492126701469074 0 -0.00050652943451634784 0.0064870301399653869 0 -0.00016528294675487911 0.0041029928501571788 0 -0.00022347388902973724 0.0039462959762609391 0 -6.8246331501584047e-05 0.0039382493287093215 0 -0.00045605703571448226 0.0065740360291603522 0 -0.00047777211954314384 0.0065146807547384984 0 -0.00050652943451634784 0.0064870301399653869 0 -0.00047777211954314384 0.0065146807547384984 0 -0.00048773079918703634 0.0064560922913648811 0 -0.00058138242303876024 0.0064692494895946372 0 -0.00021818228934779839 0.0057212797730072798 0 -0.00036078817053174754 0.0053515491727120822 0 -0.00045605703571448226 0.0065740360291603522 0 -0.00049668610959644713 0.0066074368314020552 0 -0.00050652943451634784 0.0064870301399653869 0 -0.00022347388902973724 0.0039462959762609391 0 -6.8246331501584047e-05 0.0039382493287093215 0 -0.00028782494324884855 0.0037813370217459085 0 -0.00036078817053174754 0.0053515491727120822 0 -0.00020559070926139849 0.0043028206361314398 0 -2.5509140362225914e-05 0.0050482838544274721 0 -5.6673792609709255e-05 0.005029270584230726 0 -0.00013100615998473829 0.0050316227057344825 0 -8.7387633582459713e-05 0.0050709194001942069 0 -2.5509140362225914e-05 0.0050482838544274721 0 -4.4329340251376799e-05 0.005041870848300864 0 -2.5509140362225914e-05 0.0050482838544274721 0 -4.4329340251376799e-05 0.005041870848300864 0 -5.6673792609709255e-05 0.005029270584230726 0 -4.4329340251376799e-05 0.005041870848300864 0 -5.6673792609709255e-05 0.005029270584230726 0 -2.6568085867766114e-05 0.0049623079262484972 0 -0.00028782494324884855 0.0037813370217459085 0 -0.00032195241965599916 0.0038839595687352093 0 -0.00047695973403431553 0.0038565768728842987 0 -0.00022347388902973724 0.0039462959762609391 0 -0.00028782494324884855 0.0037813370217459085 0 -0.00032195241965599916 0.0038839595687352093 0 -5.6673792609709255e-05 0.005029270584230726 0 -0.00013100615998473829 0.0050316227057344825 0 -2.6568085867766114e-05 0.0049623079262484972 0 -0.00013100615998473829 0.0050316227057344825 0 -0.00016481550926728471 0.0047762944098389149 0 -2.6568085867766114e-05 0.0049623079262484972 0 -1.0914970530088129e-05 0.0046652018875093237 0 -0.00016481550926728471 0.0047762944098389149 0 -2.6568085867766114e-05 0.0049623079262484972 0 -0.00013100615998473829 0.0050316227057344825 0 -0.00016481550926728471 0.0047762944098389149 0 -0.00042678140853916451 0.0047373644154367518 0 -1.0914970530088129e-05 0.0046652018875093237 0 0.00019404423606414118 0.0047178979563698813 0 -2.6568085867766114e-05 0.0049623079262484972 0 -6.7390966331814199e-05 0.0052161552775649486 0 -2.6568085867766114e-05 0.0049623079262484972 0 -5.0351461403775335e-05 0.0050605228012170211 0 3.8504276965063381e-05 0.0049721443993022809 0 -2.1225975443140433e-05 0.0049791925479936499 0 -4.4329340251376799e-05 0.005041870848300864 0 -2.6568085867766114e-05 0.0049623079262484972 0 -5.0351461403775335e-05 0.0050605228012170211 0 -0.00070012533279376066 0.0038961703534224055 0 -0.00071819171083408427 0.0037817883660794306 0 -0.00061966469434193987 0.0038080391837676522 0 -0.00070012533279376066 0.0038961703534224055 0 -0.00061966469434193987 0.0038080391837676522 0 -0.00047695973403431553 0.0038565768728842987 0 -0.00061966469434193987 0.0038080391837676522 0 -0.00047695973403431553 0.0038565768728842987 0 -0.00059093536974175436 0.0037161355311437281 0 -0.00028782494324884855 0.0037813370217459085 0 -0.00047695973403431553 0.0038565768728842987 0 -0.00059093536974175436 0.0037161355311437281 0 -0.00020559070926139849 0.0043028206361314398 0 -0.00048843877425755022 0.0042508594306534617 0 -0.00075037667382907823 0.0038223174977013376 0 -0.00071819171083408427 0.0037817883660794306 0 -0.00059093536974175436 0.0037161355311437281 0 -0.00071819171083408427 0.0037817883660794306 0 -0.00061966469434193987 0.0038080391837676522 0 -0.00059093536974175436 0.0037161355311437281 0 -0.00075037667382907823 0.0038223174977013376 0 -0.00071819171083408427 0.0037817883660794306 0 -0.00074180124734861614 0.0038012207855336023 0 -0.00071819171083408427 0.0037817883660794306 0 -0.00074180124734861614 0.0038012207855336023 0 -0.00081037050052867139 0.0037873209579875069 0 -0.00070012533279376066 0.0038961703534224055 0 -0.00071819171083408427 0.0037817883660794306 0 -0.00081037050052867139 0.0037873209579875069 0 -0.00081037050052867139 0.0037873209579875069 0 -0.00069037302413059475 0.0038288502753937416 0 -0.00074891767521922416 0.0037597099328233728 0 -0.00074180124734861614 0.0038012207855336023 0 -0.00081037050052867139 0.0037873209579875069 0 -0.00069037302413059475 0.0038288502753937416 0 -0.00057042689825304027 0.0038792106235491773 0 -0.00069037302413059475 0.0038288502753937416 0 -0.00063077663420910461 0.0038041449511025233 0 -0.00069037302413059475 0.0038288502753937416 0 -0.00063077663420910461 0.0038041449511025233 0 -0.00074891767521922416 0.0037597099328233728 0 -0.00063077663420910461 0.0038041449511025233 0 -0.0005283622242641758 0.0038083725242380045 0 -0.00058327837162423855 0.0037342432212238157 0 -0.00057042689825304027 0.0038792106235491773 0 -0.00063077663420910461 0.0038041449511025233 0 -0.0005283622242641758 0.0038083725242380045 0 -0.00074891767521922416 0.0037597099328233728 0 -0.00066545231921920009 0.0036543577451347681 0 -0.00058327837162423855 0.0037342432212238157 0 -0.00063077663420910461 0.0038041449511025233 0 -0.00074891767521922416 0.0037597099328233728 0 -0.00058327837162423855 0.0037342432212238157 0 -0.00074891767521922416 0.0037597099328233728 0 -0.0008092976831538055 0.0036876343906054481 0 -0.00066545231921920009 0.0036543577451347681 0 -0.00074891767521922416 0.0037597099328233728 0 -0.0008092976831538055 0.0036876343906054481 0 -0.00090922231741583364 0.0037945817569184771 0 -0.0008092976831538055 0.0036876343906054481 0 -0.00091503759600249611 0.003645706533437116 0 -0.00063155598880189497 0.003385867583008698 0 -0.0008092976831538055 0.0036876343906054481 0 -0.00066545231921920009 0.0036543577451347681 0 -0.00063155598880189497 0.003385867583008698 0 -0.0008092976831538055 0.0036876343906054481 0 -0.00091503759600249611 0.003645706533437116 0 -0.00090922231741583364 0.0037945817569184771 0 -0.00089779345445952202 0.0039342643250949612 0 -0.00090922231741583364 0.0037945817569184771 0 -0.0011273284310496015 0.0038690374653559899 0 -0.00091503759600249611 0.003645706533437116 0 -0.00090922231741583364 0.0037945817569184771 0 -0.0011273284310496015 0.0038690374653559899 0 -0.0007597719516584452 0.0042891354169058869 0 -0.00089779345445952202 0.0039342643250949612 0 -0.0011273284310496015 0.0038690374653559899 0 -0.00070012533279376066 0.0038961703534224055 0 -0.00081037050052867139 0.0037873209579875069 0 -0.00089779345445952202 0.0039342643250949612 0 -0.00081037050052867139 0.0037873209579875069 0 -0.00074891767521922416 0.0037597099328233728 0 -0.00090922231741583364 0.0037945817569184771 0 -0.00081037050052867139 0.0037873209579875069 0 -0.00089779345445952202 0.0039342643250949612 0 -0.00090922231741583364 0.0037945817569184771 0 -0.00010331909558235931 0.0035950231253820695 0 -0.00028639203174515344 0.0036826483420092679 0 -0.00022007280369954878 0.0035676812450903934 0 0.00011848066376913905 0.00077946438196485374 0 -0.00025499717107108549 0.0022230042425188347 0 0.0014554540924185116 0.00011491381685595278 0 0.00042092436069147401 -0.0020612748724241178 0 -0.00026101367767917557 0.00071673047386094555 0 -0.00010331909558235931 0.0035950231253820695 0 -0.00031920620484451027 0.0037433976516578382 0 -0.00028639203174515344 0.0036826483420092679 0 -0.00031920620484451027 0.0037433976516578382 0 -0.00034117656066462307 0.0037309158650743455 0 -0.00028639203174515344 0.0036826483420092679 0 -0.00034117656066462307 0.0037309158650743455 0 -0.00037689229414831029 0.003737703498314105 0 -0.00028639203174515344 0.0036826483420092679 0 -0.00038085604602234251 0.0037273039125706479 0 -0.00034117656066462307 0.0037309158650743455 0 -0.00037689229414831029 0.003737703498314105 0 -0.00028639203174515344 0.0036826483420092679 0 -0.00035692798634858809 0.0036546447500310879 0 -0.00022007280369954878 0.0035676812450903934 0 -0.00037689229414831029 0.003737703498314105 0 -0.00028639203174515344 0.0036826483420092679 0 -0.00035692798634858809 0.0036546447500310879 0 -0.00035692798634858809 0.0036546447500310879 0 -0.00046892459862756219 0.0036538691949874859 0 -0.00046287527890701143 0.003740630537757461 0 -0.00037689229414831029 0.003737703498314105 0 -0.00035692798634858809 0.0036546447500310879 0 -0.00046287527890701143 0.003740630537757461 0 -0.00045119750337852834 0.0037865335988584246 0 -0.00037689229414831029 0.003737703498314105 0 -0.00046287527890701143 0.003740630537757461 0 -0.00046287527890701143 0.003740630537757461 0 -0.0005283622242641758 0.0038083725242380045 0 -0.00058327837162423855 0.0037342432212238157 0 -0.00045119750337852834 0.0037865335988584246 0 -0.00046287527890701143 0.003740630537757461 0 -0.0005283622242641758 0.0038083725242380045 0 -0.00046892459862756219 0.0036538691949874859 0 -0.00046287527890701143 0.003740630537757461 0 -0.00058327837162423855 0.0037342432212238157 0 -0.00046892459862756219 0.0036538691949874859 0 -0.00058327837162423855 0.0037342432212238157 0 -0.00053134730554261274 0.0035680399328596362 0 -0.00066545231921920009 0.0036543577451347681 0 -0.00058327837162423855 0.0037342432212238157 0 -0.00053134730554261274 0.0035680399328596362 0 -0.00063155598880189497 0.003385867583008698 0 -0.00047425655504425583 0.0034039948144175053 0 -0.0003888804948387986 0.0031696753501831744 0 -0.00066545231921920009 0.0036543577451347681 0 -0.00053134730554261274 0.0035680399328596362 0 -0.00063155598880189497 0.003385867583008698 0 -0.00053134730554261274 0.0035680399328596362 0 -0.00063155598880189497 0.003385867583008698 0 -0.00047425655504425583 0.0034039948144175053 0 -0.00047425655504425583 0.0034039948144175053 0 -0.0003175833663646325 0.0034848361646307325 0 -0.0003888804948387986 0.0031696753501831744 0 -0.00053134730554261274 0.0035680399328596362 0 -0.00047425655504425583 0.0034039948144175053 0 -0.0003175833663646325 0.0034848361646307325 0 -0.00046892459862756219 0.0036538691949874859 0 -0.00053134730554261274 0.0035680399328596362 0 -0.0003175833663646325 0.0034848361646307325 0 -0.00035692798634858809 0.0036546447500310879 0 -0.00046892459862756219 0.0036538691949874859 0 -0.0003175833663646325 0.0034848361646307325 0 -0.0003175833663646325 0.0034848361646307325 0 -0.00022007280369954878 0.0035676812450903934 0 -0.00010003132731584639 0.0034440226384345996 0 -0.00035692798634858809 0.0036546447500310879 0 -0.0003175833663646325 0.0034848361646307325 0 -0.00022007280369954878 0.0035676812450903934 0 -0.0003175833663646325 0.0034848361646307325 0 -5.8132152491136057e-05 0.0032942278135276613 0 -0.00010003132731584639 0.0034440226384345996 0 -0.0003175833663646325 0.0034848361646307325 0 -5.8132152491136057e-05 0.0032942278135276613 0 -0.0003888804948387986 0.0031696753501831744 0 0.00095776851619102483 0.00037021301364069528 0 -7.029685137697682e-06 0.0039146785387379748 0 1.8968631278587938e-05 0.0033847350305043493 0 -5.8132152491136057e-05 0.0032942278135276613 0 -0.00010003132731584639 0.0034440226384345996 0 -0.00010331909558235931 0.0035950231253820695 0 -0.00022007280369954878 0.0035676812450903934 0 -0.00010003132731584639 0.0034440226384345996 0 1.8968631278587938e-05 0.0033847350305043493 0 -0.00010331909558235931 0.0035950231253820695 0 -0.00010003132731584639 0.0034440226384345996 0 0.00090819026029052082 0.0027161189108661659 0 0.00016157087065541976 0.0023384017006958511 0 -3.3132685712047366e-05 0.0028354139451318332 0 0.000650671293747678 0.0035825258255683112 0 0.00090819026029052082 0.0027161189108661659 0 -5.8132152491136057e-05 0.0032942278135276613 0 0.00090819026029052082 0.0027161189108661659 0 -5.8132152491136057e-05 0.0032942278135276613 0 -3.3132685712047366e-05 0.0028354139451318332 0 -5.8132152491136057e-05 0.0032942278135276613 0 -3.3132685712047366e-05 0.0028354139451318332 0 -0.0003888804948387986 0.0031696753501831744 0 -3.3132685712047366e-05 0.0028354139451318332 0 -0.00034270515690609983 0.0026757338839777192 0 -0.0003888804948387986 0.0031696753501831744 0 0.00016157087065541976 0.0023384017006958511 0 -3.3132685712047366e-05 0.0028354139451318332 0 -0.00034270515690609983 0.0026757338839777192 0 -0.00034270515690609983 0.0026757338839777192 0 -0.0003888804948387986 0.0031696753501831744 0 -0.0005999758237124949 0.0029590317999745718 0 -0.00063155598880189497 0.003385867583008698 0 -0.0003888804948387986 0.0031696753501831744 0 -0.0005999758237124949 0.0029590317999745718 0 -0.00034270515690609983 0.0026757338839777192 0 -0.0005999758237124949 0.0029590317999745718 0 -0.00053393710101495287 0.0025176913954528674 0 -0.0005999758237124949 0.0029590317999745718 0 -0.00053393710101495287 0.0025176913954528674 0 -0.00081100078521336165 0.0027315030986739541 0 -0.00053393710101495287 0.0025176913954528674 0 -0.00062174798866450949 0.0023594960347115951 0 -0.00081100078521336165 0.0027315030986739541 0 -0.00062174798866450949 0.0023594960347115951 0 -0.00070943345062542509 0.0022947955662131385 0 -0.00061933459755785067 0.0022090665761427095 0 -0.00062174798866450949 0.0023594960347115951 0 -0.00048588610724173306 0.0021996438777320275 0 -0.00061933459755785067 0.0022090665761427095 0 -0.00053393710101495287 0.0025176913954528674 0 -0.00062174798866450949 0.0023594960347115951 0 -0.00048588610724173306 0.0021996438777320275 0 -0.00048588610724173306 0.0021996438777320275 0 -0.00026186215236615021 0.0022286051102427518 0 -0.00020075407453267323 0.0017877315519365532 0 -0.00048588610724173306 0.0021996438777320275 0 -0.00020075407453267323 0.0017877315519365532 0 -0.0005039417967354898 0.0021190546038524893 0 -0.00053393710101495287 0.0025176913954528674 0 -0.00048588610724173306 0.0021996438777320275 0 -0.00026186215236615021 0.0022286051102427518 0 -0.00034270515690609983 0.0026757338839777192 0 -0.00053393710101495287 0.0025176913954528674 0 -0.00026186215236615021 0.0022286051102427518 0 0.00016157087065541976 0.0023384017006958511 0 -0.00034270515690609983 0.0026757338839777192 0 -0.00026186215236615021 0.0022286051102427518 0 0.00016157087065541976 0.0023384017006958511 0 -0.00026186215236615021 0.0022286051102427518 0 8.6666263975391134e-05 0.0019659192352336602 0 -0.00026186215236615021 0.0022286051102427518 0 -0.00020075407453267323 0.0017877315519365532 0 8.6666263975391134e-05 0.0019659192352336602 0 -0.00020075407453267323 0.0017877315519365532 0 0.00049808814059221337 0.0015029806679670815 0 0.00032570073547497167 0.0012170360616405506 0 -0.00020075407453267323 0.0017877315519365532 0 0.00049808814059221337 0.0015029806679670815 0 8.6666263975391134e-05 0.0019659192352336602 0 0.00060854332265411883 0.0012176440325386228 0 0.00049808814059221337 0.0015029806679670815 0 0.00032570073547497167 0.0012170360616405506 0 0.00056937550757861228 0.0018513560337146801 0 0.00016157087065541976 0.0023384017006958511 0 8.6666263975391134e-05 0.0019659192352336602 0 0.00056937550757861228 0.0018513560337146801 0 0.00049808814059221337 0.0015029806679670815 0 8.6666263975391134e-05 0.0019659192352336602 0 -0.00098281038426949381 0.0031074313113731967 0 -0.0011273284310496015 0.0038690374653559899 0 -0.00081884285397311408 0.0032535485795381694 0 -0.00098281038426949381 0.0031074313113731967 0 -0.0012613120142567949 0.0031171993485104334 0 -0.0011273284310496015 0.0038690374653559899 0 -0.00079854227270624296 0.0046776371751268602 0 -0.0011065524936077352 0.00496901844760582 0 -0.0011273284310496015 0.0038690374653559899 0 -0.001137541463675157 0.0040871748182070141 0 -0.0011475870428970039 0.0038998080810111872 0 -0.00075233468150355857 0.0051285863799448656 0 -0.00079854227270624296 0.0046776371751268602 0 -0.0011065524936077352 0.00496901844760582 0 -0.00079854227270624296 0.0046776371751268602 0 -0.0007597719516584452 0.0042891354169058869 0 -0.0011273284310496015 0.0038690374653559899 0 -0.00091503759600249611 0.003645706533437116 0 -0.0011273284310496015 0.0038690374653559899 0 -0.00081884285397311408 0.0032535485795381694 0 -0.00063155598880189497 0.003385867583008698 0 -0.0005999758237124949 0.0029590317999745718 0 -0.00081884285397311408 0.0032535485795381694 0 -0.00091503759600249611 0.003645706533437116 0 -0.00063155598880189497 0.003385867583008698 0 -0.00081884285397311408 0.0032535485795381694 0 -0.0005999758237124949 0.0029590317999745718 0 -0.00081884285397311408 0.0032535485795381694 0 -0.00081100078521336165 0.0027315030986739541 0 -0.00098281038426949381 0.0031074313113731967 0 -0.00081884285397311408 0.0032535485795381694 0 -0.00081100078521336165 0.0027315030986739541 0 -0.00098281038426949381 0.0031074313113731967 0 -0.00081100078521336165 0.0027315030986739541 0 -0.0010115241107083088 0.0028549450594365219 0 -0.00062174798866450949 0.0023594960347115951 0 -0.00081100078521336165 0.0027315030986739541 0 -0.00070943345062542509 0.0022947955662131385 0 -0.00081100078521336165 0.0027315030986739541 0 -0.00070943345062542509 0.0022947955662131385 0 -0.00081454623584576997 0.0023022554913972298 0 -0.00081100078521336165 0.0027315030986739541 0 -0.00094810485123354748 0.0027846258565822424 0 -0.0010115241107083088 0.0028549450594365219 0 -0.00080846515794640744 0.0027318057137398848 0 -0.00086983976459385239 0.0025645196811894693 0 -0.0010115241107083088 0.0028549450594365219 0 -0.0011228719196152957 0.0028643724720745739 0 -0.0010067814592782127 0.0028116404791267376 0 -0.00094810485123354748 0.0027846258565822424 0 -0.0010115241107083088 0.0028549450594365219 0 -0.0010067814592782127 0.0028116404791267376 0 -0.00098281038426949381 0.0031074313113731967 0 -0.0012613120142567949 0.0031171993485104334 0 -0.0010115241107083088 0.0028549450594365219 0 -0.001137541463675157 0.0040871748182070141 0 -0.0010602352775690692 0.0039522687890047332 0 -0.0012613120142567949 0.0031171993485104334 0 -0.0010115241107083088 0.0028549450594365219 0 -0.0011228719196152957 0.0028643724720745739 0 -0.00075233468150355857 0.0051285863799448656 0 -0.0011065524936077352 0.00496901844760582 0 -0.00088849482982321457 0.005401482464484339 0 -0.0011228719196152957 0.0028643724720745739 0 -0.0010067814592782127 0.0028116404791267376 0 -0.0010097837671456558 0.0028349983461826885 0 -0.00096560070194038922 0.0028378601317864066 0 -0.0010067814592782127 0.0028116404791267376 0 -0.0010097837671456558 0.0028349983461826885 0 -0.00078278024473977972 0.0019844552996938001 0 -0.00079318155899199615 0.005245820066069138 0 -0.00091183661617430154 0.0028774101546777632 0 -0.00096560070194038922 0.0028378601317864066 0 -0.00092469565081820804 0.0029342646128600043 0 -0.00091183661617430154 0.0028774101546777632 0 -0.00096560070194038922 0.0028378601317864066 0 -0.0010097837671456558 0.0028349983461826885 0 -0.00096560070194038922 0.0028378601317864066 0 -0.00099377630495050694 0.0028275462370672471 0 -0.00092469565081820804 0.0029342646128600043 0 -0.00096560070194038922 0.0028378601317864066 0 -0.0010067814592782127 0.0028116404791267376 0 -0.00099377630495050694 0.0028275462370672471 0 -0.00094810485123354748 0.0027846258565822424 0 -0.0010067814592782127 0.0028116404791267376 0 -0.00099377630495050694 0.0028275462370672471 0 -0.00081454623584576997 0.0023022554913972298 0 -0.00072132094473772155 0.0022508570043302521 0 -0.00069194669078992725 0.0022883902025924853 0 -0.00086983976459385239 0.0025645196811894693 0 -0.00084284206501558493 0.0025663493635939717 0 -0.00070943345062542509 0.0022947955662131385 0 -0.00072132094473772155 0.0022508570043302521 0 -0.00061933459755785067 0.0022090665761427095 0 -0.00070943345062542509 0.0022947955662131385 0 -0.00081454623584576997 0.0023022554913972298 0 -0.00072132094473772155 0.0022508570043302521 0 -0.00072132094473772155 0.0022508570043302521 0 -0.00071308006679839673 0.002287121337825708 0 -0.00066529560616644689 0.0022198265438434272 0 -0.00072132094473772155 0.0022508570043302521 0 -0.00072127625374240726 0.0023188853538297183 0 -0.00071308006679839673 0.002287121337825708 0 -0.00072127625374240726 0.0023188853538297183 0 -0.00069194669078992725 0.0022883902025924853 0 -0.00071686715039261399 0.0024344703196311178 0 -0.00072132094473772155 0.0022508570043302521 0 -0.00072127625374240726 0.0023188853538297183 0 -0.00069194669078992725 0.0022883902025924853 0 -0.00069194669078992725 0.0022883902025924853 0 -0.00071686715039261399 0.0024344703196311178 0 -0.00062773371938187352 0.0024948748884682905 0 -0.00071686715039261399 0.0024344703196311178 0 -0.00069670678223523943 0.0026108898002309353 0 -0.00062773371938187352 0.0024948748884682905 0 -0.00071308006679839673 0.002287121337825708 0 -0.00073110153383282902 0.002337844854469172 0 -0.00072762196246750621 0.0023563722296397692 0 -0.00071308006679839673 0.002287121337825708 0 -0.00073110153383282902 0.002337844854469172 0 -0.00070528097603598844 0.0022807642842356539 0 -0.00072127625374240726 0.0023188853538297183 0 -0.00071686715039261399 0.0024344703196311178 0 -0.00072762196246750621 0.0023563722296397692 0 -0.00072127625374240726 0.0023188853538297183 0 -0.00071308006679839673 0.002287121337825708 0 -0.00072762196246750621 0.0023563722296397692 0 -0.00071686715039261399 0.0024344703196311178 0 -0.00072762196246750621 0.0023563722296397692 0 -0.00073925167367107987 0.0023991512155234845 0 -0.00071686715039261399 0.0024344703196311178 0 -0.00073925167367107987 0.0023991512155234845 0 -0.00073772867384454992 0.0024719935226176046 0 -0.00073110153383282902 0.002337844854469172 0 -0.00073925167367107987 0.0023991512155234845 0 -0.00076467269816826386 0.0023830233536185274 0 -0.00073110153383282902 0.002337844854469172 0 -0.00072762196246750621 0.0023563722296397692 0 -0.00073925167367107987 0.0023991512155234845 0 -0.00086534429082568861 0.0023559942592715679 0 -0.0010305700004309157 0.0020519205613498499 0 -0.00096033286127810747 0.0024453495798963127 0 -0.00086534429082568861 0.0023559942592715679 0 -0.0010305700004309157 0.0020519205613498499 0 -0.00068679850540939637 0.0024687140402642107 0 -0.00073772867384454992 0.0024719935226176046 0 -0.00076467269816826386 0.0023830233536185274 0 -0.000735260890498002 0.0025969608028946468 0 -0.00083963089625496809 0.0023377731195745955 0 -0.00073202509313288072 0.0025052751681641154 0 -0.00073925167367107987 0.0023991512155234845 0 -0.00073772867384454992 0.0024719935226176046 0 -0.00076467269816826386 0.0023830233536185274 0 -0.00086534429082568861 0.0023559942592715679 0 -0.00068679850540939637 0.0024687140402642107 0 -0.00092879524971636017 0.0024371334465306902 0 -0.00073772867384454992 0.0024719935226176046 0 -0.00072225541226657937 0.002533870118411849 0 -0.000735260890498002 0.0025969608028946468 0 -0.0012876512801113886 0.0015611837380459137 0 -0.0010508470370806523 0.00090308551677984079 0 -0.00071686715039261399 0.0024344703196311178 0 -0.00073772867384454992 0.0024719935226176046 0 -0.00072225541226657937 0.002533870118411849 0 -0.00071686715039261399 0.0024344703196311178 0 -0.00072225541226657937 0.002533870118411849 0 -0.00069670678223523943 0.0026108898002309353 0 -0.00072225541226657937 0.002533870118411849 0 -0.00069670678223523943 0.0026108898002309353 0 -0.000735260890498002 0.0025969608028946468 0 -0.00069670678223523943 0.0026108898002309353 0 -0.00062773371938187352 0.0024948748884682905 0 -0.00075411018100664522 0.0028167899759341248 0 -0.00078436745769863638 0.0027014383554437808 0 -0.00076335068667728522 0.00278382984938125 0 -0.00089559224541014637 0.0029481111507076532 0 -0.00092469565081820804 0.0029342646128600043 0 -0.00075411018100664522 0.0028167899759341248 0 -0.00090447126673436973 0.0029963376262490066 0 -0.00089559224541014637 0.0029481111507076532 0 -0.00075411018100664522 0.0028167899759341248 0 -0.00090447126673436973 0.0029963376262490066 0 -0.00075411018100664522 0.0028167899759341248 0 -0.00088232423387283156 0.0029088150807660192 0 -0.00090447126673436973 0.0029963376262490066 0 -0.00089559224541014637 0.0029481111507076532 0 -0.00088858016062278063 0.0029326870901169523 0 -0.00091183661617430154 0.0028774101546777632 0 -0.00089559224541014637 0.0029481111507076532 0 -0.00088858016062278063 0.0029326870901169523 0 -0.00091183661617430154 0.0028774101546777632 0 -0.00089559224541014637 0.0029481111507076532 0 -0.00092469565081820804 0.0029342646128600043 0 -0.00084284206501558493 0.0025663493635939717 0 -0.00078436745769863638 0.0027014383554437808 0 0.00035282483956788435 0.00077460573847779718 0 -0.00028291119609581147 0.00012606779870680734 0 -0.00013993427383352956 0.00017359782291616964 0 -6.157872840976485e-05 0.00053599309625560702 0 -0.00074039987294635895 -0.00027776755694910993 0 -0.00013993427383352956 0.00017359782291616964 0 -0.00031799612734400586 -0.0002120861627857623 0 -0.00074039987294635895 -0.00027776755694910993 0 -0.00031799612734400586 -0.0002120861627857623 0 -0.00039378666274307572 -0.00043840354337837433 0 -0.00074039987294635895 -0.00027776755694910993 0 -0.00039378666274307572 -0.00043840354337837433 0 -0.00074039987294635895 -0.00027776755694910993 0 -0.00072093841476659701 -0.00062916197387405685 0 0.00016385960293213589 0.00049336909875675019 0 0.00032570073547497167 0.0012170360616405506 0 -0.0002123086541377314 0.00093749541511155699 0 0.0007509406279964842 0.0010561942779176833 0 0.00016385960293213589 0.00049336909875675019 0 0.00032570073547497167 0.0012170360616405506 0 0.00060854332265411883 0.0012176440325386228 0 0.0007509406279964842 0.0010561942779176833 0 0.00032570073547497167 0.0012170360616405506 0 -0.00025980272222468018 0.0017956934562809467 0 -0.00055862642896733908 0.0015589637424820186 0 -0.00020075407453267323 0.0017877315519365532 0 -0.0002123086541377314 0.00093749541511155699 0 -0.00073311214151488722 0.00094294096077120095 0 -0.00020075407453267323 0.0017877315519365532 0 0.00032570073547497167 0.0012170360616405506 0 -0.0002123086541377314 0.00093749541511155699 0 -0.0002123086541377314 0.00093749541511155699 0 -0.00067769774893232913 0.00070834327052985487 0 -0.00073311214151488722 0.00094294096077120095 0 0.00016385960293213589 0.00049336909875675019 0 -0.00042476377749149489 0.00044744250031624095 0 -0.0006246356630522687 -0.00019407552312427099 0 -0.00028291119609581147 0.00012606779870680734 0 -0.00087125971861405519 -0.00041037764421126492 0 -0.0002123086541377314 0.00093749541511155699 0 -0.00042476377749149489 0.00044744250031624095 0 -0.00067769774893232913 0.00070834327052985487 0 0.00016385960293213589 0.00049336909875675019 0 -0.0002123086541377314 0.00093749541511155699 0 -0.00042476377749149489 0.00044744250031624095 0 -0.00042476377749149489 0.00044744250031624095 0 -0.00079353132419158199 0.00025218752333454466 0 -0.0006246356630522687 -0.00019407552312427099 0 -0.00042476377749149489 0.00044744250031624095 0 -0.00079353132419158199 0.00025218752333454466 0 -0.00067769774893232913 0.00070834327052985487 0 -0.0010710936167975236 0.001137526650456324 0 -0.00055862642896733908 0.0015589637424820186 0 -0.0011636168793606983 0.00023729931984723283 0 -0.00067769774893232913 0.00070834327052985487 0 -0.00073311214151488722 0.00094294096077120095 0 -0.00065542775300656063 0.002204685948837549 0 -0.00048868140249243264 0.0020945029031553472 0 -0.00058826920882356975 0.0021649663977786559 0 -0.00079353132419158199 0.00025218752333454466 0 -0.0012532681530781028 0.00014783484200278543 0 -0.00067769774893232913 0.00070834327052985487 0 -0.0010710936167975236 0.001137526650456324 0 -0.00091750812996078349 0.00047710894556725786 0 -0.00020075407453267323 0.0017877315519365532 0 -0.00048868140249243264 0.0020945029031553472 0 -0.0005039417967354898 0.0021190546038524893 0 -0.00048868140249243264 0.0020945029031553472 0 -0.0005039417967354898 0.0021190546038524893 0 -0.00058826920882356975 0.0021649663977786559 0 -0.00061933459755785067 0.0022090665761427095 0 -0.00066529560616644689 0.0022198265438434272 0 -0.00058826920882356975 0.0021649663977786559 0 -0.00072132094473772155 0.0022508570043302521 0 -0.00061933459755785067 0.0022090665761427095 0 -0.00066529560616644689 0.0022198265438434272 0 -0.0005039417967354898 0.0021190546038524893 0 -0.00061933459755785067 0.0022090665761427095 0 -0.00058826920882356975 0.0021649663977786559 0 -0.00048588610724173306 0.0021996438777320275 0 -0.0005039417967354898 0.0021190546038524893 0 -0.00061933459755785067 0.0022090665761427095 0 -0.00065542775300656063 0.002204685948837549 0 -0.00066529560616644689 0.0022198265438434272 0 -0.00058826920882356975 0.0021649663977786559 0 -0.00065542775300656063 0.002204685948837549 0 -0.00066529560616644689 0.0022198265438434272 0 -0.00070528097603598844 0.0022807642842356539 0 -0.00071308006679839673 0.002287121337825708 0 -0.00066529560616644689 0.0022198265438434272 0 -0.00070528097603598844 0.0022807642842356539 0 -0.00065542775300656063 0.002204685948837549 0 -0.00070528097603598844 0.0022807642842356539 0 -0.00076467269816826386 0.0023830233536185274 0 -0.0012532681530781028 0.00014783484200278543 0 -0.0016738941546843307 -0.00064940724594560433 0 -0.0012582889975961788 -0.0003841753723466849 0 -0.0014653862164232126 0.0015980280608578754 0 -0.001200967126840768 0.0020445333084150746 0 -0.0010305700004309157 0.0020519205613498499 0 -0.0010710936167975236 0.001137526650456324 0 -0.001514930276131754 0.00059433606936601488 0 -0.0010710936167975236 0.001137526650456324 0 -0.00083963089625496809 0.0023377731195745955 0 -0.0016738941546843307 -0.00064940724594560433 0 -0.0014797439715606949 -0.00084608449456393547 0 -0.0012582889975961788 -0.0003841753723466849 0 -0.00073110153383282902 0.002337844854469172 0 -0.00070528097603598844 0.0022807642842356539 0 -0.00076467269816826386 0.0023830233536185274 0 -0.0016738941546843307 -0.00064940724594560433 0 -0.0015714423237369998 -0.0010846661723674402 0 -0.0019145783794097212 -0.0011341125234717551 0 -0.001200967126840768 0.0020445333084150746 0 -0.0010305700004309157 0.0020519205613498499 0 -0.00096033286127810747 0.0024453495798963127 0 -0.001514930276131754 0.00059433606936601488 0 -0.0010508470370806523 0.00090308551677984079 0 -0.0015714423237369998 -0.0010846661723674402 0 -0.0014797439715606949 -0.00084608449456393547 0 -0.0013433497830506317 -0.0011893775115800664 0 -0.0016738941546843307 -0.00064940724594560433 0 -0.0015714423237369998 -0.0010846661723674402 0 -0.0014797439715606949 -0.00084608449456393547 0 -0.0014797439715606949 -0.00084608449456393547 0 -0.0012760523796352108 -0.00096615427608257585 0 -0.0011698544126712001 -0.00086012265368131237 0 -0.0014797439715606949 -0.00084608449456393547 0 -0.0012760523796352108 -0.00096615427608257585 0 -0.0013433497830506317 -0.0011893775115800664 0 -0.0012760523796352108 -0.00096615427608257585 0 -0.0010946285064103909 -0.0010431884358034556 0 -0.0013433497830506317 -0.0011893775115800664 0 -0.0012760523796352108 -0.00096615427608257585 0 -0.0010946285064103909 -0.0010431884358034556 0 -0.0011698544126712001 -0.00086012265368131237 0 -0.00143370043175407 -0.0008215645199104091 0 -0.00087125971861405519 -0.00041037764421126492 0 -0.0014797439715606949 -0.00084608449456393547 0 -0.0011698544126712001 -0.00086012265368131237 0 -0.0010784157168536627 -0.00062488650193020265 0 -0.0014797439715606949 -0.00084608449456393547 0 -0.0012582889975961788 -0.0003841753723466849 0 -0.0006246356630522687 -0.00019407552312427099 0 -0.0012532681530781028 0.00014783484200278543 0 -0.0012582889975961788 -0.0003841753723466849 0 -0.0006246356630522687 -0.00019407552312427099 0 -0.00079353132419158199 0.00025218752333454466 0 -0.0012532681530781028 0.00014783484200278543 0 -0.0006246356630522687 -0.00019407552312427099 0 -0.00074039987294635895 -0.00027776755694910993 0 -0.0010784157168536627 -0.00062488650193020265 0 -0.00072093841476659701 -0.00062916197387405685 0 -0.0010784157168536627 -0.00062488650193020265 0 -0.00092447505953696717 -0.00082543063198625634 0 -0.00072093841476659701 -0.00062916197387405685 0 -0.00092447505953696717 -0.00082543063198625634 0 -0.00065999821768422911 -0.0008572769242611441 0 -0.00072093841476659701 -0.00062916197387405685 0 -0.0011698544126712001 -0.00086012265368131237 0 -0.0010784157168536627 -0.00062488650193020265 0 -0.00092447505953696717 -0.00082543063198625634 0 -0.0010946285064103909 -0.0010431884358034556 0 -0.0011698544126712001 -0.00086012265368131237 0 -0.00092447505953696717 -0.00082543063198625634 0 -0.0010946285064103909 -0.0010431884358034556 0 -0.00092447505953696717 -0.00082543063198625634 0 -0.00081120396945833038 -0.0010810538593277184 0 -0.00092447505953696717 -0.00082543063198625634 0 -0.00081120396945833038 -0.0010810538593277184 0 -0.00065999821768422911 -0.0008572769242611441 0 -0.00081120396945833038 -0.0010810538593277184 0 -0.00065999821768422911 -0.0008572769242611441 0 -0.0005611811944222216 -0.0010753902310837282 0 -0.00081120396945833038 -0.0010810538593277184 0 -0.0005611811944222216 -0.0010753902310837282 0 -0.00058730838212763664 -0.0013311161381341198 0 -0.00032058082049677577 -0.0011650517053431574 0 -0.0005611811944222216 -0.0010753902310837282 0 -0.00058730838212763664 -0.0013311161381341198 0 -0.00032058082049677577 -0.0011650517053431574 0 -0.0005611811944222216 -0.0010753902310837282 0 -0.00037948305791940838 -0.00094607317087970434 0 -0.00065999821768422911 -0.0008572769242611441 0 -0.0005611811944222216 -0.0010753902310837282 0 -0.00037948305791940838 -0.00094607317087970434 0 -0.00065999821768422911 -0.0008572769242611441 0 -0.00037948305791940838 -0.00094607317087970434 0 -0.00039859594318791158 -0.0007159726610266239 0 -0.00065999821768422911 -0.0008572769242611441 0 -0.00039859594318791158 -0.0007159726610266239 0 -0.00072093841476659701 -0.00062916197387405685 0 -0.00039378666274307572 -0.00043840354337837433 0 -0.00039859594318791158 -0.0007159726610266239 0 -0.00072093841476659701 -0.00062916197387405685 0 -0.00022077118911321543 -0.0018522518816792087 0 -0.00041139545780988879 -0.0016366191006801812 0 -0.00059191134028684523 -0.0019994774523554005 0 -0.00041139545780988879 -0.0016366191006801812 0 -0.00074530174556970458 -0.001630375226017243 0 -0.00059191134028684523 -0.0019994774523554005 0 -0.00041139545780988879 -0.0016366191006801812 0 -0.00058730838212763664 -0.0013311161381341198 0 -0.00074530174556970458 -0.001630375226017243 0 -0.00028082373611780867 -0.001416539008131949 0 -0.00041139545780988879 -0.0016366191006801812 0 -0.00058730838212763664 -0.0013311161381341198 0 -0.00028082373611780867 -0.001416539008131949 0 -0.00032058082049677577 -0.0011650517053431574 0 -0.00058730838212763664 -0.0013311161381341198 0 -0.00081120396945833038 -0.0010810538593277184 0 -0.00058730838212763664 -0.0013311161381341198 0 -0.001023892954157516 -0.0013654061678300097 0 -0.00058730838212763664 -0.0013311161381341198 0 -0.001023892954157516 -0.0013654061678300097 0 -0.00074530174556970458 -0.001630375226017243 0 -0.0010946285064103909 -0.0010431884358034556 0 -0.00081120396945833038 -0.0010810538593277184 0 -0.001023892954157516 -0.0013654061678300097 0 -0.001023892954157516 -0.0013654061678300097 0 -0.00074530174556970458 -0.001630375226017243 0 -0.0011228392518262233 -0.0018192421054083069 0 -0.00074530174556970458 -0.001630375226017243 0 -0.0011228392518262233 -0.0018192421054083069 0 -0.00059191134028684523 -0.0019994774523554005 0 -0.00067653179392893666 0.00042131604221499938 0 -0.00059200520877652108 0.0018353381194228528 0 -0.001023892954157516 -0.0013654061678300097 0 -0.0011228392518262233 -0.0018192421054083069 0 -0.0014886253834785657 -0.0014945043537311214 0 -0.00059240346510692284 0.00086517102695287903 0 -0.00069633042996334791 0.00096810183677529746 0 -0.000727016691603262 0.00092216063991627057 0 -0.00067653179392893666 0.00042131604221499938 0 -0.001041842923134311 -0.00045909875543284531 0 -0.001023892954157516 -0.0013654061678300097 0 -0.0013433497830506317 -0.0011893775115800664 0 -0.0014886253834785657 -0.0014945043537311214 0 -0.0010946285064103909 -0.0010431884358034556 0 -0.001023892954157516 -0.0013654061678300097 0 -0.0013433497830506317 -0.0011893775115800664 0 -0.0015714423237369998 -0.0010846661723674402 0 -0.0014886253834785657 -0.0014945043537311214 0 -0.0019145783794097212 -0.0011341125234717551 0 -0.0015714423237369998 -0.0010846661723674402 0 -0.0013433497830506317 -0.0011893775115800664 0 -0.0014886253834785657 -0.0014945043537311214 0 -0.001041842923134311 -0.00045909875543284531 0 -0.0010508470370806523 0.00090308551677984079 0 -0.00069633042996334791 0.00096810183677529746 0 -0.00077323544848827131 0.00098776444133893927 0 -0.00079511651729324362 0.0010617868126068393 0 -0.00069633042996334791 0.00096810183677529746 0 -0.00077323544848827131 0.00098776444133893927 0 -0.000727016691603262 0.00092216063991627057 0 -0.00042173034480244543 0.0026077288162658177 0 -0.00040415467510087998 0.0024773451831196377 0 -0.00051744549390628724 0.0025527160937058252 0 -0.0004311211368424662 0.0023417807298087199 0 -0.00040415467510087998 0.0024773451831196377 0 -0.00051577009313973998 0.0024560875743544685 0 -0.0004311211368424662 0.0023417807298087199 0 -0.00040415467510087998 0.0024773451831196377 0 -0.00030403835603252233 0.0024053104854134498 0 -0.00028863883641122047 0.0025457793550350011 0 -0.00042173034480244543 0.0026077288162658177 0 -0.00040415467510087998 0.0024773451831196377 0 -0.00028863883641122047 0.0025457793550350011 0 -0.00040415467510087998 0.0024773451831196377 0 -0.00030403835603252233 0.0024053104854134498 0 -5.1001681845369474e-05 0.0022869476022890512 0 -0.00026264414230995698 0.0022679580020734708 0 -0.00016841473538345799 0.0024183875424617649 0 -0.00075767941613189482 9.4926222879770526e-05 0 -0.00048372236646170301 -0.00016400931345634295 0 -0.00042112204266056904 -3.0700783390486311e-05 0 -0.00028863883641122047 0.0025457793550350011 0 -0.00030403835603252233 0.0024053104854134498 0 -0.00016841473538345799 0.0024183875424617649 0 -0.00067653179392893666 0.00042131604221499938 0 -0.00041223219609891088 0.0014230102247493155 0 -0.00067653179392893666 0.00042131604221499938 0 -0.00054584183244481288 -0.0010956821379227569 0 -0.00026264414230995698 0.0022679580020734708 0 -0.00030403835603252233 0.0024053104854134498 0 -0.00016841473538345799 0.0024183875424617649 0 -3.3060455449726029e-06 -2.743333110511532e-05 0 -0.00041223219609891088 0.0014230102247493155 0 -8.9292697319503475e-05 -0.00015618588797329207 0 -0.00048372236646170301 -0.00016400931345634295 0 -0.00042112204266056904 -3.0700783390486311e-05 0 -0.0006780358728007335 0.002667774406372868 0 -0.00063981250168580848 0.0025573533826263044 0 -0.00073632973251026987 0.002590521395579401 0 -0.00074970848448843567 0.0027037705875654072 0 -0.0006780358728007335 0.002667774406372868 0 -0.00073632973251026987 0.002590521395579401 0 -0.00083468073381476478 0.0027343947127888533 0 -0.00073632973251026987 0.002590521395579401 0 -0.00086628266163356869 0.0025703333423660558 0 -0.00074970848448843567 0.0027037705875654072 0 -0.00083468073381476478 0.0027343947127888533 0 -0.00073632973251026987 0.002590521395579401 0 -0.00074970848448843567 0.0027037705875654072 0 -0.00083468073381476478 0.0027343947127888533 0 -0.00075411018100664522 0.0028167899759341248 0 -0.00083468073381476478 0.0027343947127888533 0 -0.00075411018100664522 0.0028167899759341248 0 -0.00088232423387283156 0.0029088150807660192 0 -0.00074970848448843567 0.0027037705875654072 0 -0.0006780358728007335 0.002667774406372868 0 -0.00075411018100664522 0.0028167899759341248 0 -0.00069670678223523943 0.0026108898002309353 0 -0.0006780358728007335 0.002667774406372868 0 -0.00075411018100664522 0.0028167899759341248 0 -0.0006698697487095848 0.0026546561934861477 0 -0.00073202509313288072 0.0025052751681641154 0 -0.00069670678223523943 0.0026108898002309353 0 -0.0006780358728007335 0.002667774406372868 0 -0.000735260890498002 0.0025969608028946468 0 -0.0006780358728007335 0.002667774406372868 0 -0.00068679850540939637 0.0024687140402642107 0 -0.00069123708985931967 0.0026224621788729818 0 -0.0010508470370806523 0.00090308551677984079 0 -0.00056970127806752803 0.0021696225069791123 0 -0.00068679850540939637 0.0024687140402642107 0 -0.00092879524971636017 0.0024371334465306902 0 -0.00075046841545832043 0.0026527755661833298 0 -0.00068679850540939637 0.0024687140402642107 0 -0.00069123708985931967 0.0026224621788729818 0 -0.00075046841545832043 0.0026527755661833298 0 -0.00069895823454970232 0.0023035119710851197 0 -0.00056970127806752803 0.0021696225069791123 0 -0.00077323544848827131 0.00098776444133893927 0 -0.00079511651729324362 0.0010617868126068393 0 -0.00085120942510577828 0.00097621486078976151 0 -0.00059200520877652108 0.0018353381194228528 0 -0.00056970127806752803 0.0021696225069791123 0 -0.00042173034480244543 0.0026077288162658177 0 -0.00054899858412586636 0.0026585239745258765 0 -0.00051744549390628724 0.0025527160937058252 0 -0.00077323544848827131 0.00098776444133893927 0 -0.000727016691603262 0.00092216063991627057 0 -0.00085120942510577828 0.00097621486078976151 0 -0.00054899858412586636 0.0026585239745258765 0 -0.00063981250168580848 0.0025573533826263044 0 -0.00051744549390628724 0.0025527160937058252 0 -0.00069123708985931967 0.0026224621788729818 0 -0.00068277521391015591 0.002618981606031255 0 -0.00063981250168580848 0.0025573533826263044 0 -0.00056970127806752803 0.0021696225069791123 0 -0.00061247499164770775 0.002719479383633695 0 -0.0006780358728007335 0.002667774406372868 0 -0.00069123708985931967 0.0026224621788729818 0 -0.00063981250168580848 0.0025573533826263044 0 -0.00040415467510087998 0.0024773451831196377 0 -0.00051744549390628724 0.0025527160937058252 0 -0.00051577009313973998 0.0024560875743544685 0 -0.00063981250168580848 0.0025573533826263044 0 -0.00051744549390628724 0.0025527160937058252 0 -0.00051577009313973998 0.0024560875743544685 0 -0.0004311211368424662 0.0023417807298087199 0 -0.00051577009313973998 0.0024560875743544685 0 -0.00061001685494362198 0.0023901168265459951 0 -0.00063981250168580848 0.0025573533826263044 0 -0.00061001685494362198 0.0023901168265459951 0 -0.00070593009445853346 0.0024908968599589359 0 -0.00063981250168580848 0.0025573533826263044 0 -0.00051577009313973998 0.0024560875743544685 0 -0.00061001685494362198 0.0023901168265459951 0 -0.00061001685494362198 0.0023901168265459951 0 -0.00070593009445853346 0.0024908968599589359 0 -0.00077585092880387986 0.0024214132605331041 0 -0.00063981250168580848 0.0025573533826263044 0 -0.00070593009445853346 0.0024908968599589359 0 -0.00073632973251026987 0.002590521395579401 0 -0.00070593009445853346 0.0024908968599589359 0 -0.00073632973251026987 0.002590521395579401 0 -0.00086628266163356869 0.0025703333423660558 0 0.0013595142128701408 0.0052351670689795033 0 0.0013257220757574373 0.0053627342634431988 0 0.0014032462811843511 0.0053198368894753567 0 0.00029859892407701084 0.0038448917673826791 0 0.0002648490116054404 0.0039044846858270394 0 -0.00070593009445853346 0.0024908968599589359 0 -0.00086628266163356869 0.0025703333423660558 0 -0.00077585092880387986 0.0024214132605331041 0 0.0014148516634596353 0.0054002285499929973 0 0.0013257220757574373 0.0053627342634431988 0 0.0014032462811843511 0.0053198368894753567 0 0.0014148516634596353 0.0054002285499929973 0 0.0014032462811843511 0.0053198368894753567 0 0.0014827634989554156 0.0053385689118247825 0 0.0008696612192573771 0.0068706184495646297 0 0.00062197710279291905 0.0065620394214261227 0 0.0014148516634596353 0.0054002285499929973 0 0.001499120245015663 0.0054380701315516295 0 0.0014827634989554156 0.0053385689118247825 0 3.3000166059469319e-05 0.0086738887090334078 0 -0.00019135322826665602 0.0077999965130053231 0 0.00057825021079330435 0.0078437594067311215 0 0.0008696612192573771 0.0068706184495646297 0 0.00033069120809277032 0.0082710058161028204 0 -0.00019135322826665602 0.0077999965130053231 0 1.3840887167007624e-05 0.0072682256080799368 0 0.00057825021079330435 0.0078437594067311215 0 0.00062197710279291905 0.0065620394214261227 0 0.00042670614823012447 0.0060089211606396678 0 1.3840887167007624e-05 0.0072682256080799368 0 0.00047686191987302945 0.0052834088832891231 0 0.00070525264798715532 0.0075605980974498789 0 -0.00019135322826665602 0.0077999965130053231 0 1.3840887167007624e-05 0.0072682256080799368 0 -0.0006905511877298761 0.0065966034603190593 0 0.0014032462811843511 0.0053198368894753567 0 0.0014827634989554156 0.0053385689118247825 0 0.0014560287826334449 0.0052155103866367595 0 0.0013595142128701408 0.0052351670689795033 0 0.0014032462811843511 0.0053198368894753567 0 0.0014560287826334449 0.0052155103866367595 0 -0.00083468073381476478 0.0027343947127888533 0 -0.00086628266163356869 0.0025703333423660558 0 -0.0010553640869911324 0.0028229831752707617 0 0.00042670614823012447 0.0060089211606396678 0 -0.00012253010116233787 0.0041759969712782856 0 0.0013595142128701408 0.0052351670689795033 0 0.0014560287826334449 0.0052155103866367595 0 0.0014131598265275176 0.0050762809903809993 0 0.00029859892407701084 0.0038448917673826791 0 -0.00012253010116233787 0.0041759969712782856 0 -0.0006905511877298761 0.0065966034603190593 0 0.00047686191987302945 0.0052834088832891231 0 -0.001099946267950444 0.0046287549046764879 0 1.3840887167007624e-05 0.0072682256080799368 0 -0.0006905511877298761 0.0065966034603190593 0 0.00047686191987302945 0.0052834088832891231 0 0.00047686191987302945 0.0052834088832891231 0 -0.00071415762760222668 0.0039347477760867233 0 -0.001099946267950444 0.0046287549046764879 0 0.00082379395327811212 0.0083447889298073046 0 0.00067704295125257897 0.0088240316767653412 0 0.00058565492055751543 0.0087648640698623336 0 0.00047686191987302945 0.0052834088832891231 0 -0.00071415762760222668 0.0039347477760867233 0 -0.00045445467542887778 0.0030135313270357829 0 0.00060328185122557375 0.0068079508098521395 0 9.5368057130584659e-05 0.0059200136980523486 0 -0.00083468073381476478 0.0027343947127888533 0 -0.00088232423387283156 0.0029088150807660192 0 -0.0010553640869911324 0.0028229831752707617 0 -0.00012253010116233787 0.0041759969712782856 0 -0.00092799783140456885 0.0031268257030914594 0 -0.00071415762760222668 0.0039347477760867233 0 -0.0010513144286615447 0.0044965326118468372 0 -0.00099969868293718102 0.003192750856081237 0 -0.00047959753170449419 0.0042968663690931396 0 -0.00012253010116233787 0.0041759969712782856 0 -0.00088232423387283156 0.0029088150807660192 0 -0.0010553640869911324 0.0028229831752707617 0 -0.00099969868293718102 0.003192750856081237 0 0.00048804829068741727 0.0083481184901253482 0 0.00035377934960185585 0.0085193617820769202 0 0.00048410361260513914 0.0087002436468629832 0 0.00048804829068741727 0.0083481184901253482 0 0.00035377934960185585 0.0085193617820769202 0 0.00029930143708059879 0.0083006221987255401 0 0.00082379395327811212 0.0083447889298073046 0 0.00048804829068741727 0.0083481184901253482 0 0.00058823052136804457 0.008550788736891515 0 0.00048804829068741727 0.0083481184901253482 0 0.00058823052136804457 0.008550788736891515 0 0.00048410361260513914 0.0087002436468629832 0 0.00082379395327811212 0.0083447889298073046 0 0.00058823052136804457 0.008550788736891515 0 0.00058565492055751543 0.0087648640698623336 0 0.00060328185122557375 0.0068079508098521395 0 0.00072258237744642908 0.0074693739492085708 0 0.00082379395327811212 0.0083447889298073046 0 0.00048804829068741727 0.0083481184901253482 0 0.00052672852992142962 0.0079979042409825639 0 0.00082379395327811212 0.0083447889298073046 0 0.00052672852992142962 0.0079979042409825639 0 0.00070525264798715532 0.0075605980974498789 0 0.00048804829068741727 0.0083481184901253482 0 0.00052672852992142962 0.0079979042409825639 0 0.00034454962689964638 0.0080426086666859249 0 0.00048804829068741727 0.0083481184901253482 0 0.00029930143708059879 0.0083006221987255401 0 0.00034454962689964638 0.0080426086666859249 0 0.00034454962689964638 0.0080426086666859249 0 0.00046069387170001022 0.007808585880645709 0 0.00033897473564172367 0.0078407437865377627 0 0.00052672852992142962 0.0079979042409825639 0 0.00034454962689964638 0.0080426086666859249 0 0.00046069387170001022 0.007808585880645709 0 0.00046069387170001022 0.007808585880645709 0 0.00033897473564172367 0.0078407437865377627 0 0.00046585244282415825 0.0077224171804801513 0 0.00052672852992142962 0.0079979042409825639 0 0.00046069387170001022 0.007808585880645709 0 0.00070525264798715532 0.0075605980974498789 0 0.00046069387170001022 0.007808585880645709 0 0.00070525264798715532 0.0075605980974498789 0 0.00046585244282415825 0.0077224171804801513 0 1.3840887167007624e-05 0.0072682256080799368 0 0.00070525264798715532 0.0075605980974498789 0 0.00057825021079330435 0.0078437594067311215 0 0.00070525264798715532 0.0075605980974498789 0 0.00057825021079330435 0.0078437594067311215 0 0.00046585244282415825 0.0077224171804801513 0 0.00057825021079330435 0.0078437594067311215 0 0.00048696837671448058 0.00768225808535961 0 0.00046585244282415825 0.0077224171804801513 0 0.00052750727469802765 0.007544518610627121 0 0.00057825021079330435 0.0078437594067311215 0 0.00048696837671448058 0.00768225808535961 0 0.00025428921385096487 0.0075967778852623962 0 0.00046585244282415825 0.0077224171804801513 0 0.00018463889663363021 0.0077494553665619064 0 0.00033897473564172367 0.0078407437865377627 0 0.00046585244282415825 0.0077224171804801513 0 0.00018463889663363021 0.0077494553665619064 0 0.00039937886204117611 0.0075867601418067492 0 0.00048696837671448058 0.00768225808535961 0 0.00046585244282415825 0.0077224171804801513 0 0.00025428921385096487 0.0075967778852623962 0 0.00039937886204117611 0.0075867601418067492 0 0.00046585244282415825 0.0077224171804801513 0 7.5653848440226972e-05 0.0075915426002827625 0 0.00025428921385096487 0.0075967778852623962 0 0.00018463889663363021 0.0077494553665619064 0 7.5653848440226972e-05 0.0075915426002827625 0 0.00018463889663363021 0.0077494553665619064 0 -1.0238312101498289e-05 0.0077070906838230943 0 -5.4067718016906649e-05 0.0076047635067006264 0 -1.0238312101498289e-05 0.0077070906838230943 0 -0.00026978896396664086 0.0077761379155423102 0 -1.0238312101498289e-05 0.0077070906838230943 0 -1.7075112596895537e-05 0.0078704981064989122 0 -0.00026978896396664086 0.0077761379155423102 0 -5.4067718016906649e-05 0.0076047635067006264 0 7.5653848440226972e-05 0.0075915426002827625 0 -1.0238312101498289e-05 0.0077070906838230943 0 0.00018463889663363021 0.0077494553665619064 0 -1.0238312101498289e-05 0.0077070906838230943 0 -1.7075112596895537e-05 0.0078704981064989122 0 -1.7075112596895537e-05 0.0078704981064989122 0 -1.0174289658170853e-05 0.008071938215334442 0 -0.00018854514565815953 0.0080102591253850709 0 -1.7075112596895537e-05 0.0078704981064989122 0 -1.0174289658170853e-05 0.008071938215334442 0 0.00017375859850294356 0.0079571814229951257 0 0.00034454962689964638 0.0080426086666859249 0 0.00033897473564172367 0.0078407437865377627 0 0.00017375859850294356 0.0079571814229951257 0 0.00033897473564172367 0.0078407437865377627 0 0.00018463889663363021 0.0077494553665619064 0 0.00017375859850294356 0.0079571814229951257 0 0.00018463889663363021 0.0077494553665619064 0 -1.7075112596895537e-05 0.0078704981064989122 0 0.00017375859850294356 0.0079571814229951257 0 0.00035540098127899319 0.011401877414091112 0 0.00026741167718213324 0.01164127213159309 0 0.00047173878716679423 0.011644985235907689 0 -1.7075112596895537e-05 0.0078704981064989122 0 -0.00026978896396664086 0.0077761379155423102 0 -0.00018854514565815953 0.0080102591253850709 0 -0.00026978896396664086 0.0077761379155423102 0 -0.00018854514565815953 0.0080102591253850709 0 -0.00045438621854072543 0.0081094069804397255 0 0.00012955719062156747 0.011800485661424749 0 0.00026741167718213324 0.01164127213159309 0 0.00032016933411520342 0.011869372507357694 0 0.00026741167718213324 0.01164127213159309 0 0.00047173878716679423 0.011644985235907689 0 0.00032016933411520342 0.011869372507357694 0 0.00010378698345121939 0.009719485350513684 0 -9.7996085498299428e-05 0.0099284043591245704 0 0.00012462164116843713 0.010680813006743542 0 -9.7996085498299428e-05 0.0099284043591245704 0 -0.00064299996971520874 0.0084442047465215567 0 -0.00045438621854072543 0.0081094069804397255 0 -0.00037667692790228544 0.0084395421400812187 0 -0.00045438621854072543 0.0081094069804397255 0 -0.00019546416298645393 0.0082255784282334425 0 -0.00037667692790228544 0.0084395421400812187 0 -0.00018854514565815953 0.0080102591253850709 0 -0.00045438621854072543 0.0081094069804397255 0 -0.00019546416298645393 0.0082255784282334425 0 -0.00019546416298645393 0.0082255784282334425 0 -0.00015762406441490996 0.008449240737462926 0 -1.6437516556843072e-06 0.0083268192330093211 0 -0.00015762406441490996 0.008449240737462926 0 -0.00037667692790228544 0.0084395421400812187 0 -0.00020531382228710333 0.0086456332280403433 0 -0.00019546416298645393 0.0082255784282334425 0 -0.00015762406441490996 0.008449240737462926 0 -0.00037667692790228544 0.0084395421400812187 0 -0.00064299996971520874 0.0084442047465215567 0 -0.00037667692790228544 0.0084395421400812187 0 -0.00042034827674925418 0.0087047324347744471 0 0.00012462164116843713 0.010680813006743542 0 0.00022144279383548674 0.0096761728088429096 0 0.00015794515551932498 0.0081897577538748174 0 -1.6437516556843072e-06 0.0083268192330093211 0 0.00018030760535741472 0.0084443570826305096 0 0.00029930143708059879 0.0083006221987255401 0 0.00015794515551932498 0.0081897577538748174 0 0.00018030760535741472 0.0084443570826305096 0 0.00029930143708059879 0.0083006221987255401 0 0.00034454962689964638 0.0080426086666859249 0 0.00015794515551932498 0.0081897577538748174 0 0.00034454962689964638 0.0080426086666859249 0 0.00017375859850294356 0.0079571814229951257 0 0.00015794515551932498 0.0081897577538748174 0 -1.0174289658170853e-05 0.008071938215334442 0 0.00017375859850294356 0.0079571814229951257 0 0.00015794515551932498 0.0081897577538748174 0 -1.0174289658170853e-05 0.008071938215334442 0 0.00015794515551932498 0.0081897577538748174 0 -1.6437516556843072e-06 0.0083268192330093211 0 -1.0174289658170853e-05 0.008071938215334442 0 -0.00019546416298645393 0.0082255784282334425 0 -1.6437516556843072e-06 0.0083268192330093211 0 -1.0174289658170853e-05 0.008071938215334442 0 -0.00018854514565815953 0.0080102591253850709 0 -0.00019546416298645393 0.0082255784282334425 0 -1.6437516556843072e-06 0.0083268192330093211 0 0.00018030760535741472 0.0084443570826305096 0 5.0368654355201896e-05 0.0086472789132287335 0 -0.00015762406441490996 0.008449240737462926 0 -1.6437516556843072e-06 0.0083268192330093211 0 5.0368654355201896e-05 0.0086472789132287335 0 0.00018030760535741472 0.0084443570826305096 0 0.00025139836226427734 0.0086326780464331676 0 5.0368654355201896e-05 0.0086472789132287335 0 0.00035377934960185585 0.0085193617820769202 0 0.00029930143708059879 0.0083006221987255401 0 0.00018030760535741472 0.0084443570826305096 0 0.00035377934960185585 0.0085193617820769202 0 0.00018030760535741472 0.0084443570826305096 0 0.00025139836226427734 0.0086326780464331676 0 0.00025139836226427734 0.0086326780464331676 0 0.00026473594404651158 0.0087855023575235686 0 5.0368654355201896e-05 0.0086472789132287335 0 0.00035377934960185585 0.0085193617820769202 0 0.00025139836226427734 0.0086326780464331676 0 0.00039054745305263299 0.008758424618079819 0 0.00025139836226427734 0.0086326780464331676 0 0.00026473594404651158 0.0087855023575235686 0 0.00039054745305263299 0.008758424618079819 0 0.00026473594404651158 0.0087855023575235686 0 5.0368654355201896e-05 0.0086472789132287335 0 0.00022072068286721946 0.008972350798315076 0 5.0368654355201896e-05 0.0086472789132287335 0 0.00022072068286721946 0.008972350798315076 0 -0.00017056900357433069 0.0089627429064646942 0 0.00026473594404651158 0.0087855023575235686 0 0.00022072068286721946 0.008972350798315076 0 0.00044095206596419904 0.0089557504620364405 0 0.00026473594404651158 0.0087855023575235686 0 0.00044095206596419904 0.0089557504620364405 0 0.00039054745305263299 0.008758424618079819 0 0.00022072068286721946 0.008972350798315076 0 0.00044095206596419904 0.0089557504620364405 0 0.0004540281308535766 0.0091003377406479024 0 -0.00037667692790228544 0.0084395421400812187 0 -0.00042034827674925418 0.0087047324347744471 0 -0.00020531382228710333 0.0086456332280403433 0 -0.00015762406441490996 0.008449240737462926 0 5.0368654355201896e-05 0.0086472789132287335 0 -0.00020531382228710333 0.0086456332280403433 0 5.0368654355201896e-05 0.0086472789132287335 0 -0.00020531382228710333 0.0086456332280403433 0 -0.00017056900357433069 0.0089627429064646942 0 -0.00042034827674925418 0.0087047324347744471 0 -0.00020531382228710333 0.0086456332280403433 0 -0.00017056900357433069 0.0089627429064646942 0 0.00022144279383548674 0.0096761728088429096 0 0.00050927894375363053 0.010134568586071358 0 0.00090497132935487071 0.011322985761676299 0 0.00101425656199887 0.011013095234541076 0 0.0011637519509204849 0.011243294955142596 0 0.00090497132935487071 0.011322985761676299 0 0.0011637519509204849 0.011243294955142596 0 0.0010012413800504214 0.011459822996782177 0 0.00050927894375363053 0.010134568586071358 0 0.00062713839166065298 0.01020368795134869 0 0.0011637519509204849 0.011243294955142596 0 0.0011787805067255475 0.011242474353020076 0 0.0011239930039246434 0.011268784852526798 0 0.0011637519509204849 0.011243294955142596 0 0.0011787805067255475 0.011242474353020076 0 0.0010012413800504214 0.011459822996782177 0 0.0010608939959779106 0.011434715803844059 0 0.0011787805067255475 0.011242474353020076 0 0.0012201090824321339 0.010743586918883446 0 0.0010608939959779106 0.011434715803844059 0 0.0011787805067255475 0.011242474353020076 0 0.0010012413800504214 0.011459822996782177 0 0.00080281304982550449 0.011832666680999165 0 0.0010608939959779106 0.011434715803844059 0 0.0010012413800504214 0.011459822996782177 0 0.00022072068286721946 0.008972350798315076 0 0.00041761112168623511 0.0092114222663604774 0 0.0004540281308535766 0.0091003377406479024 0 0.0004540281308535766 0.0091003377406479024 0 0.00065703170344177009 0.0092600174933084537 0 0.00058726378273816875 0.009112300485658812 0 0.00041761112168623511 0.0092114222663604774 0 0.0004540281308535766 0.0091003377406479024 0 0.00065703170344177009 0.0092600174933084537 0 0.00044095206596419904 0.0089557504620364405 0 0.0004540281308535766 0.0091003377406479024 0 0.00058726378273816875 0.009112300485658812 0 0.00022072068286721946 0.008972350798315076 0 0.00041761112168623511 0.0092114222663604774 0 8.6641163334366119e-05 0.0092303368422783152 0 0.00022072068286721946 0.008972350798315076 0 -0.00017056900357433069 0.0089627429064646942 0 8.6641163334366119e-05 0.0092303368422783152 0 0.0011239930039246434 0.011268784852526798 0 0.0012201090824321339 0.010743586918883446 0 0.00066842174615651059 0.0097860657255702949 0 0.00041761112168623511 0.0092114222663604774 0 8.6641163334366119e-05 0.0092303368422783152 0 0.00066842174615651059 0.0097860657255702949 0 0.00062713839166065298 0.01020368795134869 0 0.00064378424529111847 0.009887628891312358 0 0.0011787805067255475 0.011242474353020076 0 0.0011239930039246434 0.011268784852526798 0 0.0012201090824321339 0.010743586918883446 0 0.00041761112168623511 0.0092114222663604774 0 0.00066842174615651059 0.0097860657255702949 0 0.00065703170344177009 0.0092600174933084537 0 0.00066842174615651059 0.0097860657255702949 0 0.00065703170344177009 0.0092600174933084537 0 0.00079614852067340391 0.0092053608971035313 0 0.00068623868923138609 0.0091445035266529504 0 0.00057838787116697057 0.0090895703377314764 0 0.00068425377437936229 0.008977330112684364 0 0.00079614852067340391 0.0092053608971035313 0 0.00068623868923138609 0.0091445035266529504 0 0.00068425377437936229 0.008977330112684364 0 0.00065703170344177009 0.0092600174933084537 0 0.00079614852067340391 0.0092053608971035313 0 0.00068623868923138609 0.0091445035266529504 0 0.00065703170344177009 0.0092600174933084537 0 0.00068623868923138609 0.0091445035266529504 0 0.00058726378273816875 0.009112300485658812 0 0.00068623868923138609 0.0091445035266529504 0 0.00058726378273816875 0.009112300485658812 0 0.00057838787116697057 0.0090895703377314764 0 0.00058726378273816875 0.009112300485658812 0 0.00057838787116697057 0.0090895703377314764 0 0.00053220801517031493 0.0090273887043334344 0 0.00044095206596419904 0.0089557504620364405 0 0.00058726378273816875 0.009112300485658812 0 0.00053220801517031493 0.0090273887043334344 0 0.00044824672474559082 0.0090479653252134827 0 0.0004311629032386743 0.0090362971254157026 0 0.00051290741313663769 0.0090244097574191714 0 0.00044824672474559082 0.0090479653252134827 0 0.00057838787116697057 0.0090895703377314764 0 0.00051290741313663769 0.0090244097574191714 0 0.00057838787116697057 0.0090895703377314764 0 0.00053220801517031493 0.0090273887043334344 0 0.00051290741313663769 0.0090244097574191714 0 0.00044824672474559082 0.0090479653252134827 0 0.00057838787116697057 0.0090895703377314764 0 0.00039014929940722255 0.0089648331139776469 0 0.00035240241642156577 0.0084349513922413275 0 0.00039014929940722255 0.0089648331139776469 0 0.00068425377437936229 0.008977330112684364 0 0.00057838787116697057 0.0090895703377314764 0 0.00039014929940722255 0.0089648331139776469 0 0.00068425377437936229 0.008977330112684364 0 -1.2996028911945463e-05 0.0087202373478042251 0 -0.00034798495020490648 0.0088293832427003387 0 0.00022517884264995608 0.0089993446254167993 0 0.00039014929940722255 0.0089648331139776469 0 -1.2996028911945463e-05 0.0087202373478042251 0 0.00022517884264995608 0.0089993446254167993 0 0.00035240241642156577 0.0084349513922413275 0 0.00039014929940722255 0.0089648331139776469 0 -1.2996028911945463e-05 0.0087202373478042251 0 -0.00091183661617430154 0.0028774101546777632 0 -0.00088424539120199167 0.0028887463152537408 0 -0.00085396170588086903 0.002856052407659372 0 -0.00034798495020490648 0.0088293832427003387 0 0.00022517884264995608 0.0089993446254167993 0 0.00024946941240870337 0.009072551699692108 0 -0.00079318155899199615 0.005245820066069138 0 -0.00025506283088403797 0.0060633473860005485 0 0.00022517884264995608 0.0089993446254167993 0 0.0004311629032386743 0.0090362971254157026 0 0.00024946941240870337 0.009072551699692108 0 0.00044824672474559082 0.0090479653252134827 0 0.00039014929940722255 0.0089648331139776469 0 0.00022517884264995608 0.0089993446254167993 0 0.00044824672474559082 0.0090479653252134827 0 0.00022517884264995608 0.0089993446254167993 0 0.0004311629032386743 0.0090362971254157026 0 0.0005039896949389376 0.0089608169127527761 0 0.00024946941240870337 0.009072551699692108 0 0.00067704295125257897 0.0088240316767653412 0 0.0004311629032386743 0.0090362971254157026 0 0.0005039896949389376 0.0089608169127527761 0 0.00024946941240870337 0.009072551699692108 0 -0.00025506283088403797 0.0060633473860005485 0 9.5368057130584659e-05 0.0059200136980523486 0 0.0005039896949389376 0.0089608169127527761 0 0.00056321663863294065 0.0088813408328377256 0 0.0005206540496691148 0.0089440297084413378 0 0.0004311629032386743 0.0090362971254157026 0 0.0005039896949389376 0.0089608169127527761 0 0.0005206540496691148 0.0089440297084413378 0 -0.00085396170588086903 0.002856052407659372 0 -0.00085994840689550983 0.0029727006292843321 0 -0.00045445467542887778 0.0030135313270357829 0 -0.00091183661617430154 0.0028774101546777632 0 -0.00085396170588086903 0.002856052407659372 0 -0.00088858016062278063 0.0029326870901169523 0 -0.00085396170588086903 0.002856052407659372 0 -0.00088858016062278063 0.0029326870901169523 0 -0.00085994840689550983 0.0029727006292843321 0 -0.00090447126673436973 0.0029963376262490066 0 -0.00088858016062278063 0.0029326870901169523 0 -0.00085994840689550983 0.0029727006292843321 0 -0.00071415762760222668 0.0039347477760867233 0 -0.00099969868293718102 0.003192750856081237 0 -0.00045445467542887778 0.0030135313270357829 0 -0.00085994840689550983 0.0029727006292843321 0 -0.00099969868293718102 0.003192750856081237 0 -0.00045445467542887778 0.0030135313270357829 0 -0.00090447126673436973 0.0029963376262490066 0 -0.00085994840689550983 0.0029727006292843321 0 -0.00099969868293718102 0.003192750856081237 0 -0.00090447126673436973 0.0029963376262490066 0 -0.00088232423387283156 0.0029088150807660192 0 -0.00099969868293718102 0.003192750856081237 0 0.00056321663863294065 0.0088813408328377256 0 0.00067704295125257897 0.0088240316767653412 0 0.00058565492055751543 0.0087648640698623336 0 0.0005039896949389376 0.0089608169127527761 0 0.00056321663863294065 0.0088813408328377256 0 0.00067704295125257897 0.0088240316767653412 0 0.00056321663863294065 0.0088813408328377256 0 0.00052388543170725033 0.0088354280914198485 0 0.0005206540496691148 0.0089440297084413378 0 0.00056321663863294065 0.0088813408328377256 0 0.00058565492055751543 0.0087648640698623336 0 0.00052388543170725033 0.0088354280914198485 0 0.00052388543170725033 0.0088354280914198485 0 0.00048410361260513914 0.0087002436468629832 0 0.00049527731714404304 0.0089010235514111937 0 0.00058565492055751543 0.0087648640698623336 0 0.00052388543170725033 0.0088354280914198485 0 0.00048410361260513914 0.0087002436468629832 0 0.00058823052136804457 0.008550788736891515 0 0.00058565492055751543 0.0087648640698623336 0 0.00048410361260513914 0.0087002436468629832 0 0.00035377934960185585 0.0085193617820769202 0 0.00048410361260513914 0.0087002436468629832 0 0.00039054745305263299 0.008758424618079819 0 0.00048410361260513914 0.0087002436468629832 0 0.00039054745305263299 0.008758424618079819 0 0.00049527731714404304 0.0089010235514111937 0 0.00044095206596419904 0.0089557504620364405 0 0.00039054745305263299 0.008758424618079819 0 0.00049527731714404304 0.0089010235514111937 0 0.00049527731714404304 0.0089010235514111937 0 0.00053220801517031493 0.0090273887043334344 0 0.00051290741313663769 0.0090244097574191714 0 0.00044095206596419904 0.0089557504620364405 0 0.00049527731714404304 0.0089010235514111937 0 0.00053220801517031493 0.0090273887043334344 0 0.0004311629032386743 0.0090362971254157026 0 0.00051290741313663769 0.0090244097574191714 0 0.0005206540496691148 0.0089440297084413378 0 0.00049527731714404304 0.0089010235514111937 0 0.00051290741313663769 0.0090244097574191714 0 0.0005206540496691148 0.0089440297084413378 0 0.00052388543170725033 0.0088354280914198485 0 0.00049527731714404304 0.0089010235514111937 0 0.0005206540496691148 0.0089440297084413378 0 
</DataArray>
</PointData>
<CellData Scalars="region_id,cross_section_updated," Vectors="" Tensors="stress,">
<DataArray type="Float64" Name="region_id" format="ascii">
5 5 5 5 6 5 5 6 5 5 5 6 6 5 5 5 5 6 5 5 5 6 5 5 5 5 5 6 5 5 5 6 5 5 5 5 5 5 5 6 6 5 5 5 5 5 5 5 5 5 5 5 5 5 5 6 5 5 6 5 5 5 5 5 5 5 5 5 5 5 5 5 5 5 5 5 5 5 5 5 5 5 6 5 6 5 5 6 6 5 5 5 6 5 5 6 5 5 5 5 5 5 6 5 5 5 6 5 6 5 5 5 5 5 5 5 5 5 5 5 5 5 5 5 5 5 5 5 5 5 5 5 5 5 5 5 5 5 5 6 5 5 5 6 5 5 5 5 5 5 5 5 5 5 5 5 5 5 5 5 5 5 5 5 5 5 5 5 6 5 5 5 5 5 5 5 5 5 5 5 5 5 5 5 5 5 5 5 5 5 5 5 5 5 6 5 5 5 5 6 5 5 5 5 5 5 5 5 5 5 5 5 5 5 5 5 5 5 5 5 5 5 5 5 5 5 5 6 5 6 5 5 5 5 5 5 5 6 5 5 5 5 5 5 5 5 5 6 5 5 5 5 5 5 5 5 5 5 5 5 5 5 5 5 6 5 5 6 5 5 5 5 5 5 5 5 5 6 5 5 6 5 5 5 5 5 5 5 5 5 5 5 5 6 5 5 5 5 5 5 5 5 5 5 5 5 5 5 5 5 5 5 5 5 5 5 5 5 5 5 5 5 5 5 5 5 5 5 5 5 5 5 5 5 5 5 5 5 5 5 5 5 5 5 5 5 5 5 5 5 5 5 5 5 5 5 5 5 5 6 5 5 5 6 5 6 5 5 6 5 6 6 5 5 5 5 5 5 5 5 5 5 5 5 5 6 5 5 5 5 5 5 5 6 5 5 5 5 5 5 5 5 5 5 5 5 5 5 5 6 5 5 5 5 5 5 6 5 5 5 5 5 5 5 5 5 5 5 5 5 5 5 5 5 5 5 5 5 5 5 5 5 5 6 5 6 6 5 5 5 5 5 5 5 5 5 5 5 6 5 5 6 5 5 5 5 5 6 5 5 6 5 5 5 5 5 6 5 5 5 5 5 5 5 5 5 6 5 5 5 5 6 5 5 6 5 5 5 5 6 5 5 5 5 5 5 5 6 5 5 5 5 6 5 6 5 5 5 5 5 5 5 5 6 6 5 5 5 5 6 5 5 5 6 5 6 5 6 6 5 6 5 5 5 5 5 5 5 6 5 5 6 5 5 5 5 6 5 5 5 6 6 5 5 5 5 5 6 5 5 5 5 5 5 6 5 5 5 5 5 5 5 5 5 5 5 5 5 5 5 5 5 5 5 5 5 5 5 5 5 5 5 5 5 5 5 5 5 5 5 5 5 5 6 5 5 5 6 5 5 5 5 5 5 5 6 5 5 5 5 5 5 5 5 5 5 5 5 5 5 5 5 5 5 5 5 5 5 5 5 5 5 5 5 5 6 5 6 5 5 5 6 5 5 5 5 6 5 5 5 5 5 6 5 5 5 5 5 5 5 5 5 5 6 6 5 5 5 5 5 5 5 6 5 6 5 5 5 5 5 6 5 5 5 5 5 5 5 6 5 5 5 6 5 6 5 5 6 6 5 5 6 5 6 5 6 6 5 5 5 5 5 6 5 5 5 6 5 5 5 5 5 5 6 5 5 5 6 5 5 6 5 5 5 5 5 5 5 5 5 5 5 5 5 6 5 5 5 5 5 5 5 5 5 5 5 5 5 5 5 5 5 5 5 5 5 5 5 6 6 5 5 5 5 6 5 6 5 5 5 5 5 5 5 5 5 5 6 5 5 5 5 5 5 5 5 5 5 5 5 5 5 5 5 5 5 5 5 5 5 5 5 5 5 5 5 5 5 5 5 5 6 5 6 5 5 5 5 5 5 5 6 6 5 5 5 5 5 5 5 5 5 5 5 5 5 5 5 5 5 6 5 5 6 5 5 5 5 5 5 5 6 5 5 6 5 5 5 6 5 5 5 5 5 5 5 5 5 5 5 5 5 5 5 5 5 5 6 5 5 6 5 5 5 5 5 6 5 5 6 5 5 5 6 5 5 6 5 5 5 5 5 5 5 5 5 5 5 5 5 5 6 5 5 5 5 5 5 5 5 5 6 5 5 5 5 5 5 5 6 5 5 5 5 5 6 5 5 5 5 5 5 5 5 5 5 5 6 5 5 5 5 5 5 5 5 5 6 5 5 5 6 5 5 5 6 5 5 5 5 5 5 5 6 5 5 6 5 5 5 6 6 5 6 5 5 5 5 5 5 5 5 5 6 5 5 5 5 6 6 6 6 6 5 6 5 5 5 6 5 5 6 6 5 5 6 5 5 5 6 5 5 6 5 5 5 5 5 6 5 5 5 5 5 5 5 5 5 5 5 5 5 6 6 5 5 6 6 5 5 6 5 5 5 6 5 5 5 5 5 6 5 5 6 5 6 5 5 5 5 5 5 5 5 6 5 6 5 5 5 6 6 5 5 5 6 6 5 6 5 5 5 5 5 5 6 5 5 6 5 5 5 6 6 5 6 5 6 5 6 5 5 5 5 5 6 5 5 5 5 6 5 5 5 5 6 5 5 5 5 5 5 6 5 5 5 5 5 5 5 5 6 5 5 5 5 5 5 6 5 5 5 5 5 5 5 5 5 6 5 5 5 5 6 5 5 6 5 6 5 5 6 5 5 5 6 6 5 5 5 5 6 5 5 5 6 5 5 5 5 5 5 5 5 5 5 5 5 5 5 5 5 5 5 5 5 5 5 6 6 5 6 5 6 5 6 5 5 6 5 5 5 5 5 5 5 5 5 6 5 5 5 5 6 5 6 5 5 5 5 6 6 6 6 5 5 6 5 5 6 5 5 6 6 5 5 6 5 5 5 6 5 5 6 5 5 6 5 5 6 5 5 5 5 6 5 5 5 6 6 5 5 5 6 5 5 5 5 5 5 5 5 5 5 5 5 5 6 6 5 5 5 5 6 6 5 5 5 6 5 5 5 5 5 5 5 6 5 5 5 5 5 5 5 5 5 5 5 5 5 5 5 5 5 5 5 5 5 5 5 5 5 5 5 5 5 5 5 5 5 5 5 5 5 5 5 5 5 5 5 5 6 5 5 5 5 5 5 5 5 5 5 5 5 6 5 5 5 6 5 5 5 5 6 5 5 5 5 5 5 5 5 6 5 5 5 5 5 5 5 5 5 5 5 5 5 5 5 6 5 5 6 5 5 6 5 5 5 5 6 5 5 5 5 5 5 5 5 5 5 5 5 5 5 6 5 5 5 5 6 5 5 5 6 5 6 5 5 5 5 6 6 5 5 6 5 5 5 5 5 6 5 6 5 5 5 5 5 5 5 5 6 5 5 6 5 5 6 6 5 5 5 5 6 5 5 5 5 5 5 5 5 5 6 5 5 5 5 6 5 6 5 5 5 5 5 6 6 5 5 6 5 5 5 5 6 5 5 6 6 5 6 6 6 6 5 5 6 5 5 6 5 5 5 5 5 5 5 5 5 5 5 5 5 5 5 5 5 6 5 6 5 6 6 5 5 5 6 5 5 5 5 5 5 5 5 5 6 5 5 5 5 5 5 5 5 5 5 5 5 5 5 5 5 5 5 5 5 5 5 5 5 5 5 5 5 6 5 6 5 5 6 5 5 5 5 6 5 5 5 5 5 5 5 5 5 5 5 5 5 5 5 5 5 5 5 5 6 5 5 6 5 5 5 5 5 5 5 5 6 5 5 5 5 5 5 5 5 5 5 5 5 5 5 6 5 5 5 5 5 5 5 5 5 6 5 5 5 5 5 5 6 5 5 5 5 5 5 5 6 5 5 5 5 5 5 6 5 5 5 5 5 5 5 5 6 5 5 5 5 5 5 6 5 5 5 6 5 5 6 5 5 5 5 5 5 6 5 5 6 6 5 5 6 5 5 5 6 5 5 6 5 5 5 5 5 5 5 5 5 5 5 5 5 5 5 5 5 5 5 5 5 5 5 5 5 5 6 5 5 6 5 5 5 5 6 5 5 5 5 5 5 6 5 5 5 5 5 5 5 5 5 5 5 5 5 5 5 5 5 6 5 5 5 5 5 5 6 5 5 5 5 5 5 5 5 5 5 5 5 5 5 5 5 5 5 5 5 6 5 5 5 5 5 5 5 5 5 6 5 6 5 5 5 6 5 5 5 5 5 5 5 5 5 5 6 5 5 5 5 5 5 5 5 5 5 5 5 5 5 5 5 5 5 5 5 5 5 6 5 6 5 5 5 5 5 5 5 5 5 5 5 6 5 5 5 5 5 5 5 6 6 5 5 5 5 6 5 6 5 6 5 5 5 5 5 5 6 5 6 5 5 5 5 5 5 5 5 5 6 5 5 6 5 5 5 5 5 5 5 5 5 5 5 5 5 5 5 5 5 5 5 5 5 5 5 5 5 5 5 5 5 5 5 5 5 5 5 5 5 5 5 5 5 5 5 5 5 5 5 6 5 5 5 6 5 5 5 5 5 5 5 5 5 5 5 6 5 5 5 5 6 5 5 5 5 5 6 5 5 5 5 6 5 5 5 5 6 5 6 5 6 5 5 6 6 6 5 5 5 6 5 5 5 5 5 6 5 5 5 5 6 5 5 5 5 5 5 5 5 5 5 5 5 6 5 5 6 5 5 6 5 6 5 5 5 6 5 5 5 5 6 5 5 5 5 5 6 5 5 5 5 6 5 5 5 5 5 5 5 6 5 5 5 6 5 5 5 5 5 5 5 5 5 5 5 5 5 5 5 5 5 5 5 5 5 5 5 5 5 5 5 5 5 6 5 6 5 5 5 5 6 5 5 5 5 5 5 6 5 5 5 5 5 5 5 5 5 5 5 5 5 5 5 6 5 5 5 5 5 5 5 5 5 5 5 5 5 5 5 5 5 5 5 5 5 5 6 5 5 5 6 5 6 5 5 6 5 5 5 6 5 5 6 5 5 6 5 6 5 5 5 5 5 5 5 5 5 5 5 5 5 6 5 5 5 5 5 5 5 6 5 5 5 5 5 5 5 5 6 5 5 5 5 5 5 6 5 5 5 5 5 5 5 5 5 6 5 5 6 5 5 5 5 6 5 5 5 6 6 5 5 5 6 5 6 5 5 5 5 6 6 5 5 5 6 5 5 6 5 5 6 5 5 5 5 5 5 5 5 5 5 5 5 6 5 5 5 5 5 5 5 5 5 6 5 5 5 6 6 5 5 6 5 5 5 5 5 5 5 5 5 5 5 5 6 5 5 5 5 5 5 5 5 5 5 5 5 5 5 5 5 5 5 5 5 5 5 5 5 5 5 5 5 5 5 5 5 5 5 5 5 5 5 5 5 5 5 5 5 5 5 5 5 5 5 5 5 5 5 5 5 5 5 5 5 5 5 5 5 5 5 5 5 5 5 5 5 5 6 6 5 5 6 5 5 5 5 5 5 5 5 5 5 6 5 5 6 5 5 5 5 5 5 5 5 5 5 5 5 5 6 6 5 5 5 5 5 5 6 6 5 5 5 5 5 5 5 5 5 5 5 5 5 6 5 5 6 5 5 5 5 5 5 5 5 5 5 5 5 5 5 5 5 5 5 5 5 5 5 5 5 5 5 5 5 5 6 5 5 5 5 5 5 5 5 5 5 5 5 5 5 5 5 5 5 5 5 5 6 5 5 5 5 5 5 5 5 5 5 5 5 5 5 5 6 5 5 5 5 5 5 5 5 5 5 6 6 5 5 5 6 5 5 5 5 5 5 5 5 5 5 5 5 5 6 5 5 5 5 5 5 5 5 5 5 5 5 6 5 5 5 5 5 5 5 5 5 5 5 5 5 5 5 5 5 5 5 5 5 5 5 5 5 5 5 5 5 5 5 5 5 5 5 5 5 5 5 5 5 5 5 5 5 5 5 6 5 5 5 6 5 5 5 5 5 5 5 5 5 5 5 6 5 5 6 6 5 5 5 5 5 5 5 5 6 5 6 5 5 5 5 5 5 5 5 5 5 6 5 5 6 5 6 5 5 6 5 5 5 5 5 5 5 6 5 6 5 5 5 5 6 5 5 5 5 5 5 6 5 5 5 5 5 5 5 5 5 5 5 5 5 5 5 5 5 5 5 5 5 5 5 5 5 5 5 5 5 5 5 5 5 5 5 6 5 5 6 5 6 5 5 6 5 5 5 5 5 5 5 5 5 5 5 5 5 5 5 5 5 5 5 5 6 5 5 5 6 5 5 5 5 5 5 5 5 5 5 5 5 5 5 5 5 5 5 5 5 5 5 5 5 5 5 5 5 5 5 5 5 5 5 5 5 5 5 5 5 5 5 5 5 5 5 5 5 5 5 5 5 5 5 6 5 5 5 5 5 5 5 5 5 5 5 5 5 5 5 5 5 5 5 5 5 5 5 5 5 5 5 5 5 5 5 5 5 5 5 6 6 5 5 5 5 5 5 5 5 6 5 5 5 5 6 5 5 5 5 5 5 5 5 5 5 5 5 5 5 5 5 5 5 5 5 5 5 5 5 5 5 5 5 5 5 5 5 5 5 5 5 5 5 5 5 5 5 6 5 5 6 5 5 5 5 5 5 5 5 5 5 5 5 5 5 6 5 5 5 5 5 5 5 5 5 5 5 5 5 5 5 6 5 6 5 5 5 5 5 6 5 5 5 5 5 5 5 5 5 6 5 5 5 5 5 5 5 5 6 5 5 5 5 5 5 5 5 5 5 5 5 5 5 5 5 5 5 6 5 6 5 5 5 5 5 5 5 6 5 5 5 5 5 6 5 5 5 5 6 5 6 5 5 5 5 5 5 5 5 5 5 5 5 5 5 5 6 5 5 5 6 5 5 6 5 5 5 5 6 5 5 5 5 5 5 5 6 5 5 5 5 5 5 5 5 5 5 5 5 5 5 5 5 5 5 5 5 6 5 5 6 5 5 5 5 5 5 5 5 5 5 5 5 5 5 6 5 5 5 5 5 5 5 5 5 5 5 5 5 5 6 5 5 5 5 5 5 6 5 5 5 5 5 5 5 5 5 5 5 5 5 5 5 5 5 6 5 5 5 5 5 6 5 5 5 5 5 5 5 5 5 6 5 5 5 6 5 5 5 5 5 5 5 5 5 5 6 5 5 5 6 5 5 5 5 6 5 5 5 5 6 5 5 5 6 5 5 5 5 5 5 5 5 6 5 5 5 5 6 5 5 5 5 5 5 5 5 5 6 5 5 5 5 6 5 6 5 5 5 5 5 5 6 5 5 5 6 5 6 5 5 5 5 5 5 5 5 5 5 5 5 5 5 5 5 5 5 5 5 5 5 5 5 5 5 5 5 5 5 5 5 5 5 5 5 5 5 5 5 5 5 5 5 5 5 5 5 5 5 5 5 5 5 5 5 5 6 5 5 5 5 5 5 5 5 6 5 5 5 5 6 5 5 5 5 5 5 5 5 5 5 6 5 5 6 5 5 5 5 5 5 5 6 5 5 5 5 5 6 5 5 5 5 5 5 6 5 5 5 5 6 5 5 5 5 5 5 5 5 5 5 6 5 5 5 5 5 6 5 5 6 5 5 5 5 5 5 5 5 5 5 5 5 5 5 5 5 5 5 5 5 5 6 5 5 5 5 5 6 5 5 5 5 5 5 5 5 5 5 5 5 5 5 5 5 5 5 5 5 5 5 5 5 6 5 5 5 5 6 5 5 6 5 5 5 5 5 5 5 5 5 5 5 6 5 5 5 5 5 5 5 5 5 5 5 6 5 6 5 5 5 6 5 5 5 5 6 5 5 5 5 5 5 5 5 5 5 6 5 5 5 5 6 5 5 5 5 5 6 5 5 6 5 5 5 5 5 5 5 5 5 5 5 6 5 5 5 6 5 5 6 5 5 5 5 5 5 5 5 5 6 5 5 5 5 5 5 5 5 5 5 5 5 5 6 5 5 5 5 5 5 5 5 5 6 5 5 5 5 5 6 5 5 6 6 5 5 5 6 6 5 5 6 5 5 5 5 6 5 5 5 5 6 5 5 5 5 5 5 5 5 5 5 5 6 6 6 5 6 5 6 5 6 6 5 5 5 5 5 5 5 5 5 5 5 5 6 5 5 5 5 5 5 5 5 5 5 5 5 5 5 5 5 5 5 5 5 5 5 6 5 5 5 5 6 5 5 5 5 5 5 5 6 5 5 5 5 5 6 5 5 5 5 5 5 5 5 5 5 5 5 5 5 5 5 5 5 5 5 5 5 5 5 5 5 5 5 5 5 5 5 6 5 5 5 5 5 6 6 6 5 5 5 5 5 5 6 5 5 6 5 6 5 5 6 5 5 5 5 5 5 5 6 5 5 5 6 5 5 5 5 5 5 5 5 5 5 5 5 5 5 5 5 5 5 5 5 5 5 5 5 5 5 5 5 5 5 5 5 5 5 5 5 5 5 5 5 5 5 5 5 5 5 5 5 5 5 5 5 5 5 5 5 5 5 5 5 5 5 5 5 5 5 5 5 5 5 5 5 5 5 5 5 5 5 5 5 5 5 5 5 6 5 5 5 5 5 5 5 5 5 5 5 5 5 5 5 5 5 5 5 5 5 5 5 5 5 5 5 5 6 5 5 5 5 5 5 5 5 6 5 5 5 5 5 6 5 6 6 6 5 6 5 5 5 6 5 5 5 5 5 5 5 5 5 5 5 6 5 5 5 5 5 5 5 5 5 5 5 5 5 6 5 5 5 5 5 5 5 5 5 5 6 6 5 6 5 5 5 5 5 5 5 5 5 5 6 5 6 5 5 5 5 5 5 5 5 5 5 6 5 5 5 6 5 5 5 5 5 5 5 5 5 5 5 5 5 5 5 5 5 5 5 5 5 5 5 5 6 5 5 6 6 5 5 6 5 5 6 5 5 5 5 5 5 5 5 5 5 5 5 5 5 5 5 5 5 5 5 5 5 5 5 5 5 5 5 5 5 5 5 5 5 5 5 5 5 5 5 5 5 5 5 5 6 5 5 5 5 5 5 5 5 6 6 5 5 5 5 5 6 5 5 5 6 5 5 5 5 5 5 6 5 5 5 5 5 5 5 5 5 5 5 6 5 5 5 5 5 6 5 5 5 5 5 5 5 5 5 5 5 5 6 5 5 5 6 5 5 5 5 5 5 5 6 5 5 5 5 5 5 5 5 5 6 6 5 5 5 5 5 5 5 5 5 5 5 5 5 5 6 5 5 5 6 5 5 5 5 5 5 5 5 5 5 5 5 5 5 5 5 5 5 5 6 5 6 6 5 5 5 6 6 5 6 6 5 5 5 5 5 6 5 6 5 5 5 5 5 5 5 5 5 6 6 5 5 6 6 5 5 5 5 5 5 6 5 5 5 6 5 5 5 5 5 5 5 5 5 5 5 5 5 5 5 5 5 5 5 5 5 5 5 5 5 5 5 6 5 6 5 5 5 5 6 5 5 6 6 5 5 5 6 5 5 6 5 5 6 5 5 5 5 5 5 5 5 5 5 5 5 5 5 5 5 5 6 5 5 5 5 5 5 5 5 5 5 5 5 5 6 5 5 5 5 5 6 5 6 5 5 5 5 5 5 6 5 5 5 6 5 5 5 5 5 5 5 5 5 5 5 5 5 5 5 5 5 5 5 5 5 5 5 5 5 6 5 5 5 5 5 6 5 5 5 5 5 5 5 5 5 5 5 5 5 5 5 5 5 5 5 5 5 5 5 5 5 5 5 5 5 5 5 5 5 5 5 5 5 5 5 5 5 5 5 5 5 5 5 5 5 5 6 5 5 5 6 5 5 5 5 5 5 5 6 5 5 5 5 5 5 5 5 5 5 5 5 5 5 5 5 5 5 5 5 5 5 5 5 5 5 5 6 5 5 5 5 5 5 6 6 5 5 5 5 6 5 5 5 5 5 5 6 5 5 6 5 5 5 6 5 5 5 5 5 5 6 5 5 5 5 5 5 5 5 5 5 5 5 5 5 5 5 5 5 6 5 5 5 5 6 6 5 5 5 6 5 5 5 5 5 5 6 5 6 5 5 6 5 5 5 5 5 5 5 5 6 5 5 5 5 5 5 5 5 5 5 5 5 5 5 5 5 5 5 6 5 5 5 5 5 5 6 5 5 5 5 5 5 6 5 5 5 5 5 5 6 5 5 5 6 5 5 5 5 5 5 5 5 5 5 5 5 5 5 5 5 5 5 5 5 5 5 5 6 5 6 5 5 5 5 5 5 5 5 5 5 5 6 5 6 5 6 5 5 5 5 5 5 5 5 5 5 5 5 5 6 5 5 5 5 5 5 6 5 6 5 5 5 6 5 5 5 6 5 5 5 5 6 5 6 5 5 5 5 6 5 5 5 5 5 6 5 5 5 5 5 5 5 5 5 5 5 5 5 6 5 5 5 6 5 5 5 5 6 5 5 5 5 5 5 5 5 5 5 5 5 5 5 5 5 5 5 5 5 6 5 5 5 5 5 6 5 5 5 5 5 5 5 5 5 5 5 5 5 5 5 5 5 5 6 5 5 5 5 5 5 5 5 5 5 5 6 5 5 5 5 5 5 5 5 5 5 5 5 5 5 5 5 5 5 5 5 5 5 5 5 5 5 5 5 5 5 5 5 5 5 6 5 5 5 5 5 5 5 5 5 5 5 5 5 5 5 5 5 5 5 5 5 5 5 5 5 5 5 5 5 5 5 5 5 5 5 5 5 5 5 5 5 5 5 5 5 5 5 5 5 5 5 6 5 5 6 5 6 5 5 6 5 5 5 5 5 6 5 5 5 5 5 5 6 5 5 5 5 5 5 5 5 5 5 5 5 5 5 5 5 5 5 5 5 5 5 5 5 6 5 5 5 5 5 5 5 5 5 5 6 5 5 5 5 5 5 5 5 5 5 5 5 5 5 5 5 5 5 5 5 6 5 5 5 5 6 5 5 6 5 5 5 5 6 5 5 5 6 5 6 6 6 5 5 6 5 5 5 5 5 5 6 5 5 5 5 5 5 5 5 6 6 5 5 5 5 5 5 5 5 5 5 5 5 5 5 5 5 5 5 5 5 5 5 5 5 6 5 5 5 5 6 5 5 5 5 5 5 5 6 5 5 5 5 6 5 5 5 5 5 5 5 5 5 5 5 5 5 5 5 5 5 6 5 6 5 5 5 5 5 5 5 5 5 5 5 5 5 5 5 5 5 5 5 5 5 5 5 6 5 5 6 5 5 5 5 5 5 5 5 6 5 5 6 5 5 5 6 5 5 6 5 6 6 5 5 5 5 5 5 5 5 5 5 5 5 5 6 5 6 6 5 5 5 5 6 5 5 5 6 5 5 6 5 5 5 6 5 5 6 5 5 5 5 5 5 5 5 5 5 5 5 6 5 5 6 5 5 6 6 5 5 5 6 5 6 6 5 5 5 5 6 5 5 5 6 5 5 5 5 5 5 5 5 5 5 5 5 5 5 5 5 5 5 5 5 5 5 5 5 5 5 5 5 5 5 5 5 5 5 5 5 5 5 5 5 5 5 5 5 5 5 5 5 5 5 5 5 5 5 5 5 5 5 5 5 5 5 5 5 5 5 6 5 5 5 5 6 5 5 5 5 5 6 5 5 6 5 5 5 5 5 5 5 5 5 5 5 5 5 5 5 6 5 5 5 5 5 5 5 5 5 5 5 5 5 5 5 5 5 5 5 5 5 5 5 5 5 5 5 5 5 5 5 5 5 5 5 5 5 5 5 5 5 5 5 5 5 5 5 5 5 5 5 5 5 5 5 5 5 5 5 5 5 5 5 5 5 5 5 5 5 5 5 5 5 5 5 5 5 6 5 5 5 5 6 5 5 5 5 5 5 5 6 5 5 5 6 5 5 5 5 5 5 5 5 5 6 5 5 5 5 5 5 6 5 5 5 5 5 5 5 5 5 5 5 5 5 5 5 5 5 5 5 5 5 5 5 5 5 5 5 5 5 5 5 5 5 5 5 5 5 5 5 5 5 5 5 5 5 5 5 5 5 5 5 5 5 5 5 5 5 5 5 5 5 5 5 5 5 5 5 5 5 5 5 5 5 5 5 5 5 5 5 5 5 5 5 5 5 5 5 6 6 5 5 6 6 5 6 6 5 6 6 5 5 6 5 6 5 6 5 6 5 5 5 5 5 5 5 5 5 5 5 5 5 5 5 5 5 5 5 5 5 6 5 6 6 5 5 5 6 6 5 5 5 5 5 6 6 5 5 5 5 5 5 5 6 6 5 5 5 5 5 5 5 5 5 6 5 5 5 5 5 5 5 5 5 5 5 5 5 5 5 5 5 5 5 5 5 5 5 5 6 5 5 5 5 5 5 6 5 5 6 5 5 5 5 5 5 5 5 5 5 5 5 5 5 5 5 5 5 5 5 5 5 5 5 5 6 5 5 5 5 5 5 5 5 6 5 5 5 5 6 5 5 5 5 5 5 5 5 5 6 5 5 5 6 5 5 5 5 6 5 5 5 6 5 6 5 6 5 5 5 5 5 5 5 5 5 5 5 5 5 5 6 5 5 6 5 5 6 6 6 5 5 5 5 5 6 5 5 5 5 5 5 5 5 5 5 5 5 5 5 5 5 5 5 5 5 5 6 5 5 5 5 5 5 6 5 5 6 5 5 5 5 5 5 5 5 5 6 5 5 5 5 5 5 5 5 5 5 5 5 5 5 5 5 5 5 5 6 5 5 5 5 5 6 5 5 5 5 5 6 6 5 5 6 5 5 5 5 5 5 5 6 5 5 5 5 5 5 5 5 5 5 5 5 6 5 5 5 5 5 5 5 6 5 6 5 5 6 5 5 5 5 5 5 6 5 5 5 5 5 5 5 5 5 5 5 5 5 5 5 5 5 5 5 6 5 5 5 5 5 5 6 6 5 5 5 5 5 5 5 6 5 5 5 5 6 5 5 5 5 5 5 5 5 5 5 5 6 5 5 5 5 5 5 5 5 6 5 5 5 5 5 6 5 5 5 5 5 5 5 6 5 5 6 5 5 5 5 5 5 5 5 6 5 5 5 5 5 5 5 6 5 5 5 5 5 5 5 5 5 5 5 5 6 5 5 5 5 6 5 5 5 5 5 5 5 5 5 5 5 5 5 5 5 5 6 5 5 5 5 5 5 5 5 5 5 5 6 5 5 5 5 6 5 5 5 5 5 5 5 5 5 5 5 5 5 5 5 5 5 6 5 5 6 6 5 5 5 5 5 5 5 5 5 5 5 5 5 5 6 5 5 5 5 5 5 6 5 5 5 5 5 5 5 5 5 5 5 5 5 5 5 5 5 5 5 5 5 5 5 5 5 5 5 5 5 5 5 5 5 5 5 5 5 5 5 5 5 5 5 5 5 5 5 5 5 5 5 5 5 5 5 5 5 5 5 5 5 5 5 5 5 5 5 5 5 5 6 5 5 5 5 6 5 5 5 5 5 5 5 5 5 5 5 5 5 5 5 5 5 5 5 5 5 5 5 5 5 5 5 6 5 6 6 5 5 5 5 5 5 5 5 5 5 5 6 5 5 5 5 6 6 5 5 5 5 5 5 6 5 5 5 5 5 5 5 5 5 6 5 5 5 6 5 5 5 5 5 6 5 5 6 5 5 5 5 5 5 5 5 5 5 5 5 5 5 5 5 5 5 5 5 5 5 5 5 5 5 5 5 6 5 5 6 5 5 6 5 6 5 6 5 5 5 6 6 5 5 6 6 5 5 5 5 5 5 5 5 5 5 5 5 5 5 5 5 5 5 5 6 5 5 5 5 5 5 5 5 5 5 5 5 5 5 5 5 5 5 5 5 5 5 6 5 5 5 5 5 5 5 5 5 5 5 6 5 5 5 5 6 5 5 6 5 5 5 6 5 5 5 6 5 6 5 6 5 5 5 5 5 5 5 5 6 5 6 5 5 5 5 5 5 6 5 5 6 5 5 6 5 5 6 5 5 5 6 5 5 5 5 5 6 5 5 6 5 5 5 5 5 5 6 5 5 5 5 6 5 5 5 5 5 5 5 5 5 5 5 5 5 5 5 5 5 5 5 5 5 5 6 5 5 5 5 5 5 6 5 5 5 5 5 5 6 5 5 5 5 5 5 5 5 6 5 6 5 6 6 6 5 5 5 5 5 5 5 5 5 5 5 5 6 5 5 6 5 5 6 5 5 5 5 5 6 5 5 6 5 5 6 5 5 5 5 5 5 5 6 5 6 5 5 5 5 5 5 5 5 5 5 5 5 5 6 5 5 5 5 6 5 5 5 5 5 5 5 5 5 5 5 5 5 5 5 5 6 5 5 5 5 6 6 5 5 5 5 6 5 5 5 6 5 5 6 5 6 5 5 6 5 6 5 5 5 6 6 5 5 5 5 5 5 5 5 6 5 5 5 5 5 6 6 5 5 5 5 5 5 5 5 5 6 5 6 6 5 6 6 5 5 6 5 5 6 5 5 5 5 5 5 6 6 5 5 5 6 5 5 5 6 5 5 5 5 5 6 5 5 5 6 5 5 5 5 6 5 5 6 5 5 6 5 5 5 5 5 5 6 5 6 5 5 5 6 5 5 6 5 5 6 5 6 5 5 5 5 5 5 5 5 5 5 5 6 5 6 5 5 5 5 5 5 5 5 5 5 5 6 5 6 5 5 5 5 5 5 5 5 5 5 5 5 5 5 5 5 5 5 5 5 6 6 5 5 5 5 5 5 5 6 5 6 5 5 5 5 5 5 5 5 5 5 5 5 5 5 5 5 5 5 5 5 5 5 5 5 5 5 5 5 5 5 5 5 5 5 5 5 5 5 5 5 5 5 5 5 5 5 5 5 5 5 6 5 5 5 5 5 5 5 5 5 5 6 5 6 5 5 5 5 5 5 5 5 5 5 5 5 5 6 5 5 5 6 5 5 5 5 5 6 5 6 5 5 5 5 5 5 6 5 5 5 5 5 5 5 5 5 5 5 5 5 5 5 5 5 5 5 5 5 5 5 6 5 6 5 5 6 5 5 6 5 5 6 5 5 5 5 5 5 5 5 5 5 5 5 5 6 6 5 5 5 5 5 5 5 5 5 5 6 5 5 5 5 5 5 5 5 5 5 5 5 5 5 5 5 5 5 5 5 5 5 5 5 5 6 5 6 5 5 5 5 6 5 5 5 5 5 5 6 5 5 5 5 5 5 5 5 5 5 6 5 5 5 5 5 5 5 5 5 5 5 5 5 6 5 5 5 5 5 6 5 6 5 5 6 5 5 5 5 5 5 5 5 5 6 5 5 5 6 5 5 5 5 5 5 5 5 6 5 5 5 6 5 5 5 5 5 5 5 5 5 5 5 5 5 5 5 5 5 5 5 5 5 5 5 5 6 5 5 5 5 5 5 5 5 5 6 5 5 6 5 5 5 5 5 5 5 5 5 5 5 5 5 5 5 5 5 5 5 5 5 5 5 5 5 5 5 5 5 5 5 5 5 5 5 5 6 5 5 5 5 5 5 6 5 5 6 5 5 6 5 6 5 6 5 5 5 6 5 6 5 5 5 5 5 5 5 5 5 5 5 5 5 5 5 5 5 5 5 5 5 5 5 6 5 5 5 5 5 5 5 5 6 5 5 5 5 5 5 5 6 5 5 5 6 5 5 6 5 5 6 5 5 5 5 5 5 5 5 5 5 6 5 5 5 5 5 5 5 5 5 5 5 5 5 5 5 5 5 5 5 5 5 5 6 5 5 5 5 6 6 5 5 6 5 6 5 6 5 5 5 6 5 5 5 5 6 5 6 5 5 5 5 5 5 6 5 5 5 5 5 5 5 5 6 5 5 5 5 5 5 5 5 6 6 5 5 5 5 5 5 5 5 6 5 5 5 6 5 5 5 5 5 6 5 5 5 5 5 5 6 6 5 5 5 5 6 6 5 6 5 6 5 5 5 5 5 5 5 5 5 5 5 5 5 5 5 5 5 5 5 5 6 5 5 6 5 5 5 6 6 5 6 5 5 5 5 5 5 5 5 5 5 5 5 5 6 5 5 5 5 5 5 5 5 5 6 5 6 5 5 5 5 5 5 5 5 5 5 5 5 5 5 5 5 5 5 5 5 5 5 5 6 5 6 5 5 6 5 6 5 5 5 5 5 6 5 5 5 6 5 5 5 5 5 5 5 5 5 5 5 5 5 5 5 5 5 5 5 5 5 5 5 5 5 5 5 5 5 5 5 5 5 5 5 5 5 5 5 5 5 5 5 6 6 5 5 5 6 5 6 5 5 6 5 5 5 6 5 6 5 5 6 5 6 5 6 5 5 5 6 6 5 5 5 5 5 5 6 5 5 6 5 5 6 5 5 5 5 5 6 6 5 5 6 5 5 5 5 5 5 5 5 6 5 5 5 5 5 5 5 5 5 5 5 5 5 5 5 5 5 5 5 5 5 5 5 5 5 5 5 5 5 6 5 5 5 5 6 5 6 5 5 6 5 5 5 5 6 5 5 5 5 6 5 5 5 5 5 5 5 5 5 5 5 5 5 5 6 5 5 5 5 5 6 5 5 5 5 5 5 5 6 5 6 5 5 5 5 5 5 5 5 6 5 6 5 5 6 5 5 5 5 6 6 5 5 5 5 6 5 5 5 5 5 6 5 5 5 5 6 5 5 5 5 5 5 5 5 5 5 5 5 5 6 5 5 5 5 5 5 5 5 5 5 5 6 5 5 6 5 5 5 5 5 5 5 5 5 5 5 5 5 5 5 5 5 5 5 5 5 5 6 5 5 5 5 5 5 5 5 5 5 5 5 5 6 5 5 5 5 5 5 5 5 5 5 5 5 5 5 5 5 5 5 5 5 5 5 5 6 6 5 5 5 5 5 5 5 5 5 6 5 5 5 5 5 5 6 6 5 5 6 5 6 5 5 5 5 5 5 5 5 5 5 5 5 6 5 5 6 5 5 5 6 5 5 6 5 5 5 6 5 6 5 5 5 5 5 5 5 5 5 5 5 5 5 5 5 6 5 5 5 5 5 5 5 5 5 5 6 5 5 6 5 5 5 5 5 5 6 5 5 5 6 5 5 5 5 5 5 5 5 5 5 6 5 6 5 5 5 6 5 5 5 5 5 6 5 5 5 5 5 5 5 6 5 5 5 5 5 6 5 5 5 5 5 6 5 5 5 5 5 5 5 5 5 5 5 5 6 5 5 5 6 5 6 5 6 5 5 5 5 5 5 5 5 5 5 6 5 5 5 5 6 5 6 5 5 5 5 5 5 5 5 5 5 5 5 5 6 5 5 6 5 5 5 6 5 6 5 5 6 5 5 5 5 6 5 5 5 5 5 5 5 5 5 5 5 5 5 5 5 5 5 5 5 5 5 5 5 5 5 6 5 5 5 5 5 5 5 5 5 5 5 5 5 5 5 6 5 5 5 6 5 5 5 5 5 5 5 5 5 5 5 5 5 5 5 5 6 5 5 6 6 5 5 5 5 5 5 5 5 6 5 5 5 5 5 6 5 5 5 6 5 5 6 5 5 6 5 5 6 5 5 5 5 5 5 5 6 5 5 5 6 5 6 5 5 5 5 5 5 5 5 5 5 6 5 5 6 5 5 5 6 5 5 5 6 5 6 5 5 5 5 5 5 6 5 5 5 5 6 5 5 5 5 5 6 5 5 6 5 6 5 6 6 5 5 5 6 5 5 5 5 5 5 6 5 6 5 6 5 5 6 5 5 5 6 5 5 5 5 5 5 5 5 5 5 5 5 5 6 5 5 5 5 5 5 5 5 5 5 5 6 5 6 5 5 5 6 5 5 5 5 5 5 5 5 5 6 6 5 5 5 5 6 5 5 5 5 6 6 6 5 6 5 6 5 5 5 6 6 5 5 6 6 5 5 6 5 5 5 5 5 5 5 5 6 6 5 6 5 5 5 6 5 5 5 6 5 5 5 5 5 5 5 5 5 5 5 5 5 5 5 5 5 5 5 5 6 5 5 5 5 5 5 5 5 5 5 5 5 5 5 5 5 5 5 5 5 5 5 5 5 5 6 5 5 5 5 5 6 5 5 5 5 5 5 5 5 5 5 5 5 6 6 5 5 5 5 6 5 5 5 5 5 5 5 5 6 5 5 5 5 5 5 5 5 5 5 5 5 5 5 5 5 5 5 6 6 6 5 5 5 5 5 5 5 5 6 5 5 5 5 6 5 5 6 5 5 5 5 5 5 5 5 5 6 5 6 5 6 5 6 5 5 5 5 5 5 5 5 5 5 5 5 5 5 6 5 5 5 5 5 6 5 5 5 5 5 5 5 5 5 5 5 5 5 5 5 5 5 5 5 5 6 5 5 6 5 5 5 6 5 5 5 5 5 6 5 6 5 5 5 5 5 5 5 5 5 6 5 6 5 6 6 5 5 5 5 5 5 5 5 6 5 5 5 5 5 5 5 5 5 5 5 5 6 5 5 6 5 5 5 5 5 6 5 5 5 5 5 6 5 5 6 5 5 5 5 5 5 6 5 5 5 5 5 5 5 6 5 6 5 5 5 5 6 5 5 5 5 5 5 5 5 5 5 5 5 6 5 5 6 5 5 5 5 5 5 5 6 5 5 5 5 5 5 5 5 5 5 5 5 5 6 5 5 5 5 5 5 5 5 5 6 5 5 6 5 5 5 5 5 6 5 5 5 5 5 5 6 6 5 5 5 5 6 5 6 5 5 6 5 5 5 5 5 5 5 5 5 5 5 5 5 5 5 5 5 5 5 5 5 5 5 6 5 6 5 5 5 5 5 5 5 6 5 6 5 5 5 5 6 6 5 5 5 5 5 5 6 5 5 6 5 5 5 5 5 6 5 5 5 5 5 5 5 5 5 6 6 5 6 5 5 6 5 5 5 5 5 5 5 5 5 5 5 5 6 5 5 5 5 5 5 5 5 5 5 5 5 6 5 5 5 5 6 5 5 5 5 5 5 6 5 5 5 5 6 6 5 5 5 5 6 5 6 5 6 5 5 5 5 5 5 5 5 5 5 5 5 5 5 5 5 5 5 5 5 5 5 5 5 5 5 5 5 6 6 6 5 5 5 5 5 5 6 5 5 5 6 5 6 5 5 5 5 5 5 5 5 6 5 5 6 5 5 5 5 6 5 5 5 5 5 5 5 6 5 5 6 5 5 5 6 5 5 5 5 5 5 5 5 5 6 5 5 5 5 5 6 5 6 5 6 5 5 6 5 5 6 6 5 5 5 5 5 5 5 6 5 5 5 5 5 6 5 5 5 5 5 6 5 6 5 5 5 5 5 5 5 5 5 5 5 5 5 5 5 5 5 5 5 5 5 6 5 5 5 5 5 5 5 5 5 5 5 5 5 5 5 5 6 6 5 5 5 5 5 6 5 5 5 5 5 6 5 5 5 5 5 5 5 5 5 5 5 5 5 5 5 5 5 5 5 5 5 5 5 5 5 5 5 5 5 5 5 6 5 5 6 5 5 5 5 6 5 5 5 5 5 5 5 5 5 5 5 6 5 5 6 5 5 6 5 5 6 5 5 5 5 5 5 5 5 5 6 5 5 5 5 5 5 5 5 5 5 6 5 5 5 5 5 5 5 5 5 5 6 5 5 5 6 5 5 5 6 5 5 5 5 5 5 5 5 5 5 5 5 5 5 5 5 5 5 5 6 5 5 5 5 5 5 5 5 5 5 5 5 5 5 5 5 6 5 5 5 5 5 5 5 5 5 5 5 5 6 5 5 5 6 6 5 5 6 5 5 5 5 5 5 5 5 5 5 5 6 5 5 5 5 5 5 5 6 5 5 5 5 5 5 5 5 6 5 5 5 5 5 6 5 5 5 5 5 5 5 5 5 5 5 5 5 5 5 5 5 5 5 6 5 5 5 5 6 5 5 5 5 5 5 5 6 5 5 5 5 5 6 5 5 5 5 5 5 5 5 5 5 5 5 5 5 5 5 5 5 5 5 6 5 5 5 5 5 5 5 5 6 5 5 5 5 5 5 5 5 5 6 5 5 5 5 6 6 5 6 5 5 5 5 6 5 5 6 5 5 5 5 5 5 5 5 5 5 5 5 5 5 5 5 5 5 5 5 5 5 5 5 5 5 6 5 5 5 6 5 5 5 5 5 6 5 5 6 5 5 5 5 5 5 5 5 5 5 5 5 5 5 5 5 5 5 6 5 6 5 5 6 5 6 5 6 5 5 5 6 5 5 6 5 6 5 5 5 6 6 5 5 6 5 5 5 5 5 5 5 5 6 5 6 5 5 6 5 6 5 5 5 5 5 5 5 5 6 5 5 6 5 5 5 5 5 5 5 5 5 5 5 5 5 5 5 5 5 5 6 5 5 5 5 6 5 5 5 5 5 5 5 6 5 5 5 5 5 5 5 5 5 5 5 5 5 5 5 5 5 5 6 5 5 5 5 5 5 5 5 6 5 5 5 5 5 6 5 5 5 5 5 6 5 5 5 5 5 6 5 6 5 6 5 6 6 5 6 5 5 6 5 5 6 5 5 5 6 5 6 5 5 5 6 5 6 5 5 6 6 5 6 5 5 5 5 5 5 5 5 5 5 5 5 5 5 6 5 6 5 5 5 5 5 5 5 5 5 5 5 5 5 5 5 5 5 5 6 5 5 6 6 5 5 5 6 5 5 5 5 6 5 5 5 5 5 5 5 5 5 5 5 5 5 5 5 5 5 6 5 5 5 5 5 5 5 5 5 5 6 5 5 5 5 5 5 5 5 5 6 5 5 6 5 5 6 5 5 6 5 5 5 6 5 6 5 5 5 5 6 6 5 5 5 6 5 6 6 6 5 5 5 6 5 5 5 6 5 5 5 6 5 5 6 5 5 5 5 5 5 5 6 5 5 5 5 5 5 5 5 6 5 5 5 5 5 5 5 5 5 5 5 5 5 5 5 6 5 5 5 5 5 5 5 5 5 5 5 5 5 5 6 5 6 6 5 6 5 5 5 5 5 5 5 5 5 5 5 5 5 5 5 5 5 5 5 5 5 5 5 5 6 5 5 6 5 5 5 5 5 6 6 5 6 5 5 6 5 5 5 5 5 5 5 5 5 6 5 5 5 5 5 5 5 5 5 5 5 5 5 5 5 5 5 5 5 5 5 5 5 6 5 5 5 5 6 5 5 5 5 5 5 5 5 5 5 5 5 5 5 5 5 6 5 5 5 5 5 5 5 6 5 5 5 5 5 5 5 5 5 5 5 5 5 5 6 5 5 5 5 5 5 5 5 5 5 5 5 5 6 6 5 5 6 5 5 5 5 5 5 5 5 5 5 6 5 6 5 5 5 5 5 5 5 5 5 6 5 5 5 6 5 5 5 5 5 5 5 5 5 5 6 5 5 5 6 5 5 5 5 6 5 5 5 5 5 5 5 5 5 6 5 5 5 5 5 5 6 5 5 5 5 6 5 6 5 5 5 5 5 5 5 6 5 6 5 5 6 5 5 5 5 5 5 5 5 5 5 6 5 5 6 5 5 5 5 5 6 5 5 5 5 5 5 5 5 5 5 6 5 6 5 5 6 5 5 5 6 5 6 5 6 5 5 5 5 5 5 5 5 5 5 5 6 5 6 5 6 5 6 5 5 5 6 5 5 5 5 5 5 5 6 5 5 6 5 5 6 5 5 5 5 6 5 5 5 5 6 5 5 5 6 5 5 6 5 5 5 5 5 6 5 5 5 6 5 5 5 5 5 5 5 5 5 5 5 5 5 5 5 5 5 5 5 6 5 5 5 5 5 5 5 5 5 5 5 6 5 5 5 5 5 5 5 5 5 5 6 5 5 6 5 5 5 5 6 5 5 6 5 5 5 5 6 5 6 6 5 5 5 5 5 5 5 5 6 5 5 6 5 5 5 5 5 5 5 5 5 5 5 5 6 5 5 5 5 5 5 5 5 5 5 5 5 5 5 5 5 5 5 5 5 5 5 5 5 5 5 6 5 5 5 5 5 5 5 5 5 5 5 5 5 5 5 6 5 5 5 6 5 5 5 5 5 5 5 5 5 5 6 5 6 5 5 5 5 5 5 6 5 6 5 5 5 5 5 5 5 5 5 5 5 5 5 5 5 5 5 5 5 5 5 6 5 5 5 5 6 5 5 6 5 5 5 5 5 5 5 5 5 5 6 5 5 6 5 5 5 5 5 5 5 5 5 5 5 6 6 5 5 5 5 5 6 5 5 5 5 5 5 5 5 5 5 5 5 6 5 6 5 6 5 5 5 5 5 5 6 5 5 5 6 5 5 6 5 6 5 6 5 5 5 5 5 5 6 6 5 5 5 5 6 5 5 5 6 5 5 5 5 6 5 6 5 5 5 5 5 6 5 6 6 5 6 5 5 5 5 5 5 5 6 5 5 6 5 6 5 5 6 5 5 5 5 5 5 6 5 5 5 5 5 5 5 5 5 6 5 5 5 6 5 5 5 5 5 5 5 5 5 5 5 5 5 6 5 5 6 5 5 5 6 5 5 5 5 5 5 5 5 5 5 5 5 5 5 5 5 5 5 5 6 5 6 5 6 5 5 5 5 5 5 5 5 5 5 5 5 6 5 5 5 6 6 5 5 6 5 5 6 5 5 5 5 5 5 5 6 5 5 5 5 5 5 5 6 5 5 5 5 5 5 5 6 5 6 5 5 5 5 6 5 6 5 5 5 5 5 5 6 5 6 5 5 5 5 5 5 6 5 5 5 6 5 5 5 5 5 6 5 5 5 5 5 5 5 5 5 5 5 5 5 5 5 5 5 5 5 5 5 5 5 5 5 5 5 5 5 5 5 5 5 6 5 6 5 5 5 5 6 5 5 5 5 6 5 5 6 5 5 5 5 5 5 5 5 5 5 5 5 6 5 5 5 5 5 6 5 5 5 5 5 5 5 5 5 5 5 5 5 5 5 5 5 5 5 5 5 5 5 5 5 6 5 5 5 5 5 5 5 5 5 5 5 5 5 5 5 5 5 5 5 5 5 5 5 5 5 5 6 5 5 5 5 5 5 5 5 5 5 5 5 5 5 5 5 5 5 5 5 5 5 5 5 5 5 5 5 5 5 5 5 6 5 5 5 5 5 5 5 5 5 5 5 6 5 5 5 6 5 5 5 5 6 5 5 5 5 5 5 6 5 5 5 5 5 5 5 5 5 5 5 5 5 5 5 5 5 5 5 6 5 5 5 6 5 5 5 5 6 5 5 5 5 5 5 6 6 5 5 5 5 5 5 5 6 5 5 5 5 6 5 5 5 5 6 5 5 5 6 5 5 5 5 5 5 5 5 5 5 5 5 6 6 5 5 5 5 6 5 5 5 5 5 5 6 5 5 5 5 5 5 5 5 5 5 5 5 5 5 5 5 5 5 5 5 5 5 5 5 5 5 5 5 5 6 5 5 6 5 5 5 5 6 5 5 5 5 5 5 5 5 5 5 6 6 5 6 5 5 5 5 5 5 5 5 5 6 5 5 6 5 5 6 5 6 5 5 5 5 6 5 5 5 5 5 5 5 5 5 5 6 5 5 5 6 5 5 6 5 6 5 5 5 5 5 6 5 6 5 5 5 5 5 6 5 6 5 6 5 5 5 5 5 5 6 5 5 5 5 5 5 5 5 5 5 5 5 5 5 5 5 5 5 5 5 5 5 5 5 5 5 5 5 5 5 5 5 5 6 6 5 5 5 5 5 5 5 6 5 5 5 5 5 5 5 5 5 5 5 5 5 5 5 5 5 5 5 5 5 5 5 5 5 6 5 5 6 5 5 5 5 5 5 5 5 5 5 5 5 5 6 5 5 5 5 5 5 5 5 5 5 5 5 5 5 5 5 5 5 5 5 5 6 5 5 5 5 5 6 5 5 5 5 5 5 5 5 5 5 5 5 5 5 5 5 5 5 5 5 5 5 5 5 5 
</DataArray>
<DataArray type="Float64" Name="stress" NumberOfComponents="9" format="ascii">
-0.62370610805415894 -0.97427958943899284 0 -0.97427958943899284 -419.27366931990036 0 0 0 0 19.143366511377963 144.46111546607244 0 144.46111546607244 -830.08796983230059 0 0 0 0 -28.084075711760789 40.263148263478797 0 40.263148263478797 -66.624123969006178 0 0 0 0 -58.640529839118159 10.847623587280395 0 10.847623587280395 -36.883661320800911 0 0 0 0 -0.33953879285885319 0.51604470484929976 0 0.51604470484929976 1.019710250255045 0 0 0 0 -20.116240716849717 12.668281680529617 0 12.668281680529617 -37.535380738562253 0 0 0 0 -23.533950424300485 24.350192381894431 0 24.350192381894431 -18.081013376824558 0 0 0 0 2.1886364152002931 4.0894402192953052 0 4.0894402192953052 -1.9331849216153785 0 0 0 0 -28.068714564826422 734.42863600598139 0 734.42863600598139 -1495.4951393586543 0 0 0 0 0.084188993033137649 23.829181261582562 0 23.829181261582562 -18.090514176721626 0 0 0 0 -273.55247342670549 45.676725988329963 0 45.676725988329963 -18.241495131704141 0 0 0 0 -5.5641478401097153 -3.2246999638994112 0 -3.2246999638994112 -6.8714569165497608 0 0 0 0 -2.9447141913392021 1.2943641232738869 0 1.2943641232738869 -4.2564028287177393 0 0 0 0 -4.7769038765453038 1.3541932097887184 0 1.3541932097887184 -1495.511885152453 0 0 0 0 -615.15039400010528 -155.39454149657831 0 -155.39454149657831 -151.78711086133262 0 0 0 0 -1317.803845298894 -1227.7977088245434 0 -1227.7977088245434 -404.01132440675428 0 0 0 0 -107.89305206181014 4.9822306994556129 0 4.9822306994556129 60.359008477556927 0 0 0 0 -1.262310409394797 -0.18521066266906772 0 -0.18521066266906772 4.0788792372680547 0 0 0 0 -291.65183494055708 -368.39294931521363 0 -368.39294931521363 -466.71835218618253 0 0 0 0 2.233233530696566 29.165058194503217 0 29.165058194503217 -15.797519801541057 0 0 0 0 -28.243670014310283 180.12894909457464 0 180.12894909457464 23.377941067807114 0 0 0 0 4.3915267363531578 7.3815204547806985 0 7.3815204547806985 -27.553967839373357 0 0 0 0 -161.73964679651939 -415.81274504162002 0 -415.81274504162002 -1070.1164436634281 0 0 0 0 -139.86972117244648 -503.75150188140924 0 -503.75150188140924 -737.22079199466316 0 0 0 0 -566.36851515130104 -385.38082452785602 0 -385.38082452785602 -320.94368855431594 0 0 0 0 -260.52097745607256 -1041.9283886252379 0 -1041.9283886252379 -1497.8560458805312 0 0 0 0 -200.31167401092978 -675.61626922961659 0 -675.61626922961659 -1153.3202807861962 0 0 0 0 -0.087136659437592245 -0.79071161939225654 0 -0.79071161939225654 -2.7769490576531126 0 0 0 0 -144.13369072547823 -389.15384427416939 0 -389.15384427416939 -857.76198598029259 0 0 0 0 -66.267577325073432 3.1064563625368464 0 3.1064563625368464 -213.58096728627243 0 0 0 0 -317.63841905563811 -222.52630764834339 0 -222.52630764834339 -5.8202638624388783 0 0 0 0 -6.1403636963318977 5.4818156326393606 0 5.4818156326393606 -9.5093030659258915 0 0 0 0 -116.84204689532208 116.17538549382334 0 116.17538549382334 -159.81818619009937 0 0 0 0 -29.637936821315634 4.4167207857426547 0 4.4167207857426547 -15.119348280620216 0 0 0 0 -105.19702175535171 -105.24139106634163 0 -105.24139106634163 5.8654556368928752 0 0 0 0 -0.89902859763469678 33.443328771732922 0 33.443328771732922 -35.569229465756507 0 0 0 0 9.7263614160284533 19.775727661959536 0 19.775727661959536 -21.650101700188316 0 0 0 0 20.943018229364782 31.185999484760032 0 31.185999484760032 -29.719852129106584 0 0 0 0 30.203590527323627 18.579716500287759 0 18.579716500287759 -36.393397531694063 0 0 0 0 -0.51728625841888021 10.587200664875745 0 10.587200664875745 -35.062067490657029 0 0 0 0 1.768098024547355 -0.49400564764308896 0 -0.49400564764308896 -28.324240480964235 0 0 0 0 50.638589781607919 31.982568832236211 0 31.982568832236211 -46.126536823474453 0 0 0 0 24.829397299888683 18.480310682178242 0 18.480310682178242 -25.096134333369264 0 0 0 0 11.079898135396832 37.165435145716401 0 37.165435145716401 -48.59335185400414 0 0 0 0 24.264721960251109 10.832156923901493 0 10.832156923901493 -62.900726479756486 0 0 0 0 -11.152942758283189 19.376175084995339 0 19.376175084995339 -40.88174213203456 0 0 0 0 -5.1214447735638942 23.086809228134371 0 23.086809228134371 -65.298247911803628 0 0 0 0 28.001924889009956 -20.927474061652902 0 -20.927474061652902 -98.925442582207324 0 0 0 0 64.449170706454197 -6.1659568153463624 0 -6.1659568153463624 -60.456566576192927 0 0 0 0 12.195238487337917 -22.396324983150407 0 -22.396324983150407 -53.129433355427295 0 0 0 0 37.522411532361303 -0.14603477331274917 0 -0.14603477331274917 -53.781488230273681 0 0 0 0 19.073170044060475 -31.380715402912756 0 -31.380715402912756 -63.173831301272003 0 0 0 0 23.509498107046397 -37.177609068421589 0 -37.177609068421589 -70.095124057272187 0 0 0 0 -237.56938529620979 -118.92768441003682 0 -118.92768441003682 5.7531342852298621 0 0 0 0 -57.452111241493867 24.566012159139063 0 24.566012159139063 -50.960801129731408 0 0 0 0 -1.3619087264313134 2.3935250559173937 0 2.3935250559173937 -3.4509597711294049 0 0 0 0 -3.1584578737939637 -39.433427169912648 0 -39.433427169912648 -45.590421576693188 0 0 0 0 12.236917923796682 -32.829301301770101 0 -32.829301301770101 -49.037622710264259 0 0 0 0 2.9174696864895098 -3.0834638294684353 0 -3.0834638294684353 -39.005786983131486 0 0 0 0 -3.7044250432513763 -40.0110722643185 0 -40.0110722643185 -18.046471161599811 0 0 0 0 -36.48273852827424 27.256672436873487 0 27.256672436873487 -54.775275996291839 0 0 0 0 -6.0861525611071556 -42.75721184442591 0 -42.75721184442591 -43.826446412647783 0 0 0 0 -42.691620173702177 -1.1821106966272055 0 -1.1821106966272055 -75.18981484012329 0 0 0 0 -79.80251172748649 -34.347850842532353 0 -34.347850842532353 -68.084199223303585 0 0 0 0 -40.424434967512752 -27.943985092282674 0 -27.943985092282674 -92.504650214803405 0 0 0 0 -158.83615254990218 12.498912877519615 0 12.498912877519615 -71.216181095252978 0 0 0 0 -332.57366722217785 -83.637945395763381 0 -83.637945395763381 -10.152441555299447 0 0 0 0 -187.37347236125674 64.885080028430821 0 64.885080028430821 -95.207926985007362 0 0 0 0 -292.19601810647032 90.242628218853497 0 90.242628218853497 -67.403698952199193 0 0 0 0 -116.62063944170427 15.915023689489317 0 15.915023689489317 -86.122676988714375 0 0 0 0 -34.199625531463425 36.632725030809524 0 36.632725030809524 14.443678444722536 0 0 0 0 66.426451026844006 43.569867583344603 0 43.569867583344603 -71.058233584447407 0 0 0 0 -88.561816715916393 -55.673961309938022 0 -55.673961309938022 -86.628551221991074 0 0 0 0 -158.31305175276748 -222.40469311610286 0 -222.40469311610286 -190.51193661893194 0 0 0 0 -134.33558404538235 -16.136426183367803 0 -16.136426183367803 -60.300030748621793 0 0 0 0 -77.780030548097784 -66.255506279008841 0 -66.255506279008841 -77.9627162222896 0 0 0 0 -229.2628750634608 -80.833164217496233 0 -80.833164217496233 -10.647893976725754 0 0 0 0 -169.05784033756208 -105.50891122090979 0 -105.50891122090979 -87.263678679344594 0 0 0 0 -33.171298913808641 -1.7584277258283691 0 -1.7584277258283691 -85.593408124463167 0 0 0 0 -29.388485542670651 -23.608619826056383 0 -23.608619826056383 -18.382988729706994 0 0 0 0 26.709175875012058 -22.723592095394451 0 -22.723592095394451 -65.021572937563178 0 0 0 0 61.407464307622377 5.3400871603626001 0 5.3400871603626001 -89.526808648475708 0 0 0 0 3.9520156823898924 -0.81596348280506703 0 -0.81596348280506703 -47.003303035901922 0 0 0 0 19.531412876022841 -7.4415451932709402 0 -7.4415451932709402 -73.074328680253529 0 0 0 0 5.8571919350636694 -4.4882493035731983 0 -4.4882493035731983 -47.33179854869185 0 0 0 0 156.7686860551803 108.08456857718011 0 108.08456857718011 -241.74733191146879 0 0 0 0 -249.7622991757612 76.979745524680766 0 76.979745524680766 52.515776166852447 0 0 0 0 -0.18827683151034713 -1.3273483473981247 0 -1.3273483473981247 -2.1129900296354407 0 0 0 0 -1.0668067120661595 -2.6776142374086902 0 -2.6776142374086902 -11.784265600309816 0 0 0 0 -42.13163859983888 -156.51124300344964 0 -156.51124300344964 -96.677233432372304 0 0 0 0 139.72640407273002 -138.05886020369508 0 -138.05886020369508 -134.90117850419119 0 0 0 0 -95.3609734943295 -167.80097832838692 0 -167.80097832838692 -163.23528820621141 0 0 0 0 2.5544558323510209 0.08203951880943805 0 0.08203951880943805 1.2522084938074975 0 0 0 0 -231.30276455339003 129.62323478439066 0 129.62323478439066 -186.62238920105483 0 0 0 0 -22.66811766768177 -65.058415697010787 0 -65.058415697010787 28.064928717685689 0 0 0 0 7.5180164951206532 -3.9114390546501312 0 -3.9114390546501312 -10.91593527628347 0 0 0 0 1.436120251098373 -4.3498912745271809 0 -4.3498912745271809 -50.533792537930822 0 0 0 0 32.969767236533698 -16.492797216920735 0 -16.492797216920735 -124.35306979695451 0 0 0 0 -83.404318142944703 -45.84610798106587 0 -45.84610798106587 -72.866964532757265 0 0 0 0 -201.47120122597184 -177.23721875472256 0 -177.23721875472256 -92.237149136344669 0 0 0 0 -177.33025184517322 -93.620295361663011 0 -93.620295361663011 -72.265092923280463 0 0 0 0 9.3900014445139561 -104.35405476984943 0 -104.35405476984943 -147.62099740728445 0 0 0 0 -0.049100261102643761 0.70549710844342428 0 0.70549710844342428 -3.667148602203298 0 0 0 0 -25.163023782880046 29.245830434651907 0 29.245830434651907 132.45227433100808 0 0 0 0 77.037697440698224 -10.230438238710121 0 -10.230438238710121 -23.594900881806097 0 0 0 0 124.60646431102749 44.71472237530952 0 44.71472237530952 -30.398615456128027 0 0 0 0 0.16997509729399235 0.15891049784164935 0 0.15891049784164935 -2.111155153594467 0 0 0 0 52.410115986995052 -224.02234358933674 0 -224.02234358933674 -69.00082127659698 0 0 0 0 0.11103654942540064 0.011652913179945656 0 0.011652913179945656 -1.2905239967486466 0 0 0 0 97.332739259485891 31.452112523194955 0 31.452112523194955 -87.678454828899703 0 0 0 0 98.810683177595934 21.251513816561783 0 21.251513816561783 -767.91931539197685 0 0 0 0 23.700328240515873 14.821980609415277 0 14.821980609415277 -73.756032460434653 0 0 0 0 23.772034035886207 18.401319528336899 0 18.401319528336899 18.781613155275409 0 0 0 0 17.927604744440217 -0.97522465813381132 0 -0.97522465813381132 -12.826976437798294 0 0 0 0 42.699159306001832 -34.077187990558741 0 -34.077187990558741 15.783015083648024 0 0 0 0 -13.372096910491429 12.865213671631864 0 12.865213671631864 -53.403227066874024 0 0 0 0 -3.6607953458742699 -14.830798994258657 0 -14.830798994258657 -6.582483574104117 0 0 0 0 14.928684312066917 9.1722723414004577 0 9.1722723414004577 -198.1984140706154 0 0 0 0 -45.02103187350648 114.27236825096588 0 114.27236825096588 -271.72858105052546 0 0 0 0 0.14913030100878699 -15.389602068667955 0 -15.389602068667955 -94.178582453325362 0 0 0 0 -59.522371735280949 26.367375698949218 0 26.367375698949218 -88.016071884783742 0 0 0 0 -47.135482068089544 -23.245563828908416 0 -23.245563828908416 -185.48828544267235 0 0 0 0 -64.72833688214854 20.601789809119509 0 20.601789809119509 -98.268480739017832 0 0 0 0 -9.9624418732575464 2.3148506069737778 0 2.3148506069737778 -98.325671172715374 0 0 0 0 16.887535428415021 -2.5205796908398952 0 -2.5205796908398952 -196.15404178342578 0 0 0 0 3.4000864678515654 -138.84895974976098 0 -138.84895974976098 -122.39900877917535 0 0 0 0 39.482096854071102 -44.129261176612999 0 -44.129261176612999 -184.12952290265821 0 0 0 0 -8.6826210874016851 4.0567612756931339 0 4.0567612756931339 -76.095413784541961 0 0 0 0 106.60355345167844 -236.6689903108545 0 -236.6689903108545 -851.67003409723839 0 0 0 0 29.349650467931497 -62.877300197590557 0 -62.877300197590557 -181.77252302944908 0 0 0 0 98.562561704412303 -466.10338182506803 0 -466.10338182506803 -1180.8432912699409 0 0 0 0 14.441725289733348 -536.7813556835672 0 -536.7813556835672 -961.42985419459183 0 0 0 0 125.04663837465422 -442.74537787698955 0 -442.74537787698955 -1499.9680522685067 0 0 0 0 90.550073430153475 -500.23588530550342 0 -500.23588530550342 -1190.5423037170913 0 0 0 0 -164.28914184995534 -430.99736908350496 0 -430.99736908350496 -1500.1578625065667 0 0 0 0 148.32079034571959 -543.64792733758895 0 -543.64792733758895 -1785.2518751782991 0 0 0 0 -453.19987256632999 -110.24288160106335 0 -110.24288160106335 -1800.380149770448 0 0 0 0 -11.541974428855781 -352.90595871008736 0 -352.90595871008736 -1904.329312268248 0 0 0 0 -492.59889651908037 -945.22959896648717 0 -945.22959896648717 -1090.5905206980242 0 0 0 0 0.23233195803736129 -1.0295234478068078 0 -1.0295234478068078 -12.934288312920131 0 0 0 0 -127.53809019298672 -549.53613496685557 0 -549.53613496685557 -681.76959689322757 0 0 0 0 -57.207843159984662 -115.5863459375305 0 -115.5863459375305 -61.432194174765755 0 0 0 0 391.44513686832596 -106.2661245254194 0 -106.2661245254194 -353.43115792361641 0 0 0 0 1.3599023973919071 -1.6240487522565119 0 -1.6240487522565119 -27.983819446610369 0 0 0 0 9.9745100182324791 -245.49629528995683 0 -245.49629528995683 35.58212384142098 0 0 0 0 574.52770483473091 -52.286229061397535 0 -52.286229061397535 -133.46518941030808 0 0 0 0 11.736360404292981 0.83328511671788874 0 0.83328511671788874 -261.23102126168487 0 0 0 0 -155.12230381582864 -54.026202293059214 0 -54.026202293059214 8.7175185566629807 0 0 0 0 151.95957691147939 291.72975158797635 0 291.72975158797635 -641.8188671005646 0 0 0 0 -82.806547773355604 -78.131432028302243 0 -78.131432028302243 -326.53237893596088 0 0 0 0 354.21016865113802 552.17754016724894 0 552.17754016724894 -453.92431895878326 0 0 0 0 287.57939689836985 139.20818942514961 0 139.20818942514961 -1525.8706183124086 0 0 0 0 -666.62270305183745 -263.9398042908233 0 -263.9398042908233 -1499.9019853296231 0 0 0 0 138.56720125538166 -387.00197889622905 0 -387.00197889622905 -1793.9174335509142 0 0 0 0 162.12220911817161 -91.702670022997154 0 -91.702670022997154 -1310.0675974900441 0 0 0 0 155.31826721303949 -45.422171111469652 0 -45.422171111469652 -1352.1953803765646 0 0 0 0 135.77345884000897 7.3574535012071465 0 7.3574535012071465 -1066.6745461402497 0 0 0 0 139.50556769890801 -224.43914761517226 0 -224.43914761517226 -1248.8319492427217 0 0 0 0 219.89519445117475 -163.12093427756918 0 -163.12093427756918 -1500.2239058719424 0 0 0 0 122.69639317730231 -293.94255429212535 0 -293.94255429212535 -1499.7261721820689 0 0 0 0 -98.008908923256001 -150.58263437506321 0 -150.58263437506321 -772.03913565647781 0 0 0 0 -410.68814997290156 -326.83370866783662 0 -326.83370866783662 -371.36347844964257 0 0 0 0 -92.457774236731524 -174.54365018641147 0 -174.54365018641147 -718.74652388103459 0 0 0 0 -109.62091946276848 23.96722356049213 0 23.96722356049213 -374.8849779413722 0 0 0 0 -298.12630561143266 -91.614627288397969 0 -91.614627288397969 -27.736702696198336 0 0 0 0 -168.99327499757587 -152.15653891707007 0 -152.15653891707007 -290.08929347315734 0 0 0 0 -228.05475386771877 -26.142316681693046 0 -26.142316681693046 -36.809511447374518 0 0 0 0 -261.96548175166345 -37.452514873849395 0 -37.452514873849395 -36.592536833733902 0 0 0 0 -0.025557631933659286 -0.76576869327847419 0 -0.76576869327847419 -5.8717340887131826 0 0 0 0 -186.52171663063081 -43.480486030395696 0 -43.480486030395696 -34.170424880663631 0 0 0 0 -188.52180648900082 -48.640086940769834 0 -48.640086940769834 -7.2496518916159403 0 0 0 0 -283.99670589660207 151.42677311225998 0 151.42677311225998 -104.46375797048677 0 0 0 0 -206.84211552948773 -60.000735339106541 0 -60.000735339106541 13.896193438544287 0 0 0 0 -222.18302892240266 -101.17525328591319 0 -101.17525328591319 -38.127574913749413 0 0 0 0 -190.62834497731396 -78.731787995723607 0 -78.731787995723607 22.287165062123677 0 0 0 0 -179.20233823225536 -78.339120023400028 0 -78.339120023400028 -30.261624353065599 0 0 0 0 -161.14413513022595 -63.548392131848232 0 -63.548392131848232 21.51371838671912 0 0 0 0 -146.26944847223592 -112.1817533864396 0 -112.1817533864396 25.386355029429978 0 0 0 0 -170.25473578814081 -83.17420437572946 0 -83.17420437572946 3.2956766293063993 0 0 0 0 -149.37124912990771 -20.174931666693737 0 -20.174931666693737 34.133271286060335 0 0 0 0 -144.51882436134474 -66.39569260512144 0 -66.39569260512144 -4.9834189332614187 0 0 0 0 -138.99053153349678 -35.914130590077548 0 -35.914130590077548 27.209194522059988 0 0 0 0 -177.77441080875406 -71.093034261073626 0 -71.093034261073626 18.110077925972291 0 0 0 0 -188.71238075890503 -57.301713068559366 0 -57.301713068559366 19.10815902275499 0 0 0 0 -185.10339521943945 -34.076002609604075 0 -34.076002609604075 32.537723554531112 0 0 0 0 -782.6464333233489 16.991369399896939 0 16.991369399896939 59.457938890904188 0 0 0 0 -816.01691290920689 -406.9669980724575 0 -406.9669980724575 122.74329306441359 0 0 0 0 -436.18211917200779 -289.60233959543257 0 -289.60233959543257 42.540917982594692 0 0 0 0 -446.53920728326284 -30.901252191055391 0 -30.901252191055391 60.793047633833339 0 0 0 0 -416.72720143340871 -264.67361438198895 0 -264.67361438198895 14.695131471366039 0 0 0 0 -52.921349944404938 -37.243147474999205 0 -37.243147474999205 -59.032407340862846 0 0 0 0 -304.90578677434297 -384.06456647598247 0 -384.06456647598247 -98.283196279437107 0 0 0 0 -63.415191766725314 -94.154266422662204 0 -94.154266422662204 -118.50942308655067 0 0 0 0 -290.17574852248208 -147.61717944114207 0 -147.61717944114207 -28.421336459505255 0 0 0 0 0.04263432823145008 -1.0184817887342064 0 -1.0184817887342064 -3.4748350508694159 0 0 0 0 -141.33270441419631 -62.727176096890616 0 -62.727176096890616 -1.6849622496993106 0 0 0 0 181.13715535237634 -79.338337156266789 0 -79.338337156266789 -174.29121246868772 0 0 0 0 115.32672569991516 -414.83228225411449 0 -414.83228225411449 -410.81422957679024 0 0 0 0 -25.806452465625966 20.960479413146459 0 20.960479413146459 32.587985102021776 0 0 0 0 -1.2082568415399106 0.85239766804928507 0 0.85239766804928507 0.68041278830007457 0 0 0 0 -402.17972461460022 -127.60652297970591 0 -127.60652297970591 -294.85827483565117 0 0 0 0 88.475244043615476 -90.145250680812751 0 -90.145250680812751 -87.180305080764811 0 0 0 0 121.56822566624578 8.8260920391912805 0 8.8260920391912805 -75.122376113598875 0 0 0 0 33.541011017782694 -37.119861695908185 0 -37.119861695908185 -65.536156673374535 0 0 0 0 -145.98435150605923 -220.05563782908575 0 -220.05563782908575 -126.09083990850377 0 0 0 0 -118.01802499498513 -24.696270339369221 0 -24.696270339369221 11.150096872657741 0 0 0 0 -91.448665126608034 -183.65277479798897 0 -183.65277479798897 -304.47997372239115 0 0 0 0 -80.3958028605023 -117.59919194982467 0 -117.59919194982467 -199.54257216240876 0 0 0 0 -174.41109309701162 -134.93028900755235 0 -134.93028900755235 -77.351138710779196 0 0 0 0 -140.42324513774599 -74.941932318724866 0 -74.941932318724866 -8.6061777537288435 0 0 0 0 -111.22403297120849 -108.1965401235102 0 -108.1965401235102 -103.10259263984335 0 0 0 0 -118.03962437429851 -119.47155254212339 0 -119.47155254212339 -14.964492356206392 0 0 0 0 6.5974027016956143 -146.55814787808231 0 -146.55814787808231 -35.777403992669861 0 0 0 0 -52.666021600641216 -88.973041431065212 0 -88.973041431065212 -84.061746706163831 0 0 0 0 -70.284917410278197 -154.08906581474366 0 -154.08906581474366 -77.405518104937073 0 0 0 0 -3.0394832504090346 -122.71602685614926 0 -122.71602685614926 -114.76553840574707 0 0 0 0 -27.106337136795617 -112.74503597970033 0 -112.74503597970033 -27.860505372911575 0 0 0 0 65.119394783870803 -26.229951851202713 0 -26.229951851202713 -13.497888301779312 0 0 0 0 -82.890569179197257 -107.3107708511252 0 -107.3107708511252 24.377282021974679 0 0 0 0 -85.472465973486536 -96.010970293060382 0 -96.010970293060382 -24.039185462434034 0 0 0 0 -84.644405437437044 -160.07911800393231 0 -160.07911800393231 4.0072838490959839 0 0 0 0 48.96419176009141 -84.84918407819714 0 -84.84918407819714 -23.60173579815455 0 0 0 0 52.219777775202942 -99.787125580198108 0 -99.787125580198108 35.729321953611361 0 0 0 0 140.84869510217536 -116.29652515940114 0 -116.29652515940114 -203.8190529526255 0 0 0 0 132.31366861349508 1.1345949103260864 0 1.1345949103260864 105.00017231771199 0 0 0 0 171.31733375049157 36.807934264295909 0 36.807934264295909 9.8854909491892613 0 0 0 0 296.71990276706606 -82.615420346300198 0 -82.615420346300198 -68.137276081357413 0 0 0 0 1.3306826586952338 -1.3110551925506817 0 -1.3110551925506817 -28.392536833429233 0 0 0 0 532.40865704875773 69.656069144091816 0 69.656069144091816 -103.3425507372458 0 0 0 0 0.84024202879527188 -0.60210822690443755 0 -0.60210822690443755 -21.663366521406473 0 0 0 0 74.912435373521021 -84.419228002564523 0 -84.419228002564523 -81.818881428269378 0 0 0 0 530.8240598305465 91.842105669937155 0 91.842105669937155 -300.71029642011308 0 0 0 0 99.121934613304404 -23.382275001933522 0 -23.382275001933522 78.666861329339554 0 0 0 0 244.671243938141 -90.89807839988498 0 -90.89807839988498 53.306021179643722 0 0 0 0 79.181706824013361 34.868789791222753 0 34.868789791222753 40.267754046690243 0 0 0 0 57.100337102380081 -34.99877550576457 0 -34.99877550576457 29.475292565618929 0 0 0 0 96.842319809393302 314.10592893728881 0 314.10592893728881 -379.39526656508133 0 0 0 0 -0.62271781617716215 -2.0928558257529986 0 -2.0928558257529986 -4.9906167825020944 0 0 0 0 67.800879719452496 256.5459418359851 0 256.5459418359851 -126.27546767273088 0 0 0 0 83.159824167494662 2.11393721262084 0 2.11393721262084 -74.508260767743195 0 0 0 0 -9.3393344737978623 56.361697957452634 0 56.361697957452634 -78.991902685324021 0 0 0 0 161.38978918973066 60.201773042521381 0 60.201773042521381 -367.49387302117066 0 0 0 0 -85.999579451454565 126.42865439785419 0 126.42865439785419 -96.727461621005205 0 0 0 0 -341.34275026639114 -129.93478014328525 0 -129.93478014328525 82.833364883637842 0 0 0 0 -6.3782660622886169 278.00560026356834 0 278.00560026356834 137.54336459976548 0 0 0 0 -360.21376765832474 50.17279573768792 0 50.17279573768792 363.66664002929065 0 0 0 0 -316.51176926974586 -569.98816455103224 0 -569.98816455103224 -1044.0135719808168 0 0 0 0 -3.3739621297229334 -6.0394792664387573 0 -6.0394792664387573 -10.089513164629963 0 0 0 0 -9.4453707597530983 -89.870254297398787 0 -89.870254297398787 29.624281081352819 0 0 0 0 -14.249465040569394 -16.678188826669043 0 -16.678188826669043 52.971349709969218 0 0 0 0 24.186132207974055 -55.898233200450704 0 -55.898233200450704 -24.946862258295369 0 0 0 0 15.994824342467638 9.8483045473076345 0 9.8483045473076345 66.284999759171114 0 0 0 0 -24.292380942775964 64.576803137316347 0 64.576803137316347 -171.36008850560393 0 0 0 0 -53.089294350238532 -267.00234071702425 0 -267.00234071702425 -467.63020973692255 0 0 0 0 -131.26100981375748 3.7506646092606388 0 3.7506646092606388 68.424115134195745 0 0 0 0 39.034746685929747 99.088358798425361 0 99.088358798425361 -59.542185491900455 0 0 0 0 206.29007802858885 -198.26796622914844 0 -198.26796622914844 -389.7946045073877 0 0 0 0 -295.78876015757999 -181.01402039212553 0 -181.01402039212553 -258.30288759795076 0 0 0 0 174.52624750698749 89.71974278399648 0 89.71974278399648 -310.16466571567435 0 0 0 0 -3.3835479683523033 -81.399004655733734 0 -81.399004655733734 -257.30348794820475 0 0 0 0 46.102551945527715 -46.134257039733711 0 -46.134257039733711 -250.49122290033847 0 0 0 0 -277.92160360260181 -162.91535184045642 0 -162.91535184045642 -565.04683860727891 0 0 0 0 -353.32935833768033 -363.77573696692707 0 -363.77573696692707 -102.73115210732067 0 0 0 0 -29.755783468970577 -21.111853319463989 0 -21.111853319463989 -388.07959465177555 0 0 0 0 1.9547869668363342 -1.6158617319105559 0 -1.6158617319105559 -1.5345588905720646 0 0 0 0 302.05965178973815 23.36731954460447 0 23.36731954460447 29.599992731480597 0 0 0 0 -264.73297577747917 -525.42271243079813 0 -525.42271243079813 -276.04088763071923 0 0 0 0 2.4008504972814468 0.12417788915247741 0 0.12417788915247741 -2.0748247809375755 0 0 0 0 103.66194403001735 -221.63267521611488 0 -221.63267521611488 -584.68390523817834 0 0 0 0 163.55619058070135 -12.236320505555341 0 -12.236320505555341 -184.97684096571174 0 0 0 0 210.84302819963662 93.751813616710933 0 93.751813616710933 -218.20400632493329 0 0 0 0 14.584150863972383 -101.28753881635748 0 -101.28753881635748 175.21791552224749 0 0 0 0 214.92884523842434 48.346004848552298 0 48.346004848552298 -49.377756969428447 0 0 0 0 143.40270990878523 115.04870878206327 0 115.04870878206327 -14.668593455091468 0 0 0 0 142.09836001640446 100.73228949606289 0 100.73228949606289 -46.488994841347449 0 0 0 0 31.584954083355115 38.473787678038207 0 38.473787678038207 45.200847257841815 0 0 0 0 67.696239961033029 124.10131001969239 0 124.10131001969239 133.23712215971318 0 0 0 0 2.6813961240016742 -0.94052471458864773 0 -0.94052471458864773 0.62908586190169036 0 0 0 0 185.68074538032488 -28.254810133703359 0 -28.254810133703359 -97.113840860691198 0 0 0 0 -72.156081433147847 -86.712600798589847 0 -86.712600798589847 -0.81366435046584229 0 0 0 0 1.3640909072810237 -1.2987831264000107 0 -1.2987831264000107 -0.78849810827130362 0 0 0 0 -74.293328703021871 108.47024136691107 0 108.47024136691107 229.23621463424206 0 0 0 0 130.12704814384892 -49.981183883939593 0 -49.981183883939593 -407.18125113067879 0 0 0 0 118.41073003901845 14.567176092738009 0 14.567176092738009 -30.292875080271187 0 0 0 0 234.75717213031476 64.26019853688922 0 64.26019853688922 45.024048036772001 0 0 0 0 109.36419681446546 158.08941531281744 0 158.08941531281744 4.677786212265346 0 0 0 0 154.05829140711606 193.3500971157664 0 193.3500971157664 32.547594055144145 0 0 0 0 165.43697594909975 130.58478594741064 0 130.58478594741064 -25.51444904285745 0 0 0 0 178.8824907431993 73.58484439529343 0 73.58484439529343 -258.67643605005287 0 0 0 0 134.56105437408667 233.93869773181814 0 233.93869773181814 -3.8973146519792863 0 0 0 0 151.15220884781684 152.3130285314196 0 152.3130285314196 -352.59610692526621 0 0 0 0 -38.21635511027057 177.31133263247648 0 177.31133263247648 105.07304271577596 0 0 0 0 -346.84690210243002 -264.08088916616589 0 -264.08088916616589 -133.17813904454306 0 0 0 0 -0.015948152287339146 -0.07914242545004524 0 -0.07914242545004524 -8.3506841593160317 0 0 0 0 -59.66936801623342 -255.97415758547686 0 -255.97415758547686 -464.19891408065405 0 0 0 0 22.319828364431601 22.18231762915093 0 22.18231762915093 -552.10202314206617 0 0 0 0 192.27421498962369 -75.405592505336699 0 -75.405592505336699 -594.0562522669461 0 0 0 0 -305.68336736407264 -123.94402022076611 0 -123.94402022076611 -37.590363319799508 0 0 0 0 116.33826846918203 -323.87929186979636 0 -323.87929186979636 -435.07707012824631 0 0 0 0 -20.890568494817103 -41.628642345054686 0 -41.628642345054686 -74.11470515883957 0 0 0 0 -226.25183019486937 163.10358546902216 0 163.10358546902216 -230.38780043229417 0 0 0 0 -59.654178856921135 83.147873577669088 0 83.147873577669088 -72.762630006498512 0 0 0 0 32.117329328409426 37.84698213651609 0 37.84698213651609 -251.37940961101413 0 0 0 0 3.4936238621069151 23.254034392153699 0 23.254034392153699 -92.62013133121809 0 0 0 0 13.164120510285557 26.642610577255255 0 26.642610577255255 -75.251013429900922 0 0 0 0 27.294844598983559 43.463486815777287 0 43.463486815777287 -152.62065581086426 0 0 0 0 19.282421396786066 -24.164609069422994 0 -24.164609069422994 -182.02517515486397 0 0 0 0 -3.1283029800134727 -112.65872029781895 0 -112.65872029781895 -199.48725300732121 0 0 0 0 21.953626163223817 -10.912262582562107 0 -10.912262582562107 -207.92476756179758 0 0 0 0 6.4269361510230851 -132.33056486435817 0 -132.33056486435817 -307.03783960027772 0 0 0 0 30.843982349464483 -31.196267252575126 0 -31.196267252575126 -312.84698904738616 0 0 0 0 -7.9686035474431947 -13.458806140299203 0 -13.458806140299203 -219.34454399586502 0 0 0 0 -55.870863637208039 -173.64890541117796 0 -173.64890541117796 -188.48148672838579 0 0 0 0 -65.431473265803845 -193.40318867857104 0 -193.40318867857104 -125.4006186394945 0 0 0 0 -91.363697240245074 -87.195743638285421 0 -87.195743638285421 -39.355318609281312 0 0 0 0 -79.3838118805281 -175.62750833078826 0 -175.62750833078826 -93.540770648611215 0 0 0 0 -81.326834477247473 -165.17301145267197 0 -165.17301145267197 -87.470636435798951 0 0 0 0 -59.235106468959657 -138.4911120062261 0 -138.4911120062261 -105.9827609011918 0 0 0 0 -47.46321036140688 -146.62719823328007 0 -146.62719823328007 -155.99298177542005 0 0 0 0 -53.86988971744816 -143.90348296042976 0 -143.90348296042976 -126.36246437594673 0 0 0 0 -2.0972469240987266 -96.714478721911291 0 -96.714478721911291 -165.50307868437085 0 0 0 0 -22.378255532446587 -72.188227585000277 0 -72.188227585000277 -108.13695332134739 0 0 0 0 -9.9376648084943326 -63.992329833785334 0 -63.992329833785334 -103.02629802616138 0 0 0 0 -76.997088303455484 -98.786333733136416 0 -98.786333733136416 -74.844067131063639 0 0 0 0 -204.71144634865868 -118.17694128373842 0 -118.17694128373842 -21.629929122143949 0 0 0 0 -48.74386638230802 -79.711292403345794 0 -79.711292403345794 -62.648355102035566 0 0 0 0 -5.5324378089508173 -59.417473675086512 0 -59.417473675086512 -69.32395866902516 0 0 0 0 3.6711122659498869 -48.000350870897819 0 -48.000350870897819 -71.889128261948827 0 0 0 0 -47.817105208685085 -59.47767988332123 0 -59.47767988332123 -54.804352913757612 0 0 0 0 14.807950381279625 -71.984450494054727 0 -71.984450494054727 -51.126621677991352 0 0 0 0 20.058402598529938 -52.402705185464583 0 -52.402705185464583 -65.06722694884229 0 0 0 0 24.815377709219774 -43.486677475590113 0 -43.486677475590113 -49.468709217129799 0 0 0 0 6.9205142095161136 -38.48702305531333 0 -38.48702305531333 -39.99306728431111 0 0 0 0 -18.336343444529632 -47.789749164501245 0 -47.789749164501245 -62.628647808342066 0 0 0 0 6.7103419068139374 -45.110725272759737 0 -45.110725272759737 -76.136259455632171 0 0 0 0 24.593189232638906 -15.726837805028481 0 -15.726837805028481 -92.23307488746832 0 0 0 0 41.702225205672676 2.6503226415188692 0 2.6503226415188692 -49.173419635214998 0 0 0 0 22.750444433642542 -14.430097211492466 0 -14.430097211492466 -63.196216122021724 0 0 0 0 46.904099745225494 13.687733411623412 0 13.687733411623412 -74.581935890295426 0 0 0 0 32.906378452355057 -2.0768104162934833 0 -2.0768104162934833 -87.479987638653256 0 0 0 0 32.852586767291427 1.5506957313737075 0 1.5506957313737075 -106.03330194781302 0 0 0 0 12.904395184256259 -14.729166852619528 0 -14.729166852619528 -83.432806703232927 0 0 0 0 20.797225217276491 -30.366394432572633 0 -30.366394432572633 -149.19194348697056 0 0 0 0 18.932652194102346 -0.6187727545161863 0 -0.6187727545161863 -110.74719860759069 0 0 0 0 19.433812672658519 19.16327390882816 0 19.16327390882816 -66.060432129139372 0 0 0 0 25.813267289302303 18.471275035979488 0 18.471275035979488 -97.019448203656793 0 0 0 0 27.337495479323366 19.072539018397947 0 19.072539018397947 -131.2435528717142 0 0 0 0 15.738000670384508 29.590516463133099 0 29.590516463133099 -72.5865537333666 0 0 0 0 12.830645013595586 22.128290630142146 0 22.128290630142146 -48.371615169344295 0 0 0 0 23.38073740975824 2.6274986474090838 0 2.6274986474090838 -60.550245408254341 0 0 0 0 21.459039748400755 -2.0004872512172369 0 -2.0004872512172369 -37.064827936439542 0 0 0 0 25.77337578512072 16.075167583725488 0 16.075167583725488 -79.532635385032336 0 0 0 0 4.871300498783512 13.870559215940375 0 13.870559215940375 -25.073678027002643 0 0 0 0 4.0684203205485119 10.80875555499415 0 10.80875555499415 -33.828486778307706 0 0 0 0 15.200341566018324 14.112140175475361 0 14.112140175475361 -33.096897228220769 0 0 0 0 12.320229570038123 27.103657538211337 0 27.103657538211337 -29.273532550942036 0 0 0 0 3.2993585053664418 39.954947534315579 0 39.954947534315579 -11.442134325254301 0 0 0 0 -0.079513072426493636 30.60112878516793 0 30.60112878516793 1.8662171575706452 0 0 0 0 13.118283221033764 20.352387190757327 0 20.352387190757327 -10.765379066619062 0 0 0 0 -0.14949799003841857 1.7342982675899705 0 1.7342982675899705 0.16894871854308313 0 0 0 0 2.6484113153539965 -19.500342346806065 0 -19.500342346806065 -95.895518005358099 0 0 0 0 -12.610723720252736 -18.510715914634602 0 -18.510715914634602 -47.795312030586501 0 0 0 0 -38.104804632808737 31.777913578036532 0 31.777913578036532 -80.625603790846071 0 0 0 0 12.547908290097258 5.2143737466283326 0 5.2143737466283326 -23.416123212115004 0 0 0 0 -3.5114128103143685 -6.9972345543210395 0 -6.9972345543210395 -46.853782554089548 0 0 0 0 3.5443620316411715 0.70559995164935074 0 0.70559995164935074 -1.5349315053583439 0 0 0 0 -83.657584785453309 -32.791403261848245 0 -32.791403261848245 -14.314780238171807 0 0 0 0 30.155594919868463 19.661728895069245 0 19.661728895069245 -60.071613534667449 0 0 0 0 14.822322663210546 2.2894422129394485 0 2.2894422129394485 -24.874235224466801 0 0 0 0 -2.2342036101981648 -41.626042233299813 0 -41.626042233299813 -51.247137551565174 0 0 0 0 -0.62872329006221683 -10.855059581040415 0 -10.855059581040415 -3.7895675352293239 0 0 0 0 6.2103085316539417 3.5538997884914831 0 3.5538997884914831 0.38110149128699788 0 0 0 0 -2.5009101628068038 -33.796526980841008 0 -33.796526980841008 -36.144593370837356 0 0 0 0 -2.5444730530554551 -26.221506631049579 0 -26.221506631049579 -21.414837494856329 0 0 0 0 -9.1052889476203855 -4.6671701381737876 0 -4.6671701381737876 -5.4708037032942229 0 0 0 0 -5.6579081852245281 -0.79535644165480335 0 -0.79535644165480335 -59.107496600492595 0 0 0 0 2.9518867651973251 -44.568830264427561 0 -44.568830264427561 -16.730316603581741 0 0 0 0 44.827288236123081 2.1625235007213632 0 2.1625235007213632 -187.08073711114776 0 0 0 0 53.973699922844617 -27.639948045100027 0 -27.639948045100027 -105.1001615252826 0 0 0 0 6.2571078058861076 -24.601329709530546 0 -24.601329709530546 -35.517282632723436 0 0 0 0 25.263112135552184 -10.764322047525638 0 -10.764322047525638 -99.774864669818271 0 0 0 0 7.9463082334378896 -2.7726070439366595 0 -2.7726070439366595 -44.617726230193512 0 0 0 0 16.406009484728884 -28.7144098984827 0 -28.7144098984827 -58.009763284087967 0 0 0 0 -3.7014264340898535 9.3098972342995694 0 9.3098972342995694 -42.502966724850012 0 0 0 0 11.770100498717738 3.656462932289287 0 3.656462932289287 -91.645014273530251 0 0 0 0 0.46529911212648045 0.30107462677193553 0 0.30107462677193553 0.24524214745058259 0 0 0 0 8.9068102063733932 95.944120244617807 0 95.944120244617807 -208.54264433327171 0 0 0 0 12.702161044114519 12.716492701549214 0 12.716492701549214 -122.0653195306586 0 0 0 0 -10.462667104590309 22.02554877170769 0 22.02554877170769 -86.707761880963517 0 0 0 0 -48.658026237855893 69.265576265688651 0 69.265576265688651 -113.5327700531343 0 0 0 0 -17.630526131808438 -137.93922479406319 0 -137.93922479406319 212.94432308938849 0 0 0 0 29.372799597363837 -14.776608077210767 0 -14.776608077210767 231.133726009675 0 0 0 0 50.13283000353249 26.911343906393085 0 26.911343906393085 37.01103417289778 0 0 0 0 0.19021940970835494 0.72080057900316774 0 0.72080057900316774 -0.33608808628495623 0 0 0 0 12.211294591369949 37.871734059561277 0 37.871734059561277 66.01419917511339 0 0 0 0 142.76137676393577 -149.66988628718536 0 -149.66988628718536 18.527868910303368 0 0 0 0 22.465598896239328 9.5945422673321445 0 9.5945422673321445 26.31082758573757 0 0 0 0 -5.9753534234507697 27.624170910694374 0 27.624170910694374 60.789897706798001 0 0 0 0 26.050805661449971 54.073307072332682 0 54.073307072332682 -75.381504732099756 0 0 0 0 0.45188639884440818 47.955924129161758 0 47.955924129161758 11.603209271004744 0 0 0 0 74.238912995190731 6.436526724025498 0 6.436526724025498 44.215111216890364 0 0 0 0 21.350929208781395 69.850283731722811 0 69.850283731722811 -88.369129939625054 0 0 0 0 -1.5857316748239612 -16.094534825626624 0 -16.094534825626624 40.225964424196718 0 0 0 0 -113.46065161257695 29.974466161078453 0 29.974466161078453 117.13361089828322 0 0 0 0 1.8418706411858352 -157.56067714213486 0 -157.56067714213486 239.21559541436363 0 0 0 0 133.79178254419458 -173.15874567880201 0 -173.15874567880201 -32.930355656036227 0 0 0 0 2.0365639726145446 25.725928510200902 0 25.725928510200902 -78.695097961935971 0 0 0 0 19.689363962476364 -6.4672992042815167 0 -6.4672992042815167 -38.445952140300506 0 0 0 0 20.618935103683725 35.444666281608079 0 35.444666281608079 -112.92513009035611 0 0 0 0 3.0987823304957711 0.45748063968310504 0 0.45748063968310504 -0.1486729265589517 0 0 0 0 -19.893249085235766 8.3310591975096031 0 8.3310591975096031 -96.090719107412042 0 0 0 0 26.412871817891755 31.001502699164121 0 31.001502699164121 -93.363055632951728 0 0 0 0 29.184542718218381 -10.290080385637339 0 -10.290080385637339 -86.726097987069807 0 0 0 0 3.1126134169885518 22.718212912110175 0 22.718212912110175 -81.857873588574876 0 0 0 0 90.020705290983642 32.304080622217953 0 32.304080622217953 -78.992334271582877 0 0 0 0 3.7181891217546763 -4.420164003501668 0 -4.420164003501668 -61.824056675166503 0 0 0 0 0.1572328526357305 0.47503807235898421 0 0.47503807235898421 0.7482575387869943 0 0 0 0 8.919210690588443 26.489092971323771 0 26.489092971323771 -64.800055578920364 0 0 0 0 9.118233659130965 8.4534806946721801 0 8.4534806946721801 -44.953600871012895 0 0 0 0 103.15197041112287 -26.722852812788915 0 -26.722852812788915 46.079531597952155 0 0 0 0 60.231618688067556 -96.753510766628096 0 -96.753510766628096 -0.80938067345414311 0 0 0 0 129.49147246887333 -54.472112561945323 0 -54.472112561945323 -79.703380334634858 0 0 0 0 49.815730849950796 -13.575778657112096 0 -13.575778657112096 -83.893513088763939 0 0 0 0 40.312764615957121 -15.964435601983496 0 -15.964435601983496 -77.541950881488447 0 0 0 0 48.272981177776614 -43.887919871841177 0 -43.887919871841177 -45.58327242492669 0 0 0 0 11.073346318508811 -48.175594966243807 0 -48.175594966243807 -37.729364946655551 0 0 0 0 54.57052824555376 -82.433057644614109 0 -82.433057644614109 -12.278434252850275 0 0 0 0 7.3636644909929601 -49.30118698766637 0 -49.30118698766637 15.59973837441521 0 0 0 0 -6.6515402366999297 -70.116557842210568 0 -70.116557842210568 10.344236656570502 0 0 0 0 -42.147534064433785 -47.952291129879086 0 -47.952291129879086 7.2335854618504527 0 0 0 0 -39.390931368711904 -32.911968502396348 0 -32.911968502396348 -2.8448910600491217 0 0 0 0 -30.011062771108641 -40.98781178861077 0 -40.98781178861077 -1.024926851674536 0 0 0 0 -31.239970099667744 -42.065073353385742 0 -42.065073353385742 1.5165306728231371 0 0 0 0 11.353346316221149 -53.300310772875605 0 -53.300310772875605 -11.736727343202801 0 0 0 0 -25.677419972658754 -57.84285977538093 0 -57.84285977538093 9.7823889388382668 0 0 0 0 -11.25466126572428 -34.329433979975875 0 -34.329433979975875 -27.449086589323997 0 0 0 0 -20.812256893240829 -21.97240245152534 0 -21.97240245152534 -17.816570792521816 0 0 0 0 -2.4365730416029692 -15.041649532391602 0 -15.041649532391602 -16.251607826688996 0 0 0 0 10.183832733188865 -29.089086850772219 0 -29.089086850772219 -26.356891346978955 0 0 0 0 18.840077967761317 -16.856205666272217 0 -16.856205666272217 -57.151035867441351 0 0 0 0 16.91702765144646 -20.058623771577913 0 -20.058623771577913 -29.952016812050715 0 0 0 0 15.333893474175682 -7.8810571647644565 0 -7.8810571647644565 -37.035584289682447 0 0 0 0 108.55138014311024 -179.16995911527192 0 -179.16995911527192 40.668074680644395 0 0 0 0 8.3126704712385475 1.3415652768762598 0 1.3415652768762598 -1.4485920144360023 0 0 0 0 14.443616829935763 -8.7146198058435402 0 -8.7146198058435402 -35.686866983360233 0 0 0 0 6.4751488181469625 -5.308039717272063 0 -5.308039717272063 -5.9902500889749319 0 0 0 0 0.14744206754165209 -2.9253625619809611 0 -2.9253625619809611 0.72428654642335033 0 0 0 0 -12.68897804045821 -16.675355408413452 0 -16.675355408413452 -23.454737859654415 0 0 0 0 15.086124402499081 -5.5647425298975577 0 -5.5647425298975577 -26.934075398712594 0 0 0 0 -91.027770636803382 -105.97059444804836 0 -105.97059444804836 -152.15519022670469 0 0 0 0 -81.323694957911897 -116.54634852338495 0 -116.54634852338495 -143.43879774906964 0 0 0 0 -43.272007768901574 -129.74493980242551 0 -129.74493980242551 -227.0775901011184 0 0 0 0 -89.771097982777235 -100.17644209034279 0 -100.17644209034279 -92.486381111404626 0 0 0 0 -0.062709886196896561 -22.272502789235642 0 -22.272502789235642 -34.948755753553996 0 0 0 0 11.09238535009078 -22.16009841115374 0 -22.16009841115374 -80.567472242456461 0 0 0 0 -11.092234719579039 5.5225403043878032 0 5.5225403043878032 -68.121948329693623 0 0 0 0 -21.852426685207639 -16.975176761065086 0 -16.975176761065086 -32.204311737161333 0 0 0 0 -0.95073633912454625 -11.100100647900035 0 -11.100100647900035 -41.156541175914754 0 0 0 0 -0.18963817985045972 -0.25106866447779908 0 -0.25106866447779908 -0.12130885990286089 0 0 0 0 2.2972030015159675 -15.23918623438658 0 -15.23918623438658 -58.826498630423885 0 0 0 0 3.4829637335732251 -20.417213443475703 0 -20.417213443475703 -38.128567987110728 0 0 0 0 -0.04990358863042918 -0.15103587427041987 0 -0.15103587427041987 -0.091424060853924516 0 0 0 0 -0.26752986968082837 -24.50403440687478 0 -24.50403440687478 -26.702943592448719 0 0 0 0 1.8682681471203537 -22.811414789811352 0 -22.811414789811352 -31.180149448817247 0 0 0 0 9.2477449998837642 -35.446954986866331 0 -35.446954986866331 -9.5930996150705141 0 0 0 0 9.1921086257996905 -32.724269449267013 0 -32.724269449267013 -32.291545101717929 0 0 0 0 -3.9946155758314319 -39.944778704933924 0 -39.944778704933924 -35.170254815904627 0 0 0 0 0.019690626044073858 0.11609861408434341 0 0.11609861408434341 -0.82687224418523897 0 0 0 0 23.086640549168404 2.0399916710930484 0 2.0399916710930484 10.113657720074116 0 0 0 0 56.3437591913235 39.5056236272776 0 39.5056236272776 11.167653361884732 0 0 0 0 -0.89663391634227607 3.3983049954433184 0 3.3983049954433184 -10.446168933960422 0 0 0 0 -28.547382842124534 -47.099315627587202 0 -47.099315627587202 -74.935669748570035 0 0 0 0 -82.961634522350323 -56.427038743579033 0 -56.427038743579033 -51.058433909049199 0 0 0 0 -33.270963591784039 -31.696633203624515 0 -31.696633203624515 -42.792847587650613 0 0 0 0 15.932652679902414 52.516567705069974 0 52.516567705069974 8.6852994735309039 0 0 0 0 96.742233030391617 57.862745867962076 0 57.862745867962076 -78.085514199185127 0 0 0 0 1.6778529068489854 -9.134816815263207 0 -9.134816815263207 -42.06095568436595 0 0 0 0 -135.42569254631508 -109.15964796636581 0 -109.15964796636581 -22.3308412074839 0 0 0 0 -55.012660812714216 -31.14335325445245 0 -31.14335325445245 152.14195265427406 0 0 0 0 14.473818970336652 -47.166173084717229 0 -47.166173084717229 -34.425084331509424 0 0 0 0 46.817685951923522 -3.5334822946424538 0 -3.5334822946424538 -14.336405568664986 0 0 0 0 -32.050832016047025 -48.673853937747481 0 -48.673853937747481 -11.153435210093448 0 0 0 0 -1.1250439298705714 -95.983925685770373 0 -95.983925685770373 -81.591834856757487 0 0 0 0 -40.013421692273369 -32.274323208024725 0 -32.274323208024725 -47.019671290261613 0 0 0 0 -7.5270091796378438 -30.623459617303524 0 -30.623459617303524 -58.708736375741864 0 0 0 0 -34.604817768907196 -26.166826448963548 0 -26.166826448963548 -53.537544319144217 0 0 0 0 2.8695039038588295 2.9971485377224356 0 2.9971485377224356 -7.2941922123461183 0 0 0 0 92.050578349763668 -25.334822280200115 0 -25.334822280200115 -44.890783505412401 0 0 0 0 40.860527012003786 6.719958404704812 0 6.719958404704812 2.6767175009827042 0 0 0 0 56.661231782532923 -37.00672465331445 0 -37.00672465331445 -14.464513713466658 0 0 0 0 41.025382110254213 -16.229512213081762 0 -16.229512213081762 -31.502619220686029 0 0 0 0 1.4026537583007792 -10.741132552633005 0 -10.741132552633005 -44.864859464761224 0 0 0 0 99.610502572762016 31.62155728349353 0 31.62155728349353 -68.170078065570124 0 0 0 0 54.437763041460357 -70.354478610600381 0 -70.354478610600381 -140.62594661962794 0 0 0 0 -1.8967001880434899 -6.0476247637203695 0 -6.0476247637203695 -3.1923207635023232 0 0 0 0 68.811667923925825 -7.4097526846007895 0 -7.4097526846007895 -112.82935511640244 0 0 0 0 -32.956959834521058 -18.037793423342009 0 -18.037793423342009 -48.352911679308818 0 0 0 0 -40.863438670120331 -18.215923168718291 0 -18.215923168718291 -35.812459340006171 0 0 0 0 -35.351071991553226 -4.138386014947173 0 -4.138386014947173 -39.01354770559692 0 0 0 0 -4.4156927043942735 9.1330759726068287 0 9.1330759726068287 -23.109522021587793 0 0 0 0 -36.093905569288381 -30.740638099661737 0 -30.740638099661737 48.415084216998366 0 0 0 0 18.786682955244032 39.796891991434677 0 39.796891991434677 7.518234827395645 0 0 0 0 7.8697787036207956 4.82516745754765 0 4.82516745754765 -37.608566206481555 0 0 0 0 5.7309453018460772 -50.585975733723899 0 -50.585975733723899 -99.687004231373066 0 0 0 0 41.614249540261568 -17.444892103681923 0 -17.444892103681923 -80.004819056037377 0 0 0 0 -44.658347811387785 -26.88472102355081 0 -26.88472102355081 -44.826191161830138 0 0 0 0 65.970689949395549 39.855965634562381 0 39.855965634562381 -22.572717932387604 0 0 0 0 -1.761763592526147 6.2607891038792012 0 6.2607891038792012 -17.475284678638772 0 0 0 0 24.911875890241546 -19.69842231450275 0 -19.69842231450275 -36.559334341080103 0 0 0 0 -10.639573952910553 -3.58442820930577 0 -3.58442820930577 -41.906385564987431 0 0 0 0 44.991989355089828 4.0023336825652223 0 4.0023336825652223 -63.37727284925495 0 0 0 0 2.5104226327951515 -26.403748341153005 0 -26.403748341153005 -54.298569535145361 0 0 0 0 0.033820224304132229 -0.17405266774707684 0 -0.17405266774707684 0.83313104364253121 0 0 0 0 -86.590365887786277 -49.792106285745831 0 -49.792106285745831 51.932606447040598 0 0 0 0 1.6032982845885924 -0.53363494073447271 0 -0.53363494073447271 -6.5917077008665395 0 0 0 0 31.045420065559824 7.0029549115643022 0 7.0029549115643022 -61.651246299144987 0 0 0 0 12.769739799318984 51.632175733408076 0 51.632175733408076 1.442882952200307 0 0 0 0 65.218469559348208 14.23399503285782 0 14.23399503285782 -122.41994062881713 0 0 0 0 11.838084166887313 99.992138195662847 0 99.992138195662847 -107.13667210059793 0 0 0 0 55.156462390111415 3.1085835780777415 0 3.1085835780777415 -79.914019721429213 0 0 0 0 122.75893319577668 -5.6486380618152907 0 -5.6486380618152907 -120.49336542570381 0 0 0 0 -55.971181133637529 -17.353945058644968 0 -17.353945058644968 -32.269869699784977 0 0 0 0 -444.87875536423059 -197.81620401718737 0 -197.81620401718737 -114.4953536308094 0 0 0 0 -2.1022791974667445 -11.12627812462849 0 -11.12627812462849 -42.689213205346192 0 0 0 0 -2.3748977139562601 -1.7205254238850713 0 -1.7205254238850713 -12.6561851020116 0 0 0 0 23.521226398617728 3.3416411385378524 0 3.3416411385378524 -49.229511647525214 0 0 0 0 55.954444973111322 26.46905971914839 0 26.46905971914839 -41.706600140016235 0 0 0 0 38.522590568280975 9.8247693467583304 0 9.8247693467583304 -46.475570434209658 0 0 0 0 17.643606212840041 18.879719748296338 0 18.879719748296338 -30.497038181076277 0 0 0 0 3.4361380561727533 6.7642732422090006 0 6.7642732422090006 -40.740803140752988 0 0 0 0 -37.395930847993725 -6.1907183664650347 0 -6.1907183664650347 -35.026280940975994 0 0 0 0 7.4572770580051042 -16.267235725521459 0 -16.267235725521459 -65.272334949371725 0 0 0 0 24.3389643207164 23.789183003551443 0 23.789183003551443 -26.770313746761531 0 0 0 0 -0.27645677881221009 3.7636593996684553 0 3.7636593996684553 -35.2887318382883 0 0 0 0 4.6806717219078564 3.3529726933920756 0 3.3529726933920756 -28.001876304519101 0 0 0 0 -2.905915745361765 6.5152800529843802 0 6.5152800529843802 6.8264049870929711 0 0 0 0 -20.282256239806884 -1.251948238175828 0 -1.251948238175828 -42.943697391747264 0 0 0 0 -7.8467114101593527 -4.1109021916871313 0 -4.1109021916871313 -48.954428249899493 0 0 0 0 4.2729747794235182 -2.1955656877334135 0 -2.1955656877334135 -8.0361291007579041 0 0 0 0 -16.899448969013861 -12.402876283653313 0 -12.402876283653313 -38.46390309225535 0 0 0 0 -5.2725358911598956 3.7810696244913728 0 3.7810696244913728 -32.875183690660535 0 0 0 0 27.849067358994716 2.7449001179702464 0 2.7449001179702464 -61.28545878490695 0 0 0 0 33.487759568583897 17.176721578398428 0 17.176721578398428 -64.34631899597116 0 0 0 0 28.487589143621904 11.614407849585405 0 11.614407849585405 -70.293645948069752 0 0 0 0 28.199860983277063 -2.2335517565734335 0 -2.2335517565734335 -84.684930659510428 0 0 0 0 26.061398053485163 15.168696323986296 0 15.168696323986296 -70.196466500274255 0 0 0 0 -29.998429544127703 -42.772303107805783 0 -42.772303107805783 -64.947693780472036 0 0 0 0 -55.217712598374419 112.62167779258016 0 112.62167779258016 106.05035157877137 0 0 0 0 10.365850678152965 1.5294956008883673 0 1.5294956008883673 -33.307296023866684 0 0 0 0 -0.58311405431027197 -11.781965886448688 0 -11.781965886448688 -85.818954107868194 0 0 0 0 -9.8375465649769467 -26.189594549039612 0 -26.189594549039612 -85.59437811735188 0 0 0 0 4.3701142136109796 1.6037309748738959 0 1.6037309748738959 -38.912735626422574 0 0 0 0 20.977400244830108 -19.900703078224069 0 -19.900703078224069 -68.386494077680254 0 0 0 0 11.958987085710191 -4.0396101201904457 0 -4.0396101201904457 -33.549935968359932 0 0 0 0 30.075346876992853 3.1068719749782758 0 3.1068719749782758 -69.863144601134991 0 0 0 0 22.215881053891735 11.91175317260786 0 11.91175317260786 -52.616997304794495 0 0 0 0 14.727067460876015 -3.3924072505782306 0 -3.3924072505782306 -6.1945995361363728 0 0 0 0 17.732606559896112 2.8918576468204265 0 2.8918576468204265 -69.287005224959103 0 0 0 0 26.395860499985247 -37.725372283643082 0 -37.725372283643082 -160.95345940616244 0 0 0 0 -49.635882716276683 17.303122110764889 0 17.303122110764889 -19.697887453959993 0 0 0 0 3.8522613798395762 -0.56730112425148249 0 -0.56730112425148249 -0.17949037070491158 0 0 0 0 21.533341664879472 9.5064674879152946 0 9.5064674879152946 -23.865252704181252 0 0 0 0 8.6541896809849277 33.12039365446617 0 33.12039365446617 -31.382241964169225 0 0 0 0 11.998227299343398 19.319783244101018 0 19.319783244101018 -62.333981538657099 0 0 0 0 125.99911606836451 -115.28878265645471 0 -115.28878265645471 -332.19397615011258 0 0 0 0 -35.605476729737461 -234.14057665968721 0 -234.14057665968721 -327.07814489446582 0 0 0 0 -230.18861801448537 499.46157648262124 0 499.46157648262124 -331.16594190051546 0 0 0 0 4.6886746410007385 -0.64945826566516018 0 -0.64945826566516018 -0.45255739176784004 0 0 0 0 42.489497951127781 -30.928247603340424 0 -30.928247603340424 -119.29812087205937 0 0 0 0 15.108199216724984 -18.01748346817476 0 -18.01748346817476 -87.675168755318737 0 0 0 0 307.69404339275991 -833.88688759939032 0 -833.88688759939032 -640.84200683442759 0 0 0 0 -263.31257447542112 25.787553111775196 0 25.787553111775196 64.058554228224239 0 0 0 0 -409.11452841137179 0.45675935211511387 0 0.45675935211511387 -132.19763608785433 0 0 0 0 -87.37229635406743 -207.53485837592143 0 -207.53485837592143 -192.7360613014971 0 0 0 0 0.29378537751365474 -2.0012092936119501 0 -2.0012092936119501 -10.012111709999118 0 0 0 0 391.78160881097688 110.29967016774981 0 110.29967016774981 -143.62489397655008 0 0 0 0 -1053.1234211356041 -528.04276696698798 0 -528.04276696698798 39.911052224499144 0 0 0 0 94.524344875612599 27.354384578029567 0 27.354384578029567 14.947451016283594 0 0 0 0 90.532287125507594 7.2992356477625435 0 7.2992356477625435 -79.823504858561819 0 0 0 0 68.870647538584166 35.177901407125319 0 35.177901407125319 -80.504029065660291 0 0 0 0 55.563897682428305 9.8714353510076762 0 9.8714353510076762 -128.43973524985631 0 0 0 0 154.9199491486163 6.3358679303541976 0 6.3358679303541976 -253.96593346879672 0 0 0 0 22.518613467128645 -72.63812138585854 0 -72.63812138585854 -157.70902992251649 0 0 0 0 12.231928662018959 -96.166771445536142 0 -96.166771445536142 -167.09090903543074 0 0 0 0 19.780338718610022 -34.594145553644921 0 -34.594145553644921 -141.0082843724922 0 0 0 0 25.633213381817221 -58.906504342669905 0 -58.906504342669905 -103.39910012968176 0 0 0 0 2.2972639363404141 -40.831921207322011 0 -40.831921207322011 -72.722676571695047 0 0 0 0 -0.002494050163624105 -24.98690120323954 0 -24.98690120323954 -108.05936878500324 0 0 0 0 -2.9739471691767752 -22.539579667974522 0 -22.539579667974522 -102.68057624207358 0 0 0 0 24.927058458398697 -20.487785182791413 0 -20.487785182791413 -102.60127267782104 0 0 0 0 0.023315909124648225 -16.080419742795129 0 -16.080419742795129 -94.333287505913177 0 0 0 0 4.3239241910683184 -6.8756381231360137 0 -6.8756381231360137 -88.628154575024382 0 0 0 0 11.564935530422147 8.3437696216697077 0 8.3437696216697077 -64.872676987251907 0 0 0 0 -8.9073384550037815 -8.9644331879426318 0 -8.9644331879426318 -69.224774274147421 0 0 0 0 -0.055759717066051595 -13.813259734068197 0 -13.813259734068197 -76.445768323221273 0 0 0 0 0.17733077181107409 -15.334178736326066 0 -15.334178736326066 -81.002382246560956 0 0 0 0 -2.836785318621839 -16.947992406578123 0 -16.947992406578123 -79.707672584405373 0 0 0 0 -11.65490142033812 -5.3419942635791813 0 -5.3419942635791813 -76.287317550057196 0 0 0 0 -38.798516754494329 -74.658895990804012 0 -74.658895990804012 -150.29596934469737 0 0 0 0 28.024886413022006 32.451546493444766 0 32.451546493444766 -34.401321419598389 0 0 0 0 -2.6684189610307563 -24.823169965624402 0 -24.823169965624402 -41.773976540072908 0 0 0 0 112.33129782556466 8.5759389553495566 0 8.5759389553495566 -87.535913502746553 0 0 0 0 39.5734670809546 -83.955793479501153 0 -83.955793479501153 -115.30971160391709 0 0 0 0 -19.330639304064583 2.4553062773484271 0 2.4553062773484271 -126.25576047975483 0 0 0 0 -18.333655655613612 -18.220487591162964 0 -18.220487591162964 -46.465728447958099 0 0 0 0 35.876717562780094 -57.211500011393582 0 -57.211500011393582 -211.09281829406245 0 0 0 0 -104.93592465102729 -131.10087870826464 0 -131.10087870826464 -152.2542669469367 0 0 0 0 112.37439504177479 14.874367707896454 0 14.874367707896454 -106.73123931061127 0 0 0 0 -7.1412206023676941 -96.848492011205963 0 -96.848492011205963 -305.37154675135753 0 0 0 0 -0.88582934065682772 -35.405680660136568 0 -35.405680660136568 -169.32363931463715 0 0 0 0 -70.767086788973103 -87.697482558836782 0 -87.697482558836782 -132.03326702938102 0 0 0 0 -237.4306156093613 -329.13619547898816 0 -329.13619547898816 -355.11105958964663 0 0 0 0 0.015076918309252944 3.3016551715523867 0 3.3016551715523867 11.047917915406288 0 0 0 0 0.33574409348352546 0.049838266843941881 0 0.049838266843941881 -1.8030434242211726 0 0 0 0 -0.024833426572669702 3.4965464274737315 0 3.4965464274737315 15.540593816414912 0 0 0 0 0.37618053276457086 5.1945844625879545 0 5.1945844625879545 12.178258009720594 0 0 0 0 7.5044277228468088 25.688439980853673 0 25.688439980853673 35.367015610179806 0 0 0 0 0.93804655966686823 1.2845047415555513 0 1.2845047415555513 -4.7864843315870758 0 0 0 0 -95.594761103398298 -119.12284299445128 0 -119.12284299445128 -236.67109912837623 0 0 0 0 24.211564037848859 -102.16780472716891 0 -102.16780472716891 -125.63183262300299 0 0 0 0 22.589138476194762 -83.657421502339275 0 -83.657421502339275 -201.33848013957686 0 0 0 0 -5.7718159997650105 -106.7105019157093 0 -106.7105019157093 -204.7616302334427 0 0 0 0 -144.09387027141562 -259.78652436865013 0 -259.78652436865013 -284.80389649686185 0 0 0 0 -142.28488472690719 -162.43553767915182 0 -162.43553767915182 -171.32345016420186 0 0 0 0 -13.146656087950438 -47.187579624622146 0 -47.187579624622146 -37.956922587691224 0 0 0 0 1.0563102287157311 2.9558808357250683 0 2.9558808357250683 -8.0218433703251151 0 0 0 0 -65.637528759025628 -162.2701972032246 0 -162.2701972032246 -211.8386504477503 0 0 0 0 60.338714443752224 -63.208050901106617 0 -63.208050901106617 -74.949083069494009 0 0 0 0 -10.783889204960705 129.79496893424584 0 129.79496893424584 11.494275128519803 0 0 0 0 10.987357631438456 15.823654570103827 0 15.823654570103827 -85.745977473170569 0 0 0 0 0.027327678827921694 1.5688554171429132 0 1.5688554171429132 -36.065677224401952 0 0 0 0 -3.3099959785163171 -19.830601323233168 0 -19.830601323233168 -21.451695870782714 0 0 0 0 -11.18386851497992 -5.874038815331005 0 -5.874038815331005 38.515490986843133 0 0 0 0 4.3360499476702898 -56.674582428306167 0 -56.674582428306167 -162.39884315402378 0 0 0 0 3.5547904061554618 -55.734584505451494 0 -55.734584505451494 -163.3200089235288 0 0 0 0 -2.5746066075308818 -39.020833148808833 0 -39.020833148808833 -146.54604484486481 0 0 0 0 -56.01487923263403 -49.489643130644254 0 -49.489643130644254 -146.66732408777534 0 0 0 0 -1.6777265149521554 -64.400915709396941 0 -64.400915709396941 -174.26159184533026 0 0 0 0 7.7740817252511079 -30.070843168377905 0 -30.070843168377905 -124.39470713276751 0 0 0 0 4.30599051198692 -45.471065682047993 0 -45.471065682047993 -143.53740870808542 0 0 0 0 2.1564546704944405 -43.530121696097922 0 -43.530121696097922 -145.17737514009423 0 0 0 0 1.1719460090105258 -56.403589709889275 0 -56.403589709889275 -149.56708672464993 0 0 0 0 -7.9408669744273084 -41.438389755443495 0 -41.438389755443495 -133.69389010823488 0 0 0 0 -13.569507692174284 -59.427552604873199 0 -59.427552604873199 -127.36801930790989 0 0 0 0 -39.264431118969583 -85.580268053620784 0 -85.580268053620784 -175.04527465706997 0 0 0 0 2.1653982792412876 -46.275729051031703 0 -46.275729051031703 -164.12657716376998 0 0 0 0 -27.426329829181668 -38.126617184818315 0 -38.126617184818315 -160.27095539771108 0 0 0 0 46.85436310301543 13.474452482865672 0 13.474452482865672 -238.41266629359598 0 0 0 0 78.646011951622995 -71.899434805192868 0 -71.899434805192868 -198.77675146053298 0 0 0 0 -9.3874344405824388 -98.270187486673876 0 -98.270187486673876 -174.09988469402015 0 0 0 0 96.221894862234194 -27.392548822346726 0 -27.392548822346726 -112.38739504326077 0 0 0 0 141.04989643014937 -92.113197252852842 0 -92.113197252852842 -183.39750512607316 0 0 0 0 97.40199619394491 -68.429938007444434 0 -68.429938007444434 -44.763211231278547 0 0 0 0 207.89378301009151 41.715977296051278 0 41.715977296051278 -31.743930386558532 0 0 0 0 136.55200178225255 -68.405393340519367 0 -68.405393340519367 -172.49452847534121 0 0 0 0 -1.7515898078328691 8.6057805207601419 0 8.6057805207601419 1.7361582469927441 0 0 0 0 242.53144530619193 48.487571384379407 0 48.487571384379407 -43.564788450021297 0 0 0 0 5.7666742981585486 -0.091447620814861352 0 -0.091447620814861352 -10.19200843418237 0 0 0 0 60.941327023686654 -720.92187539037513 0 -720.92187539037513 -346.0362753473355 0 0 0 0 103.28187532493689 -266.77045460133104 0 -266.77045460133104 -391.58198840824844 0 0 0 0 -728.29418293608751 516.74059546674653 0 516.74059546674653 86.521634630527842 0 0 0 0 1.2676109505053059 27.186679075530325 0 27.186679075530325 -49.51139235753989 0 0 0 0 142.90555470183835 -88.873194216672346 0 -88.873194216672346 -525.6449743692865 0 0 0 0 -24.996258793618551 97.174309345157326 0 97.174309345157326 -118.49513199167268 0 0 0 0 -5.5215325069300434 -57.1456984738561 0 -57.1456984738561 -147.62559391309333 0 0 0 0 -27.687968148898108 -89.946672635959658 0 -89.946672635959658 -13.462948475156736 0 0 0 0 0.46299567844518918 29.768667847376705 0 29.768667847376705 -44.479499935774271 0 0 0 0 24.149214335310717 -134.6416110187547 0 -134.6416110187547 -283.70907394385358 0 0 0 0 56.068855372448525 -266.52869478316097 0 -266.52869478316097 -129.99536636933772 0 0 0 0 141.15631367614697 -94.425883950367279 0 -94.425883950367279 -270.54718424949169 0 0 0 0 66.18055423025362 80.033854690813769 0 80.033854690813769 -173.96204451426092 0 0 0 0 11.912408135749956 -38.117389068658667 0 -38.117389068658667 -282.31651705214244 0 0 0 0 -4.0153043252412157 -5.8730752585237411 0 -5.8730752585237411 -7.5028829614928298 0 0 0 0 -259.02787696159942 -5.5153523112985567 0 -5.5153523112985567 21.710752206177858 0 0 0 0 -883.15393328562277 -195.86558509136739 0 -195.86558509136739 103.69453776971204 0 0 0 0 96.553400730456815 48.311286326128538 0 48.311286326128538 -391.07327653542598 0 0 0 0 -175.12321771882807 -72.337784719489719 0 -72.337784719489719 5.7088452187558687 0 0 0 0 -52.668050941924321 -131.47087260773696 0 -131.47087260773696 -0.43449852788035059 0 0 0 0 263.18946222663396 -18.896029489525972 0 -18.896029489525972 -104.10666379221584 0 0 0 0 121.02518032884291 -58.774422956874332 0 -58.774422956874332 -79.742747886979487 0 0 0 0 311.69008556502024 32.123565239682648 0 32.123565239682648 -113.66788813416497 0 0 0 0 470.48636109023028 -255.91812857847617 0 -255.91812857847617 -435.62371449072089 0 0 0 0 311.82780592405038 29.300927102725836 0 29.300927102725836 -60.344692047121498 0 0 0 0 3.7106145400536019 3.8173527763422239 0 3.8173527763422239 -65.583353155300273 0 0 0 0 1.5163312564541678 -1.9774914655173141 0 -1.9774914655173141 -49.092533984254231 0 0 0 0 126.80264608331146 -18.084188183663173 0 -18.084188183663173 -33.125936771655688 0 0 0 0 314.5674579818313 22.681893888075138 0 22.681893888075138 -87.964089697683448 0 0 0 0 107.04070333019445 9.9905091058340076 0 9.9905091058340076 -7.4827932562329806 0 0 0 0 -247.34585228881673 -151.25495971324312 0 -151.25495971324312 -67.909231697358337 0 0 0 0 -411.99801212758905 -195.29999072964529 0 -195.29999072964529 -109.3419702238557 0 0 0 0 -230.52065916834454 -27.312427890794424 0 -27.312427890794424 -48.039680413185124 0 0 0 0 320.51060533325364 14.68374577450777 0 14.68374577450777 -51.164439472342565 0 0 0 0 1.1509109156714343 -2.3639048666976734 0 -2.3639048666976734 -29.427747839591774 0 0 0 0 27.455944442845748 -26.526463464776498 0 -26.526463464776498 0.28981582834239816 0 0 0 0 -8.3215964540321004 -14.437651020637738 0 -14.437651020637738 -23.571439568956919 0 0 0 0 90.724656449088798 -126.43919209017804 0 -126.43919209017804 -27.064156330059632 0 0 0 0 -113.75732779432906 -132.3521849386143 0 -132.3521849386143 -34.402982817311567 0 0 0 0 -55.34852243426667 1.807992521145934 0 1.807992521145934 -5.8993072140001459 0 0 0 0 -160.85797616302966 -128.71624579458694 0 -128.71624579458694 -119.9239077568418 0 0 0 0 84.683873385185507 -61.256691156854686 0 -61.256691156854686 -122.3507753572776 0 0 0 0 -6.7680237807227899 -20.700412332718752 0 -20.700412332718752 -38.614103568216038 0 0 0 0 10.574783863907896 -44.845859979641318 0 -44.845859979641318 3.511003407107637 0 0 0 0 -19.747152647520124 -29.307299124167912 0 -29.307299124167912 22.534263463603565 0 0 0 0 -11.280003746084731 -25.949027006343385 0 -25.949027006343385 13.66567918769033 0 0 0 0 -70.648627014326848 5.6799496750918479 0 5.6799496750918479 -1.0109988011827227 0 0 0 0 -27.419006947295543 -1.8500673232583722 0 -1.8500673232583722 -6.3934410528454464 0 0 0 0 -11.718641813484282 -11.680853612234387 0 -11.680853612234387 -1.1879362157296782 0 0 0 0 -0.79568202392169951 -26.306645931096682 0 -26.306645931096682 -22.446921582875802 0 0 0 0 4.9172180854153105 0.05145640240490934 0 0.05145640240490934 -3.8246521085905378 0 0 0 0 0.66513858475218512 -4.5683895985894196 0 -4.5683895985894196 -8.5036926569264324 0 0 0 0 35.397751218926942 10.453638525832503 0 10.453638525832503 -0.91057274807826616 0 0 0 0 3.9793029921670495 -2.2828587202593553 0 -2.2828587202593553 -5.5705512304521108 0 0 0 0 3.077608782733821 -1.1946132646155974 0 -1.1946132646155974 -4.082196882001945 0 0 0 0 -3.8927498572234072 7.7960072335263249 0 7.7960072335263249 -13.212211985104659 0 0 0 0 0.13829234370994392 -9.5648459290856032 0 -9.5648459290856032 -13.782922879430799 0 0 0 0 4.7905597105016113 -7.4457765001802727 0 -7.4457765001802727 -20.661682122849015 0 0 0 0 10.705041474682957 2.9954176648680004 0 2.9954176648680004 -43.921158064930296 0 0 0 0 0.90546886938760007 1.0578278938896801 0 1.0578278938896801 -0.88225633006683779 0 0 0 0 1.3484270113063364 -1.4214439579367166 0 -1.4214439579367166 -0.29913987559451272 0 0 0 0 89.687203644695728 -3.3726188550881488 0 -3.3726188550881488 1.2466415301496454 0 0 0 0 2.3671411540872214 -1.9749144751149288 0 -1.9749144751149288 5.4319284019729821 0 0 0 0 0.71237975737172921 -2.3669814393466488 0 -2.3669814393466488 -1.9153889898367709 0 0 0 0 5.8045207863433461 11.644332934314662 0 11.644332934314662 -21.538247298623901 0 0 0 0 1.8117741289207681 -5.0788521119162517 0 -5.0788521119162517 -6.2327325717201916 0 0 0 0 4.0886304730090615 -3.8376364696950986 0 -3.8376364696950986 -6.2985949537869601 0 0 0 0 0.5921214934084329 -3.3054060615752192 0 -3.3054060615752192 -5.2942901803758815 0 0 0 0 -0.17437718015500447 -3.0123936208623077 0 -3.0123936208623077 -6.3031768540396911 0 0 0 0 -32.556040261686576 3.5396869615051401 0 3.5396869615051401 16.94926612965719 0 0 0 0 121.21022698619026 -114.87795127435311 0 -114.87795127435311 41.380536839187698 0 0 0 0 4.6514727135636136 -30.223319110975211 0 -30.223319110975211 40.651959995355355 0 0 0 0 45.765561869096928 -39.818793922942859 0 -39.818793922942859 -4.448480461636791 0 0 0 0 178.65341453865585 -104.23482096517728 0 -104.23482096517728 12.86322776812267 0 0 0 0 1.042799279044202 -0.97791274603448475 0 -0.97791274603448475 -4.996109179489018 0 0 0 0 -31.099392221973176 -18.390720528395832 0 -18.390720528395832 21.108481746086909 0 0 0 0 53.360742906374071 -26.999345602069297 0 -26.999345602069297 -23.512057324614943 0 0 0 0 67.291749072595849 21.288078668239905 0 21.288078668239905 -18.668703186001949 0 0 0 0 0.26092898511661744 -0.65226862432238519 0 -0.65226862432238519 -3.5788966053905824 0 0 0 0 -0.23784270435407961 -2.0174562838419661 0 -2.0174562838419661 -4.8275953267693694 0 0 0 0 -35.582695124292556 -57.789354338373158 0 -57.789354338373158 -121.90005068269602 0 0 0 0 -36.622112680089685 -87.487247931911043 0 -87.487247931911043 -183.36488597573225 0 0 0 0 -58.915471085227409 -92.492696497095494 0 -92.492696497095494 -206.1042169177199 0 0 0 0 -49.975759900329649 -116.146567033682 0 -116.146567033682 -143.69776550480856 0 0 0 0 -117.56375339399415 39.863507984390708 0 39.863507984390708 -15.452321362176008 0 0 0 0 -1.3005250414488749 -0.23346275989409548 0 -0.23346275989409548 -0.26362354913038644 0 0 0 0 -152.76162705964816 -22.345983689030618 0 -22.345983689030618 9.7371579032842419 0 0 0 0 -32.42642143205012 -67.739049793590311 0 -67.739049793590311 26.854824445643317 0 0 0 0 -44.749950559102217 17.501191200719404 0 17.501191200719404 -12.50308450333614 0 0 0 0 0.089593654553483226 -0.91936051008756081 0 -0.91936051008756081 -1.2210624005035626 0 0 0 0 1.0539909507200491 -2.372223137329911 0 -2.372223137329911 -4.8559783863347548 0 0 0 0 -4.219205324385257 -5.2878319847295643 0 -5.2878319847295643 -6.2812382697104567 0 0 0 0 -2.6061934164361986 -3.1006777722098242 0 -3.1006777722098242 -3.9698028925647932 0 0 0 0 -107.14067124489817 -2.9691043212756867 0 -2.9691043212756867 11.841388355649542 0 0 0 0 -107.71749405969675 -71.774462748341648 0 -71.774462748341648 18.224660891210078 0 0 0 0 53.708964066705676 -98.126463447756578 0 -98.126463447756578 -15.450260620473273 0 0 0 0 11.386016272704182 -107.76360243734507 0 -107.76360243734507 -82.257073141910951 0 0 0 0 25.418753059113442 28.844263457300258 0 28.844263457300258 -123.21587852587163 0 0 0 0 81.550322905869962 -42.511584578669499 0 -42.511584578669499 4.5380554884723097 0 0 0 0 149.4605812445925 -79.299273990407528 0 -79.299273990407528 -32.309250672784401 0 0 0 0 112.05030131100489 -98.614427137792063 0 -98.614427137792063 -10.210492785670795 0 0 0 0 68.248875771359508 -25.237121431034211 0 -25.237121431034211 20.251661796275584 0 0 0 0 124.12293898233975 -69.537189547829257 0 -69.537189547829257 30.551778046452455 0 0 0 0 218.69249318135667 -164.59704417173907 0 -164.59704417173907 55.731571360884118 0 0 0 0 114.01481219310062 -45.811858074577685 0 -45.811858074577685 -14.596504527562502 0 0 0 0 109.26913859491742 -43.954253407053329 0 -43.954253407053329 18.698489662150678 0 0 0 0 1.5684763998126501 1.3237786397683067 0 1.3237786397683067 0.58660277784338177 0 0 0 0 201.73897579309642 -10.191373518402543 0 -10.191373518402543 -6.4253680057581732 0 0 0 0 168.82807496068199 -53.655479226546959 0 -53.655479226546959 -16.72150892367199 0 0 0 0 142.21140321739426 -96.670544312989023 0 -96.670544312989023 51.505393980329245 0 0 0 0 166.02302359091573 -89.007283662283044 0 -89.007283662283044 34.77546229107611 0 0 0 0 142.09023370382113 4.1164685585777079 0 4.1164685585777079 36.982583973909641 0 0 0 0 53.704247576134549 -20.027714895903046 0 -20.027714895903046 35.656348450514997 0 0 0 0 52.997700341053815 -5.4894770629925915 0 -5.4894770629925915 41.449041132869752 0 0 0 0 6.0946389085847841 25.967474184060848 0 25.967474184060848 54.10969759890304 0 0 0 0 59.22224079727448 -3.4832756409614376 0 -3.4832756409614376 31.541054170957068 0 0 0 0 55.484434889930526 7.8403792435101423 0 7.8403792435101423 103.68872784830091 0 0 0 0 80.690557146292122 -47.875952075338319 0 -47.875952075338319 -17.272393601549993 0 0 0 0 -1.6331166240343009 36.434404113393612 0 36.434404113393612 13.553578851453949 0 0 0 0 -15.102948620884263 11.694223679777224 0 11.694223679777224 17.664472166143241 0 0 0 0 -49.660514859870091 37.682997225585495 0 37.682997225585495 51.217091710396744 0 0 0 0 -13.975413881930535 11.981437955924548 0 11.981437955924548 49.976369900225109 0 0 0 0 -14.892682101231003 16.508270880070995 0 16.508270880070995 61.989302965253955 0 0 0 0 23.304776715935986 -9.331047178400695 0 -9.331047178400695 69.455173814352747 0 0 0 0 -84.540064587891379 -47.243077174521659 0 -47.243077174521659 57.755038525614509 0 0 0 0 -121.47388919102923 65.922691079795186 0 65.922691079795186 -9.7687528173464671 0 0 0 0 -155.63144030599727 -104.16900621026423 0 -104.16900621026423 -44.160564513495046 0 0 0 0 -1.307248159433982 24.734341638717524 0 24.734341638717524 -268.04154262041266 0 0 0 0 36.768651696217489 -55.95716659120626 0 -55.95716659120626 -331.72741266715821 0 0 0 0 38.532918499976518 -20.90353159928236 0 -20.90353159928236 -348.06875145378217 0 0 0 0 -4.4042268046284079 -0.73066881209410184 0 -0.73066881209410184 1.6571712886244967 0 0 0 0 -8.3237486147838577 -5.5130607464632462 0 -5.5130607464632462 -1.4539694363258322 0 0 0 0 -13.857001770034003 -0.21082020663379808 0 -0.21082020663379808 23.560818659728284 0 0 0 0 -31.920481440715321 -34.064731151604065 0 -34.064731151604065 96.133772417957516 0 0 0 0 -5.913837760280785 -19.269272659768831 0 -19.269272659768831 -220.02469995411411 0 0 0 0 -39.228979834346774 1.172446059752474 0 1.172446059752474 7.5737245155833079 0 0 0 0 -4.4388650959588523 -2.8126848886925799 0 -2.8126848886925799 -0.83729315681963712 0 0 0 0 -6.9461406512291433 14.60639659323806 0 14.60639659323806 30.117551858216757 0 0 0 0 -1.6402932559196728 -1.1700659095460182 0 -1.1700659095460182 -0.11143875759828248 0 0 0 0 -11.096883194198654 4.6422357276137518 0 4.6422357276137518 49.965793336330535 0 0 0 0 16.785459407947883 67.085901711490806 0 67.085901711490806 -547.09349121135892 0 0 0 0 -13.975754572929191 66.874382902022262 0 66.874382902022262 -405.78485206038749 0 0 0 0 -0.1503322273847516 -66.346969868936867 0 -66.346969868936867 -377.07240825565896 0 0 0 0 -39.588665397874138 -16.47148643186847 0 -16.47148643186847 -345.23617380838914 0 0 0 0 -63.518925534976916 -88.953303817888809 0 -88.953303817888809 -460.71177127040573 0 0 0 0 3.2846926656906135 -10.805606982892186 0 -10.805606982892186 -354.63293476780382 0 0 0 0 -97.798995963322795 66.301335158545044 0 66.301335158545044 -412.30314115305646 0 0 0 0 8.7024103505773382 -148.89064703312397 0 -148.89064703312397 -522.15283129213003 0 0 0 0 14.801485791987488 -71.434202245907727 0 -71.434202245907727 -341.35612902951289 0 0 0 0 -1.8852353223596463 -1.7918710082111922 0 -1.7918710082111922 -0.51139543359796402 0 0 0 0 50.01429700601102 -23.485904161637336 0 -23.485904161637336 7.8543328065297828 0 0 0 0 -14.957286811874837 19.91181319545467 0 19.91181319545467 50.133537694091501 0 0 0 0 -7.4781319416954375 -11.821995960505774 0 -11.821995960505774 31.230036763270618 0 0 0 0 71.344411969701014 -10.156500809751378 0 -10.156500809751378 14.240412141154593 0 0 0 0 56.301901902942063 -64.848064647068895 0 -64.848064647068895 29.874128069829112 0 0 0 0 65.745912870160055 94.012948651612533 0 94.012948651612533 -329.04817937124972 0 0 0 0 -64.320634396078731 -36.699663307931587 0 -36.699663307931587 -331.03456959943287 0 0 0 0 297.65106029584513 29.765826930775802 0 29.765826930775802 -427.90002587456183 0 0 0 0 8.3767374501421727 -95.852373191253719 0 -95.852373191253719 -415.67296607902972 0 0 0 0 10.972935269679851 -44.5221273258976 0 -44.5221273258976 -207.61516991911412 0 0 0 0 10.004372613973828 19.187942302177362 0 19.187942302177362 -177.00835371222593 0 0 0 0 4.4199700777764974 13.905595233943131 0 13.905595233943131 -345.07404768859851 0 0 0 0 -35.733378644358993 -51.640728963911897 0 -51.640728963911897 -256.78217638362912 0 0 0 0 13.409259376097907 -34.00255680747614 0 -34.00255680747614 -345.68122782996841 0 0 0 0 19.989044277334415 -6.6490832383187808 0 -6.6490832383187808 -237.7781662470843 0 0 0 0 -5.8519989854107735 -24.39503837373195 0 -24.39503837373195 -176.35410725056863 0 0 0 0 18.002012428123919 -4.7545933015153423 0 -4.7545933015153423 -173.2368868181693 0 0 0 0 23.888925606500607 -34.345223886555686 0 -34.345223886555686 -272.15698386385066 0 0 0 0 40.114080577197399 -51.429608579230717 0 -51.429608579230717 -326.2714133742702 0 0 0 0 25.830563265732508 -35.39010830242114 0 -35.39010830242114 -271.77478887993038 0 0 0 0 7.9631316825098821 -70.997226737225674 0 -70.997226737225674 -318.04208433409804 0 0 0 0 27.444690714302396 -35.977038476978123 0 -35.977038476978123 -343.69654893660845 0 0 0 0 -51.88862932184702 -170.89472122718712 0 -170.89472122718712 -264.14377889435855 0 0 0 0 -49.951175629543286 -132.00438683866014 0 -132.00438683866014 -184.50053354322154 0 0 0 0 -24.128229175947581 -87.264981139890551 0 -87.264981139890551 -174.48112947149684 0 0 0 0 -24.160152732079041 -102.58589568859043 0 -102.58589568859043 -225.50319531382047 0 0 0 0 -42.914201571115882 -142.9063870809423 0 -142.9063870809423 -149.21931464012141 0 0 0 0 25.518276757575791 -145.74401342547299 0 -145.74401342547299 -193.76769854970553 0 0 0 0 -65.304215295879658 -141.91745238944532 0 -141.91745238944532 -183.44454931141081 0 0 0 0 -44.256692271461588 -133.93395920451644 0 -133.93395920451644 -189.66182752516397 0 0 0 0 -110.81695474320759 -122.71897152128531 0 -122.71897152128531 -71.564609794728312 0 0 0 0 -139.52012548158382 -187.55122756494529 0 -187.55122756494529 -171.49051304232489 0 0 0 0 190.97358516010172 -11.138350419718336 0 -11.138350419718336 -33.457424525200622 0 0 0 0 1.9695356160377351 -0.53833277136636859 0 -0.53833277136636859 -6.4727781547682923 0 0 0 0 -241.98138385730238 -196.7428945413692 0 -196.7428945413692 -166.10197744917969 0 0 0 0 0.42044321795024597 1.3536690403890477 0 1.3536690403890477 0.2347191933409789 0 0 0 0 215.8631505849753 -37.111496753239408 0 -37.111496753239408 -6.4228610391310212 0 0 0 0 -191.3905551230564 -211.96463602350195 0 -211.96463602350195 -207.02907908639463 0 0 0 0 -197.14618000746668 -202.18862328441082 0 -202.18862328441082 -169.84760089564224 0 0 0 0 -180.43376633916705 -168.81282129947067 0 -168.81282129947067 -146.55723400838178 0 0 0 0 -123.81541735352039 -147.34149723527662 0 -147.34149723527662 -181.1384037817661 0 0 0 0 183.47783192924817 -204.52837278555671 0 -204.52837278555671 154.55610869230441 0 0 0 0 98.068227190894049 -115.66920750388817 0 -115.66920750388817 87.608645617114234 0 0 0 0 -0.15855902686697476 -0.70691555929478156 0 -0.70691555929478156 -0.3117407163420749 0 0 0 0 0.76029677926466732 -0.013288399128855488 0 -0.013288399128855488 -2.6637234669763643 0 0 0 0 255.42237235798439 130.41524213937373 0 130.41524213937373 -433.985958894747 0 0 0 0 -506.69772630987609 -439.01594888828549 0 -439.01594888828549 -353.97565626294636 0 0 0 0 393.21221382522799 363.76291917404706 0 363.76291917404706 -282.79516923781375 0 0 0 0 136.42696458189494 -182.78685799309096 0 -182.78685799309096 104.76497638118599 0 0 0 0 -103.59338114465572 -218.52455976727651 0 -218.52455976727651 -304.34184647700749 0 0 0 0 -179.16890609232996 -214.52042112127674 0 -214.52042112127674 -235.59841240284186 0 0 0 0 -141.11951181999439 -192.51925845026562 0 -192.51925845026562 -227.23826817150257 0 0 0 0 -183.72651181550282 -202.44896457919822 0 -202.44896457919822 -210.95111083396932 0 0 0 0 -122.33213592772972 -133.00858151186731 0 -133.00858151186731 -297.22984853863159 0 0 0 0 -137.31037209428371 -365.59994657350182 0 -365.59994657350182 -581.33268923896321 0 0 0 0 -0.79569953895315848 -147.08937178455199 0 -147.08937178455199 -341.58413060393286 0 0 0 0 -61.551612719472132 13.586147830571917 0 13.586147830571917 -237.84817836655202 0 0 0 0 24.098874149347466 -119.64272876235373 0 -119.64272876235373 -596.44043589254682 0 0 0 0 31.222687782270896 -69.959092473098281 0 -69.959092473098281 -166.43826883636302 0 0 0 0 -96.895634263137481 45.268523429348534 0 45.268523429348534 -241.59576804192693 0 0 0 0 -14.896145202818843 156.53133730796162 0 156.53133730796162 -36.042107887737529 0 0 0 0 6.2174067874875618 -85.860501370229031 0 -85.860501370229031 -148.80190119491908 0 0 0 0 3.2738704835127521 26.677806466771056 0 26.677806466771056 -42.166593087660701 0 0 0 0 -4.7994701680224097 -38.081812636187578 0 -38.081812636187578 -171.12001151513141 0 0 0 0 69.391833074116107 43.61630702568209 0 43.61630702568209 -190.30613667311991 0 0 0 0 1.5442517142426446 28.480615266067883 0 28.480615266067883 -44.256666610327166 0 0 0 0 -57.969056399540932 -51.399833046070853 0 -51.399833046070853 -126.53555428618893 0 0 0 0 -112.45299990768763 -77.646151601566089 0 -77.646151601566089 -133.30809909125946 0 0 0 0 -13.166589275557726 -72.788372113152946 0 -72.788372113152946 -229.26369840550979 0 0 0 0 -17.499588444587744 76.295748984498459 0 76.295748984498459 -150.74163575346756 0 0 0 0 -52.094773023619155 29.20294433897925 0 29.20294433897925 -37.496502871588746 0 0 0 0 -54.041692260237596 2.9525895052101987 0 2.9525895052101987 12.409650596309802 0 0 0 0 -25.796292232189671 36.295167217631388 0 36.295167217631388 -58.573652682447573 0 0 0 0 0.16509972968920028 -0.19091119350391672 0 -0.19091119350391672 -1.5794776757563085 0 0 0 0 -37.492891716334952 -102.03899353437191 0 -102.03899353437191 -237.05912765676476 0 0 0 0 -15.703099365903654 5.9794080571191444 0 5.9794080571191444 -2.4804982246714644 0 0 0 0 -0.36955186438232657 -1.1421903710957579 0 -1.1421903710957579 -0.5186418845758709 0 0 0 0 -42.990647236526456 -66.026677000996642 0 -66.026677000996642 -267.681311086606 0 0 0 0 -67.955167934021574 -22.508642323787171 0 -22.508642323787171 -156.4141322133728 0 0 0 0 -8.0663091454189271 85.227350576265053 0 85.227350576265053 23.812834207448759 0 0 0 0 6.6557664341920368 23.128740405660317 0 23.128740405660317 -38.851182527736093 0 0 0 0 -54.259988167079428 -44.034349797308096 0 -44.034349797308096 -149.90236602185541 0 0 0 0 -32.258563683694888 -98.8150699419989 0 -98.8150699419989 -175.33792409216403 0 0 0 0 -69.995424327524233 -137.00606958217395 0 -137.00606958217395 -152.43734689314806 0 0 0 0 -36.06645572319303 -80.469828941515516 0 -80.469828941515516 -233.79225985039739 0 0 0 0 -137.05196426474186 -90.391224977223828 0 -90.391224977223828 -12.975270591763547 0 0 0 0 -13.159135245817424 19.12829481645349 0 19.12829481645349 -15.474527028811281 0 0 0 0 -46.737713596097819 -42.495095413749368 0 -42.495095413749368 -52.104775993342628 0 0 0 0 -49.328943511118268 -49.965577917497285 0 -49.965577917497285 -25.305294102952757 0 0 0 0 -45.529641866224665 -20.958435170174198 0 -20.958435170174198 -57.308708962322271 0 0 0 0 -56.298824833089611 -78.525778537552014 0 -78.525778537552014 -92.798350934870541 0 0 0 0 -30.207226265256395 -27.370149929185573 0 -27.370149929185573 -55.308659843769419 0 0 0 0 -41.559266894750181 -3.3060160401291796 0 -3.3060160401291796 -18.214226754236734 0 0 0 0 -2.1179508831319254 2.4290899188915773 0 2.4290899188915773 16.065788193198387 0 0 0 0 -1.0662065395963509 -7.3031534862711851 0 -7.3031534862711851 -37.678351372408542 0 0 0 0 -31.250595367744381 -9.5233757878468168 0 -9.5233757878468168 -7.3045171332414611 0 0 0 0 10.135354861027736 3.2043584160564933 0 3.2043584160564933 -23.841014288642327 0 0 0 0 16.049415599121858 -9.9474063975394529 0 -9.9474063975394529 -0.34718436741968617 0 0 0 0 46.421205388784983 17.24472558211346 0 17.24472558211346 -16.583145480923122 0 0 0 0 0.61560236844615668 -1.4336936335541033 0 -1.4336936335541033 -1.6865559372998291 0 0 0 0 4.6199661382906925 -12.375420173661041 0 -12.375420173661041 -4.8621025018655928 0 0 0 0 -0.2378137526457067 1.0785130179210682 0 1.0785130179210682 -9.5022174077312229 0 0 0 0 -0.29215965938165778 -0.83673422860464264 0 -0.83673422860464264 -6.0774733054497858 0 0 0 0 -6.9417691124872363 1.6389335140047478 0 1.6389335140047478 -4.8201556836938835 0 0 0 0 -0.46770603024287993 0.84014568465136108 0 0.84014568465136108 -9.6261221027380088 0 0 0 0 -2.4410493315244821 0.49342612498730887 0 0.49342612498730887 -8.717286743085424 0 0 0 0 -7.6239653997475898 0.8389304361462564 0 0.8389304361462564 -7.8819855220499448 0 0 0 0 -9.6687229343287981 6.6129639205319108 0 6.6129639205319108 -8.9644436665876128 0 0 0 0 0.73186023095022534 0.089275729516856472 0 0.089275729516856472 -2.5867395283068078 0 0 0 0 -3.2240885557894217 5.6903904535720358 0 5.6903904535720358 -8.4432423949037911 0 0 0 0 -6.651822001702385 4.8294549563215696 0 4.8294549563215696 -8.1882467092509614 0 0 0 0 -0.47426911968234897 0.35627978363992696 0 0.35627978363992696 0.37883380244495868 0 0 0 0 -8.7410303689493958 7.8588150300274719 0 7.8588150300274719 -9.2142024563945597 0 0 0 0 -4.4916842339571303 -10.058009294392832 0 -10.058009294392832 3.9841759041501064 0 0 0 0 -18.809999274181678 -12.229200603752361 0 -12.229200603752361 11.461231858898827 0 0 0 0 -0.39589869330461847 -0.85232712615367134 0 -0.85232712615367134 -1.8498883509673334 0 0 0 0 -2.6592960112338915 -2.908394552894606 0 -2.908394552894606 -7.5509129931160714 0 0 0 0 0.77738078319771375 2.7148133983064326 0 2.7148133983064326 -2.79776686054538 0 0 0 0 0.20201365595698206 -0.2921780090112307 0 -0.2921780090112307 -3.8106587773752238 0 0 0 0 46.491892391341025 -16.99285812490416 0 -16.99285812490416 -35.161657348449808 0 0 0 0 -12.376984903155972 3.7558907323764288 0 3.7558907323764288 -5.1182625580740932 0 0 0 0 -14.421522790991844 -3.2119997086056173 0 -3.2119997086056173 -41.746670921951591 0 0 0 0 13.327142610828787 4.0050560493036755 0 4.0050560493036755 -101.31131739378998 0 0 0 0 -1.9559229153604747 1.3293428987608422 0 1.3293428987608422 -97.171618091881101 0 0 0 0 12.291851720969007 -4.8230413959008729 0 -4.8230413959008729 -172.56112688948997 0 0 0 0 -10.94889181212352 -9.468166831340568 0 -9.468166831340568 -91.028272621500946 0 0 0 0 18.757861488794106 -14.503232552165173 0 -14.503232552165173 -179.24696352416504 0 0 0 0 25.651455399532779 19.534776370464897 0 19.534776370464897 -94.29568527329684 0 0 0 0 0.18087985054239653 22.624008902927926 0 22.624008902927926 -36.713078086017049 0 0 0 0 18.128390842956605 73.027787921540039 0 73.027787921540039 23.165149010098503 0 0 0 0 25.010341891767666 0.43488071624688018 0 0.43488071624688018 -51.752550570168751 0 0 0 0 8.555300109147538 -41.530237906149523 0 -41.530237906149523 -167.27709873099047 0 0 0 0 7.2411878887951389 -37.362520263156512 0 -37.362520263156512 -86.631260735488468 0 0 0 0 11.052949203897899 18.856350936264455 0 18.856350936264455 -34.854733732015035 0 0 0 0 -40.123207412264492 -55.043596469906333 0 -55.043596469906333 -129.7900386424626 0 0 0 0 -76.107799871638235 -94.283120362376394 0 -94.283120362376394 -130.98020121273657 0 0 0 0 -73.124108801333932 -55.7994259511579 0 -55.7994259511579 -68.710937048352207 0 0 0 0 -47.501399130560458 -25.544016623049174 0 -25.544016623049174 -49.975756317922787 0 0 0 0 -33.940768139678767 -44.733053095143987 0 -44.733053095143987 -92.051240853390482 0 0 0 0 -33.232657896258388 -21.530060478788073 0 -21.530060478788073 -64.363974108890488 0 0 0 0 -51.38294058012616 -37.414880033535155 0 -37.414880033535155 -93.436995596573979 0 0 0 0 -63.188076249128699 -57.089334870140192 0 -57.089334870140192 -89.660319933660503 0 0 0 0 -31.802140295132631 -47.322195614549855 0 -47.322195614549855 -91.033305074563032 0 0 0 0 15.711475980039888 14.317997816530969 0 14.317997816530969 -31.003764292286164 0 0 0 0 0.0035789865418109912 -0.85479342234430078 0 -0.85479342234430078 -3.8901243012587656 0 0 0 0 24.890795794678752 62.572376578698822 0 62.572376578698822 23.374555291607976 0 0 0 0 -53.642605486358207 -68.437674737841917 0 -68.437674737841917 -103.92610325051646 0 0 0 0 -57.339315621706191 -59.319650959550927 0 -59.319650959550927 -88.989600928765867 0 0 0 0 -42.862223996591638 -51.866058842628263 0 -51.866058842628263 -94.346815195673116 0 0 0 0 1.127163871998107 17.574888691948217 0 17.574888691948217 14.33557463247962 0 0 0 0 -20.065737322545374 -18.437850876198354 0 -18.437850876198354 -59.356162547064741 0 0 0 0 22.065434255497077 10.884562916659206 0 10.884562916659206 -25.890726482261201 0 0 0 0 23.980780744333629 32.191304902815318 0 32.191304902815318 12.50323975356514 0 0 0 0 4.3082728762445868 23.678938347664371 0 23.678938347664371 -28.65502322795146 0 0 0 0 16.756054373936877 5.5411439856525249 0 5.5411439856525249 -8.431842336887712 0 0 0 0 -34.094287432830242 -63.269615622648416 0 -63.269615622648416 -85.141841652577568 0 0 0 0 -54.608474255179317 -40.565124195705721 0 -40.565124195705721 -58.079804844992395 0 0 0 0 -5.3611642720322976 1.7035475976474288 0 1.7035475976474288 -1.032803577424346 0 0 0 0 -68.047077257743581 -74.516727409990551 0 -74.516727409990551 -51.837572283373447 0 0 0 0 -27.399162670819351 -33.329741437133634 0 -33.329741437133634 -72.344781711188261 0 0 0 0 -52.132025456965494 -56.163024972505809 0 -56.163024972505809 -79.311656065518036 0 0 0 0 -63.904991342300491 -56.779461331134371 0 -56.779461331134371 -78.491831909806933 0 0 0 0 -50.767960088931432 -65.544551371829584 0 -65.544551371829584 -116.23624888586346 0 0 0 0 -41.234467087611847 -44.132844127983844 0 -44.132844127983844 -78.592540746846225 0 0 0 0 -41.963390384844388 -34.214078080665786 0 -34.214078080665786 -67.416438304337589 0 0 0 0 -52.401617335746494 -46.166132796697298 0 -46.166132796697298 -68.383899546679459 0 0 0 0 -17.764484595907561 -53.847364384830144 0 -53.847364384830144 -152.56964620758663 0 0 0 0 -45.604561530077831 -40.072629124941386 0 -40.072629124941386 -41.562692740877537 0 0 0 0 2.6708515372156398 -27.308125433886744 0 -27.308125433886744 -127.0969123629111 0 0 0 0 -0.13785546097430768 -2.7164466001292169 0 -2.7164466001292169 -8.4111683072001071 0 0 0 0 -68.63872888062906 -76.838267652601644 0 -76.838267652601644 -118.37173375745169 0 0 0 0 -74.150380908768057 -101.20819961325105 0 -101.20819961325105 -196.15903299037382 0 0 0 0 2.6769048825044592 39.436149380850111 0 39.436149380850111 -36.926532688361476 0 0 0 0 -90.133148665849149 -67.123419486037164 0 -67.123419486037164 -112.1293338109972 0 0 0 0 -74.124685846428292 -99.7049670767301 0 -99.7049670767301 -164.47872577689122 0 0 0 0 -52.681011222204233 -70.849260093878001 0 -70.849260093878001 -103.22963243175764 0 0 0 0 -50.645526506620968 -46.788089309818815 0 -46.788089309818815 -90.625561918641324 0 0 0 0 -51.356736003598598 -63.86046700679799 0 -63.86046700679799 -95.377045158034889 0 0 0 0 -49.901187158717221 -41.921521549818863 0 -41.921521549818863 -143.69376966701384 0 0 0 0 -1.4876622402253581 -0.56560933402812452 0 -0.56560933402812452 -0.2586769377473388 0 0 0 0 -17.961549920483776 -3.9114541955132154 0 -3.9114541955132154 27.789108383298299 0 0 0 0 -2.2371756000966343 6.7655180512765583 0 6.7655180512765583 -14.129670970974985 0 0 0 0 -109.13104387934436 -74.771887249138672 0 -74.771887249138672 -27.766658554581227 0 0 0 0 -1.1344126641533947 1.2091211878036177 0 1.2091211878036177 0.67955062125381005 0 0 0 0 -150.13592914004403 -158.08738710489706 0 -158.08738710489706 -21.189013677041658 0 0 0 0 -67.429218261822825 -75.329383880583919 0 -75.329383880583919 -117.47372115880717 0 0 0 0 12.579032454362732 13.315587331386268 0 13.315587331386268 -35.041068049467867 0 0 0 0 -8.3765573652233307 -1.8192521157047494 0 -1.8192521157047494 0.011678144274497981 0 0 0 0 -24.669337703368001 -22.665763050921669 0 -22.665763050921669 -14.804543538637517 0 0 0 0 -22.129552616572255 -49.267965620558243 0 -49.267965620558243 -102.5781590316692 0 0 0 0 -7.9223380507387446 -13.971551912934956 0 -13.971551912934956 -75.612610588446842 0 0 0 0 -43.391034460635638 -47.161893865672027 0 -47.161893865672027 -74.274468669958878 0 0 0 0 -31.969348859988713 -17.829518449181705 0 -17.829518449181705 -43.47963283034187 0 0 0 0 -10.681096479019288 1.4694299118273193 0 1.4694299118273193 -50.016902055838727 0 0 0 0 -24.876612558197849 -3.0841603228254826 0 -3.0841603228254826 8.0317679753279663 0 0 0 0 -7.6044284654692706 -1.9045408815319149 0 -1.9045408815319149 0.0085689919590166141 0 0 0 0 -7.3354997915218974 -7.7399487780185154 0 -7.7399487780185154 -0.87461824551064637 0 0 0 0 -3.7514203927812559 3.6699937775720173 0 3.6699937775720173 -32.425660701370361 0 0 0 0 -4.8770941706151625 5.8678966662251639 0 5.8678966662251639 -7.5167747904144449 0 0 0 0 -4.3165799605540087 3.902706049837434 0 3.902706049837434 -15.65391829314467 0 0 0 0 -11.446882410657963 7.3421872537510353 0 7.3421872537510353 -11.800459071018849 0 0 0 0 -19.982257003975974 22.059577127209195 0 22.059577127209195 -18.541940598897781 0 0 0 0 -1.3885746722056123 2.0963582577190749 0 2.0963582577190749 -3.0779501765978452 0 0 0 0 -1.2163988529517482 -4.5308374643014346 0 -4.5308374643014346 -5.7304939206819157 0 0 0 0 -21.196277343733072 -5.5354610016511288 0 -5.5354610016511288 -9.3521750155996415 0 0 0 0 -1.7817170432667728 0.22964829154632582 0 0.22964829154632582 -0.6687744092436958 0 0 0 0 -16.955251180656887 -11.10156458950587 0 -11.10156458950587 -6.0302548628569639 0 0 0 0 -1.2674822066728666 7.1759532992582535 0 7.1759532992582535 -2.3570737522677518 0 0 0 0 -37.034474873601994 38.081079270138616 0 38.081079270138616 -0.40079864226572681 0 0 0 0 1.8775118097069026 -13.894557256518965 0 -13.894557256518965 -71.236294426722452 0 0 0 0 -16.328041774185863 -22.02890733385675 0 -22.02890733385675 -33.341063208732521 0 0 0 0 1.7680717987298067 2.9020467030532018 0 2.9020467030532018 -12.519633032185084 0 0 0 0 3.2332941435015528 7.0911405683254998 0 7.0911405683254998 -56.346330032080004 0 0 0 0 0.75702681190750809 -9.6047855546922847 0 -9.6047855546922847 -23.440550418948987 0 0 0 0 1.4366291840578924 -2.7673357894273067 0 -2.7673357894273067 -16.317540766351158 0 0 0 0 -4.0217905109134708 -5.289635990705527 0 -5.289635990705527 -9.9822988426970127 0 0 0 0 -6.201298865944409 6.1518071417522151 0 6.1518071417522151 -24.541753488661925 0 0 0 0 26.509354981629258 -5.7333401625801343 0 -5.7333401625801343 -43.903213069283538 0 0 0 0 -2.3301188256155001 -26.387479000275562 0 -26.387479000275562 -41.080723534090794 0 0 0 0 9.9694124569192013 -13.053302590094631 0 -13.053302590094631 -5.4594142075948184 0 0 0 0 -0.076167895842171873 -8.1576172393506177 0 -8.1576172393506177 -24.370881983391016 0 0 0 0 -2.6941444566692736 -11.616917811142645 0 -11.616917811142645 -11.996893276365512 0 0 0 0 2.0097156863061123 2.0539472470223075 0 2.0539472470223075 -30.938151601673049 0 0 0 0 -6.5522714334987775 -8.8010996330332105 0 -8.8010996330332105 -7.0456042275818049 0 0 0 0 -1.70647462305285 -7.0902040690885215 0 -7.0902040690885215 -15.790128274778667 0 0 0 0 -2.4744635029246638 -10.801355601775867 0 -10.801355601775867 -11.857162146265182 0 0 0 0 -4.6367196984850008 -9.5340030727738529 0 -9.5340030727738529 -3.172474468141175 0 0 0 0 -2.311743261252559 -10.656811382286833 0 -10.656811382286833 -14.851897869142704 0 0 0 0 0.95843696643896692 -9.7757729521545116 0 -9.7757729521545116 -23.342924132330154 0 0 0 0 1.0649121138376358 -27.473894826074684 0 -27.473894826074684 -23.689619835276972 0 0 0 0 -3.6164031268659618 -2.259991883624215 0 -2.259991883624215 -0.13656377976970191 0 0 0 0 -15.674808307668172 29.235701668712863 0 29.235701668712863 -10.684590525574094 0 0 0 0 13.354578818061782 -19.38081095632333 0 -19.38081095632333 -31.018806205116562 0 0 0 0 -4.931562682844099 4.6821597333763094 0 4.6821597333763094 -5.2886336828456706 0 0 0 0 -3.784103284240631 3.5635304877194471 0 3.5635304877194471 -2.9294494846566934 0 0 0 0 -4.4257396892926408 3.746901846549008 0 3.746901846549008 -10.059574777321984 0 0 0 0 -3.2574510365375318 0.15353233524001553 0 0.15353233524001553 -10.095942311079227 0 0 0 0 -0.61466922704435145 1.9071894224275496 0 1.9071894224275496 -7.3476048163032033 0 0 0 0 -2.223603530955188 -1.1016114507219754 0 -1.1016114507219754 -3.8711466936438228 0 0 0 0 -3.4537143531974834 0.090052712557735504 0 0.090052712557735504 -9.2018787224587868 0 0 0 0 -6.3569047462499384 7.2351701488314575 0 7.2351701488314575 -15.065169531328138 0 0 0 0 -1.3630631015785335 2.8910460985169024 0 2.8910460985169024 -5.3816558377680224 0 0 0 0 -2.5527197020228414 4.3289475799319916 0 4.3289475799319916 -17.897744368674466 0 0 0 0 -0.44839736083076787 -5.3530400409490539 0 -5.3530400409490539 -12.902393882541219 0 0 0 0 -0.71274094782047648 -0.32259124390912675 0 -0.32259124390912675 -8.0182221088611954 0 0 0 0 25.246528049725839 -12.139360390776346 0 -12.139360390776346 -34.146913981050602 0 0 0 0 -1.3102513573639953 1.6612342068256112 0 1.6612342068256112 -7.6051161935902201 0 0 0 0 -19.204556167037026 -20.965825662075076 0 -20.965825662075076 -16.091486101795454 0 0 0 0 -1.0008893122158042 -2.6027600705565419 0 -2.6027600705565419 -6.8220533570856787 0 0 0 0 2.4217374880354328 13.504288125895982 0 13.504288125895982 5.4453356529993471 0 0 0 0 0.35627557188856152 -0.52437323983147088 0 -0.52437323983147088 -0.64271085503423819 0 0 0 0 -6.5574864012123726 8.8728862497300724 0 8.8728862497300724 16.227324855761253 0 0 0 0 1.7499373095133706 31.681074998814438 0 31.681074998814438 -9.8830304540497309 0 0 0 0 -12.729438225482227 20.428318598183978 0 20.428318598183978 -1.9712116587616038 0 0 0 0 -13.293557187535043 19.186344035868387 0 19.186344035868387 -19.306154641346438 0 0 0 0 -22.840895302259923 2.1305398829672413 0 2.1305398829672413 -28.299498141888762 0 0 0 0 -29.827944585734258 3.6618485216276895 0 3.6618485216276895 -19.608370657188061 0 0 0 0 -4.4504301118877265 8.0203921851752966 0 8.0203921851752966 -18.994516148495222 0 0 0 0 -11.454194978938176 11.644901726727767 0 11.644901726727767 -7.5082628325981204 0 0 0 0 -7.1456677714431862 8.7410605363365903 0 8.7410605363365903 -30.439785330821451 0 0 0 0 -4.5633558314038964 20.857611570816516 0 20.857611570816516 -28.43791503788816 0 0 0 0 -9.8255362246445657 2.3667203339282423 0 2.3667203339282423 -13.5429203139538 0 0 0 0 -6.6291268044005847 9.9138844397020875 0 9.9138844397020875 0.67830729862907901 0 0 0 0 -3.719295586182394 16.747272757277159 0 16.747272757277159 -15.650291267505963 0 0 0 0 -0.34720817024787554 2.3131384551328509 0 2.3131384551328509 -6.1253097138351222 0 0 0 0 -0.25793069886202424 5.0734286015912318 0 5.0734286015912318 -27.392098423953058 0 0 0 0 -14.154787075841796 1.7255760782445577 0 1.7255760782445577 -3.7406683605659055 0 0 0 0 -3.6571982706300332 -1.958278589636393 0 -1.958278589636393 -17.632055647633024 0 0 0 0 -6.7723247847869317 -0.34814114651632622 0 -0.34814114651632622 -3.0823991252108627 0 0 0 0 -3.6169619309254788 5.0644370307571478 0 5.0644370307571478 -5.9717254869965046 0 0 0 0 -4.7288541659663679 5.5064888901179074 0 5.5064888901179074 -6.4202205505498569 0 0 0 0 -5.2492615351857239 3.7252530449222832 0 3.7252530449222832 -13.956809587114549 0 0 0 0 -3.6633171402621789 4.7953868225606584 0 4.7953868225606584 -12.489619913820292 0 0 0 0 4.5199736033305271 3.8429421465771156 0 3.8429421465771156 -15.367223853951145 0 0 0 0 -3.7746082820385709 7.6185556554119103 0 7.6185556554119103 -17.074006338734762 0 0 0 0 -4.0475455310333928 4.1592190579613089 0 4.1592190579613089 -4.21433433463244 0 0 0 0 -3.987598970771471 6.1308508166395512 0 6.1308508166395512 -9.2001854733841668 0 0 0 0 1.6508206196963329 18.968034782497853 0 18.968034782497853 -24.231435891786532 0 0 0 0 13.718202555312018 1.3438792389206355 0 1.3438792389206355 -29.83984069559483 0 0 0 0 3.5596279004539326 13.285400218383529 0 13.285400218383529 -32.11183342091681 0 0 0 0 1.8186005707348158 -15.479695423331577 0 -15.479695423331577 -59.080894561031528 0 0 0 0 6.501044304242896 25.585526825094348 0 25.585526825094348 -51.974337628758803 0 0 0 0 -0.95496707909277656 0.80747304177187473 0 0.80747304177187473 -0.77966910984653737 0 0 0 0 -34.774611758666424 28.902408206389737 0 28.902408206389737 -16.721820589045819 0 0 0 0 -5.0021813094856498 10.76891128223906 0 10.76891128223906 -16.223529418053658 0 0 0 0 -4.2559361296431755 5.874289182523313 0 5.874289182523313 -8.8864317102311503 0 0 0 0 -1.9209814421792544 3.9181484331165848 0 3.9181484331165848 -6.2245107820635894 0 0 0 0 -3.3700829980320481 4.1781420675074514 0 4.1781420675074514 -7.8441551680700314 0 0 0 0 -7.998671866175755 9.4851845685298031 0 9.4851845685298031 2.494494332553586 0 0 0 0 1.1368054856002345 -1.4799164365977049 0 -1.4799164365977049 -14.848576336167753 0 0 0 0 -2.2814961163344378 20.030921852325264 0 20.030921852325264 -52.984430300671193 0 0 0 0 -1.5124175512494276 13.847346557375204 0 13.847346557375204 -51.730727703019511 0 0 0 0 -19.595509846978075 8.2628821511807473 0 8.2628821511807473 0.28361727388983127 0 0 0 0 -20.886858798034723 27.938372392436577 0 27.938372392436577 -48.944750435424794 0 0 0 0 -40.187331372537756 -30.56676747696838 0 -30.56676747696838 -109.56954581587343 0 0 0 0 -32.449557827712738 -84.266374729815652 0 -84.266374729815652 -24.118706913512142 0 0 0 0 -0.080126202438788763 -0.49172861518730748 0 -0.49172861518730748 -1.6669132136450457 0 0 0 0 -44.160064678846084 55.580304681338021 0 55.580304681338021 -74.767802616777772 0 0 0 0 0.30104073108167162 -0.11095388741990675 0 -0.11095388741990675 -1.2163227986157636 0 0 0 0 -42.408282979657571 -27.366680884548259 0 -27.366680884548259 37.911939627672837 0 0 0 0 -7.8272184485752767 -4.1785185767976003 0 -4.1785185767976003 0.1273034687328618 0 0 0 0 -0.69598246007558373 -1.291241134136726 0 -1.291241134136726 -1.4354343766099191 0 0 0 0 -1.7232370379821029 2.4584089322381857 0 2.4584089322381857 -3.9842928596196927 0 0 0 0 -0.18695474940325296 -0.16635700831456113 0 -0.16635700831456113 -4.6673229863997108 0 0 0 0 15.423470563289698 10.835629605007853 0 10.835629605007853 -20.363965053136781 0 0 0 0 -7.8857530969081324 5.4109554613485216 0 5.4109554613485216 0.33699107276333962 0 0 0 0 -0.60593713927210047 0.83375767015968449 0 0.83375767015968449 -4.2157327828135749 0 0 0 0 -0.71207464429031386 0.41384530010088838 0 0.41384530010088838 -1.9421126690139374 0 0 0 0 -0.43330339508028271 1.799884710662333 0 1.799884710662333 -3.5922029598602521 0 0 0 0 -3.2261065946952385 6.5671864980140526 0 6.5671864980140526 0.51575014667196228 0 0 0 0 -0.46462115881706012 0.22182468872064476 0 0.22182468872064476 -5.1179593449997753 0 0 0 0 -3.1928925509878354 0.88929802479833597 0 0.88929802479833597 -9.2470319554704474 0 0 0 0 -3.3554854550898199 0.1751192701049149 0 0.1751192701049149 -10.120319487574307 0 0 0 0 -3.9468178487677505 0.36731175407840055 0 0.36731175407840055 -9.2749437948223203 0 0 0 0 -3.9717250092171525 0.80484075128333643 0 0.80484075128333643 -7.3919887538650073 0 0 0 0 -0.36136839108598906 2.0973888496664586 0 2.0973888496664586 -5.2272541041602381 0 0 0 0 -1.1143429392104736 2.7911458706948906 0 2.7911458706948906 -4.8346797502308618 0 0 0 0 -0.26820322535872609 0.37676044856550561 0 0.37676044856550561 -0.47518059938573742 0 0 0 0 -0.60618972832526197 1.312382562449784 0 1.312382562449784 -2.9262550806015497 0 0 0 0 -0.5005865944647212 1.618903858554404 0 1.618903858554404 -2.1528853755007731 0 0 0 0 0.011642082200044701 0.3183753898071302 0 0.3183753898071302 -1.7402117597192444 0 0 0 0 -1.4445428320598239 0.4707272083760472 0 0.4707272083760472 -2.1703789300227072 0 0 0 0 0.09642585185815733 0.59082635442246101 0 0.59082635442246101 -1.8543359232862713 0 0 0 0 -0.85508408256828261 1.1861732732068049 0 1.1861732732068049 -2.571613541993429 0 0 0 0 -0.53464450683260445 0.85856304617821877 0 0.85856304617821877 -1.5385412397935667 0 0 0 0 -0.96557370480890548 1.019183509345396 0 1.019183509345396 -0.9987047825811004 0 0 0 0 -0.79874343432879868 1.1275785630641622 0 1.1275785630641622 -2.7628199928440154 0 0 0 0 -1.2439533460510193 1.2825563179341941 0 1.2825563179341941 -3.1124849596041884 0 0 0 0 -0.39032067883101718 -0.57922362956196594 0 -0.57922362956196594 -1.1184706885251217 0 0 0 0 -0.055685444106381876 0.38582983778430702 0 0.38582983778430702 -2.7342301994959826 0 0 0 0 5.5482854033241438 83.863956245182635 0 83.863956245182635 -65.666288137406809 0 0 0 0 0.012860703417574282 0.1690502700217138 0 0.1690502700217138 -1.1136789678981387 0 0 0 0 -8.3528138906517952 0.17061089619801351 0 0.17061089619801351 -0.094371455932559911 0 0 0 0 17.589345139049698 -68.334854010179242 0 -68.334854010179242 -28.422235312405974 0 0 0 0 -263.97045948234427 207.98166989903984 0 207.98166989903984 -91.843928622460226 0 0 0 0 -82.869871745736191 -93.156854755121458 0 -93.156854755121458 -87.800462875282392 0 0 0 0 19.545101130761395 -33.730994535995706 0 -33.730994535995706 -58.213185199536383 0 0 0 0 0.49126816983869048 0.067217767169253761 0 0.067217767169253761 -1.5365067462382882 0 0 0 0 26.301312671737378 -40.664500771767052 0 -40.664500771767052 25.943894824107701 0 0 0 0 19.518090508026319 -33.890584317121693 0 -33.890584317121693 4.4804845568432938 0 0 0 0 17.415436552911729 -65.624544429872913 0 -65.624544429872913 -16.105741629668046 0 0 0 0 8.0338715832879188 -2.3791185219888575 0 -2.3791185219888575 -14.053228449225571 0 0 0 0 0.88076474738443489 -0.54263291173405293 0 -0.54263291173405293 -1.1922072787049416 0 0 0 0 65.414665226211127 44.684681328493753 0 44.684681328493753 22.33935641838616 0 0 0 0 99.001860467136112 32.604251266315259 0 32.604251266315259 -84.865230853476533 0 0 0 0 31.619894957113956 75.308968851815735 0 75.308968851815735 -13.334630082768854 0 0 0 0 -43.906337676016506 -181.74456630617351 0 -181.74456630617351 -9.1949572010275915 0 0 0 0 -0.1693131326192554 0.57458305450770553 0 0.57458305450770553 -2.8174946019296385 0 0 0 0 -47.492665386857027 49.403209808137035 0 49.403209808137035 12.348347998304234 0 0 0 0 73.109197313570633 -25.057127942372972 0 -25.057127942372972 -154.5137310072314 0 0 0 0 -30.85795764440104 89.529447568496835 0 89.529447568496835 18.591694945735071 0 0 0 0 -6.2983296609782045 42.729642320217522 0 42.729642320217522 -0.82945346710039303 0 0 0 0 -5.707487298893362 58.448165121699617 0 58.448165121699617 -20.95048118266277 0 0 0 0 30.759041722435995 -8.7246004456392257 0 -8.7246004456392257 -16.523039785159199 0 0 0 0 -0.09967578127597998 0.28526831235733852 0 0.28526831235733852 -2.0320273251477374 0 0 0 0 -67.353497299084211 83.703579486074887 0 83.703579486074887 -84.494467867792991 0 0 0 0 -15.781769060197718 23.49461017092699 0 23.49461017092699 -15.744229400937911 0 0 0 0 42.65831819406543 10.169412113404633 0 10.169412113404633 -12.724773168127285 0 0 0 0 -0.78805828039207881 69.558451695702388 0 69.558451695702388 -44.691153203362774 0 0 0 0 -3.5439787087611876 -36.236085462478513 0 -36.236085462478513 -73.884822180118135 0 0 0 0 -27.826575123711621 -20.77482964444971 0 -20.77482964444971 0.71992504309309879 0 0 0 0 -47.611299800474626 -55.672440619260669 0 -55.672440619260669 -60.642259606785956 0 0 0 0 13.090983862413836 -63.711339033356126 0 -63.711339033356126 -135.6484062228119 0 0 0 0 -0.4683225160264915 1.3221356376399882 0 1.3221356376399882 -1.7712340000299633 0 0 0 0 -16.269262783252316 -49.038054601736803 0 -49.038054601736803 -44.075193114935246 0 0 0 0 50.672238704512893 -29.385162491977098 0 -29.385162491977098 -65.0664609851774 0 0 0 0 -14.25434052639838 20.213564891659189 0 20.213564891659189 -21.88714479556802 0 0 0 0 12.652600842950278 -15.920093536726199 0 -15.920093536726199 -48.17487442712445 0 0 0 0 45.923737443593609 27.898090164686437 0 27.898090164686437 -13.32836503344879 0 0 0 0 15.604700634056371 1.8846333446163044 0 1.8846333446163044 -29.701109890713269 0 0 0 0 0.25718801112441692 1.2531589881358265 0 1.2531589881358265 -5.6356193139216089 0 0 0 0 10.129380697025326 7.4680639888692895 0 7.4680639888692895 -1.5794861963368021 0 0 0 0 -52.52928808967318 -51.148523064472101 0 -51.148523064472101 -56.581672953339876 0 0 0 0 -32.720614412208988 9.6971067139165825 0 9.6971067139165825 -73.043879373475647 0 0 0 0 2.2241594351031502 22.877788977068121 0 22.877788977068121 -28.064364377762189 0 0 0 0 5.6373595524350151 -30.474405006410962 0 -30.474405006410962 -36.47476119021303 0 0 0 0 -4.379396600471182 11.172950028761989 0 11.172950028761989 -62.560063058117521 0 0 0 0 -0.084450685080507959 -8.0758072097796685 0 -8.0758072097796685 -24.314218919638733 0 0 0 0 -0.20615561921050585 -99.3030236364757 0 -99.3030236364757 -182.43726813582907 0 0 0 0 -24.50727829700994 6.5477575209952192 0 6.5477575209952192 18.901413309598865 0 0 0 0 -0.07799366824316363 0.36317776028730009 0 0.36317776028730009 -0.74685146020613047 0 0 0 0 -28.73652472460137 -16.995694439381623 0 -16.995694439381623 34.67151923972051 0 0 0 0 -0.2433163576800273 51.013469041750795 0 51.013469041750795 -82.135998372121321 0 0 0 0 -51.558404567329944 -41.509198725789247 0 -41.509198725789247 -52.592979147346341 0 0 0 0 66.137761872226207 21.558652627358242 0 21.558652627358242 -52.097199311891671 0 0 0 0 0.29776629694943413 0.075042624479067399 0 0.075042624479067399 -0.025787761375170248 0 0 0 0 0.10680519428241858 63.043816429184517 0 63.043816429184517 47.648973600035788 0 0 0 0 5.9373387438197014 1.4928477196772292 0 1.4928477196772292 -7.8159012573978544 0 0 0 0 1.5584477123943705 0.48446886781428589 0 0.48446886781428589 -4.2602857975265067 0 0 0 0 21.549129327891023 10.150091409683228 0 10.150091409683228 -1.631184394180309 0 0 0 0 1.6233767600954407 1.1379372660775573 0 1.1379372660775573 -4.5417864902957348 0 0 0 0 7.2580467599909753 16.537960482040944 0 16.537960482040944 2.5278838632948464 0 0 0 0 1.8418449701108557 0.31883723208920856 0 0.31883723208920856 -3.7556106310075847 0 0 0 0 1.5851888492180826 0.03805978157959089 0 0.03805978157959089 -4.4202261918949404 0 0 0 0 8.3070082611769749 23.842914586331972 0 23.842914586331972 44.325661523558665 0 0 0 0 21.322239309340887 60.857217255021169 0 60.857217255021169 11.526721454800281 0 0 0 0 50.290589108885797 -5.5216882797249127 0 -5.5216882797249127 19.293543632102228 0 0 0 0 1.4662470291044656 -0.29173956766952358 0 -0.29173956766952358 -0.71763558369158886 0 0 0 0 0.5760661605044004 -0.28124901261190871 0 -0.28124901261190871 -0.8860385659141059 0 0 0 0 15.848136498700796 -21.002945292457298 0 -21.002945292457298 28.766055656436947 0 0 0 0 4.6335714311142553 2.2751522624275822 0 2.2751522624275822 -6.1565344305017788 0 0 0 0 4.9503252916822795 -4.091336846608101 0 -4.091336846608101 -11.441687740105408 0 0 0 0 4.612439621315616 4.0142477397748735 0 4.0142477397748735 -5.2475923851125117 0 0 0 0 0.22982534995029547 0.9634711133005478 0 0.9634711133005478 -5.8999966302430948 0 0 0 0 -1.1820603991210419 3.8830598829081282 0 3.8830598829081282 -0.63889087741699768 0 0 0 0 4.8643616339477376 0.89267525131072034 0 0.89267525131072034 -1.0578081269850372 0 0 0 0 20.3575296948909 10.555834225064245 0 10.555834225064245 -7.7205508159240708 0 0 0 0 -0.21080106950652547 1.0157500358198224 0 1.0157500358198224 -4.8009901245537492 0 0 0 0 -2.2252801776699584 -0.41626515303323686 0 -0.41626515303323686 -4.119168888166314 0 0 0 0 6.6848902440414122 15.292969037807779 0 15.292969037807779 1.6325116224907106 0 0 0 0 14.374504653656683 2.0634461355366511 0 2.0634461355366511 -9.4168081241368782 0 0 0 0 8.1271191268814587 -1.6139765362258913 0 -1.6139765362258913 -7.8692324210715014 0 0 0 0 -18.051768163362112 6.9108171784100705 0 6.9108171784100705 7.1846181330565742 0 0 0 0 -24.577488017291842 -4.957876571925226 0 -4.957876571925226 3.7808037467257236 0 0 0 0 -4.6998216080818338 -1.7720604542410001 0 -1.7720604542410001 -1.9030507452407619 0 0 0 0 -12.263315772426495 12.628784809530771 0 12.628784809530771 8.3054940013680607 0 0 0 0 -0.85958859250123965 -5.7904115493529389 0 -5.7904115493529389 -21.509982087685785 0 0 0 0 -1.6336805139131432 -2.407885481536141 0 -2.407885481536141 -5.1967190161740291 0 0 0 0 -0.43745331872238147 4.6973316142939439 0 4.6973316142939439 -3.6863042459408462 0 0 0 0 -0.50070432992421487 4.0468558674110682 0 4.0468558674110682 -10.16787579801894 0 0 0 0 -0.022725722503365388 4.3589237924206827 0 4.3589237924206827 -10.770831328654822 0 0 0 0 -0.0013190940502829252 9.1819751363291289 0 9.1819751363291289 -24.074154407266178 0 0 0 0 -8.4709463748680971 10.167115179467146 0 10.167115179467146 -6.7915087213696097 0 0 0 0 -4.6516399722603357 11.901836274017569 0 11.901836274017569 5.0323623667136417 0 0 0 0 -6.4230907280028866 19.639313366602437 0 19.639313366602437 -21.114265397300187 0 0 0 0 12.452859006073279 5.3195539897867548 0 5.3195539897867548 -42.053356178512331 0 0 0 0 1.9815235845120169 16.585739081327119 0 16.585739081327119 -41.873709449995658 0 0 0 0 -61.723488174488011 40.887100910302252 0 40.887100910302252 -46.028531258984003 0 0 0 0 24.786310156494039 2.426866709785827 0 2.426866709785827 -30.39095772519795 0 0 0 0 9.80263099096004 -35.889904308594851 0 -35.889904308594851 -48.893064274416247 0 0 0 0 0.46711174407486222 0.5923507646977697 0 0.5923507646977697 -1.5696328866709166 0 0 0 0 -0.067824835327986679 0.7119847480689323 0 0.7119847480689323 -3.5366877657426983 0 0 0 0 12.303926342481354 4.0155526954258676 0 4.0155526954258676 -6.9204924650548492 0 0 0 0 0.097393707466100321 -0.035094230913387037 0 -0.035094230913387037 -0.71883075546678299 0 0 0 0 -82.182767843715993 -47.918131336641636 0 -47.918131336641636 -18.143702052446315 0 0 0 0 0.10191612169791482 0.020815700726126707 0 0.020815700726126707 -1.6657548529685755 0 0 0 0 -21.825713163940677 30.009941609185262 0 30.009941609185262 -44.335778861983272 0 0 0 0 1.0809965949992835 4.1151009917756127 0 4.1151009917756127 -10.325366938259478 0 0 0 0 58.977745861864349 49.565335001114988 0 49.565335001114988 -17.100029310953687 0 0 0 0 -14.170770029257937 -14.749563716395642 0 -14.749563716395642 -2.4179431007178209 0 0 0 0 1.0249285953443517 4.6207870059280651 0 4.6207870059280651 -10.985429941479993 0 0 0 0 15.64200371058655 15.121425746838213 0 15.121425746838213 -58.64465292468094 0 0 0 0 19.460845658718426 12.372900913652302 0 12.372900913652302 -31.288730102489353 0 0 0 0 -15.6665285593524 -38.812060391655905 0 -38.812060391655905 -67.222008982935222 0 0 0 0 -1.6569451524051146 -24.147833881983388 0 -24.147833881983388 -106.53820729023209 0 0 0 0 9.6558049712962202 0.54446203050247277 0 0.54446203050247277 -121.67830329154458 0 0 0 0 10.458984303765192 -28.179034345088439 0 -28.179034345088439 -151.81917490106389 0 0 0 0 25.074506495379865 -6.3202082002244424 0 -6.3202082002244424 -101.34690078890344 0 0 0 0 -12.792583094402744 -2.5202409918601916 0 -2.5202409918601916 4.9817046972748358 0 0 0 0 -34.142086709636715 33.716974828796083 0 33.716974828796083 -50.704211339740141 0 0 0 0 -0.11544535278230994 -0.80069166737680497 0 -0.80069166737680497 0.043753140624545495 0 0 0 0 26.243869803007783 -24.488717905946032 0 -24.488717905946032 -56.727045896557684 0 0 0 0 6.4312749988501992 -16.30255293267237 0 -16.30255293267237 -59.730792226153426 0 0 0 0 -35.811446809039808 9.5793904846141231 0 9.5793904846141231 11.532976715043333 0 0 0 0 11.708245451120092 0.22579005002990016 0 0.22579005002990016 -31.604231142686331 0 0 0 0 0.79273367632337965 4.0575318316996274 0 4.0575318316996274 -11.375962687760733 0 0 0 0 -1.2602978819354576 19.341000964057457 0 19.341000964057457 9.5803671058570217 0 0 0 0 -0.43741811348107396 1.105558072473892 0 1.105558072473892 -0.14617202427609755 0 0 0 0 9.2115580491795299 12.11738696811517 0 12.11738696811517 -0.99202063606207957 0 0 0 0 -8.5111907823338697 15.879410758027007 0 15.879410758027007 6.8834651832512463 0 0 0 0 -2.5963367486874631 6.07468349285773 0 6.07468349285773 -3.7396544905932387 0 0 0 0 -2.9783248167619973 1.4884998674713188 0 1.4884998674713188 -9.5628231989321648 0 0 0 0 -0.67565997360843255 1.1914936224135246 0 1.1914936224135246 -2.1265168432772015 0 0 0 0 0.428888747151003 4.0167005756141023 0 4.0167005756141023 -10.713674043435006 0 0 0 0 -0.66480446713734853 2.2409912434804937 0 2.2409912434804937 -4.6493169814847022 0 0 0 0 0.26168061674969567 3.0014746495134332 0 3.0014746495134332 -8.7002261123550966 0 0 0 0 2.1538039004371967 2.5695324329572031 0 2.5695324329572031 -2.7209805627062451 0 0 0 0 2.1547850921760983 -0.85812139074187144 0 -0.85812139074187144 -13.812864524137694 0 0 0 0 -3.8891795047136828 1.8356427816853014 0 1.8356427816853014 -14.186209490266762 0 0 0 0 -2.5745381039869244 -1.8895529095898382 0 -1.8895529095898382 -6.9975724506075494 0 0 0 0 0.25684360632840253 -0.6061351372700301 0 -0.6061351372700301 -8.4156773902504938 0 0 0 0 -0.73016785243252524 0.17335627352463234 0 0.17335627352463234 -5.9075937156709983 0 0 0 0 -1.8441299618571065 -0.51732716397964396 0 -0.51732716397964396 -7.5694529297470581 0 0 0 0 -0.85651422540558997 -0.97286346592591144 0 -0.97286346592591144 -8.1500735183362849 0 0 0 0 -2.3300381610190573 0.10228966911077286 0 0.10228966911077286 -4.7257746373490193 0 0 0 0 0.16080035882151833 -0.042394060774661568 0 -0.042394060774661568 -0.54643287943085284 0 0 0 0 -0.17735533607083198 -1.0115107583915233 0 -1.0115107583915233 -7.6180664557177806 0 0 0 0 -0.034603998799866531 1.0754321562126279 0 1.0754321562126279 -9.5049278940023214 0 0 0 0 0.76168251500693884 1.906360688770846 0 1.906360688770846 -5.9686182997054971 0 0 0 0 -5.227898368248475 -10.404986437793013 0 -10.404986437793013 -22.114645522640785 0 0 0 0 -0.83695986429302138 0.016986730421194807 0 0.016986730421194807 -12.010655283909728 0 0 0 0 2.3761058577761105 -0.55280389702966204 0 -0.55280389702966204 -11.999633441973515 0 0 0 0 -0.8354997522252372 -0.72449346449887031 0 -0.72449346449887031 -3.1691230367243861 0 0 0 0 -2.1798552433381246 3.5082788632025768 0 3.5082788632025768 -8.2555358562203764 0 0 0 0 -2.6386419174104958 3.5357374993327539 0 3.5357374993327539 -7.9736045298777753 0 0 0 0 -0.8557379635715332 1.0865508623464848 0 1.0865508623464848 -3.5045025615231893 0 0 0 0 1.7608579815528174 -4.8387596474567545 0 -4.8387596474567545 -13.118603762202838 0 0 0 0 -4.200694436368849 -5.153187010808324 0 -5.153187010808324 -9.5238370512561232 0 0 0 0 0.066966776197005196 0.58293437757640021 0 0.58293437757640021 -1.536742150567008 0 0 0 0 -0.46497718899385632 -1.7320261019708596 0 -1.7320261019708596 -7.6538506789147505 0 0 0 0 -1.322811340243959 0.85367079161733272 0 0.85367079161733272 -0.96926912751223426 0 0 0 0 0.34610112963461059 0.16988661901523017 0 0.16988661901523017 -0.72808280328250419 0 0 0 0 -4.9145491415540619 7.253967809068854 0 7.253967809068854 -3.1597379329177784 0 0 0 0 -6.5084407286724399 -1.3958714581021923 0 -1.3958714581021923 -1.9253834551054752 0 0 0 0 -7.9982351567841761 0.63093251977261389 0 0.63093251977261389 0.20180147858627606 0 0 0 0 -6.7318736070958494 2.8269388948392589 0 2.8269388948392589 -3.5458165263262345 0 0 0 0 0.056462450277656062 0.24636126457310326 0 0.24636126457310326 -1.4896675741167371 0 0 0 0 -5.5752753129474399 -7.6858328842790797 0 -7.6858328842790797 -7.8311428726156009 0 0 0 0 -9.9761042483012261 1.7815105493391457 0 1.7815105493391457 -4.5755366891389713 0 0 0 0 -15.880644984870059 11.58231086658634 0 11.58231086658634 -20.219241389408126 0 0 0 0 -0.21283365899680629 1.3493898050563899 0 1.3493898050563899 -1.0442966874816761 0 0 0 0 0.18843049413459334 -0.083511067600348099 0 -0.083511067600348099 -0.6503971220176652 0 0 0 0 30.17109495187151 -111.09774000029938 0 -111.09774000029938 38.100089456791466 0 0 0 0 -11.193189438371519 -22.888331800870219 0 -22.888331800870219 -30.858824229704453 0 0 0 0 -68.018205643047622 -99.053079500855347 0 -99.053079500855347 -106.86250758288315 0 0 0 0 -1.8806472046402909 4.4968659375914726 0 4.4968659375914726 -10.3255997778754 0 0 0 0 -58.922774857160675 -67.354235590683857 0 -67.354235590683857 -94.947957876311193 0 0 0 0 72.219458054615998 154.49428083279102 0 154.49428083279102 154.7863258860325 0 0 0 0 27.795461281040616 45.080485617228987 0 45.080485617228987 53.588582897426932 0 0 0 0 67.59321717049508 56.805301433465672 0 56.805301433465672 2.8361141781770129 0 0 0 0 -111.38003776148275 -82.273188648881842 0 -82.273188648881842 -72.698093636897283 0 0 0 0 -103.38637085255664 -121.31135908468787 0 -121.31135908468787 -102.91213893192059 0 0 0 0 -91.247492610782729 -117.14168872454002 0 -117.14168872454002 -125.27069992281577 0 0 0 0 -97.42249972687091 -143.95332840781634 0 -143.95332840781634 -132.21921454937001 0 0 0 0 -96.85226532114973 -106.65396830298005 0 -106.65396830298005 -131.91533933435312 0 0 0 0 -65.331627968622399 -123.26393586714084 0 -123.26393586714084 -160.90184026591487 0 0 0 0 -48.512523098928796 -50.950657180987264 0 -50.950657180987264 -42.820355553785703 0 0 0 0 10.530096109362603 1.8936361710048004 0 1.8936361710048004 -94.707141253642476 0 0 0 0 21.127675737326626 5.3009754804825207 0 5.3009754804825207 -145.88661471841647 0 0 0 0 2.1670480955094495 6.7159163705621303 0 6.7159163705621303 -6.0698730184795746 0 0 0 0 0.92907441312535699 0.44855453608124662 0 0.44855453608124662 -0.86953641377058943 0 0 0 0 -31.815513224970573 11.404736284700448 0 11.404736284700448 22.291413121300138 0 0 0 0 4.5922785202182013 32.275864786228794 0 32.275864786228794 -41.664321979045781 0 0 0 0 -4.2601914319066054 -29.519448874315458 0 -29.519448874315458 -42.626152417604317 0 0 0 0 -14.448410224602412 37.739943762161602 0 37.739943762161602 -63.022677811303765 0 0 0 0 1.7890786490485322 1.5510268945802608 0 1.5510268945802608 -3.3297341896176267 0 0 0 0 0.052310583510942088 1.1374251258220553 0 1.1374251258220553 -0.44852629337914962 0 0 0 0 -106.30094802571375 -137.50339723388333 0 -137.50339723388333 -179.77550627619166 0 0 0 0 50.660101052669688 4.6411567411087162 0 4.6411567411087162 -54.059089514848893 0 0 0 0 741.13351776643003 -793.81688940120875 0 -793.81688940120875 443.40412641609146 0 0 0 0 0.58965648877250909 0.7163245115537068 0 0.7163245115537068 -6.8435538678966736 0 0 0 0 105.99998911050761 -308.24301020355779 0 -308.24301020355779 80.138940219530923 0 0 0 0 -345.96013082011979 88.558627741045939 0 88.558627741045939 -36.113392259205284 0 0 0 0 286.18011685778242 88.257391288563213 0 88.257391288563213 7.8613913979318113 0 0 0 0 -211.12391918922219 330.06018132716235 0 330.06018132716235 -367.97652260273026 0 0 0 0 138.80229169373519 -121.72865638656731 0 -121.72865638656731 -466.47815666466704 0 0 0 0 -512.67671823470073 745.7209804249951 0 745.7209804249951 -649.65007214945126 0 0 0 0 116.77977151939274 126.07871172157502 0 126.07871172157502 -676.15262516933672 0 0 0 0 -1.049594065997955 6.3592764130456203 0 6.3592764130456203 -13.693244755403125 0 0 0 0 278.01712557966573 157.19685033712358 0 157.19685033712358 -385.59140008569011 0 0 0 0 -72.437413233914953 -110.43847329492473 0 -110.43847329492473 173.41059332826444 0 0 0 0 35.212234351815752 -68.182096769185222 0 -68.182096769185222 -82.446317294776236 0 0 0 0 61.177679185210081 -161.47930872282814 0 -161.47930872282814 -207.4094853970073 0 0 0 0 36.309035598835408 -48.542254764267454 0 -48.542254764267454 -89.549700097788445 0 0 0 0 60.501877257174556 21.537921123137494 0 21.537921123137494 -202.67125457794555 0 0 0 0 111.91193978952271 48.810531238802128 0 48.810531238802128 -189.01671354724022 0 0 0 0 92.020014675896391 43.408535121101522 0 43.408535121101522 -337.1701869655717 0 0 0 0 111.35171474732931 36.582674142031465 0 36.582674142031465 -360.18036650305294 0 0 0 0 -97.099099080992033 160.55413941282131 0 160.55413941282131 -120.77507460353809 0 0 0 0 -19.237168271883547 69.578773906669085 0 69.578773906669085 -149.16584258760997 0 0 0 0 55.209879952861002 87.829865584515119 0 87.829865584515119 -201.415795914917 0 0 0 0 56.903830317631673 19.420428153071043 0 19.420428153071043 -142.44130089636622 0 0 0 0 -15.814474486055033 18.244688351143793 0 18.244688351143793 -103.43582998215243 0 0 0 0 -6.8024539436041778 30.136243644927617 0 30.136243644927617 -73.236487751520144 0 0 0 0 -1.9267831381098404 42.305228275582067 0 42.305228275582067 -142.16509110571224 0 0 0 0 13.387513796758412 1.3079698441906658 0 1.3079698441906658 -99.123920308887136 0 0 0 0 12.592349740412828 5.02838994080048 0 5.02838994080048 -115.31784870055935 0 0 0 0 3.7051927841973793 -7.2472997459362887 0 -7.2472997459362887 -72.457595585863601 0 0 0 0 1.8719857778933147 -14.353844507007125 0 -14.353844507007125 -77.57825570577188 0 0 0 0 17.495893653588951 -19.67265483385313 0 -19.67265483385313 -84.76020295156377 0 0 0 0 31.529617195360061 9.0566430859780667 0 9.0566430859780667 -72.672100627295094 0 0 0 0 14.307619269988777 -9.7107993520594391 0 -9.7107993520594391 -79.412729398156443 0 0 0 0 63.930052741887721 24.6813905764011 0 24.6813905764011 -63.44459555853723 0 0 0 0 64.920329013557762 19.607450374953714 0 19.607450374953714 -46.851933696498236 0 0 0 0 38.92735989519133 4.3022380682382391 0 4.3022380682382391 -65.319507313269241 0 0 0 0 20.380560159832839 17.04855583171684 0 17.04855583171684 -64.903903352970019 0 0 0 0 3.4492806563034719 0.082459990680945339 0 0.082459990680945339 -72.131992726670433 0 0 0 0 25.916031152813503 -7.8485987751964785 0 -7.8485987751964785 -73.764639484910958 0 0 0 0 22.751407157244557 2.1705132534369795 0 2.1705132534369795 -49.210079201531698 0 0 0 0 55.724335513777532 7.4047738765980284 0 7.4047738765980284 -83.325604398183714 0 0 0 0 55.133833768692057 4.4402140730708197 0 4.4402140730708197 -26.96556904094723 0 0 0 0 58.217307582346621 20.036204502762985 0 20.036204502762985 -100.22005221856671 0 0 0 0 42.198687765189788 -9.9234518399043736 0 -9.9234518399043736 -74.465039241880731 0 0 0 0 25.161015646546048 18.009038105671152 0 18.009038105671152 -120.23922093045803 0 0 0 0 -3.0726343716374913 -12.597713327643305 0 -12.597713327643305 -77.979005895786031 0 0 0 0 -9.3412710299710398 -36.215405743189422 0 -36.215405743189422 -119.54356581212323 0 0 0 0 35.988500457529994 -9.6495813918378417 0 -9.6495813918378417 -85.446678036632875 0 0 0 0 27.515856923667798 -44.306847175652365 0 -44.306847175652365 -147.60597423016475 0 0 0 0 20.686859709305537 3.9552100754281128 0 3.9552100754281128 -49.49312253158314 0 0 0 0 28.614453966838028 70.021415046433503 0 70.021415046433503 20.476244578451769 0 0 0 0 43.965284998378365 46.602637847195183 0 46.602637847195183 -76.332261855870115 0 0 0 0 35.240258546891937 1.6043771723420832 0 1.6043771723420832 -208.35391913238709 0 0 0 0 -66.49432379529253 -155.09339801606257 0 -155.09339801606257 -263.82883068984029 0 0 0 0 0.54947357243171702 0.013159410540040994 0 0.013159410540040994 -0.24810985003625419 0 0 0 0 -91.938866245439158 99.912906134682089 0 99.912906134682089 47.180922284299868 0 0 0 0 35.051736958820356 54.112184636822803 0 54.112184636822803 40.3947450164369 0 0 0 0 221.69180644783273 -16.612459863672484 0 -16.612459863672484 -205.62755642776347 0 0 0 0 206.39641075413374 373.166089263706 0 373.166089263706 67.423076665903864 0 0 0 0 72.27834243462712 -198.76956210788831 0 -198.76956210788831 -125.10201775468113 0 0 0 0 228.83565647536739 -74.563051044960048 0 -74.563051044960048 -235.00816488669989 0 0 0 0 -131.34309254505052 -103.03314050335933 0 -103.03314050335933 -131.45289423509894 0 0 0 0 1.7830034006065034 -22.42609464263478 0 -22.42609464263478 -62.958793539655744 0 0 0 0 36.601524159175824 -45.326571514127863 0 -45.326571514127863 -126.27754629158153 0 0 0 0 38.653347185236271 -42.122504014347214 0 -42.122504014347214 -129.19174576544447 0 0 0 0 -22.694782820664841 -80.916298955125058 0 -80.916298955125058 -134.4408681781922 0 0 0 0 354.07354077183646 340.6073441927274 0 340.6073441927274 300.06750537852167 0 0 0 0 2.9588370596120797 -0.40781970280050928 0 -0.40781970280050928 -0.70796672841920127 0 0 0 0 1.0476745917305834 -168.23462964053124 0 -168.23462964053124 287.75151497783918 0 0 0 0 25.467775784858759 -378.77061911096553 0 -378.77061911096553 -183.7752142018544 0 0 0 0 22.304242232678916 -30.433021277409352 0 -30.433021277409352 -69.864572015647809 0 0 0 0 10.139574012288101 -5.450821851262738 0 -5.450821851262738 -4.8598149073635639 0 0 0 0 -151.05345366198358 918.90023846607016 0 918.90023846607016 37.069111172681005 0 0 0 0 808.51086328990868 -740.60689531472565 0 -740.60689531472565 -633.08020189086346 0 0 0 0 53.588025716841912 -905.70989492341596 0 -905.70989492341596 -381.50048456971126 0 0 0 0 1455.5344946965588 0.089841931872797431 0 0.089841931872797431 -593.3231172064543 0 0 0 0 5.7905567785098278 4.3237300545173198 0 4.3237300545173198 -3.5333608129408489 0 0 0 0 245.8757965905022 129.40817913892988 0 129.40817913892988 -582.78209919112192 0 0 0 0 271.30881164315565 -170.66160758371916 0 -170.66160758371916 -665.29749328803518 0 0 0 0 244.11132111092888 -158.42048464208051 0 -158.42048464208051 -260.97528401031013 0 0 0 0 126.47266419675589 58.082573797522855 0 58.082573797522855 50.68181850808287 0 0 0 0 235.59797014133608 102.44464960718233 0 102.44464960718233 -259.58355458612641 0 0 0 0 -702.00668569085258 -639.82796096375057 0 -639.82796096375057 -132.05474732488756 0 0 0 0 -103.21028996392442 -90.815616791126217 0 -90.815616791126217 -195.52528903537404 0 0 0 0 225.01850306171696 242.08271668096722 0 242.08271668096722 -191.02658059085479 0 0 0 0 0.67237393153904113 -0.31516835168118984 0 -0.31516835168118984 -15.827244527897474 0 0 0 0 137.75028625095024 -59.714790925317175 0 -59.714790925317175 -189.48984860600285 0 0 0 0 135.30014108896762 -38.276665857522858 0 -38.276665857522858 -375.78090654701009 0 0 0 0 51.205205363379946 -8.5057193084712708 0 -8.5057193084712708 -201.55219729426449 0 0 0 0 103.84381586833001 66.97890656031359 0 66.97890656031359 -172.0023047312543 0 0 0 0 99.848649817286969 87.512922077963594 0 87.512922077963594 -162.26894395088721 0 0 0 0 -73.286298264363495 22.092433293705653 0 22.092433293705653 -113.34428797573673 0 0 0 0 -76.807315919958683 11.371348235107689 0 11.371348235107689 -106.81306442494224 0 0 0 0 -140.17886205217633 -75.580896926498099 0 -75.580896926498099 -67.744743803947131 0 0 0 0 -104.0544567368072 -2.1175332448369772 0 -2.1175332448369772 -220.21434846466582 0 0 0 0 -122.90130823351956 -2.6406995773122617 0 -2.6406995773122617 -128.02825325055892 0 0 0 0 -114.68071547940849 -17.331880493779408 0 -17.331880493779408 -125.41901376820897 0 0 0 0 -156.6700308940529 55.098448349995067 0 55.098448349995067 -195.57001650451002 0 0 0 0 -98.599945223790655 -32.154405398277049 0 -32.154405398277049 -312.48226312889346 0 0 0 0 -97.969952778754617 -48.056584280657034 0 -48.056584280657034 -94.228307478675561 0 0 0 0 -177.27955677059663 -171.32045646473352 0 -171.32045646473352 -176.41596480067528 0 0 0 0 -1.0110884811465408 1.666726377816266 0 1.666726377816266 -3.471567709881171 0 0 0 0 -38.169362812805957 -121.58275656334354 0 -121.58275656334354 -267.94398644459875 0 0 0 0 -84.910408489811971 15.256214421670848 0 15.256214421670848 204.92221196031994 0 0 0 0 0.57636320581204092 -0.66027355806110322 0 -0.66027355806110322 -0.055277103965432062 0 0 0 0 -114.80021735146852 21.070175754703541 0 21.070175754703541 -196.95484220684102 0 0 0 0 -99.801542715509356 -166.77984451078373 0 -166.77984451078373 -182.06806436140869 0 0 0 0 -0.5188791397185053 -1.3030726343459964 0 -1.3030726343459964 -1.8714032365032942 0 0 0 0 -48.170142055357246 201.46020578279695 0 201.46020578279695 -496.39420086776408 0 0 0 0 -122.91028670899959 -68.671784029615083 0 -68.671784029615083 -148.45712029814422 0 0 0 0 -86.66778508129164 -152.42523829660286 0 -152.42523829660286 32.610430136051946 0 0 0 0 -88.919611688769464 -113.84268148596675 0 -113.84268148596675 305.81462163793913 0 0 0 0 -0.75391092894162703 -3.7896695217018035 0 -3.7896695217018035 -5.1799610353495638 0 0 0 0 -16.695959109901878 125.26043297880278 0 125.26043297880278 -296.70112662863266 0 0 0 0 -24.531392519829296 18.877937854077572 0 18.877937854077572 -186.63781376552652 0 0 0 0 -1.0400301258551963 50.589785994570775 0 50.589785994570775 -146.70608884797912 0 0 0 0 63.590292705589377 -18.839916043342782 0 -18.839916043342782 -179.45486246343307 0 0 0 0 0.46689421894211591 50.425956947389068 0 50.425956947389068 -172.08947584535053 0 0 0 0 -36.968801088683108 63.641238775456259 0 63.641238775456259 -143.87289193237348 0 0 0 0 3.1221254685239046 66.298829762580681 0 66.298829762580681 -81.489481547030664 0 0 0 0 20.552904652001729 13.167162455753896 0 13.167162455753896 -158.64876068217018 0 0 0 0 39.700369706704237 -16.799678022935041 0 -16.799678022935041 -22.409633044946531 0 0 0 0 40.880750724796314 23.401398619085739 0 23.401398619085739 -56.353730229187931 0 0 0 0 5.6909871172263138 -6.086779494644361 0 -6.086779494644361 -25.007061594116749 0 0 0 0 -33.327282690823552 -84.520220576694555 0 -84.520220576694555 -129.47055339629514 0 0 0 0 46.215876881694157 -29.958096747512172 0 -29.958096747512172 -56.24087394695016 0 0 0 0 29.284975064266433 -2.5439103169346708 0 -2.5439103169346708 -88.261129572256323 0 0 0 0 -0.51331361474439618 0.28190872875206985 0 0.28190872875206985 0.21973059601676681 0 0 0 0 -130.24890424713388 -99.983287527524226 0 -99.983287527524226 -59.052864467819745 0 0 0 0 102.07862324389572 54.670373280016975 0 54.670373280016975 -39.092785694543636 0 0 0 0 20.488966813620777 -46.64304699187187 0 -46.64304699187187 -38.441864298918517 0 0 0 0 -4.0449755053726903 -69.03311497114646 0 -69.03311497114646 -7.149701896483748 0 0 0 0 1.3128596774349672 -0.42396999894028831 0 -0.42396999894028831 -2.1738743323940639 0 0 0 0 36.416089982532242 -76.148751786085995 0 -76.148751786085995 -35.729197630223098 0 0 0 0 -7.1325177007100535 -8.333507794799516 0 -8.333507794799516 -78.226492328289169 0 0 0 0 -17.862897987247166 -16.296305105300007 0 -16.296305105300007 -60.521194599561568 0 0 0 0 7.1533666263142965 -2.4133224925658006 0 -2.4133224925658006 -1.5470497226393727 0 0 0 0 41.711017080148793 -18.533101705410445 0 -18.533101705410445 -1.9214730885514655 0 0 0 0 3.0115074025150399 -1.4789288365155855 0 -1.4789288365155855 0.198487645699091 0 0 0 0 -28.89044807402297 -62.319519450153166 0 -62.319519450153166 -84.582719609942544 0 0 0 0 -7.1112917137234035 -49.89743625860774 0 -49.89743625860774 96.530847324177628 0 0 0 0 9.7761413732526989 -122.59403081432424 0 -122.59403081432424 -112.94038661308332 0 0 0 0 -3.0412864054478632 -16.787722732762631 0 -16.787722732762631 -27.16525973075295 0 0 0 0 -6.1911998874595362 -15.334493435496469 0 -15.334493435496469 -28.399040739501444 0 0 0 0 -4.6968380252038795 -16.27685608055414 0 -16.27685608055414 -14.267840630852046 0 0 0 0 -5.0024698210672796 -56.406587439494615 0 -56.406587439494615 -45.020798872763407 0 0 0 0 -1.1730059359042571 -12.726938398229322 0 -12.726938398229322 -18.341794300473339 0 0 0 0 -4.5254927797123088 -23.087685187134937 0 -23.087685187134937 -31.024448473046533 0 0 0 0 -37.287563861080798 -21.87587174129203 0 -21.87587174129203 -17.152702285296982 0 0 0 0 35.659476060391171 -22.477591478760587 0 -22.477591478760587 -34.098393707494324 0 0 0 0 69.544579096609596 -38.578537221341321 0 -38.578537221341321 -26.75996090314402 0 0 0 0 0.86117832912168524 -8.0127886598493205 0 -8.0127886598493205 -12.265488467746763 0 0 0 0 -14.794127743108675 -76.601801317367062 0 -76.601801317367062 -63.887914430481032 0 0 0 0 -1.9874096347802439 -3.230487891946149 0 -3.230487891946149 -5.3015728299417262 0 0 0 0 -28.325268738675732 -4.870485134095361 0 -4.870485134095361 -33.651833314837859 0 0 0 0 -2.0201673272174432 -5.9186385910326109 0 -5.9186385910326109 -27.702867067500812 0 0 0 0 7.6242994125177574 -30.305055661664483 0 -30.305055661664483 -59.89639904923024 0 0 0 0 29.412233946961919 -69.621008003131124 0 -69.621008003131124 33.764166036078677 0 0 0 0 55.622822991871544 -73.073631239069073 0 -73.073631239069073 -34.898667667112022 0 0 0 0 65.324624774657877 -103.14366963103566 0 -103.14366963103566 15.095938057223975 0 0 0 0 42.617959579057356 -162.35416474784688 0 -162.35416474784688 -129.9243479296274 0 0 0 0 98.804568240259869 -21.634248227299395 0 -21.634248227299395 -107.62076773127319 0 0 0 0 25.002160900158742 -9.4240944536159077 0 -9.4240944536159077 -34.242898478059672 0 0 0 0 -33.646814238702518 -28.391751265287894 0 -28.391751265287894 11.132480645645046 0 0 0 0 1.3134277694558527 -7.4915704601613058 0 -7.4915704601613058 -18.074689006031932 0 0 0 0 -6.5683416760689397 -19.898965903616045 0 -19.898965903616045 -41.090635843667769 0 0 0 0 -2.0789085757655812 -10.027584172626121 0 -10.027584172626121 -29.796067501342804 0 0 0 0 -3.1746581024413301 -2.0885247854640916 0 -2.0885247854640916 -6.1111342878502803 0 0 0 0 4.840209727007732 -20.693697426157996 0 -20.693697426157996 -37.52042636180704 0 0 0 0 -34.26023103234099 -38.6082197773178 0 -38.6082197773178 207.21451790347783 0 0 0 0 -7.0523516357160183 -14.160298488390779 0 -14.160298488390779 -13.785853958997627 0 0 0 0 -0.38863462523890568 -1.8234124576480308 0 -1.8234124576480308 -4.2779624473361189 0 0 0 0 -13.568084485871577 -251.93375874569938 0 -251.93375874569938 165.25647736730753 0 0 0 0 41.754669908349797 65.520575420658133 0 65.520575420658133 -392.41918324491644 0 0 0 0 105.12541464148424 -436.7647748395284 0 -436.7647748395284 -366.2072722868927 0 0 0 0 61.417117586822883 41.129159746626101 0 41.129159746626101 -9.4380496353605849 0 0 0 0 -2.9501583389806325 2.9405865131959459 0 2.9405865131959459 -2.0557165869371836 0 0 0 0 -118.11282538765629 532.06118404735844 0 532.06118404735844 -518.7399350206033 0 0 0 0 77.174838701510112 7.7689973262231433 0 7.7689973262231433 -51.55345176211631 0 0 0 0 56.355031114126177 -12.23652937784027 0 -12.23652937784027 -75.956225303300926 0 0 0 0 16.823115944208439 -2.6786877299691696 0 -2.6786877299691696 -17.467574975631123 0 0 0 0 56.601366857729644 -8.598582803384943 0 -8.598582803384943 -41.43985399039957 0 0 0 0 27.089828281036262 -14.732321536335803 0 -14.732321536335803 -12.296801820506516 0 0 0 0 36.716075616840044 -8.6880989901728753 0 -8.6880989901728753 -41.438630179375338 0 0 0 0 39.69709361594073 -17.244266391937344 0 -17.244266391937344 -16.886620327180935 0 0 0 0 22.896368361404257 -79.618916901397824 0 -79.618916901397824 52.869804167457914 0 0 0 0 0.33110536151281722 0.029061444237722611 0 0.029061444237722611 -0.22478656555135856 0 0 0 0 -0.93390256446747344 9.2258967662919531 0 9.2258967662919531 -46.749032305133369 0 0 0 0 1.1039614384538936 7.2930541122641444 0 7.2930541122641444 -88.698722313567487 0 0 0 0 7.4677766586755752 -5.0414596693171916 0 -5.0414596693171916 -19.650738920544853 0 0 0 0 -10.838807587153042 -2.9114249782905972 0 -2.9114249782905972 -41.252768243666651 0 0 0 0 2.708755909416408 -6.4843338704579452 0 -6.4843338704579452 -1.2606009570095269 0 0 0 0 10.198217986752638 -6.3766796888839963 0 -6.3766796888839963 -55.208501603401601 0 0 0 0 6.0318899510515696 -5.3442028624063198 0 -5.3442028624063198 -5.7775130969089474 0 0 0 0 7.8829111531113085 -5.7295005175114966 0 -5.7295005175114966 -38.985227953460708 0 0 0 0 7.8630662255116022 -4.6671791584030871 0 -4.6671791584030871 -18.862984680301082 0 0 0 0 5.1582560227250269 3.4577114536511999 0 3.4577114536511999 -34.514259644756748 0 0 0 0 8.6785772510120296 -6.5780120671870463 0 -6.5780120671870463 -38.086552456044956 0 0 0 0 5.1560501739609208 2.7424683382032526 0 2.7424683382032526 -40.748355007088321 0 0 0 0 2.136567135735969 -0.28612149566155765 0 -0.28612149566155765 -5.3713549054071521 0 0 0 0 7.0714440800935048 4.7299584331367086 0 4.7299584331367086 -19.737398153451032 0 0 0 0 -8.1984635760436504 -15.201256777341769 0 -15.201256777341769 -41.781508430074609 0 0 0 0 -4.9745575213701159 -17.341299399198761 0 -17.341299399198761 -42.083006273591309 0 0 0 0 2.2439574378762694 -11.887704403752014 0 -11.887704403752014 -22.594580708006724 0 0 0 0 0.61924131561181639 -16.769208393112422 0 -16.769208393112422 -45.611036465583311 0 0 0 0 1.9326822090679343 -21.381263166700592 0 -21.381263166700592 -42.341035907913465 0 0 0 0 15.941230197926188 -4.2870837631598988 0 -4.2870837631598988 -27.666009496766492 0 0 0 0 15.960050836245273 -4.6610828864068026 0 -4.6610828864068026 -20.305988752166741 0 0 0 0 6.4809408643707282 -3.9710569772045723 0 -3.9710569772045723 -26.218372357486665 0 0 0 0 6.2875538715702532 -6.3844752699569653 0 -6.3844752699569653 -35.493635904989787 0 0 0 0 14.078291258925333 -1.7094459506333806 0 -1.7094459506333806 -10.521918079236031 0 0 0 0 1.7852354760908786 -3.0249151063519157 0 -3.0249151063519157 -8.1744645337769626 0 0 0 0 2.853055522251787 -0.38962407121946185 0 -0.38962407121946185 -11.999424026317371 0 0 0 0 5.6716050459863254 -2.904055095910735 0 -2.904055095910735 -8.4068285352894918 0 0 0 0 6.8749208519622931 -0.75629011926592682 0 -0.75629011926592682 -25.433719428037879 0 0 0 0 8.5145786559148409 -2.5168171669488117 0 -2.5168171669488117 -22.876139828192208 0 0 0 0 13.131098948931236 1.9453796636020826 0 1.9453796636020826 -23.346643784554331 0 0 0 0 12.393051484160226 -0.28789229508925018 0 -0.28789229508925018 -14.755738817652853 0 0 0 0 28.107354038394988 -24.161719155970786 0 -24.161719155970786 -64.725072890112642 0 0 0 0 15.697739524045573 -0.9836027466590167 0 -0.9836027466590167 -80.510709435533499 0 0 0 0 -2.7953945343647284 -21.185755259908824 0 -21.185755259908824 -39.190526301968603 0 0 0 0 -6.9586030149657745 -28.446102943293226 0 -28.446102943293226 -52.513235478225397 0 0 0 0 64.227804355172339 -8.8324637043224357 0 -8.8324637043224357 -23.844212414900539 0 0 0 0 0.52861003216407099 -2.8698797633836577 0 -2.8698797633836577 -8.316157337040039 0 0 0 0 -19.231142065622407 -51.265080761528225 0 -51.265080761528225 -40.727478602217161 0 0 0 0 -17.022516657075613 -0.5739511753381521 0 -0.5739511753381521 -10.54324743158395 0 0 0 0 -1.2141846271490522 -6.062349329042263 0 -6.062349329042263 -30.511646320794171 0 0 0 0 -0.4709684004097312 8.2143047386016406 0 8.2143047386016406 -6.4517596129408048 0 0 0 0 16.86341298020686 2.4176171407034417 0 2.4176171407034417 -4.8275894041362335 0 0 0 0 26.285885124274024 6.3445551697029714 0 6.3445551697029714 -5.8389262387026974 0 0 0 0 1.7144407575081004 -0.68730725641034951 0 -0.68730725641034951 -1.8281138976090006 0 0 0 0 9.4977727434662711 -6.0750893422227819 0 -6.0750893422227819 -2.4974168433545856 0 0 0 0 14.026469347385842 -2.2211490872023205 0 -2.2211490872023205 -8.5389585610646463 0 0 0 0 17.833327793283388 -18.248003047419843 0 -18.248003047419843 -7.3517552270054694 0 0 0 0 7.5887682300763117 -9.7017108000527514 0 -9.7017108000527514 -8.755341133211914 0 0 0 0 23.804802857654522 -4.8499099551481777 0 -4.8499099551481777 -4.6744499378928595 0 0 0 0 -3.2937972143703576 -9.6653903092274049 0 -9.6653903092274049 -2.9994517462328076 0 0 0 0 -6.7236964978026208 1.9262320114485192 0 1.9262320114485192 -13.401252784240569 0 0 0 0 -0.063947014364202914 -25.284331283803112 0 -25.284331283803112 -9.1621444756237906 0 0 0 0 7.3533603014311666 -19.704622190247392 0 -19.704622190247392 17.699448959891015 0 0 0 0 8.0520744105385802 11.455137206035033 0 11.455137206035033 -18.200253332767261 0 0 0 0 4.3613435487084171 -2.0412811622876426 0 -2.0412811622876426 -10.544384989979918 0 0 0 0 51.840199538561365 -39.29839391792575 0 -39.29839391792575 -13.60879795091023 0 0 0 0 1.7984492212216736 2.3152916164615647 0 2.3152916164615647 -11.149282206807221 0 0 0 0 32.657993822494291 11.435249044860029 0 11.435249044860029 -64.446905236431121 0 0 0 0 0.73339418928738742 -2.0944641574827605 0 -2.0944641574827605 -13.958584565132568 0 0 0 0 0.47998884922212071 1.5871773703072449 0 1.5871773703072449 -2.5252858444641291 0 0 0 0 -1.9197750625829713 -7.1826813099087303 0 -7.1826813099087303 -9.1336708483177063 0 0 0 0 2.5607085896392618 -8.1532475138264999 0 -8.1532475138264999 -9.6749353877094109 0 0 0 0 0.39509339446618696 -10.653099582842515 0 -10.653099582842515 -8.4229415610789147 0 0 0 0 6.1861832960335565 -1.6926335782476905 0 -1.6926335782476905 -10.123488759079493 0 0 0 0 4.0698374488135016 -10.571675432728625 0 -10.571675432728625 -10.127338193869946 0 0 0 0 -12.574126101167664 -37.957693703006214 0 -37.957693703006214 -68.239056733844336 0 0 0 0 -10.673828558550014 20.072856437784679 0 20.072856437784679 -7.2233630712835293 0 0 0 0 -155.9126984302311 -128.19917043623764 0 -128.19917043623764 -56.916309947506306 0 0 0 0 -462.19000970497063 -156.01745913684772 0 -156.01745913684772 -23.49321934817084 0 0 0 0 -82.064766445860414 -4.817149914080801 0 -4.817149914080801 -13.971167958079604 0 0 0 0 -59.624541467836025 -14.741821841157616 0 -14.741821841157616 -17.144456983798591 0 0 0 0 -12.681959428014579 -56.024544482785132 0 -56.024544482785132 -59.827790772103981 0 0 0 0 65.840163081530136 -7.2072510267553298 0 -7.2072510267553298 -67.187336744918866 0 0 0 0 0.65135242735594678 -4.0338185247956062 0 -4.0338185247956062 -14.601940360696304 0 0 0 0 -1.9483211246943029 -19.538002894623787 0 -19.538002894623787 12.940956914148046 0 0 0 0 -9.9432704152968654 10.518345084985413 0 10.518345084985413 -8.5485030705054612 0 0 0 0 -4.9847645872250723 1.2376507045191829 0 1.2376507045191829 -52.451825673440908 0 0 0 0 -19.064722519256065 21.90435148708093 0 21.90435148708093 -43.488573827054097 0 0 0 0 13.382601546716501 28.056449942724612 0 28.056449942724612 -260.70975077056755 0 0 0 0 -29.66885366901414 86.797246533569705 0 86.797246533569705 -157.779905011339 0 0 0 0 -8.7088224981167031 47.732724280100911 0 47.732724280100911 -167.8371911055001 0 0 0 0 7.9792884719350354 33.679769206441051 0 33.679769206441051 -166.25792445389925 0 0 0 0 -8.9356242026258599 28.297036622539963 0 28.297036622539963 -95.695908015033638 0 0 0 0 -7.2559725726315207 0.65454120200774923 0 0.65454120200774923 -78.640454588792636 0 0 0 0 -25.719287803073286 27.789502429101049 0 27.789502429101049 -44.649280652516609 0 0 0 0 -39.851740552191188 -62.137373886772025 0 -62.137373886772025 -81.923703438529628 0 0 0 0 -27.180052561074262 -100.48963015790105 0 -100.48963015790105 -155.93977676069426 0 0 0 0 -55.765513906474098 -110.09944229992652 0 -110.09944229992652 -142.82959715037305 0 0 0 0 -16.53374789637428 -54.604342076719377 0 -54.604342076719377 -117.64891280084521 0 0 0 0 -28.850067824618009 -16.761902527397069 0 -16.761902527397069 -7.4878990430369043 0 0 0 0 8.8303856081299728 -44.142481809619767 0 -44.142481809619767 -102.91233634220862 0 0 0 0 11.435118800774148 4.7821139126735943 0 4.7821139126735943 -30.708615687535712 0 0 0 0 -60.069847376848202 -68.501920794810758 0 -68.501920794810758 -42.321688032195198 0 0 0 0 -54.458383274281687 -108.60157440882722 0 -108.60157440882722 -124.38921690503594 0 0 0 0 -30.888122139750294 -66.252463892058586 0 -66.252463892058586 -130.51776588494977 0 0 0 0 -77.40754282232183 -177.70621002681219 0 -177.70621002681219 -177.33332583644051 0 0 0 0 -76.317569972278534 -169.20348586310774 0 -169.20348586310774 -136.69967292011097 0 0 0 0 -12.649640778863613 -140.22743677378412 0 -140.22743677378412 -375.49990563411302 0 0 0 0 -26.278325126274467 -106.98709304836757 0 -106.98709304836757 -184.14190728599166 0 0 0 0 -33.070738422454951 -106.20213980222252 0 -106.20213980222252 -184.13654185977975 0 0 0 0 -64.85224391537713 -89.148832923178361 0 -89.148832923178361 -189.70234934595646 0 0 0 0 -90.128056916459968 -124.93419568300169 0 -124.93419568300169 -166.91983255302875 0 0 0 0 4.3426653235766279 -2.1850883960822962 0 -2.1850883960822962 -1.648584694403274 0 0 0 0 -51.702654293578235 -98.955709581056908 0 -98.955709581056908 -154.23958023333307 0 0 0 0 1.5835019446854464 3.0495851501945079 0 3.0495851501945079 -16.057030520409846 0 0 0 0 21.252831130706284 -13.191273578542678 0 -13.191273578542678 -9.6825332624393923 0 0 0 0 -213.77011138673856 -139.34294360898502 0 -139.34294360898502 -26.836050413348858 0 0 0 0 -0.11753101277615441 0.97943180951072684 0 0.97943180951072684 -10.646459930352371 0 0 0 0 62.696498081665595 24.567862627817703 0 24.567862627817703 -64.97950038484305 0 0 0 0 18.201133557399089 7.3227305201573927 0 7.3227305201573927 -67.110861382563598 0 0 0 0 13.033169395514506 -24.175250101942765 0 -24.175250101942765 -20.637260862161384 0 0 0 0 -51.69374258140715 -20.039997446670895 0 -20.039997446670895 86.479066571568183 0 0 0 0 1.2883868455171292 -0.92145435540615495 0 -0.92145435540615495 0.28567892863119049 0 0 0 0 30.939376020186955 -130.36609174724344 0 -130.36609174724344 -102.72201544373092 0 0 0 0 3.0971760228499079 21.603399264285827 0 21.603399264285827 -627.46094545987762 0 0 0 0 -51.386623840489392 118.37565646788062 0 118.37565646788062 -217.12771891234843 0 0 0 0 -2.4906331571551164 89.904336616094952 0 89.904336616094952 -280.92479227041167 0 0 0 0 18.298992509449818 0.59516882506977709 0 0.59516882506977709 -75.213727787776406 0 0 0 0 -54.645356310003535 126.93468203528846 0 126.93468203528846 -188.17384017228051 0 0 0 0 -5.1363574886364631 121.50618808866034 0 121.50618808866034 -231.38129669333648 0 0 0 0 -5.3854838097641959 119.06938759629031 0 119.06938759629031 -243.06173360703542 0 0 0 0 -55.591807086627682 98.408911185286797 0 98.408911185286797 -234.78149669761115 0 0 0 0 -51.662701658964124 126.19128642487885 0 126.19128642487885 -236.61660431365817 0 0 0 0 -20.53476981591939 129.73873785195065 0 129.73873785195065 -223.10264209843263 0 0 0 0 -43.704593106849643 111.51914202054832 0 111.51914202054832 -211.13914151623612 0 0 0 0 -33.855495369055461 114.08893331226864 0 114.08893331226864 -210.46912600289033 0 0 0 0 -2.7809136123381517 23.543475570342743 0 23.543475570342743 -156.04812804030371 0 0 0 0 -71.282177102659034 74.373634373620007 0 74.373634373620007 -137.13145462877583 0 0 0 0 -3.1680849667127404 70.212673514339258 0 70.212673514339258 -213.47164498270831 0 0 0 0 -22.51741456639229 100.35970996498645 0 100.35970996498645 -217.3495241915698 0 0 0 0 -21.121119803508009 93.924756265758333 0 93.924756265758333 -188.22860883585236 0 0 0 0 -5.4621561446447231 79.176624052292027 0 79.176624052292027 -233.1304145944232 0 0 0 0 23.341346739943674 76.334901175541745 0 76.334901175541745 -71.634550732623438 0 0 0 0 1.087510378940209 -8.1255718272965325 0 -8.1255718272965325 -8.6923061170611895 0 0 0 0 1.1668052184504631 8.1017360084515531 0 8.1017360084515531 45.589693416455702 0 0 0 0 -3.4464748781256276 93.945452653708344 0 93.945452653708344 -242.03282179403777 0 0 0 0 -0.071273031110029805 -0.29834965172866745 0 -0.29834965172866745 -1.5117955324278198 0 0 0 0 4.1675641776109842 99.251674128463492 0 99.251674128463492 -238.71357957468263 0 0 0 0 -7.2010270562642518 106.40786121707515 0 106.40786121707515 -242.95430891215801 0 0 0 0 -8.0662125213993932 107.25519162443925 0 107.25519162443925 -229.56679679187573 0 0 0 0 8.592308837929977 58.033863469177049 0 58.033863469177049 -488.15953446375988 0 0 0 0 -147.66709372059358 -145.53310925739788 0 -145.53310925739788 -270.39377816893102 0 0 0 0 -344.16031090024262 269.49099305361324 0 269.49099305361324 -281.80783203450301 0 0 0 0 -272.42266303945917 56.277026036158531 0 56.277026036158531 -520.85427960994912 0 0 0 0 -396.06705866487255 -216.97975825056437 0 -216.97975825056437 -197.90450102063915 0 0 0 0 -0.22666163534550821 0.31715385094965676 0 0.31715385094965676 -3.8090997244351144 0 0 0 0 -235.48346484928106 -61.535381215372581 0 -61.535381215372581 -52.274612489678475 0 0 0 0 -110.36300324429169 232.61598744637149 0 232.61598744637149 -204.43354017216552 0 0 0 0 -16.475627789826149 20.480162153893616 0 20.480162153893616 -31.65966028532057 0 0 0 0 44.441916685238425 -49.365399319369317 0 -49.365399319369317 -326.96365235244048 0 0 0 0 47.139332632699961 -73.286248033957236 0 -73.286248033957236 -360.11791856052878 0 0 0 0 33.888608211232111 1.4831607346077362 0 1.4831607346077362 -293.52095583941264 0 0 0 0 41.011574117635632 -31.912882805123445 0 -31.912882805123445 -282.99722087428563 0 0 0 0 32.71550001027731 87.303577926824801 0 87.303577926824801 -324.87121962812489 0 0 0 0 44.674163821418688 -67.642601799283057 0 -67.642601799283057 -467.24599390108779 0 0 0 0 56.725713738669754 -28.311574551738886 0 -28.311574551738886 -338.88730064346964 0 0 0 0 -169.64125678514642 -245.51523851390175 0 -245.51523851390175 -576.50831212529738 0 0 0 0 -41.974559440446001 -69.408768693749153 0 -69.408768693749153 -338.42269503826992 0 0 0 0 31.199374892064167 23.029094681608399 0 23.029094681608399 -669.24094461014465 0 0 0 0 -102.89519106897387 238.92654581110673 0 238.92654581110673 -312.09736153838458 0 0 0 0 -0.68194190821605138 -1.1783542604243356 0 -1.1783542604243356 -5.5862873397060611 0 0 0 0 -244.04294820033442 -348.43130525318338 0 -348.43130525318338 -326.4980722977416 0 0 0 0 -493.92525484052862 -24.140492874931624 0 -24.140492874931624 -245.2074311051656 0 0 0 0 -261.96688984691036 -47.699827611440924 0 -47.699827611440924 -250.31742162566661 0 0 0 0 -338.83664941877169 180.15340251272391 0 180.15340251272391 -335.47935114583379 0 0 0 0 -106.01817256405729 170.96567413493722 0 170.96567413493722 -338.8699310674051 0 0 0 0 -99.776295192214093 40.143910338027126 0 40.143910338027126 -204.03007503536173 0 0 0 0 -105.18556319330554 -5.2205811652021339 0 -5.2205811652021339 -156.79602138220798 0 0 0 0 -124.79869502846032 120.6454091902433 0 120.6454091902433 -176.82735544907337 0 0 0 0 -97.995989349569527 -11.259612137458589 0 -11.259612137458589 1.3554565787235333 0 0 0 0 -20.688939396692369 -7.2943652153187166 0 -7.2943652153187166 -0.93058228912737384 0 0 0 0 -69.49054515353555 70.770224220683303 0 70.770224220683303 -92.557826207010294 0 0 0 0 22.713160176971257 -45.884985002691792 0 -45.884985002691792 -184.74171371320517 0 0 0 0 -163.42700046763724 -78.607028476187679 0 -78.607028476187679 -183.71617822838743 0 0 0 0 -8.5425799296115201 -97.605134722551156 0 -97.605134722551156 -344.37705227938818 0 0 0 0 -9.8694309405090337 -84.120261897668115 0 -84.120261897668115 -257.58485747035957 0 0 0 0 22.040485239280372 -10.771974467565997 0 -10.771974467565997 -218.93225737472676 0 0 0 0 -15.816740546880453 -6.0184290467676433 0 -6.0184290467676433 -0.82421728639358527 0 0 0 0 -55.074202575896379 12.264435322529607 0 12.264435322529607 51.819709185590455 0 0 0 0 -59.667298064956697 -63.582268436123286 0 -63.582268436123286 -90.657753732944911 0 0 0 0 23.274992636088371 -38.371571860920994 0 -38.371571860920994 -277.47053974854498 0 0 0 0 39.320559709878808 -27.467377998667871 0 -27.467377998667871 -293.55742422187177 0 0 0 0 51.303818513293891 -59.376832265882058 0 -59.376832265882058 -313.66039517699755 0 0 0 0 8.0775401507689821 -12.316486084460848 0 -12.316486084460848 -2.494549620527323 0 0 0 0 -29.485040525883051 -27.848992319285571 0 -27.848992319285571 82.264934952490876 0 0 0 0 -2.5564290260436788 -0.95173576494162404 0 -0.95173576494162404 -0.13175311621737151 0 0 0 0 -4.5368001066779016 -95.0926092997463 0 -95.0926092997463 104.98446654423606 0 0 0 0 5.1520818165695346 11.895577555404088 0 11.895577555404088 -7.381251184415305 0 0 0 0 -12.972815160951768 -7.8547015838630614 0 -7.8547015838630614 3.6464342936633329 0 0 0 0 -80.230194325826233 48.880254692745439 0 48.880254692745439 -20.635242447036944 0 0 0 0 62.0135793919967 -63.899896302890738 0 -63.899896302890738 -66.4297329477522 0 0 0 0 29.863108520541118 -108.37706024579074 0 -108.37706024579074 -24.060170008026034 0 0 0 0 -1.1311856341877391 -0.33518367565179474 0 -0.33518367565179474 0.025151654736518481 0 0 0 0 13.137771847740623 -34.402088875396657 0 -34.402088875396657 -75.729696889589832 0 0 0 0 -20.693298426317597 -80.185037564839149 0 -80.185037564839149 -34.134157505155599 0 0 0 0 16.86589728130366 -68.067416219688312 0 -68.067416219688312 -43.663446806767752 0 0 0 0 -72.589566413784269 35.385785371834572 0 35.385785371834572 -12.329069665947827 0 0 0 0 -46.969518056731431 -70.011555207058336 0 -70.011555207058336 -22.008290177596791 0 0 0 0 -16.61979540913353 -82.685636498428721 0 -82.685636498428721 -67.010207088245807 0 0 0 0 -125.1079367360428 -26.032708079800159 0 -26.032708079800159 5.3244208961732511 0 0 0 0 -4.9411759683621312 -23.309573833793365 0 -23.309573833793365 4.1177052924249438 0 0 0 0 6.9904841386149608 -7.5700281670171909 0 -7.5700281670171909 -12.928036925501686 0 0 0 0 5.5018808963768606 -11.175926912543218 0 -11.175926912543218 -30.310118225686892 0 0 0 0 28.182316836532664 -25.242626864200247 0 -25.242626864200247 -22.754948253555995 0 0 0 0 -23.666202611748304 -43.372801683091893 0 -43.372801683091893 25.095420797092856 0 0 0 0 0.43828965624106786 -10.448240661905402 0 -10.448240661905402 -21.291813746036496 0 0 0 0 -20.784180386947355 -19.891199372435949 0 -19.891199372435949 -9.2337001713858626 0 0 0 0 -8.6375542473679161 -14.416353773534411 0 -14.416353773534411 -19.023901802644104 0 0 0 0 7.2599550202370402 -7.5515914368516128 0 -7.5515914368516128 -14.84284158341088 0 0 0 0 -15.706722687773436 -13.017901866695865 0 -13.017901866695865 -15.917782206282936 0 0 0 0 -13.512094264457687 -22.425734309851123 0 -22.425734309851123 -14.32568557475679 0 0 0 0 -25.626672121633419 -22.630292077005834 0 -22.630292077005834 -11.8931124625351 0 0 0 0 -14.338645438048427 -11.49599882524015 0 -11.49599882524015 -6.4311014227619037 0 0 0 0 -14.657682116121578 -17.1426035009099 0 -17.1426035009099 -13.771912396294283 0 0 0 0 -14.03355825237486 -17.969975071442605 0 -17.969975071442605 -15.7061563440584 0 0 0 0 -0.28038689473142719 -2.3921091375668624 0 -2.3921091375668624 -2.5002558302169078 0 0 0 0 -11.321630694748819 -6.2207070661006583 0 -6.2207070661006583 -7.0374557756213107 0 0 0 0 33.061650745684801 15.211503252887269 0 15.211503252887269 -30.839643575702212 0 0 0 0 -1.6641419266920821 -22.509339123109839 0 -22.509339123109839 -4.3828984185274749 0 0 0 0 -17.384207102123582 -51.329615177321102 0 -51.329615177321102 -81.186151025947765 0 0 0 0 45.747290587140014 4.0841181967771263 0 4.0841181967771263 -54.1144076742994 0 0 0 0 -11.890289864671104 -55.770939293184711 0 -55.770939293184711 -32.327723020676785 0 0 0 0 1.1197668983981153 -0.94974856916412165 0 -0.94974856916412165 -1.157624385702448 0 0 0 0 0.048478928697306856 -13.687174422124372 0 -13.687174422124372 -9.7518167382913816 0 0 0 0 22.344778621873957 -0.96083188773627626 0 -0.96083188773627626 -14.426647113288709 0 0 0 0 9.2854939365728377 -0.89782051550533382 0 -0.89782051550533382 -3.4922967201625212 0 0 0 0 6.8222182984889095 -6.4717659483921386 0 -6.4717659483921386 -2.2863951245803591 0 0 0 0 -35.542311267948207 11.02701755057933 0 11.02701755057933 -9.8122442254916677 0 0 0 0 26.193549224263734 -33.265984580060831 0 -33.265984580060831 -194.12215408684369 0 0 0 0 -2.0879783191325352 -1.45369234708647 0 -1.45369234708647 0.13848109701309497 0 0 0 0 -70.958993397995073 18.68158257991854 0 18.68158257991854 -5.4248450678260269 0 0 0 0 -19.002375651288276 41.4795158190027 0 41.4795158190027 31.617397582102058 0 0 0 0 -119.66587890183428 -66.187708099141673 0 -66.187708099141673 115.39789848770579 0 0 0 0 -3.7766099816632419 4.6517866421900997 0 4.6517866421900997 -5.2144462907109173 0 0 0 0 -20.567012658291105 78.903027339692926 0 78.903027339692926 64.76127029467898 0 0 0 0 -358.23349368378285 -90.411948233865587 0 -90.411948233865587 -16.311482440494274 0 0 0 0 -1.7015110627772301 1.8082177054727921 0 1.8082177054727921 -1.8164524191235643 0 0 0 0 68.337652648403036 119.57199337773454 0 119.57199337773454 -228.30192510759662 0 0 0 0 -65.165918026899362 1.1894913637206628 0 1.1894913637206628 -139.16749423827423 0 0 0 0 -58.302622514191626 -72.49375305023932 0 -72.49375305023932 -80.763042836308159 0 0 0 0 -26.756316566174519 -39.448429656800727 0 -39.448429656800727 -61.976125908460745 0 0 0 0 -52.03658693382431 -39.232850862594205 0 -39.232850862594205 -49.304067597931862 0 0 0 0 -6.5833711633749772 -22.040724676004174 0 -22.040724676004174 -70.033215763398402 0 0 0 0 -25.775207965365098 -38.740384155138599 0 -38.740384155138599 -51.119394167387327 0 0 0 0 5.9856326455783346 -7.4779822935506672 0 -7.4779822935506672 -4.4512739378551487 0 0 0 0 13.635810141434831 -16.867172272619428 0 -16.867172272619428 -46.09030359200915 0 0 0 0 8.4431893058449532 6.395818386396968 0 6.395818386396968 -28.647897254122654 0 0 0 0 -5.1280436650304182 -24.338568145791214 0 -24.338568145791214 -40.820225072733592 0 0 0 0 -4.9419669984727079 -23.627174678125812 0 -23.627174678125812 -50.531463424686081 0 0 0 0 -24.834721297622309 -42.008225664250858 0 -42.008225664250858 -41.673495699737032 0 0 0 0 -3.4930036559067048 -26.217491499577591 0 -26.217491499577591 -44.212820316235593 0 0 0 0 -16.215637653645899 -27.862178179586408 0 -27.862178179586408 -18.456495513491973 0 0 0 0 -18.949161446515973 -30.307772908143306 0 -30.307772908143306 -19.587660937500004 0 0 0 0 -40.12979854697096 -28.621771207293932 0 -28.621771207293932 -9.8095709561694093 0 0 0 0 -68.642782925516713 -63.52003107041719 0 -63.52003107041719 3.648711504352832 0 0 0 0 -41.623872852917884 -19.913838059419504 0 -19.913838059419504 15.894387893330531 0 0 0 0 -34.483504866149133 -16.318557062440959 0 -16.318557062440959 -2.4257176514711318 0 0 0 0 -41.714501195496268 -25.257230715496007 0 -25.257230715496007 -0.4947562211418699 0 0 0 0 -34.469114987689409 -16.104339802574032 0 -16.104339802574032 -3.5455356139536889 0 0 0 0 -33.602674750967026 -19.879636148223653 0 -19.879636148223653 -17.590370241439814 0 0 0 0 -29.925186839344406 -25.650748374446266 0 -25.650748374446266 -9.1565932004186834 0 0 0 0 -28.923849137964226 -17.035712928114663 0 -17.035712928114663 -13.105109296906448 0 0 0 0 -20.168094768183437 -11.647803558176747 0 -11.647803558176747 -18.950120745138065 0 0 0 0 -3.9831488371433044 -2.3891556327166188 0 -2.3891556327166188 1.8287496434978721 0 0 0 0 -26.082278712247899 -3.9222833951353095 0 -3.9222833951353095 3.3999589442464639 0 0 0 0 -8.3889014926676282 -7.094534553010817 0 -7.094534553010817 -19.004099055389815 0 0 0 0 2.3877768943601954 -3.2733107745154939 0 -3.2733107745154939 -4.7168323018157636 0 0 0 0 -40.644550318333245 -10.350012063303438 0 -10.350012063303438 -5.6138214311467891 0 0 0 0 -33.647515968393691 -5.1207836012599728 0 -5.1207836012599728 -14.769961100635555 0 0 0 0 -26.92471488751562 -11.21144269258366 0 -11.21144269258366 -21.811808891809051 0 0 0 0 23.337338782243819 126.14285563501562 0 126.14285563501562 -84.756781908599578 0 0 0 0 -4.4829087908057268 6.8124367320021477 0 6.8124367320021477 -7.6052439174006423 0 0 0 0 -38.496404643079586 -12.985204781757602 0 -12.985204781757602 0.82608214864922047 0 0 0 0 -99.786311041412432 10.261791767344675 0 10.261791767344675 60.709775103816355 0 0 0 0 22.961241797548382 38.331338890963707 0 38.331338890963707 -35.889623297041908 0 0 0 0 -65.211021952383021 25.750994680351141 0 25.750994680351141 62.756775450540772 0 0 0 0 24.832714115910676 57.686778786765899 0 57.686778786765899 15.863248212288454 0 0 0 0 293.9129475986864 37.531552176902892 0 37.531552176902892 -73.178284663098339 0 0 0 0 -0.60630112417183635 5.8260930897760446 0 5.8260930897760446 -28.47355972022963 0 0 0 0 201.66074180348733 119.51295343121865 0 119.51295343121865 9.3699439563797569 0 0 0 0 -29.583796396867172 112.20867603467366 0 112.20867603467366 71.891418475493992 0 0 0 0 12.37368021237819 5.6472934006169453 0 5.6472934006169453 -166.25933871053758 0 0 0 0 43.287473019304912 -48.738843645955058 0 -48.738843645955058 -73.048024706021806 0 0 0 0 92.615537993842281 44.121685880560676 0 44.121685880560676 9.6035232671417816 0 0 0 0 115.85259700262816 -25.225391282298915 0 -25.225391282298915 20.384948107890068 0 0 0 0 89.633337481084254 29.794099481002149 0 29.794099481002149 -41.380460243687139 0 0 0 0 -11.603143426424822 17.130514765084627 0 17.130514765084627 10.288346364806785 0 0 0 0 -64.827270716072235 31.229670048186108 0 31.229670048186108 -15.679121308126923 0 0 0 0 -12.875538670951645 -6.3500774104655022 0 -6.3500774104655022 -74.237115633258782 0 0 0 0 -50.111078435324998 39.773129240904836 0 39.773129240904836 -52.100037675565943 0 0 0 0 -35.842822951702829 51.226523389405088 0 51.226523389405088 -46.460037179150277 0 0 0 0 -26.570645350268762 16.595136769728242 0 16.595136769728242 7.7715932364435503 0 0 0 0 -88.728150073064853 0.1409981227100161 0 0.1409981227100161 -2.0681235230026687 0 0 0 0 89.739808116484028 23.195258935187439 0 23.195258935187439 -53.040491737035154 0 0 0 0 281.05748314166703 117.31784231984511 0 117.31784231984511 -187.95592780449056 0 0 0 0 83.418558419255334 57.519711461404768 0 57.519711461404768 21.443999199398149 0 0 0 0 0.25831233814991533 1.389152585128604 0 1.389152585128604 -0.026773177421317129 0 0 0 0 -247.57457530676425 56.948035088816596 0 56.948035088816596 185.15567026835652 0 0 0 0 14.110910955415875 -27.88069341831806 0 -27.88069341831806 59.423202739576482 0 0 0 0 413.87088402480936 164.74909394867154 0 164.74909394867154 -279.41267151587772 0 0 0 0 23.02527213537644 -55.706331819952652 0 -55.706331819952652 -9.8533970516455156 0 0 0 0 -94.722110052059818 135.20173944807462 0 135.20173944807462 -161.65850263239008 0 0 0 0 131.51422456938371 28.635924952266578 0 28.635924952266578 37.589466747196184 0 0 0 0 -0.34220256674116056 6.4316565023129852 0 6.4316565023129852 -33.523451780410525 0 0 0 0 522.93549167742765 232.60612784876776 0 232.60612784876776 -132.27754966399516 0 0 0 0 156.917580434314 192.32074838785411 0 192.32074838785411 74.59748006403197 0 0 0 0 -271.83951551789369 254.15655954491513 0 254.15655954491513 39.612184312201862 0 0 0 0 132.01162719404874 288.80766304188751 0 288.80766304188751 -294.84893552133872 0 0 0 0 112.26133498305853 -115.35643955853629 0 -115.35643955853629 -356.47349007367166 0 0 0 0 86.455956547677033 -49.818972230832514 0 -49.818972230832514 -205.41937628771484 0 0 0 0 -240.9013422435105 -119.18456187746051 0 -119.18456187746051 -174.17680434270369 0 0 0 0 -199.23227379962901 -191.07960069353453 0 -191.07960069353453 -45.755205907698837 0 0 0 0 -3.3518335342582759 -153.33601037658354 0 -153.33601037658354 -79.770297389690313 0 0 0 0 18.5941045438326 -96.39441425973564 0 -96.39441425973564 10.685637559334282 0 0 0 0 293.13911570131449 -121.69188407901129 0 -121.69188407901129 42.941231965847692 0 0 0 0 278.22498202857349 20.324883192566404 0 20.324883192566404 155.2861623918543 0 0 0 0 241.71317615494263 -141.20126310329215 0 -141.20126310329215 -69.387410897033988 0 0 0 0 395.81038457241129 20.12709148209251 0 20.12709148209251 -88.139747797329164 0 0 0 0 414.41708896346302 159.46868150180717 0 159.46868150180717 71.212914728308533 0 0 0 0 110.05663548720031 -108.15675794378831 0 -108.15675794378831 -108.10192430107054 0 0 0 0 289.27860827338645 85.171442936702533 0 85.171442936702533 -199.34081779907137 0 0 0 0 508.68341203314003 -141.80666562398346 0 -141.80666562398346 -28.881349248023525 0 0 0 0 111.74161463613132 114.69479714099884 0 114.69479714099884 -117.01908891418771 0 0 0 0 686.75899846993048 101.58508151333308 0 101.58508151333308 -206.61390428553932 0 0 0 0 0.099416437957683179 4.8099474422987498 0 4.8099474422987498 -30.787229815952884 0 0 0 0 9.9209828844777803 -13.523839056510496 0 -13.523839056510496 47.483645734590937 0 0 0 0 47.095078684211785 40.048278510806995 0 40.048278510806995 109.94647020845423 0 0 0 0 78.047713889628767 83.008294140231101 0 83.008294140231101 90.422877789555287 0 0 0 0 77.912021309018186 48.969385382707969 0 48.969385382707969 51.888317008693775 0 0 0 0 197.44503429358627 46.767077526888897 0 46.767077526888897 -2.3329733996733921 0 0 0 0 17.228749905546465 8.4134141683007329 0 8.4134141683007329 34.985700536533386 0 0 0 0 98.962963805341985 1.8226971858709931 0 1.8226971858709931 6.0949523059898638 0 0 0 0 68.816831615768933 51.640510297378228 0 51.640510297378228 17.252514857402275 0 0 0 0 -38.054117058019187 -21.502787435125242 0 -21.502787435125242 98.212972096218436 0 0 0 0 0.41685688323230197 2.640884494728482 0 2.640884494728482 0.058629599014686562 0 0 0 0 73.517146192458753 35.090883114204644 0 35.090883114204644 -12.402723477989639 0 0 0 0 1.0690074513890671 0.5478941076422954 0 0.5478941076422954 -20.113495883101109 0 0 0 0 416.54467730872994 20.248573247416289 0 20.248573247416289 -125.25768811217858 0 0 0 0 52.700078048220576 39.806970637278482 0 39.806970637278482 -50.09309434426541 0 0 0 0 372.22579784475761 -87.631374530908943 0 -87.631374530908943 -46.724570811660669 0 0 0 0 0.76975147698628299 4.2518981420606812 0 4.2518981420606812 -0.24054021499225797 0 0 0 0 63.673048559013409 8.8438943976630071 0 8.8438943976630071 -23.307265877629106 0 0 0 0 87.958393729774514 19.24012609473337 0 19.24012609473337 -24.466035707642732 0 0 0 0 76.187191971180027 28.195678566245988 0 28.195678566245988 1.2952969972697019 0 0 0 0 164.09451175036224 6.7124377650634415 0 6.7124377650634415 -61.135631357570674 0 0 0 0 85.819514627847866 41.087918717627986 0 41.087918717627986 -12.321714635629178 0 0 0 0 116.35318280225211 107.73442774482942 0 107.73442774482942 -107.7207697461472 0 0 0 0 -15.609007054070545 -169.62995020285962 0 -169.62995020285962 -10.340543304202583 0 0 0 0 175.6038352935991 -82.394886432692147 0 -82.394886432692147 -7.9289684857067186 0 0 0 0 293.52728188636434 92.614783645813986 0 92.614783645813986 -76.420063812543958 0 0 0 0 -70.558075204775633 66.181713635714914 0 66.181713635714914 -14.454679509851076 0 0 0 0 0.94099251244077053 -1.3084485995506077 0 -1.3084485995506077 -0.28596986915483669 0 0 0 0 178.84605612836208 -22.924970379438946 0 -22.924970379438946 -314.67025001233378 0 0 0 0 244.54504514419068 -180.034521821201 0 -180.034521821201 -279.62712955599818 0 0 0 0 -45.192579382622966 -145.61351366188046 0 -145.61351366188046 -88.134528748945741 0 0 0 0 -72.071846001433187 -37.91008870308724 0 -37.91008870308724 -93.740330426185665 0 0 0 0 -20.999477595959547 -75.733829610627708 0 -75.733829610627708 -91.599952171620316 0 0 0 0 -15.507190967035513 -92.877134679244591 0 -92.877134679244591 -173.6616311763737 0 0 0 0 -48.883677944812916 -102.84651574712643 0 -102.84651574712643 -58.952656695257247 0 0 0 0 -193.94719495641175 -107.99766567801316 0 -107.99766567801316 2.268846375074645 0 0 0 0 -51.246133285557335 -112.37936252454165 0 -112.37936252454165 -62.532199608224801 0 0 0 0 186.1534372985243 -108.59203974796583 0 -108.59203974796583 -62.216049741384268 0 0 0 0 174.85838106114261 -55.936885908207842 0 -55.936885908207842 14.484344661617797 0 0 0 0 309.3896641705926 -3.469779289041071 0 -3.469779289041071 -86.269306744106871 0 0 0 0 180.71886047189355 -46.135567654271654 0 -46.135567654271654 -98.066112810795858 0 0 0 0 171.93293885886192 -33.178551461219286 0 -33.178551461219286 -82.092789665901364 0 0 0 0 -13.66733839360495 -135.74120846842834 0 -135.74120846842834 -41.090928808293029 0 0 0 0 11.033682011553083 56.777396255328767 0 56.777396255328767 47.459088786885332 0 0 0 0 10.32103540336584 67.262660716511618 0 67.262660716511618 -53.853448334441964 0 0 0 0 68.291787593986669 22.634686141027714 0 22.634686141027714 -38.120800616532506 0 0 0 0 31.9296102097519 45.603469723220314 0 45.603469723220314 -48.116581392960597 0 0 0 0 25.13792695249947 26.546564011975875 0 26.546564011975875 -91.440174666263374 0 0 0 0 -120.38664583478055 182.90372601680701 0 182.90372601680701 -173.41063798293078 0 0 0 0 -102.89578904155064 62.113006150991623 0 62.113006150991623 -76.930578105168024 0 0 0 0 1.5410937000593061 1.0071317364233345 0 1.0071317364233345 -1.0481780558383775 0 0 0 0 -0.84906582053099555 16.495734191881638 0 16.495734191881638 16.387421934032318 0 0 0 0 2.5345915720591141 1.4219313343480686 0 1.4219313343480686 -1.2239185343235022 0 0 0 0 -16.710414599026535 68.912371881887339 0 68.912371881887339 -45.369700212454973 0 0 0 0 -25.707525735695071 43.177679321961023 0 43.177679321961023 -92.335287454096488 0 0 0 0 -32.929103938327444 104.24608591491528 0 104.24608591491528 -64.770489468191613 0 0 0 0 -31.50567975674835 92.962115125808737 0 92.962115125808737 13.307027799238313 0 0 0 0 -15.029570629940736 -4.5752917070303738 0 -4.5752917070303738 0.45478905205312259 0 0 0 0 -11.270984395890082 49.952743508659751 0 49.952743508659751 0.95714093220703944 0 0 0 0 8.0908181884842634 24.593254960839545 0 24.593254960839545 27.085531786942738 0 0 0 0 -15.550955299358407 -2.8701297829578607 0 -2.8701297829578607 -10.760494222509806 0 0 0 0 -18.254425951601888 -12.414976587560545 0 -12.414976587560545 -1.2274542197310438 0 0 0 0 -1.6356852292624353 -18.978648997846449 0 -18.978648997846449 6.514074373685844 0 0 0 0 13.051500115722092 -1.645338892708196 0 -1.645338892708196 13.254256103494299 0 0 0 0 1.2541863302388849 2.1296095988859478 0 2.1296095988859478 -1.7156644139770787 0 0 0 0 -30.862743518151092 2.0279486094875665 0 2.0279486094875665 -8.225688689688468 0 0 0 0 -33.26845664536404 7.4568195755827844 0 7.4568195755827844 -1.8195597310032099 0 0 0 0 -33.504294496032799 6.8273239692214247 0 6.8273239692214247 8.1614894052145246 0 0 0 0 -27.974239364756613 -6.551996033767864 0 -6.551996033767864 9.4202335947156826 0 0 0 0 227.93022240954542 -121.75191599528353 0 -121.75191599528353 -357.00867487879486 0 0 0 0 15.720387075942654 123.24937590943478 0 123.24937590943478 34.731566736517379 0 0 0 0 9.1750942323578784 101.01801293847984 0 101.01801293847984 -6.0949274132235587 0 0 0 0 -1.5180368305865146 1.9938312674665362 0 1.9938312674665362 -2.9683441865301399 0 0 0 0 -2.6860986949686039 5.0783932625541945 0 5.0783932625541945 -2.9869621991992572 0 0 0 0 -183.31467066590585 288.5554343988677 0 288.5554343988677 -7.6387010836310765 0 0 0 0 -64.268009470162497 -200.78351041273208 0 -200.78351041273208 -183.58626026132242 0 0 0 0 -36.889457095708394 -24.079360401515942 0 -24.079360401515942 -37.132071982227217 0 0 0 0 14.983960415881938 -9.7445591339798199 0 -9.7445591339798199 -21.923768589448034 0 0 0 0 -5.4501045493605389 -2.3229730785135581 0 -2.3229730785135581 -0.90935591747398181 0 0 0 0 10.276681389118039 -21.238243052761391 0 -21.238243052761391 5.2719535267628999 0 0 0 0 -5.634432489429547 -2.5693228416655707 0 -2.5693228416655707 -5.7567296644328554 0 0 0 0 -12.769877057035956 4.9172205978896955 0 4.9172205978896955 -13.586003274538768 0 0 0 0 -1.1883499137706601 -0.76781898805669702 0 -0.76781898805669702 -1.0728369236887698 0 0 0 0 -25.079282262642323 3.1857463332863745 0 3.1857463332863745 -27.764514650751607 0 0 0 0 2.2912244404465127 -4.8529309561214404 0 -4.8529309561214404 -8.8441080060474633 0 0 0 0 -2.6840288570733151 23.035541328860177 0 23.035541328860177 -109.3145717209045 0 0 0 0 -34.014820533231614 -21.980563822588238 0 -21.980563822588238 -115.26933195414102 0 0 0 0 -30.308823072490782 -55.554975584996782 0 -55.554975584996782 -71.133527266789315 0 0 0 0 1.457979038929011 -22.283231005818152 0 -22.283231005818152 -123.52750194825035 0 0 0 0 -1.6404860540205333 -0.14916114874222886 0 -0.14916114874222886 0.45245803104501281 0 0 0 0 -26.202876655302589 54.517179288587158 0 54.517179288587158 -181.31617420122302 0 0 0 0 -2.7058343868327963 0.34978686090215305 0 0.34978686090215305 -0.092921587538968176 0 0 0 0 23.22860937034784 -30.476204841985691 0 -30.476204841985691 -52.943963441618507 0 0 0 0 -20.679300431605043 1.6946511990149702 0 1.6946511990149702 -11.558138553030631 0 0 0 0 -60.330248524117451 51.510772474108308 0 51.510772474108308 -168.79440184018858 0 0 0 0 -36.365286104193729 40.744147911812888 0 40.744147911812888 -166.87099514447527 0 0 0 0 -138.83926632996872 121.29874456122798 0 121.29874456122798 -230.79522962250849 0 0 0 0 -22.578365809397155 10.328103182411269 0 10.328103182411269 -140.45127263911536 0 0 0 0 -38.006369478175657 52.261633105142209 0 52.261633105142209 -106.54273427387989 0 0 0 0 106.37101221256466 -113.87161657100364 0 -113.87161657100364 -85.275974084291192 0 0 0 0 -31.32713647948691 18.58292500088794 0 18.58292500088794 -56.139582710389732 0 0 0 0 -0.49089769830020868 0.12047683978810531 0 0.12047683978810531 -0.070071890696575267 0 0 0 0 -22.820309083204847 4.3882119889613023 0 4.3882119889613023 0.82924049766120334 0 0 0 0 -25.584775123355939 -5.2675965362564057 0 -5.2675965362564057 -9.7412827100611139 0 0 0 0 -7.3809082155986969 1.0379824744352932 0 1.0379824744352932 -0.89651310771163351 0 0 0 0 -32.461794266295328 40.66362113366813 0 40.66362113366813 -69.37500093550625 0 0 0 0 -27.631904995930199 -6.5137773539599948 0 -6.5137773539599948 -2.6246802817192929 0 0 0 0 -42.791503145352635 22.036134900260322 0 22.036134900260322 -83.026004649473634 0 0 0 0 -29.99393157266536 23.604362876599225 0 23.604362876599225 -84.465688998147016 0 0 0 0 5.7157012283739164 30.219086445482958 0 30.219086445482958 -85.584308496312133 0 0 0 0 -45.778290344325114 51.64387872588793 0 51.64387872588793 -81.87948595503758 0 0 0 0 -25.29545137058949 32.215855740701954 0 32.215855740701954 -84.563322964548206 0 0 0 0 -54.491234599083782 51.85901339009547 0 51.85901339009547 -62.71827541100447 0 0 0 0 -66.587815741301029 40.829113406218312 0 40.829113406218312 -68.020073881491271 0 0 0 0 -64.829746058630008 48.078052629610056 0 48.078052629610056 -42.269452250066934 0 0 0 0 -62.736424873462283 76.549670436870883 0 76.549670436870883 -108.12610717645339 0 0 0 0 -68.219607687728057 65.245538318003128 0 65.245538318003128 -47.492885013272826 0 0 0 0 -72.730274468765401 16.94973055687251 0 16.94973055687251 -82.797654383958388 0 0 0 0 -69.314159152042293 18.588379923879984 0 18.588379923879984 -51.267382988998179 0 0 0 0 -56.832165937954642 33.874135764366883 0 33.874135764366883 -63.090017757162968 0 0 0 0 -63.766345264323206 16.866308788567039 0 16.866308788567039 -84.253941281806874 0 0 0 0 -87.288927530687033 -3.1845300144802877 0 -3.1845300144802877 -86.133879181108 0 0 0 0 -55.53553217085674 12.494613116402384 0 12.494613116402384 -89.557988758511328 0 0 0 0 -76.068108058193161 -1.5207993805718161 0 -1.5207993805718161 -62.192081282398021 0 0 0 0 -73.614827219494032 -43.550648238061967 0 -43.550648238061967 -144.97521947859309 0 0 0 0 -34.969882451598068 -5.8424808804404051 0 -5.8424808804404051 -108.07057477178114 0 0 0 0 -41.07760916775635 -20.927269123771794 0 -20.927269123771794 -108.37970041840163 0 0 0 0 -39.488015115849748 -20.367132217119433 0 -20.367132217119433 -108.2323535060998 0 0 0 0 -20.575133112177497 -11.775303506968555 0 -11.775303506968555 -111.76334293920081 0 0 0 0 -42.555947461153096 -13.78508616517729 0 -13.78508616517729 -110.39423753773258 0 0 0 0 -56.474566452952075 -32.500210474444316 0 -32.500210474444316 -134.43778104404919 0 0 0 0 -33.982046812742112 -15.953690891030647 0 -15.953690891030647 -143.65696759208686 0 0 0 0 -35.08897868270833 -10.284084577888734 0 -10.284084577888734 -149.1369895259113 0 0 0 0 -18.74671285400143 0.69478759111507316 0 0.69478759111507316 -127.44745158036721 0 0 0 0 -20.602199492418137 -0.14814209115974108 0 -0.14814209115974108 -111.88265162527296 0 0 0 0 3.3628027017830213 43.685823611750862 0 43.685823611750862 -115.22567026773027 0 0 0 0 -0.79053161012711826 20.879499572889785 0 20.879499572889785 -202.10484902713461 0 0 0 0 44.796599808684221 69.455463932135672 0 69.455463932135672 -160.93361294232068 0 0 0 0 35.88997072958 3.5737961895371768 0 3.5737961895371768 -319.32440594136096 0 0 0 0 -8.2859597913316385 72.540338861547582 0 72.540338861547582 -15.485674296987327 0 0 0 0 -8.1234849860913982 61.670308649722983 0 61.670308649722983 -131.36698915244085 0 0 0 0 3.1957892014887648 63.366885631777336 0 63.366885631777336 -132.54411482227624 0 0 0 0 -0.34379774719444356 54.633530272929988 0 54.633530272929988 -137.94887335582871 0 0 0 0 -21.303774429671648 28.146733951546707 0 28.146733951546707 -79.555210834351556 0 0 0 0 -23.69806622730141 68.410282802999291 0 68.410282802999291 -86.653562828516897 0 0 0 0 -69.633347171576318 -57.784723304485283 0 -57.784723304485283 -150.58829754651606 0 0 0 0 226.57075477812236 39.667713974302615 0 39.667713974302615 -46.858308787793021 0 0 0 0 27.554252883089589 8.8441686856756405 0 8.8441686856756405 -39.355218846663689 0 0 0 0 110.05723016421814 130.50409351974065 0 130.50409351974065 16.246021230787846 0 0 0 0 97.703974244285973 101.11542922655349 0 101.11542922655349 -59.901342739188522 0 0 0 0 135.4261717816903 42.755380553827877 0 42.755380553827877 18.838585516782132 0 0 0 0 -50.903941508333673 -176.8339371796842 0 -176.8339371796842 -230.62537517033013 0 0 0 0 0.8729826261927528 1.3362029310645438 0 1.3362029310645438 -4.9115821968832769 0 0 0 0 190.17080572270282 70.555998056126327 0 70.555998056126327 -47.914197821605285 0 0 0 0 -55.798655245210114 -104.56681535280075 0 -104.56681535280075 -222.25987697168603 0 0 0 0 148.50368720452872 152.18139002283488 0 152.18139002283488 -190.72951060523224 0 0 0 0 0.46058235195411057 0.44165264705114149 0 0.44165264705114149 -2.0495639831666637 0 0 0 0 169.79954522023695 236.73267788265593 0 236.73267788265593 46.347173255114512 0 0 0 0 -79.868615128806212 26.51911448955056 0 26.51911448955056 -236.53997480930911 0 0 0 0 -91.178274048787614 -55.113787594166297 0 -55.113787594166297 -184.55705731362673 0 0 0 0 -143.01419543036317 -269.29176913054516 0 -269.29176913054516 -438.43220740872744 0 0 0 0 -21.845739127874026 -144.02881864655933 0 -144.02881864655933 -179.21407290541214 0 0 0 0 76.340137123385375 -84.352251961375032 0 -84.352251961375032 -86.525758260530665 0 0 0 0 16.180497221310134 -53.126743098003999 0 -53.126743098003999 -82.416877160383137 0 0 0 0 -54.147459334815039 -193.68448489321599 0 -193.68448489321599 -212.37269191184669 0 0 0 0 64.513492059493728 79.871004904652182 0 79.871004904652182 0.26623740120999173 0 0 0 0 27.266178831750153 62.204083433350206 0 62.204083433350206 36.015352819320469 0 0 0 0 217.74929405539967 36.872673669602705 0 36.872673669602705 -103.25499206280756 0 0 0 0 -0.44286103056686699 3.7698087325541421 0 3.7698087325541421 -19.652790735761563 0 0 0 0 -39.87490499017531 -44.10841617440542 0 -44.10841617440542 -42.947824792713163 0 0 0 0 -87.25165862642848 20.504537423857528 0 20.504537423857528 21.935006373573742 0 0 0 0 20.741264301520459 72.08237996632306 0 72.08237996632306 -410.63814617636854 0 0 0 0 -111.88968189767752 138.99493532215001 0 138.99493532215001 -94.889571232383787 0 0 0 0 -0.34157067576420586 1.2275381273783239 0 1.2275381273783239 -7.3336565858840252 0 0 0 0 19.857839617449997 -203.9399348785912 0 -203.9399348785912 -387.57770418406017 0 0 0 0 -42.684572285609192 -327.32168889234083 0 -327.32168889234083 -433.50677664485738 0 0 0 0 99.947091376332992 -113.00701097274805 0 -113.00701097274805 -470.06396603367011 0 0 0 0 206.76549549801007 133.39218522869942 0 133.39218522869942 -107.15558753947153 0 0 0 0 334.89610486518404 -10.696019445041429 0 -10.696019445041429 -807.48437979012306 0 0 0 0 -0.56146577718689805 -0.43193909632796057 0 -0.43193909632796057 0.067058754266062184 0 0 0 0 85.26893974126142 -46.208442541113982 0 -46.208442541113982 -460.75057273782659 0 0 0 0 -464.20618850467827 -314.25861097747793 0 -314.25861097747793 -74.695254984018447 0 0 0 0 -0.047898308563389946 -106.01596945072743 0 -106.01596945072743 -137.13674409948271 0 0 0 0 16.203678535026825 -112.85154685950272 0 -112.85154685950272 -380.53536782114315 0 0 0 0 0.31622332698719768 -0.73572096250207952 0 -0.73572096250207952 -1.8085743284880103 0 0 0 0 -0.4525778975985304 -69.579091331574546 0 -69.579091331574546 -42.491256861872898 0 0 0 0 -18.647464723207122 18.041318697667521 0 18.041318697667521 -26.970160673444632 0 0 0 0 -25.258231014457806 53.049709660393091 0 53.049709660393091 83.370271123055772 0 0 0 0 -11.975762673302143 35.301468230625687 0 35.301468230625687 -213.01315528816167 0 0 0 0 2.5580857604721183 0.72527184233707942 0 0.72527184233707942 -1.5036139330839473 0 0 0 0 31.203358044705055 -23.854666941015239 0 -23.854666941015239 6.7476880296690069 0 0 0 0 5.4461595583548519 0.80094743659064527 0 0.80094743659064527 -6.7239589924791474 0 0 0 0 -7.0852314350871666 -2.5620824219968199 0 -2.5620824219968199 71.021983330825606 0 0 0 0 1.3973702619148385 2.3698666606747132 0 2.3698666606747132 -6.7461302840976565 0 0 0 0 7.178024426341608 47.657295082783548 0 47.657295082783548 -183.966152455322 0 0 0 0 54.013256054550993 -37.14018079317384 0 -37.14018079317384 15.999209690053704 0 0 0 0 2.2097828136496083 0.30157267140389798 0 0.30157267140389798 -2.3826246249737304 0 0 0 0 4.594204575193201 0.68922778126702511 0 0.68922778126702511 -8.8904408590094324 0 0 0 0 3.2258720500654698 1.3151756214338182 0 1.3151756214338182 -10.431512231481767 0 0 0 0 3.7291558853657989 0.36615944854020199 0 0.36615944854020199 -5.888522719455068 0 0 0 0 67.512762600628321 49.691617283617688 0 49.691617283617688 25.541417863241893 0 0 0 0 -3.6129617577664135 -3.2933488551263963 0 -3.2933488551263963 -55.258445994965768 0 0 0 0 -0.1925972560361302 -1.814738712137596 0 -1.814738712137596 -6.714468307047893 0 0 0 0 78.011244810491917 45.441701094373911 0 45.441701094373911 22.545607308130457 0 0 0 0 -38.87925805457985 -30.839884930193875 0 -30.839884930193875 -27.23093397842149 0 0 0 0 -22.112645529726706 15.888738825171004 0 15.888738825171004 -14.770129199919666 0 0 0 0 -0.07538492517147688 -16.637233381221051 0 -16.637233381221051 -68.816851907885393 0 0 0 0 -25.702691549026895 19.922765759558843 0 19.922765759558843 -14.99259538313936 0 0 0 0 -0.12560711919359324 0.32228004056720039 0 0.32228004056720039 -1.9016107732258192 0 0 0 0 9.0074043185818482 37.829832299486043 0 37.829832299486043 -36.602466220102542 0 0 0 0 19.354557720919729 8.3977580391742777 0 8.3977580391742777 -82.733275522152098 0 0 0 0 -46.449343026111819 76.687859683019724 0 76.687859683019724 -19.024863805494988 0 0 0 0 25.409806648816357 29.978877788285899 0 29.978877788285899 -46.627118229775306 0 0 0 0 -0.51963158518880537 -1.5533834038676584 0 -1.5533834038676584 -3.7527857253658965 0 0 0 0 -7.417187316764057 1.805999123329002 0 1.805999123329002 108.42831654224028 0 0 0 0 100.57919118769314 33.669651927767518 0 33.669651927767518 -151.09287989419454 0 0 0 0 -54.584839860383909 -8.1307005051044143 0 -8.1307005051044143 -5.8416796111887379 0 0 0 0 8.4478534850095457 -2.8175424416799615 0 -2.8175424416799615 -7.3112495713830867 0 0 0 0 -37.421474871145165 7.1479705120477774 0 7.1479705120477774 1.3897527969015755 0 0 0 0 -31.429204919057156 27.248313096076345 0 27.248313096076345 -20.451577649191677 0 0 0 0 -46.452067182235965 25.477974249482145 0 25.477974249482145 -10.455214273515594 0 0 0 0 -26.45551005940797 11.732581423252668 0 11.732581423252668 -4.5856953755267114 0 0 0 0 163.20202849604811 -96.780802515334472 0 -96.780802515334472 -79.195673427824659 0 0 0 0 -24.084166052964065 -55.470463928685604 0 -55.470463928685604 61.96929784294025 0 0 0 0 82.617669593690948 -138.85256154280592 0 -138.85256154280592 11.268991620099769 0 0 0 0 -108.10919420737332 52.899031917019556 0 52.899031917019556 63.407627230615617 0 0 0 0 0.18201133080780485 0.1227190926006303 0 0.1227190926006303 -0.48803224777725518 0 0 0 0 18.260518403726905 -7.4243632064261647 0 -7.4243632064261647 4.3447550006621896 0 0 0 0 3.1580724881860078 -70.170478121744509 0 -70.170478121744509 8.8183598099489018 0 0 0 0 -4.0003981896054404 -8.4215860163611147 0 -8.4215860163611147 -6.6225800887662807 0 0 0 0 -22.111007202257952 -2.9157124569699135 0 -2.9157124569699135 16.177470522859949 0 0 0 0 53.322848912616109 -74.62692670409001 0 -74.62692670409001 46.417604144155121 0 0 0 0 -1.5882856209655545 -3.0184624093321553 0 -3.0184624093321553 1.315099270778088 0 0 0 0 7.8408738129299991 5.6147453393514297 0 5.6147453393514297 29.779505807488334 0 0 0 0 -4.6823552373386725 -17.203810107240205 0 -17.203810107240205 -8.9755205616679881 0 0 0 0 -52.180379755831382 -67.600853227813786 0 -67.600853227813786 160.50269200346614 0 0 0 0 7.8948408334160121 -3.7173405522999019 0 -3.7173405522999019 13.663701332267919 0 0 0 0 11.097834970489885 2.3056936253924505 0 2.3056936253924505 71.370852782860311 0 0 0 0 -0.76552100794946165 -8.806816825863919 0 -8.806816825863919 -1.2001677059338935 0 0 0 0 88.637274032437617 -37.795728875968052 0 -37.795728875968052 23.116553841580753 0 0 0 0 61.717496542995548 105.119094074077 0 105.119094074077 32.641051638871431 0 0 0 0 -17.021780341190379 19.5171304614164 0 19.5171304614164 -45.7524825144028 0 0 0 0 126.65592836957421 -48.830764784781877 0 -48.830764784781877 2.1467300258625528 0 0 0 0 1.6104063724189261 -1.1892678474650484 0 -1.1892678474650484 -4.3024709332140052 0 0 0 0 128.87826317430336 51.116254310530167 0 51.116254310530167 17.001162114598557 0 0 0 0 104.27501737627563 73.966404519092066 0 73.966404519092066 3.3443948706417359 0 0 0 0 36.060659184606266 -71.632444132293358 0 -71.632444132293358 95.597788103860694 0 0 0 0 -46.217252730245946 -47.759212954298619 0 -47.759212954298619 90.597046596946029 0 0 0 0 -38.293358981440178 -48.874439423066178 0 -48.874439423066178 -137.82762161151595 0 0 0 0 -0.4873638968629086 -0.76004924027972076 0 -0.76004924027972076 -1.0522364202160386 0 0 0 0 -125.55192980169659 85.371075741040841 0 85.371075741040841 -24.392800355532472 0 0 0 0 71.561034722742988 -153.04244467483022 0 -153.04244467483022 23.638183415195272 0 0 0 0 -87.088220143937221 -157.49564066004621 0 -157.49564066004621 -6.5945364219342082 0 0 0 0 25.089778438241382 -66.513815954891925 0 -66.513815954891925 -38.964310501977707 0 0 0 0 1.0161539800718482 0.055809847549575853 0 0.055809847549575853 -8.2336748582320887 0 0 0 0 198.95848064787992 2.6601811050595643 0 2.6601811050595643 -146.68147162946389 0 0 0 0 -102.04115684423124 -47.112063128902491 0 -47.112063128902491 -1.7383801595007924 0 0 0 0 -116.47129837183928 -36.296770491599773 0 -36.296770491599773 -21.569636350708151 0 0 0 0 -91.772617273571157 -120.07197330083486 0 -120.07197330083486 -84.121156424713263 0 0 0 0 -38.02393169544689 -19.966164143195556 0 -19.966164143195556 -45.340061475953576 0 0 0 0 -4.8549770388594595 -64.725311136268942 0 -64.725311136268942 -19.879722467730517 0 0 0 0 89.872394665345666 80.733832673229358 0 80.733832673229358 12.400217558472676 0 0 0 0 0.77997493382954941 -0.3757255096495129 0 -0.3757255096495129 -5.737512262465664 0 0 0 0 88.562813178108172 78.608133356606572 0 78.608133356606572 3.9639322439424518 0 0 0 0 18.887615055059797 -31.219680200354901 0 -31.219680200354901 -122.76784306844411 0 0 0 0 -0.41774533541627079 -70.707412568608788 0 -70.707412568608788 -158.92117546609609 0 0 0 0 0.26401335813188131 -0.35593759163178795 0 -0.35593759163178795 -1.9948749324526798 0 0 0 0 -191.90521306777609 -250.2593445310049 0 -250.2593445310049 -186.03566457640136 0 0 0 0 165.6318855381586 -118.63480499490765 0 -118.63480499490765 -99.899637007148726 0 0 0 0 -47.578386738794961 -22.82518565579943 0 -22.82518565579943 -49.726539319854965 0 0 0 0 189.2130020246401 60.448752515216938 0 60.448752515216938 -19.108810679332464 0 0 0 0 80.673337773697753 0.30181959806092351 0 0.30181959806092351 -52.356180637865236 0 0 0 0 109.90611881527411 -8.8532512282667994 0 -8.8532512282667994 -26.449233075229188 0 0 0 0 157.46335423557696 -62.993089380393826 0 -62.993089380393826 -41.398056245805037 0 0 0 0 57.909034387963175 -88.460491886469981 0 -88.460491886469981 -121.67205807957635 0 0 0 0 -5.6289102049249777 -56.1156692153927 0 -56.1156692153927 -89.534926922075101 0 0 0 0 18.899551453951744 -35.165722414785705 0 -35.165722414785705 -114.06490396159279 0 0 0 0 -5.5631699147863856 -56.068816812890873 0 -56.068816812890873 -103.54151593977986 0 0 0 0 -56.004160652413361 -55.54634902421094 0 -55.54634902421094 -35.133814455097308 0 0 0 0 2.3710635469277577 -61.997794456301563 0 -61.997794456301563 -182.55749471034505 0 0 0 0 11.97848587833073 -45.372490080877469 0 -45.372490080877469 -154.76570935265408 0 0 0 0 -24.144386376155808 -67.522634099190327 0 -67.522634099190327 -110.00142166907972 0 0 0 0 -22.719308904185709 -86.532159232356207 0 -86.532159232356207 -160.26389082043897 0 0 0 0 2.8065948721974792 -71.616692990792217 0 -71.616692990792217 -158.15508148748631 0 0 0 0 9.2769783104326962 -39.923193756887486 0 -39.923193756887486 -116.40919107715854 0 0 0 0 31.162809918259882 -19.823254752012872 0 -19.823254752012872 -110.1367407087846 0 0 0 0 21.825127314382144 -31.293951499059403 0 -31.293951499059403 -91.490660777151788 0 0 0 0 20.096451619433992 -39.070717419843277 0 -39.070717419843277 -101.44648961470011 0 0 0 0 10.013515353029163 -31.635385337548541 0 -31.635385337548541 -67.673110718358657 0 0 0 0 7.2699207237631072 -37.453783628213387 0 -37.453783628213387 -72.298766545543913 0 0 0 0 6.0143485662654257 -29.697465200958504 0 -29.697465200958504 -46.794310795616184 0 0 0 0 14.158410257751257 -27.602791352834174 0 -27.602791352834174 -69.623152767041574 0 0 0 0 0.31036497451032119 -36.375293206856441 0 -36.375293206856441 -34.961171784776525 0 0 0 0 0.27766541886614959 -38.749590314730085 0 -38.749590314730085 -57.2076757299983 0 0 0 0 -28.890279257001225 -25.843438888380206 0 -25.843438888380206 4.7443495442639687 0 0 0 0 -8.7354468611871425 -19.434858736738533 0 -19.434858736738533 -38.381664193961115 0 0 0 0 1.7375654439003734 -1.1210137519019057 0 -1.1210137519019057 0.35077209751463556 0 0 0 0 -7.8200410857255065 -11.496267567290488 0 -11.496267567290488 -23.092099038825836 0 0 0 0 5.7775261102177478 -5.9513025077356003 0 -5.9513025077356003 -4.147863593491131 0 0 0 0 -49.490527313099847 -23.712947589403484 0 -23.712947589403484 12.056073823792758 0 0 0 0 18.429828292892125 -22.985831344216422 0 -22.985831344216422 -6.1681158339924878 0 0 0 0 79.981071988593612 -33.253016115762193 0 -33.253016115762193 -31.662459640618181 0 0 0 0 -26.545403812799464 -26.57617456706248 0 -26.57617456706248 -1.9234404725757486 0 0 0 0 0.84983786655754656 -0.48487813555972892 0 -0.48487813555972892 -0.24456911126881664 0 0 0 0 34.325488750812269 48.347829243006345 0 48.347829243006345 40.458386322083243 0 0 0 0 74.157981356469463 25.76813562395364 0 25.76813562395364 -10.425657637217228 0 0 0 0 -1.4233494694221918 -20.273541788370494 0 -20.273541788370494 -8.9041188193805283 0 0 0 0 13.235650404663375 -26.090700038173964 0 -26.090700038173964 -48.06214467636164 0 0 0 0 -9.6401011343336904 -27.714748345793851 0 -27.714748345793851 -38.525550110083714 0 0 0 0 -42.509636429166221 -35.071522007168824 0 -35.071522007168824 -21.626390318084304 0 0 0 0 0.23984949844328973 -0.19992057810072517 0 -0.19992057810072517 -0.29501573175438267 0 0 0 0 -17.111602481753835 -22.278776644356185 0 -22.278776644356185 -33.38113386380428 0 0 0 0 -17.118368862506031 -24.089335980959731 0 -24.089335980959731 -26.586264937828673 0 0 0 0 -31.491359531076341 -34.151456640374818 0 -34.151456640374818 -33.202211409019583 0 0 0 0 -38.080284215775009 -25.646237563005343 0 -25.646237563005343 -14.050315555836278 0 0 0 0 -9.2660885664270154 -11.162722749694694 0 -11.162722749694694 -11.870911443282239 0 0 0 0 -24.224009439448764 -16.580465440576518 0 -16.580465440576518 -8.3348334959737258 0 0 0 0 -12.664134326490512 -18.547815468844419 0 -18.547815468844419 -15.615290840521538 0 0 0 0 -14.514496163675176 -22.191897901964694 0 -22.191897901964694 -22.251485454566136 0 0 0 0 -12.148064009877316 -18.523101165736534 0 -18.523101165736534 -24.326180971915164 0 0 0 0 -11.212961297072752 -20.395287438396736 0 -20.395287438396736 -23.326800558410469 0 0 0 0 -3.893794329469074 -18.072530643759819 0 -18.072530643759819 -25.007671443916479 0 0 0 0 -11.903910974474456 -17.741065949485346 0 -17.741065949485346 -29.454631784550656 0 0 0 0 -17.417798066072578 -22.87048652704425 0 -22.87048652704425 -22.41007535614699 0 0 0 0 -0.39593839372491857 -23.991421501215882 0 -23.991421501215882 -23.197028274027616 0 0 0 0 -3.9173928685962665 33.494665780784089 0 33.494665780784089 -41.139214411075955 0 0 0 0 0.33827951030250158 0.48756616398797803 0 0.48756616398797803 -2.111703790247617 0 0 0 0 -16.04499031039029 -7.8567007753258622 0 -7.8567007753258622 -5.8262212296504003 0 0 0 0 2.5730211129412055 2.9491771191278531 0 2.9491771191278531 -54.417951190446729 0 0 0 0 -13.197381368853598 -2.045966247304932 0 -2.045966247304932 -55.58451150883775 0 0 0 0 -7.5576544377263417 -14.217976385243674 0 -14.217976385243674 -34.888838262141235 0 0 0 0 0.50248442166025598 -18.454340998288899 0 -18.454340998288899 -67.554751786836277 0 0 0 0 13.787055066843095 -16.974812101398129 0 -16.974812101398129 -68.204381232511878 0 0 0 0 6.7316472634054207 -0.79769471785675705 0 -0.79769471785675705 -96.428997060669644 0 0 0 0 28.543189880340833 -22.939513148699916 0 -22.939513148699916 -103.59923657130912 0 0 0 0 21.301145888782514 -26.965554099156407 0 -26.965554099156407 -89.251061429567926 0 0 0 0 24.591429174920904 -25.312034018490522 0 -25.312034018490522 -95.273624324403499 0 0 0 0 28.683117708443206 -21.619304080802976 0 -21.619304080802976 -95.263276464136368 0 0 0 0 23.604061339772443 -17.948552510224545 0 -17.948552510224545 -80.375991755179712 0 0 0 0 23.40449633620301 -27.490197600491229 0 -27.490197600491229 -91.993028594133648 0 0 0 0 21.002671168686106 -42.255012931924284 0 -42.255012931924284 -180.92785857330455 0 0 0 0 -240.01308529242078 -39.378225544203815 0 -39.378225544203815 25.218609734398342 0 0 0 0 3.8683783186793335 33.418631182239551 0 33.418631182239551 -121.78144483777942 0 0 0 0 -18.587344443136999 34.479770472200471 0 34.479770472200471 4.207872541767756 0 0 0 0 13.480026303312343 50.886195012725693 0 50.886195012725693 -5.9486625553581689 0 0 0 0 135.33594261384724 -150.41691697437454 0 -150.41691697437454 -279.81210329573514 0 0 0 0 19.202754594724183 33.391032717005146 0 33.391032717005146 -14.349017427898275 0 0 0 0 -18.015608575849797 10.494566491728165 0 10.494566491728165 -18.785096985007726 0 0 0 0 440.86242969867408 -37.323287596335831 0 -37.323287596335831 -199.34059922302731 0 0 0 0 2.7440491683054908 3.8708551975539343 0 3.8708551975539343 -3.4631995700665534 0 0 0 0 -69.200834897123059 1.906656835348258 0 1.906656835348258 -22.619020533627918 0 0 0 0 -93.558245521017852 -158.83753247198911 0 -158.83753247198911 -148.22142055262157 0 0 0 0 59.818325778127473 21.934066239489766 0 21.934066239489766 -138.02802908296144 0 0 0 0 8.8062510800435465 3.2982476954246245 0 3.2982476954246245 -38.165949418308941 0 0 0 0 5.9285398157608142 -13.637147696267675 0 -13.637147696267675 -27.919790992611524 0 0 0 0 -3.339239685778836 -2.1467382777892592 0 -2.1467382777892592 -9.0525413720319534 0 0 0 0 -22.137730962846035 -40.269386643834878 0 -40.269386643834878 -12.722416709471418 0 0 0 0 -6.1985164956904555 -12.212677041574352 0 -12.212677041574352 -27.980539892095294 0 0 0 0 -8.6546201065171875 -11.2639933789618 0 -11.2639933789618 -19.244994366042562 0 0 0 0 -13.180754458047204 -10.715650821545751 0 -10.715650821545751 -23.121497221771278 0 0 0 0 -29.097630669688442 -14.202201189707012 0 -14.202201189707012 -17.70825753868121 0 0 0 0 -11.551852336658158 -14.118872815231953 0 -14.118872815231953 -16.257876375135311 0 0 0 0 -7.8788893744281943 3.4547153107899078 0 3.4547153107899078 -13.559912510897412 0 0 0 0 44.112827959050279 19.807083922063157 0 19.807083922063157 -57.903785504890038 0 0 0 0 -29.571974295036625 -18.076171928558324 0 -18.076171928558324 -20.054457650952827 0 0 0 0 -0.73843674660492131 -0.17299613851762707 0 -0.17299613851762707 -5.6964883925394219 0 0 0 0 198.73281890451671 167.32298265431473 0 167.32298265431473 -1.8786879463013975 0 0 0 0 -5.0828504207650944 -32.264178256993091 0 -32.264178256993091 -34.911320162249467 0 0 0 0 -2.293777138688502 -7.0039227093206922 0 -7.0039227093206922 -32.167501492670766 0 0 0 0 41.536485929687274 53.54324413733184 0 53.54324413733184 91.271001074666856 0 0 0 0 -1.0764875393874753 1.1425968615501318 0 1.1425968615501318 -0.085903506405447416 0 0 0 0 -47.001865025817594 -113.06530341416692 0 -113.06530341416692 -40.438696848692757 0 0 0 0 34.336469369578367 164.92839118060965 0 164.92839118060965 84.088152778096628 0 0 0 0 0.75071356020907842 99.52393233978546 0 99.52393233978546 -14.217534851419032 0 0 0 0 0.22874441854992256 120.32064905627431 0 120.32064905627431 -14.924938116196245 0 0 0 0 -111.20764634393095 5.1511309163743135 0 5.1511309163743135 -43.481102738435538 0 0 0 0 16.288835928261733 56.275504508754238 0 56.275504508754238 -179.67654817409039 0 0 0 0 -67.774996035078857 -113.81731807854544 0 -113.81731807854544 -339.27954246144145 0 0 0 0 107.4383258398384 123.77374593913464 0 123.77374593913464 -126.61418051970668 0 0 0 0 129.65894485748652 61.291855679915898 0 61.291855679915898 40.628530124163262 0 0 0 0 -227.67215717104864 106.72560370641077 0 106.72560370641077 -98.303270606824299 0 0 0 0 -190.96621199458946 -332.50023864971536 0 -332.50023864971536 28.716476143760246 0 0 0 0 263.08956676900834 130.46791163252237 0 130.46791163252237 -294.58696637234061 0 0 0 0 56.911269954262025 -241.57379492551081 0 -241.57379492551081 -365.3332869827118 0 0 0 0 -1.123926811991657 -1.922387081903159 0 -1.922387081903159 -3.0092953947672214 0 0 0 0 172.32473881373994 -164.88339680074478 0 -164.88339680074478 -328.71529796132018 0 0 0 0 -309.3562943499071 -54.069381246228204 0 -54.069381246228204 61.534187062205092 0 0 0 0 173.07681442657281 181.90433512221898 0 181.90433512221898 -12.38248633341027 0 0 0 0 -74.392523652509794 -93.175146251727256 0 -93.175146251727256 -30.785071990790129 0 0 0 0 212.06493922344407 -295.58228232617012 0 -295.58228232617012 -73.967537749038456 0 0 0 0 -54.472045402975823 9.9091738823221931 0 9.9091738823221931 -29.224208251465825 0 0 0 0 9.988389389815012 -11.708690396419115 0 -11.708690396419115 -82.05729444272265 0 0 0 0 -2.5130734535838561 -4.4072036787066908 0 -4.4072036787066908 -7.6502686735978251 0 0 0 0 22.006655755355808 -36.149353998098377 0 -36.149353998098377 -32.839805475694448 0 0 0 0 -0.25628521624119571 -0.7429112620060323 0 -0.7429112620060323 -7.9103495597455549 0 0 0 0 17.249707494133123 -0.35982821867469283 0 -0.35982821867469283 -6.502575468051873 0 0 0 0 1.5793839380394203 2.3584182235390472 0 2.3584182235390472 -4.7074058568005057 0 0 0 0 -1.2348113453465217 2.6835776952621018 0 2.6835776952621018 9.2112574302900612 0 0 0 0 14.130800974381032 -89.029150389251299 0 -89.029150389251299 -1.5580794764118764 0 0 0 0 -18.940081804997135 78.724707535233392 0 78.724707535233392 -15.974837974288675 0 0 0 0 -80.385731994198522 -34.013284875705722 0 -34.013284875705722 201.85806773743246 0 0 0 0 -5.6316885975633815 -7.4220568449074893 0 -7.4220568449074893 0.22077749646013978 0 0 0 0 55.93386530870589 -52.724525410096703 0 -52.724525410096703 -51.319276135902328 0 0 0 0 -33.925584061842073 2.8094281030294042 0 2.8094281030294042 28.948516205719898 0 0 0 0 -16.539880059461609 -16.202693141991404 0 -16.202693141991404 -11.25780666387891 0 0 0 0 -5.5546732410800814 -40.807534045025932 0 -40.807534045025932 -28.878112295583833 0 0 0 0 1.5869746390940236 -22.203640473845553 0 -22.203640473845553 -44.276886543298133 0 0 0 0 -18.887815167032613 -28.304509078250248 0 -28.304509078250248 7.2152584050363657 0 0 0 0 -7.8698743509031859 -7.0817904727073184 0 -7.0817904727073184 0.27541671005290963 0 0 0 0 -76.264062762048979 -10.326112586841191 0 -10.326112586841191 138.09202508816423 0 0 0 0 1.0172096207984396 86.611679146284587 0 86.611679146284587 -41.579705702935826 0 0 0 0 15.764247392486141 53.783642130653789 0 53.783642130653789 -13.21772122675975 0 0 0 0 -14.082772644680176 -35.577464318933608 0 -35.577464318933608 -40.23911223768755 0 0 0 0 -0.90377474024512594 -14.737685237776077 0 -14.737685237776077 -33.791063004271564 0 0 0 0 18.630342288383417 -6.8891960481095111 0 -6.8891960481095111 -58.612528822842251 0 0 0 0 -67.339466150510788 -84.220055897731328 0 -84.220055897731328 -77.264146291396173 0 0 0 0 27.520654929794773 -3.6392316437832051 0 -3.6392316437832051 -182.09924910702648 0 0 0 0 -71.223846548806819 79.087024636458182 0 79.087024636458182 -105.38955118036938 0 0 0 0 -0.19739611394635759 -0.84576943482928568 0 -0.84576943482928568 -0.7327964425304252 0 0 0 0 62.616702282736014 27.823371269131712 0 27.823371269131712 -90.432208374643324 0 0 0 0 18.360664079307071 66.347244671336739 0 66.347244671336739 -10.570022128150868 0 0 0 0 8.1640559878852397 8.1757827939442222 0 8.1757827939442222 -39.338706817638496 0 0 0 0 19.322272386301165 -25.061590901674208 0 -25.061590901674208 -73.936973650492291 0 0 0 0 13.842086200748327 -15.011060713906772 0 -15.011060713906772 -41.062689148446225 0 0 0 0 10.191663359747508 22.145206573559335 0 22.145206573559335 -24.240924831941811 0 0 0 0 7.4682704467702479 -22.61366830836414 0 -22.61366830836414 -66.633919298636556 0 0 0 0 -1.422420901270816 1.4000224625146842 0 1.4000224625146842 1.3694733416700657 0 0 0 0 5.3074590321829191 34.801996791082729 0 34.801996791082729 45.445324268870536 0 0 0 0 -1.687326792697263 -17.463834793169553 0 -17.463834793169553 -39.466449338023267 0 0 0 0 -22.351038700972481 -7.9104395435551851 0 -7.9104395435551851 -2.147069773828207 0 0 0 0 -8.1335721817781454 -6.6126432151799612 0 -6.6126432151799612 -2.6493729286610326 0 0 0 0 -3.6211529168670062 5.4694595880882808 0 5.4694595880882808 -9.2903696811713239 0 0 0 0 -26.454251113215264 16.456748593995144 0 16.456748593995144 -13.118128764899666 0 0 0 0 2.243549781358297 4.0830813426455279 0 4.0830813426455279 -25.098357857903466 0 0 0 0 6.2762709886847006 16.473580189656786 0 16.473580189656786 -27.050071588832907 0 0 0 0 -2.5612931207100722 -8.0965795776574847 0 -8.0965795776574847 -18.925563675133048 0 0 0 0 15.38595911230027 -11.565411638038995 0 -11.565411638038995 -53.802901250841387 0 0 0 0 7.730615025573516 8.6384284239094598 0 8.6384284239094598 -41.674378321419461 0 0 0 0 24.612368021311113 34.810766444342335 0 34.810766444342335 -36.325510685175686 0 0 0 0 -6.7486256983424937 -8.5567527099869949 0 -8.5567527099869949 -53.792669972298427 0 0 0 0 -13.643994868982418 16.351019973813891 0 16.351019973813891 -36.59722120287762 0 0 0 0 12.696629513838843 19.020072539067769 0 19.020072539067769 -40.05338519916404 0 0 0 0 8.3860932805781836 6.0404723596418393 0 6.0404723596418393 -5.8387411026980942 0 0 0 0 1.3261277467063532 6.7254581788213272 0 6.7254581788213272 -19.104065571509842 0 0 0 0 0.93998171647922391 7.0337916593307455 0 7.0337916593307455 -36.378228443612898 0 0 0 0 2.3432551611770123 9.5562304998902619 0 9.5562304998902619 -35.236764846349615 0 0 0 0 13.690672130161147 24.505788990800283 0 24.505788990800283 -75.157418359127206 0 0 0 0 -5.4037640356949126 13.444988096705835 0 13.444988096705835 -19.378553246948016 0 0 0 0 -18.872678206265846 70.464634198205886 0 70.464634198205886 5.4572709737840341 0 0 0 0 -2.783225666853923 -0.068084641559835291 0 -0.068084641559835291 -43.410269097826301 0 0 0 0 6.5395028664150407 0.83921070578075785 0 0.83921070578075785 -5.2077330025344732 0 0 0 0 17.96582564922349 -23.116358462754533 0 -23.116358462754533 -24.24146008299067 0 0 0 0 -22.11243450875736 7.7596519775506749 0 7.7596519775506749 5.7156617487034964 0 0 0 0 2.4269831455104884 1.4200037041957501 0 1.4200037041957501 1.8896078781647532 0 0 0 0 124.18744915551861 -22.632550325637567 0 -22.632550325637567 -10.143512104717956 0 0 0 0 -7.2450133017919143 32.831063791330962 0 32.831063791330962 -33.101423716987483 0 0 0 0 11.379002002337302 16.105937543363325 0 16.105937543363325 -73.467358958132536 0 0 0 0 -7.0267188901797795 26.58934930668741 0 26.58934930668741 -42.428354527390184 0 0 0 0 17.930130065185494 1.3121746266187984 0 1.3121746266187984 -71.592222075858899 0 0 0 0 21.444627979635584 -1.4122431364176009 0 -1.4122431364176009 -93.495377835191903 0 0 0 0 26.999980474157383 -21.994413717899079 0 -21.994413717899079 -92.464671584293683 0 0 0 0 26.715671791600016 15.292753565987368 0 15.292753565987368 -119.33288998892021 0 0 0 0 26.195866177383891 -31.398344441829977 0 -31.398344441829977 -136.90448555417242 0 0 0 0 29.823660104790093 -9.1581655138825226 0 -9.1581655138825226 -164.37416187429335 0 0 0 0 24.314635608999424 3.1870775689294533 0 3.1870775689294533 -178.55160147275092 0 0 0 0 -364.91882553188822 -314.18758052597241 0 -314.18758052597241 194.45077939065322 0 0 0 0 -2.8862351488716325 -3.7585963307884001 0 -3.7585963307884001 -5.308460085571383 0 0 0 0 54.014650170739046 129.79517814957808 0 129.79517814957808 -818.37299383626487 0 0 0 0 -50.105450652506988 -513.70726128830938 0 -513.70726128830938 -1013.6800374522645 0 0 0 0 -398.69895710220118 -563.45121730198298 0 -563.45121730198298 -341.72000930494733 0 0 0 0 -120.43275563459258 -56.526369125513156 0 -56.526369125513156 -300.07546593275038 0 0 0 0 -122.2341302048095 -12.030401039352 0 -12.030401039352 -193.31220762619523 0 0 0 0 -173.30904174913405 75.94452897082374 0 75.94452897082374 -343.61198191815129 0 0 0 0 -16.253064367686875 22.504330715270044 0 22.504330715270044 -384.12531300108822 0 0 0 0 1.6947257405013261 412.19180157506889 0 412.19180157506889 301.0224910467914 0 0 0 0 756.60516220737736 308.57168508460018 0 308.57168508460018 -1023.4751820739757 0 0 0 0 -2.4564295144987867 2.7442363959141183 0 2.7442363959141183 -4.8076954157373493 0 0 0 0 -80.456172452939882 -441.36802427733437 0 -441.36802427733437 -813.30364582866014 0 0 0 0 25.584119185602589 -67.914628679149928 0 -67.914628679149928 -279.22967609281113 0 0 0 0 -37.853072300008535 59.857375469633553 0 59.857375469633553 -13.783196358053829 0 0 0 0 2.3919750328097855 2.0630960953487332 0 2.0630960953487332 -7.4078921461330687 0 0 0 0 -5.1357117638768894 9.0855099448651195 0 9.0855099448651195 -13.793968486944429 0 0 0 0 -8.0633436371259251 10.402495177548559 0 10.402495177548559 -21.018506359458115 0 0 0 0 -37.964701691604205 50.961160146601287 0 50.961160146601287 -52.164328299102635 0 0 0 0 -0.51081950662263687 2.5504284081826043 0 2.5504284081826043 -4.8221778739403138 0 0 0 0 16.39412352284188 13.208062956538015 0 13.208062956538015 -163.9314854369004 0 0 0 0 -58.012795227524379 -24.401030508136955 0 -24.401030508136955 -32.892958417629416 0 0 0 0 -57.684073666318454 -6.7137322902472079 0 -6.7137322902472079 -159.32429214726153 0 0 0 0 -46.639619364017733 -65.555094926914535 0 -65.555094926914535 -321.64315975473801 0 0 0 0 6.8375653651017565 -2.9759600576016965 0 -2.9759600576016965 -301.22487987380373 0 0 0 0 33.000301199765929 -37.113635323896006 0 -37.113635323896006 -313.34770090927486 0 0 0 0 10.423031549379289 -40.877257461171212 0 -40.877257461171212 -354.88953859862886 0 0 0 0 -59.140672171973648 -60.795703820692324 0 -60.795703820692324 -245.70725102284632 0 0 0 0 26.06748518048596 55.211779752318762 0 55.211779752318762 -189.05543504299476 0 0 0 0 -7.7981657762711052 26.418761351744251 0 26.418761351744251 -45.139779701333282 0 0 0 0 -34.958572398918136 2.0740811649629904 0 2.0740811649629904 -31.849024346790429 0 0 0 0 -52.340368371529848 -16.671696123175934 0 -16.671696123175934 -162.63272198251616 0 0 0 0 -0.20110027185582924 0.2137960474593541 0 0.2137960474593541 0.42843441458227183 0 0 0 0 27.010462668589525 40.6966573503787 0 40.6966573503787 -112.07254397860925 0 0 0 0 12.983761433574045 91.234367113727785 0 91.234367113727785 -23.128394160419703 0 0 0 0 -28.957993987670875 -86.093579322123333 0 -86.093579322123333 -322.53591920893768 0 0 0 0 37.139840023334443 -52.474600845873738 0 -52.474600845873738 -565.08733904690962 0 0 0 0 -10.082541948720973 -88.793848719187736 0 -88.793848719187736 -456.68516906696459 0 0 0 0 67.53032564051307 -148.42209919527886 0 -148.42209919527886 -842.04334776071846 0 0 0 0 16.631342756452113 -180.02826448818269 0 -180.02826448818269 -570.75536000906652 0 0 0 0 -100.89587402909282 -201.7125404788203 0 -201.7125404788203 -477.64379612662742 0 0 0 0 32.675280049277376 -170.80100298266461 0 -170.80100298266461 -621.46220520529459 0 0 0 0 -20.725960517559486 -398.56822500129783 0 -398.56822500129783 -671.39583381424018 0 0 0 0 185.64068264097546 -269.89724691737956 0 -269.89724691737956 -963.27660697796819 0 0 0 0 163.46147144730443 -345.86262992339243 0 -345.86262992339243 -884.49888925243795 0 0 0 0 -14.417949487805117 -188.86888691922468 0 -188.86888691922468 -812.6270320622898 0 0 0 0 74.853423250839626 -138.10058956835474 0 -138.10058956835474 -907.38846296901829 0 0 0 0 51.712078981702462 -309.55258361382221 0 -309.55258361382221 -1186.0889577956805 0 0 0 0 110.74073288831585 -171.81600164365682 0 -171.81600164365682 -1151.573316469643 0 0 0 0 167.11023450211906 -103.96130811952753 0 -103.96130811952753 -1226.6821018479532 0 0 0 0 44.922291734187183 10.71475249015748 0 10.71475249015748 -941.34622531559216 0 0 0 0 46.477234203286116 -85.700885108055445 0 -85.700885108055445 -825.13726765427782 0 0 0 0 -3.1654618527943512 26.250847491126478 0 26.250847491126478 -638.0553390821151 0 0 0 0 20.591894635686913 -27.394313674773002 0 -27.394313674773002 -684.27978951202749 0 0 0 0 58.949590950515358 -145.51729375300602 0 -145.51729375300602 -901.68593977411001 0 0 0 0 -11.817297669584605 -107.81228731076408 0 -107.81228731076408 -640.43165797211009 0 0 0 0 45.467678577315382 -48.563417844303331 0 -48.563417844303331 -651.34155452404502 0 0 0 0 -17.296107930589642 19.625182760708412 0 19.625182760708412 -372.74218724418915 0 0 0 0 55.895310665780926 -25.023336420046689 0 -25.023336420046689 -351.61288481492738 0 0 0 0 -15.647918440452941 -24.643664162066671 0 -24.643664162066671 -492.88903662184748 0 0 0 0 33.213991620835827 -41.013723653995385 0 -41.013723653995385 -487.76439916548043 0 0 0 0 -30.332848860547074 20.770630630286178 0 20.770630630286178 -294.77690046832504 0 0 0 0 -27.874659507699562 37.060838639456051 0 37.060838639456051 -181.37824381707105 0 0 0 0 6.3011153204083712 -19.495209524355687 0 -19.495209524355687 -276.00925732620453 0 0 0 0 -37.723181317008084 -42.026440622869814 0 -42.026440622869814 -64.775064880199352 0 0 0 0 -64.83444244509883 3.5061101822830096 0 3.5061101822830096 -61.056426652362006 0 0 0 0 12.22872049763464 31.318045068348511 0 31.318045068348511 -288.93688395507161 0 0 0 0 -41.673162395090912 -2.0057315320682392 0 -2.0057315320682392 -290.62041373180182 0 0 0 0 -9.9768932456067887 74.684224779590295 0 74.684224779590295 -462.09416290378431 0 0 0 0 17.796294902685986 -1.0917570263291054 0 -1.0917570263291054 -471.85323325975696 0 0 0 0 36.718686428214824 -55.710721791741889 0 -55.710721791741889 -669.54745740634644 0 0 0 0 -14.984103943450918 7.8894151969311679 0 7.8894151969311679 -474.11764448593021 0 0 0 0 17.623481415572314 -44.97690877460991 0 -44.97690877460991 -567.46332508152045 0 0 0 0 -80.013668380149284 43.594319371037273 0 43.594319371037273 -526.77733007882307 0 0 0 0 -21.851050804287979 -2.8020343968073576 0 -2.8020343968073576 -724.30640840824344 0 0 0 0 0.44533622872222622 -36.715056732818994 0 -36.715056732818994 -493.73608396610234 0 0 0 0 -81.165307464596822 60.708053769546495 0 60.708053769546495 -252.67559953183809 0 0 0 0 15.940343488328836 -61.822305855524064 0 -61.822305855524064 -178.66129908536641 0 0 0 0 -78.236033083310531 35.25791422268594 0 35.25791422268594 -86.955540127517452 0 0 0 0 26.654704851557028 -38.154697380366997 0 -38.154697380366997 -125.51680412683709 0 0 0 0 -62.274759407027318 58.916934566437703 0 58.916934566437703 -136.75915250559956 0 0 0 0 -48.146417184658048 -60.550915472725592 0 -60.550915472725592 -313.70284460228868 0 0 0 0 10.536272063292699 15.667093507543541 0 15.667093507543541 -458.05573704942071 0 0 0 0 -94.466335527005185 25.73976116941958 0 25.73976116941958 -458.79223114413526 0 0 0 0 -4.943953322118773 82.367821674597508 0 82.367821674597508 -475.65039242464991 0 0 0 0 8.2392715481651635 -13.183229157338701 0 -13.183229157338701 -721.91344233584277 0 0 0 0 -38.79960684731509 32.408787221343118 0 32.408787221343118 -730.31250301524778 0 0 0 0 -93.442735092048679 -16.010217294573522 0 -16.010217294573522 -1003.5733142628237 0 0 0 0 -6.5275998761558185 -54.321444854771471 0 -54.321444854771471 -996.27727158942434 0 0 0 0 -163.09978834010826 28.4286814283696 0 28.4286814283696 -731.04366979585211 0 0 0 0 21.119639461070051 20.586992002650732 0 20.586992002650732 -831.1103068461598 0 0 0 0 22.357343845855212 -32.609389659404769 0 -32.609389659404769 -820.34281295808478 0 0 0 0 28.41131167416529 45.996332699151026 0 45.996332699151026 -1091.2985859499349 0 0 0 0 -235.24451437877292 181.79672606054237 0 181.79672606054237 -1150.3362513982865 0 0 0 0 288.71708360381808 -84.745917127123903 0 -84.745917127123903 -1490.254421171785 0 0 0 0 214.2782985404815 -382.6127000931865 0 -382.6127000931865 -967.75984293781949 0 0 0 0 186.23262262783453 -144.9651569134985 0 -144.9651569134985 -1170.5999955589105 0 0 0 0 309.4523372603951 -307.22489104270608 0 -307.22489104270608 -1231.5450052970918 0 0 0 0 135.18166425087873 164.75584916058506 0 164.75584916058506 -1364.1890290773435 0 0 0 0 95.242193899488484 181.94177035030316 0 181.94177035030316 -1378.3106488010662 0 0 0 0 103.33273082495589 -17.857821912809868 0 -17.857821912809868 -1263.5504459517069 0 0 0 0 -130.817417570749 -157.26305333488335 0 -157.26305333488335 -1224.4916852710157 0 0 0 0 -33.666435439271027 50.19323319769137 0 50.19323319769137 -1441.7563773340044 0 0 0 0 9.1459849881412083 -71.197032359736113 0 -71.197032359736113 -1292.6263301910321 0 0 0 0 -90.656797491638486 392.79090126176379 0 392.79090126176379 -752.98514019235517 0 0 0 0 125.73753137977906 189.78668771967887 0 189.78668771967887 352.3478409028794 0 0 0 0 0.77265869719960811 0.68316092958533225 0 0.68316092958533225 -3.4400291040772046 0 0 0 0 0.48890754825286842 -0.75856117699151682 0 -0.75856117699151682 -5.23729665200905 0 0 0 0 -93.443309040734562 382.08913289003181 0 382.08913289003181 -283.11694827658721 0 0 0 0 -94.595285925293524 -90.47988320495142 0 -90.47988320495142 263.02139209149027 0 0 0 0 -0.32368571003099511 -0.44167017155688271 0 -0.44167017155688271 -1.8815547800607462 0 0 0 0 329.94547221932157 -435.51928043288171 0 -435.51928043288171 -499.51310663562981 0 0 0 0 -110.42603829612221 8.5369144965579835 0 8.5369144965579835 -350.95707964195026 0 0 0 0 -36.182443129069725 17.723334072657963 0 17.723334072657963 360.88770870262306 0 0 0 0 67.048305580589385 -79.270356980491215 0 -79.270356980491215 13.025019918310136 0 0 0 0 235.8376988351306 95.257581857455079 0 95.257581857455079 -56.109847517391245 0 0 0 0 233.71320344081448 38.292326701862748 0 38.292326701862748 -8.3215197680328856 0 0 0 0 236.70808274165483 33.553651149548386 0 33.553651149548386 -95.540279115342855 0 0 0 0 242.72719827845913 114.07398978419769 0 114.07398978419769 -6.1773267934892147 0 0 0 0 418.8352210343354 -61.15692204716197 0 -61.15692204716197 -0.8553531079160166 0 0 0 0 417.78735571462585 84.669861607312669 0 84.669861607312669 -29.295101689058356 0 0 0 0 0.60316767292884821 -1.4523257130677392 0 -1.4523257130677392 -6.205650156283447 0 0 0 0 294.0154815183451 -350.66289176775172 0 -350.66289176775172 -201.81293372426217 0 0 0 0 302.14342144454554 -0.4160174089793145 0 -0.4160174089793145 58.68869665760576 0 0 0 0 1.0135076983089664 -1.160627620441482 0 -1.160627620441482 -8.7493697164809632 0 0 0 0 360.65670414259284 160.90483454367859 0 160.90483454367859 73.468393925271812 0 0 0 0 160.21050651223231 127.67748522738111 0 127.67748522738111 303.16987370361858 0 0 0 0 125.70582162447658 -78.705580732275848 0 -78.705580732275848 133.66186039664535 0 0 0 0 145.89353526724142 32.704010756625394 0 32.704010756625394 40.602659409047192 0 0 0 0 352.32135770433814 -0.60689352102758676 0 -0.60689352102758676 101.02849471583613 0 0 0 0 179.4385471427446 31.27447198628397 0 31.27447198628397 28.573361022077734 0 0 0 0 168.88258615385666 56.602250710388034 0 56.602250710388034 52.991971611590998 0 0 0 0 160.44818976871693 20.823387335653024 0 20.823387335653024 24.835949873069694 0 0 0 0 28.718022874333656 -4.1334369668875297 0 -4.1334369668875297 77.183086729404749 0 0 0 0 -68.055036278226794 151.83574360020975 0 151.83574360020975 24.771077964796859 0 0 0 0 448.48075961715813 -391.8958366782482 0 -391.8958366782482 -148.56781419547406 0 0 0 0 80.488904392593668 82.455614328231604 0 82.455614328231604 -22.301441800609609 0 0 0 0 13.456055589615159 16.121416383139149 0 16.121416383139149 -1479.4780157678185 0 0 0 0 1.6247508249565421 0.81239187149678838 0 0.81239187149678838 -3.700319781705069 0 0 0 0 1.83116056700464 0.95265527391722671 0 0.95265527391722671 -3.2249322637094728 0 0 0 0 483.18477938848213 -175.09588526332846 0 -175.09588526332846 -830.77275076239675 0 0 0 0 395.24513801541713 65.510140422789391 0 65.510140422789391 -1488.6248550097007 0 0 0 0 200.44088238757632 381.97867510840661 0 381.97867510840661 -875.10933155216708 0 0 0 0 -451.37973282128161 1100.6048915303529 0 1100.6048915303529 -1497.5317850030933 0 0 0 0 38.586700274125405 -3.9364723948201572 0 -3.9364723948201572 -34.058167973769741 0 0 0 0 -9.4371521714325581 496.86716678960056 0 496.86716678960056 -841.61146585971619 0 0 0 0 0.50094475994045107 -1.9782571775177402 0 -1.9782571775177402 -6.3253584642931884 0 0 0 0 4.0211942354687977 2.4130442568333308 0 2.4130442568333308 -4.9783224944223221 0 0 0 0 144.67234066580204 98.085312381656877 0 98.085312381656877 41.70838905407436 0 0 0 0 167.54069268460535 11.928558124465781 0 11.928558124465781 -160.19019667838802 0 0 0 0 361.79875815957433 270.11279181913324 0 270.11279181913324 -967.19193196806191 0 0 0 0 56.986174003190555 323.59964842365844 0 323.59964842365844 -497.75284305836976 0 0 0 0 177.89328962186272 438.6032080376699 0 438.6032080376699 -1010.6579349724798 0 0 0 0 448.55088140118153 391.93767322616532 0 391.93767322616532 -1500.3795479022592 0 0 0 0 342.4362522356522 301.42194952314458 0 301.42194952314458 -1087.1287510064376 0 0 0 0 238.12219369155423 237.64437403635657 0 237.64437403635657 -720.08211883302283 0 0 0 0 375.25478090280944 187.65587612578747 0 187.65587612578747 -742.10523794405526 0 0 0 0 465.81668279804762 105.18908047337754 0 105.18908047337754 -442.88022838116012 0 0 0 0 220.35929780055051 46.729125085980286 0 46.729125085980286 -433.50942202211081 0 0 0 0 -21.17516850738798 23.863135059259548 0 23.863135059259548 26.104259936553717 0 0 0 0 548.77494446581636 -270.75080097450518 0 -270.75080097450518 -300.7511285963601 0 0 0 0 2.0176890331605764 -1.7195046210275393 0 -1.7195046210275393 -6.7224469898153174 0 0 0 0 102.65740181892875 73.567496167195713 0 73.567496167195713 -987.85275252303472 0 0 0 0 -64.986480086555446 -84.539859250589416 0 -84.539859250589416 -77.237850486422758 0 0 0 0 0.30807090140816706 -1.4848870224062409 0 -1.4848870224062409 -3.7891538832067511 0 0 0 0 289.21102543472369 -576.75032334988487 0 -576.75032334988487 248.30360900090091 0 0 0 0 274.74907512378593 -374.62762645781481 0 -374.62762645781481 -842.75312715582186 0 0 0 0 110.18038138321765 141.46829525385965 0 141.46829525385965 -1486.9187713617343 0 0 0 0 4.0507038077099224 -287.83687223409379 0 -287.83687223409379 -798.3308680720811 0 0 0 0 64.681619456237513 -169.02044208352117 0 -169.02044208352117 -922.55326208580664 0 0 0 0 -14.998931179956017 -54.146841815164407 0 -54.146841815164407 -809.34057105441025 0 0 0 0 80.858432592236625 -280.75204208995183 0 -280.75204208995183 -350.32365103506527 0 0 0 0 272.16892912007313 148.18524428978981 0 148.18524428978981 -760.26706302401726 0 0 0 0 159.55477791890752 75.283009924061844 0 75.283009924061844 -800.37662640364397 0 0 0 0 339.64597952802438 113.06652156760583 0 113.06652156760583 -1499.5411745950641 0 0 0 0 361.21699057942493 204.44393935230073 0 204.44393935230073 -1127.651851783648 0 0 0 0 137.37985314749741 -36.794644317760685 0 -36.794644317760685 -1129.7068613776455 0 0 0 0 159.55590578473652 46.069625324001663 0 46.069625324001663 -1106.8204525569818 0 0 0 0 -57.640604921872054 -223.83805583725643 0 -223.83805583725643 -1122.6074620039467 0 0 0 0 123.79443821983971 -262.12506807958107 0 -262.12506807958107 -1499.7056240966558 0 0 0 0 155.41786909297483 -97.822091304061814 0 -97.822091304061814 -1095.6908761252398 0 0 0 0 -92.662759353775471 -392.28944812779628 0 -392.28944812779628 -1156.2146274108547 0 0 0 0 124.49285961221895 -351.04312365151418 0 -351.04312365151418 -1150.3958177761851 0 0 0 0 -66.90013760698163 -305.56243504070972 0 -305.56243504070972 -908.95054088282996 0 0 0 0 -478.65551272652959 -332.93985243847055 0 -332.93985243847055 -910.76639211554016 0 0 0 0 -64.222068323665511 -140.21006473614443 0 -140.21006473614443 -1111.259957520233 0 0 0 0 -52.722015831791708 -470.14124655364822 0 -470.14124655364822 -1138.3403513580943 0 0 0 0 -132.5262943130806 36.635935621915451 0 36.635935621915451 -715.32365118724465 0 0 0 0 50.65991117640101 -37.189092715609604 0 -37.189092715609604 -890.13166665848667 0 0 0 0 65.151953200287153 -161.4317010927266 0 -161.4317010927266 -906.48650029620876 0 0 0 0 180.5840856148352 -69.201468736963307 0 -69.201468736963307 -916.19988020981327 0 0 0 0 227.54413923180618 -96.200515980287491 0 -96.200515980287491 -945.41160030298897 0 0 0 0 -87.65575098096906 -38.368915531800212 0 -38.368915531800212 -502.80586509233763 0 0 0 0 52.659153855071622 -109.69368598873643 0 -109.69368598873643 -713.20377314484449 0 0 0 0 -1.9196471427167277 0.17180834759682995 0 0.17180834759682995 -1.0684391615216811 0 0 0 0 -76.064007534804887 -52.820963794425097 0 -52.820963794425097 -626.74616771947194 0 0 0 0 198.74875855343703 -136.2094558290778 0 -136.2094558290778 -864.91689188906548 0 0 0 0 15.723711861298398 25.413020616757422 0 25.413020616757422 -586.09433650896608 0 0 0 0 133.88153021303751 60.076370140295239 0 60.076370140295239 -1109.4075227125218 0 0 0 0 -311.76015068556876 -392.25384021310492 0 -392.25384021310492 -518.35350492535645 0 0 0 0 129.79309385907914 43.317300562138371 0 43.317300562138371 -367.88947842013658 0 0 0 0 229.53836791198842 -336.05764145988906 0 -336.05764145988906 -629.58727764475634 0 0 0 0 168.86120112313654 -52.186756675698177 0 -52.186756675698177 -1355.5155631867383 0 0 0 0 -88.895775580673231 19.75642366151277 0 19.75642366151277 -726.24442522074878 0 0 0 0 -130.92833595253319 74.433623466611834 0 74.433623466611834 -744.98350271312665 0 0 0 0 69.110954632156165 -83.992890284299165 0 -83.992890284299165 -802.48625853136809 0 0 0 0 67.908203894267047 -98.204549496220125 0 -98.204549496220125 -851.27123470138031 0 0 0 0 -120.7232400159113 -191.33959470467448 0 -191.33959470467448 -168.25658610618348 0 0 0 0 -70.086773354989987 -225.45017168124798 0 -225.45017168124798 -482.89697826162956 0 0 0 0 -74.988246021280602 -30.661072417022297 0 -30.661072417022297 -604.67122357670951 0 0 0 0 -188.12429251887738 -46.937731070221616 0 -46.937731070221616 -134.51793326281586 0 0 0 0 -223.00963701344483 -135.19814687776648 0 -135.19814687776648 -170.20627176998187 0 0 0 0 -157.66064269383992 -33.588641251722606 0 -33.588641251722606 -56.934594528318939 0 0 0 0 102.14507836845064 30.398736742750998 0 30.398736742750998 -111.00296053187412 0 0 0 0 -83.276489897060401 -45.858152731133487 0 -45.858152731133487 -338.6501079667571 0 0 0 0 -21.401100364512445 -174.44015335635254 0 -174.44015335635254 72.275562788134266 0 0 0 0 0.58839227324033194 -0.11335816322238212 0 -0.11335816322238212 -4.6192052813120341 0 0 0 0 -76.475174622146596 -355.90265811594554 0 -355.90265811594554 -675.34617134163011 0 0 0 0 268.59409761243433 241.21299871826886 0 241.21299871826886 -289.2913799281614 0 0 0 0 225.88252412162637 93.924649268992653 0 93.924649268992653 -751.30857515849129 0 0 0 0 -15.052041708181491 -24.5268965779197 0 -24.5268965779197 -237.42086231665326 0 0 0 0 20.979691307277335 -20.880348583967589 0 -20.880348583967589 -237.06070526873282 0 0 0 0 -29.592700767195311 -134.82991338753754 0 -134.82991338753754 -65.896305090907845 0 0 0 0 -78.74478093464154 -134.27122603623684 0 -134.27122603623684 -43.982586920939866 0 0 0 0 -13.135683282177979 11.882069292673805 0 11.882069292673805 132.37978792054946 0 0 0 0 -103.1497059701926 -72.775067154618682 0 -72.775067154618682 -12.822472768572425 0 0 0 0 58.558734617311984 -97.065254209360319 0 -97.065254209360319 -19.633063876402048 0 0 0 0 162.16600484711171 47.62429529632891 0 47.62429529632891 -12.525478984048277 0 0 0 0 149.44565234727565 71.727987173158454 0 71.727987173158454 -27.791394358002435 0 0 0 0 -89.194207500167067 -8.4608572737406575 0 -8.4608572737406575 98.228727094354326 0 0 0 0 -117.45271944836122 -329.58847255110459 0 -329.58847255110459 -301.53851225644576 0 0 0 0 -214.90164141722187 236.51900651619837 0 236.51900651619837 -884.84467855888579 0 0 0 0 -0.5791537094654613 -1.8675654797333707 0 -1.8675654797333707 -9.9849639282907141 0 0 0 0 -7.4521428063972053 -435.82744873063621 0 -435.82744873063621 -909.83947389781588 0 0 0 0 -22.392840822590188 -137.91706554850953 0 -137.91706554850953 -308.60691072136251 0 0 0 0 26.447799607447905 -171.04263905686457 0 -171.04263905686457 -647.21309833862051 0 0 0 0 -80.283060080642713 -204.40460758003923 0 -204.40460758003923 -259.1958729740345 0 0 0 0 -12.034349677795149 -60.255931776528087 0 -60.255931776528087 -259.72995526185696 0 0 0 0 -73.854383834741839 -9.8931713169840805 0 -9.8931713169840805 69.637068343379269 0 0 0 0 -11.105691300398764 -85.353154712453943 0 -85.353154712453943 6.2073869707310223 0 0 0 0 -37.207825129228262 32.341728337225504 0 32.341728337225504 -76.322256277088854 0 0 0 0 104.73151587618224 -141.00735183936797 0 -141.00735183936797 18.193538228355465 0 0 0 0 13.120397863343328 -135.78825884800426 0 -135.78825884800426 -128.25665926310103 0 0 0 0 0.14613950316685131 -1.4927403517591333 0 -1.4927403517591333 4.0103477166930475 0 0 0 0 -1.0366097106835419 -8.7447904017641918 0 -8.7447904017641918 -23.129615018403626 0 0 0 0 -52.516439426470242 -76.127216532090983 0 -76.127216532090983 136.66424366193678 0 0 0 0 -220.9701145114397 212.22993547379622 0 212.22993547379622 265.22515133086927 0 0 0 0 31.353059160459338 142.8541141575206 0 142.8541141575206 -582.49015203973249 0 0 0 0 1.7070763383824372 1.8408862616113204 0 1.8408862616113204 -1.7568642586790659 0 0 0 0 37.743190047163125 -6.4945248617659672 0 -6.4945248617659672 -752.24476065559611 0 0 0 0 60.265199884105982 114.82407171569503 0 114.82407171569503 -685.17113423194496 0 0 0 0 -5.5369271345873585 204.09281407959497 0 204.09281407959497 -147.80851038143919 0 0 0 0 41.712043064437381 26.671992530970783 0 26.671992530970783 -569.81424841069565 0 0 0 0 31.068003381691661 129.31318563189399 0 129.31318563189399 -362.77927491521041 0 0 0 0 22.020789854110035 -41.49746576628695 0 -41.49746576628695 -695.65462701038996 0 0 0 0 6.7594597766327382 99.803579491624077 0 99.803579491624077 -791.88849426738579 0 0 0 0 73.866586088987475 47.471037451018674 0 47.471037451018674 -1088.8080280528848 0 0 0 0 -7.1203772422047251 -36.049336700942149 0 -36.049336700942149 -857.18441980420721 0 0 0 0 73.225491991017492 -66.195484552444668 0 -66.195484552444668 -1061.1513460038032 0 0 0 0 36.428621347869921 73.22084128188817 0 73.22084128188817 -819.9964247622147 0 0 0 0 -122.9934095408862 -208.01296679704501 0 -208.01296679704501 -814.04551033382722 0 0 0 0 -11.774105125643416 218.20388605207063 0 218.20388605207063 -819.0490746509181 0 0 0 0 -3.2329356653447596 -0.66181586751569554 0 -0.66181586751569554 -1.2842900549880258 0 0 0 0 104.83953895724888 0.42164203328093208 0 0.42164203328093208 -1138.6707394890054 0 0 0 0 73.919298913773787 36.928650938266401 0 36.928650938266401 -1156.8169575777329 0 0 0 0 -135.81115219280386 159.56079167541111 0 159.56079167541111 -612.56678624219421 0 0 0 0 225.43354803956436 -97.479591262986105 0 -97.479591262986105 -899.60332096013735 0 0 0 0 192.0100734787959 -23.589051436326372 0 -23.589051436326372 -763.44297443403048 0 0 0 0 218.8427171572977 -34.708653627717808 0 -34.708653627717808 -1413.6846901360659 0 0 0 0 56.884043416752434 112.99518759084435 0 112.99518759084435 -1499.6909068060195 0 0 0 0 -291.53763876496805 -488.86481984149304 0 -488.86481984149304 -1173.5564740000486 0 0 0 0 -93.564819812335827 421.92309324344478 0 421.92309324344478 -1097.1645208772302 0 0 0 0 -60.614859641961473 65.395351707656346 0 65.395351707656346 -510.64425293296154 0 0 0 0 -59.81734322906334 84.344022930510164 0 84.344022930510164 -614.00238200920285 0 0 0 0 -12.042227063313931 124.99867023655042 0 124.99867023655042 -664.99900310153134 0 0 0 0 -5.1536594385901546 -0.077439513470308086 0 -0.077439513470308086 -1.3594061006629299 0 0 0 0 -57.965302840676031 4.6004592399367539 0 4.6004592399367539 -572.88953479078327 0 0 0 0 -74.022873898702102 39.17595628955678 0 39.17595628955678 -500.10317412742188 0 0 0 0 -178.94653569502455 54.244776842098645 0 54.244776842098645 -394.3616744658284 0 0 0 0 -124.75234834786789 4.5304101668866679 0 4.5304101668866679 -391.21203802112996 0 0 0 0 -125.87992055378766 32.554872748812159 0 32.554872748812159 -499.64912298779245 0 0 0 0 -96.407730648156502 68.809835363367256 0 68.809835363367256 -502.91548554287874 0 0 0 0 -146.38926047187653 177.16760936593619 0 177.16760936593619 -351.48486150090139 0 0 0 0 -172.907435155965 123.10842841087469 0 123.10842841087469 -444.47476205735256 0 0 0 0 -195.58333670828245 124.17714112258773 0 124.17714112258773 -375.45667104065069 0 0 0 0 -204.98046821601835 138.19279467712613 0 138.19279467712613 -396.18693276654813 0 0 0 0 -264.71342074716102 106.13958542941873 0 106.13958542941873 -346.95716490683594 0 0 0 0 -143.57776644459904 17.221293330240314 0 17.221293330240314 -355.98283719369601 0 0 0 0 -222.04219531873781 48.900115930470747 0 48.900115930470747 -304.66868055778195 0 0 0 0 -164.57214804391072 79.671924174378091 0 79.671924174378091 -352.95551213091858 0 0 0 0 28.983409352706047 173.92845554814448 0 173.92845554814448 -436.29245909006386 0 0 0 0 -167.64351481228738 264.16998719960975 0 264.16998719960975 108.99310177499137 0 0 0 0 103.54597358629272 318.03581317120279 0 318.03581317120279 -805.77617579095204 0 0 0 0 80.59255647419954 190.2052820696083 0 190.2052820696083 -798.98607270533284 0 0 0 0 -3.1559260375630913 211.71610629346878 0 211.71610629346878 -622.74214269319054 0 0 0 0 -33.419330388444301 335.71685331425283 0 335.71685331425283 -281.85132143259943 0 0 0 0 -110.56418756690991 267.66740339056923 0 267.66740339056923 -325.82728143395252 0 0 0 0 -98.060772697440427 218.02051370351455 0 218.02051370351455 -576.95663740608347 0 0 0 0 -179.87418395260633 177.47014417532409 0 177.47014417532409 -204.72056786238682 0 0 0 0 41.190170185145902 48.187093972070215 0 48.187093972070215 -199.02116948146886 0 0 0 0 -94.951940975717434 166.07111127427106 0 166.07111127427106 -349.24172474687202 0 0 0 0 -87.277904950462556 223.99216699683575 0 223.99216699683575 -114.17917832396051 0 0 0 0 625.02659054698256 -182.03816721936892 0 -182.03816721936892 -102.68326447660365 0 0 0 0 67.837367640354941 104.6251034360057 0 104.6251034360057 -249.21142926872358 0 0 0 0 70.264217144287088 142.07532604225253 0 142.07532604225253 54.08008685704408 0 0 0 0 311.12673665952974 -71.752534462271797 0 -71.752534462271797 -45.62877422470865 0 0 0 0 148.93084385855087 -191.12970845007931 0 -191.12970845007931 261.80960962778045 0 0 0 0 87.523747618765128 164.83420499362728 0 164.83420499362728 -119.20978924638985 0 0 0 0 350.24778206527571 275.00816466566539 0 275.00816466566539 195.33388370602734 0 0 0 0 563.86608257261071 163.91439543282172 0 163.91439543282172 -64.808660726586822 0 0 0 0 271.73770426384942 102.21340120528066 0 102.21340120528066 -19.868959650000761 0 0 0 0 -47.262280737486705 -49.062412482029686 0 -49.062412482029686 193.74983910267292 0 0 0 0 117.33297794030437 144.48335432621934 0 144.48335432621934 395.94235650145856 0 0 0 0 -55.59347529921304 -229.0360900915075 0 -229.0360900915075 318.86115779928377 0 0 0 0 -123.12990211865393 -434.05322525053634 0 -434.05322525053634 -152.90290151576488 0 0 0 0 -154.32153684783154 56.245745247426385 0 56.245745247426385 15.545816337256838 0 0 0 0 -24.139001250837858 -21.258099235382815 0 -21.258099235382815 -157.62713741444895 0 0 0 0 -167.29452862587425 -26.898299614069401 0 -26.898299614069401 -317.83741784931635 0 0 0 0 243.30076319567334 -432.38198644458498 0 -432.38198644458498 -1496.4586502511975 0 0 0 0 -30.035097205811482 -309.43088817269319 0 -309.43088817269319 -772.39433881858986 0 0 0 0 71.755446773148762 -747.69447612769545 0 -747.69447612769545 -909.76703409261427 0 0 0 0 -20.357822940825649 -253.15486148669265 0 -253.15486148669265 -559.31055088594258 0 0 0 0 -2.7231682098271026 -591.15029401657011 0 -591.15029401657011 -357.82015862252047 0 0 0 0 0.52669901259518159 -0.12540655647358623 0 -0.12540655647358623 -3.7124580529997857 0 0 0 0 258.1344940239448 -243.04061980918868 0 -243.04061980918868 -1465.2591138097414 0 0 0 0 258.44035270346882 -179.30189476466285 0 -179.30189476466285 20.428347260538885 0 0 0 0 -65.516344991182294 213.38679603533217 0 213.38679603533217 -485.95085221159388 0 0 0 0 -0.20488247946507493 -1.7965955472781268 0 -1.7965955472781268 -3.0167868705066567 0 0 0 0 -145.62302482935641 110.01095961503233 0 110.01095961503233 -750.08082190938512 0 0 0 0 -265.05643877905362 182.70111792699208 0 182.70111792699208 -375.30340594423251 0 0 0 0 -163.46425316971579 35.626988753064325 0 35.626988753064325 -420.09694578880396 0 0 0 0 -157.53739134332625 38.222910604952631 0 38.222910604952631 -454.71565373205067 0 0 0 0 171.73092312804948 10.655183317549017 0 10.655183317549017 -1501.3084050445132 0 0 0 0 198.52071740241595 -184.60169863171632 0 -184.60169863171632 -858.55326828434863 0 0 0 0 59.385097283537938 290.73849077370187 0 290.73849077370187 -797.94570114295459 0 0 0 0 -323.32306855948713 731.89402401036136 0 731.89402401036136 -507.24115629330754 0 0 0 0 16.619035573168183 478.22113857865361 0 478.22113857865361 -1495.1110998842678 0 0 0 0 -290.33942186947337 517.67436679788273 0 517.67436679788273 267.21257226075431 0 0 0 0 -0.4475427708767134 2.259318694585545 0 2.259318694585545 -1492.1277644266675 0 0 0 0 0.23708930757895472 0.074008281495307138 0 0.074008281495307138 -2.8314258066946176 0 0 0 0 280.87819038198603 706.79551540371858 0 706.79551540371858 -1399.5439612804792 0 0 0 0 -99.950242517213951 -178.64457986436901 0 -178.64457986436901 -347.03719159610591 0 0 0 0 -2.3375562070855636 2.4913137761073418 0 2.4913137761073418 -2.7106993484275392 0 0 0 0 0.093520973755899711 -0.094476357898662489 0 -0.094476357898662489 -2.0228959397931341 0 0 0 0 8.6891071545354635 -41.520542642512737 0 -41.520542642512737 45.892469103120675 0 0 0 0 -214.0702529135001 99.713115406308134 0 99.713115406308134 -338.06084777679484 0 0 0 0 -198.13793401384032 175.83593237728701 0 175.83593237728701 -140.6986058675584 0 0 0 0 -27.341262530103677 -97.475619730138988 0 -97.475619730138988 -248.81602982813229 0 0 0 0 -3.8742863568229922 67.119694635753604 0 67.119694635753604 -125.40288679464902 0 0 0 0 -69.095843333232438 -94.98605373076407 0 -94.98605373076407 -353.81088563443063 0 0 0 0 -144.04874027605172 10.743784721961674 0 10.743784721961674 -349.08781840968277 0 0 0 0 294.7048431630397 184.10506393609467 0 184.10506393609467 -79.338035296546536 0 0 0 0 0.61863829087279976 2.7844475812292471 0 2.7844475812292471 -9.4469550374319429 0 0 0 0 252.48991738404868 -227.69855315348605 0 -227.69855315348605 -0.34507645310441148 0 0 0 0 0.90919535206963209 2.315163540993793 0 2.315163540993793 -2.5530261417715412 0 0 0 0 -42.649313187703342 -175.72227696709842 0 -175.72227696709842 -332.58958027362132 0 0 0 0 23.908925996928815 -118.32360091696955 0 -118.32360091696955 -166.01492375899761 0 0 0 0 129.12570146759549 -51.490223982331372 0 -51.490223982331372 -372.71073670919918 0 0 0 0 325.56256712715771 14.919588642388135 0 14.919588642388135 -259.52464898420021 0 0 0 0 -11.306418488731083 -4.5729054857847586 0 -4.5729054857847586 63.769660499713609 0 0 0 0 139.02001974965361 -138.40529586076582 0 -138.40529586076582 -97.463125427057093 0 0 0 0 2.8805974388475306 5.8727225796399125 0 5.8727225796399125 -9.2069538386544991 0 0 0 0 1.020854916853466 2.4208480801474934 0 2.4208480801474934 -8.1576684597721396 0 0 0 0 -1.5050557561166045 -1.9843557105292007 0 -1.9843557105292007 -8.6592084474464173 0 0 0 0 -1.0253931081914303 1.6805294955339178 0 1.6805294955339178 -11.190977258915382 0 0 0 0 0.92507781764035535 2.6480080310352827 0 2.6480080310352827 -5.2752514606818757 0 0 0 0 -2.9683506635410595 0.39115219657833222 0 0.39115219657833222 -10.408001000707372 0 0 0 0 3.8967625980747442 5.7991071344383727 0 5.7991071344383727 -4.3798615263808642 0 0 0 0 -0.43669629829263412 2.5070672710310591 0 2.5070672710310591 -5.1956861055263257 0 0 0 0 429.83788487055858 216.12415320789114 0 216.12415320789114 -45.174295958193852 0 0 0 0 -1.4756706281929368 4.0009247663358121 0 4.0009247663358121 -5.8426113532709572 0 0 0 0 30.812692533743906 -235.49797813937653 0 -235.49797813937653 -920.03536808845229 0 0 0 0 -224.56425959635723 -823.40416072077232 0 -823.40416072077232 -1498.0573099687626 0 0 0 0 -1.2633782130439977 3.0299095483028511 0 3.0299095483028511 3.3117565790803685 0 0 0 0 33.116935915939635 -259.02612759629096 0 -259.02612759629096 -691.57124111795486 0 0 0 0 178.65554162668784 144.17789871273331 0 144.17789871273331 -1500.2079720842044 0 0 0 0 -102.02330575278351 649.5213456437732 0 649.5213456437732 -1497.6433860110014 0 0 0 0 89.489336834853887 164.43673659740512 0 164.43673659740512 -490.98481254991765 0 0 0 0 -249.80230612179912 220.29906660875093 0 220.29906660875093 -76.10938906775084 0 0 0 0 25.289633173397874 -22.553558708842104 0 -22.553558708842104 -468.51306485914142 0 0 0 0 -223.20892628653814 370.13832990548622 0 370.13832990548622 -64.754064672739418 0 0 0 0 3.7841220399589517 3.4413711587439577 0 3.4413711587439577 -2.6293207888679047 0 0 0 0 -73.180113645743475 144.92323087794313 0 144.92323087794313 -368.08844327280639 0 0 0 0 2.6092902738240009 3.0260317485135224 0 3.0260317485135224 -4.5885319978107617 0 0 0 0 -1569.3313196915092 96.623024396905748 0 96.623024396905748 -1499.0541148395168 0 0 0 0 -314.28167215855444 818.31464768823412 0 818.31464768823412 -540.8547556839444 0 0 0 0 -69.171275887002437 -652.21721097960744 0 -652.21721097960744 -1539.6007019188219 0 0 0 0 -11.616803715942517 -365.96421855437529 0 -365.96421855437529 -1786.5758641880989 0 0 0 0 2.2443245042215652 1.43186202041794 0 1.43186202041794 -3.0982916458127718 0 0 0 0 529.5532869190049 -1.4357735226017212 0 -1.4357735226017212 -483.22288415534513 0 0 0 0 339.79059015991879 511.81595954607405 0 511.81595954607405 -1752.1434594633029 0 0 0 0 -107.54268197079884 423.81305856189476 0 423.81305856189476 -151.63145172096745 0 0 0 0 -200.60897195777147 362.5648157886277 0 362.5648157886277 -92.344132589335985 0 0 0 0 -177.3827577471115 411.67104607308227 0 411.67104607308227 3.5233747014821688 0 0 0 0 -112.24350355368385 468.63648819007847 0 468.63648819007847 -152.93937479861052 0 0 0 0 -1.890839916039003 4.3036830164856994 0 4.3036830164856994 -12.459786006242279 0 0 0 0 -366.02590025469863 501.31520625241683 0 501.31520625241683 -35.074370663574314 0 0 0 0 -258.48622430890475 -878.23547850185514 0 -878.23547850185514 -884.12494449030601 0 0 0 0 -257.89549226461475 527.30866874315495 0 527.30866874315495 -25.421530226293953 0 0 0 0 -113.73176584443797 314.69865747250435 0 314.69865747250435 131.08454107177829 0 0 0 0 -176.57365278450385 218.33578111900749 0 218.33578111900749 269.37192206146835 0 0 0 0 177.09673417681597 -9.634722280757444 0 -9.634722280757444 265.44613128935293 0 0 0 0 579.22945468521789 39.868535995366358 0 39.868535995366358 -11.674550344747217 0 0 0 0 259.13274631373088 268.29053493130471 0 268.29053493130471 1.402841967014183 0 0 0 0 -101.49420468396141 302.92093429269329 0 302.92093429269329 79.940611159644106 0 0 0 0 96.915602417250511 119.90743763109447 0 119.90743763109447 130.7277744784875 0 0 0 0 -31.012693745566636 288.04467178252014 0 288.04467178252014 -21.209965345021374 0 0 0 0 -10.043566180778498 169.72720974349068 0 169.72720974349068 32.908034078039123 0 0 0 0 -93.225644460500376 210.16011528845593 0 210.16011528845593 -114.07921368754501 0 0 0 0 -106.49867769129605 243.62281601847042 0 243.62281601847042 30.162360478041023 0 0 0 0 -211.87786926345319 292.01587646781837 0 292.01587646781837 -129.56569910194071 0 0 0 0 -196.85370085573209 333.35928329183486 0 333.35928329183486 -48.421047555206087 0 0 0 0 -199.81177184032992 234.57967870440348 0 234.57967870440348 -89.752099420592458 0 0 0 0 -199.24128981130193 234.44573848420885 0 234.44573848420885 -208.17548783983329 0 0 0 0 -117.95423520296319 149.03977750646436 0 149.03977750646436 -181.01192875186553 0 0 0 0 -136.39295162776648 204.87108326190878 0 204.87108326190878 -335.93406710034606 0 0 0 0 -48.328829943043132 170.68893448925382 0 170.68893448925382 -228.51501320387479 0 0 0 0 -43.762763799108512 145.27114231906143 0 145.27114231906143 -88.687572500089118 0 0 0 0 34.15873949762954 141.98371386529607 0 141.98371386529607 -116.08271118481844 0 0 0 0 -79.179014489780883 251.09756494375927 0 251.09756494375927 -57.67715413060705 0 0 0 0 150.48948141410801 158.90107093157303 0 158.90107093157303 -84.36026105432984 0 0 0 0 38.968213657479509 185.39338700984354 0 185.39338700984354 -60.858342051903037 0 0 0 0 59.744530982468973 58.351545034813171 0 58.351545034813171 -189.07958538313187 0 0 0 0 61.244686576607023 163.01315550367576 0 163.01315550367576 -209.05985332916725 0 0 0 0 109.38792255395629 88.111521325677586 0 88.111521325677586 -95.020939062608136 0 0 0 0 150.4065030325437 146.2150285066208 0 146.2150285066208 -114.74581325061763 0 0 0 0 235.40346664088474 62.188530400550007 0 62.188530400550007 -34.155412980176152 0 0 0 0 165.98594473934554 32.132944410523123 0 32.132944410523123 -110.55478569813187 0 0 0 0 266.24126281775193 155.71127659729092 0 155.71127659729092 -38.57647300955523 0 0 0 0 148.10481804556969 214.8927516160951 0 214.8927516160951 -10.809724716888923 0 0 0 0 289.12512252698525 133.27670689484921 0 133.27670689484921 9.9078025636652001 0 0 0 0 0.15917553911923932 3.5164154756814625 0 3.5164154756814625 -5.9106567379643398 0 0 0 0 0.23449392911379618 -0.47283855526529806 0 -0.47283855526529806 -9.7833600917965668 0 0 0 0 -143.28701313425836 413.33918167570096 0 413.33918167570096 -225.03700705404299 0 0 0 0 0.47887477435208492 0.70607753730372702 0 0.70607753730372702 -2.6485985934826917 0 0 0 0 6.1326154040248184 13.572317483368579 0 13.572317483368579 -73.185301374814344 0 0 0 0 3.332408162248083 3.0129516895187987 0 3.0129516895187987 -8.1976116517450652 0 0 0 0 -612.68478253326657 188.19774700439692 0 188.19774700439692 -75.336364115416785 0 0 0 0 -309.7412125559058 262.0019396814626 0 262.0019396814626 -138.43550210975161 0 0 0 0 1.5251704175753042 1.1458843076003207 0 1.1458843076003207 -1.4039186155960088 0 0 0 0 -285.59025286046653 309.50324208821178 0 309.50324208821178 -65.303157959990727 0 0 0 0 -300.39570461638061 338.33342972071296 0 338.33342972071296 -107.75913139145655 0 0 0 0 -322.24379257625742 244.80839135836504 0 244.80839135836504 -129.62636693564787 0 0 0 0 -262.03240536497333 334.40543736854738 0 334.40543736854738 -155.93706825585309 0 0 0 0 -376.05889638942335 312.75099601783313 0 312.75099601783313 -105.7801983759279 0 0 0 0 -654.19351929429558 111.73524449088518 0 111.73524449088518 9.3142694707540841 0 0 0 0 -361.56648043058613 237.28082330316806 0 237.28082330316806 -138.92757659645693 0 0 0 0 -576.78657505266483 344.91755831950229 0 344.91755831950229 -185.20955652599855 0 0 0 0 -385.31008858089535 219.70625471454514 0 219.70625471454514 -269.49661866298106 0 0 0 0 -409.66395033887284 257.15869647510954 0 257.15869647510954 -185.2685757352956 0 0 0 0 -541.01566638281497 205.82742669163446 0 205.82742669163446 -177.25873560461605 0 0 0 0 -553.30991819443329 279.5921604209662 0 279.5921604209662 -90.235958704459335 0 0 0 0 -298.94876942638712 268.89737265411395 0 268.89737265411395 -196.723651214867 0 0 0 0 -348.71376446831471 285.78478464533976 0 285.78478464533976 -192.75066634009363 0 0 0 0 -351.9537487063053 204.34207575422533 0 204.34207575422533 -200.58166779693153 0 0 0 0 -237.75838531285171 192.03345498972931 0 192.03345498972931 -205.28972363301409 0 0 0 0 -329.48631572300837 315.29594630928273 0 315.29594630928273 -366.36267243047496 0 0 0 0 -421.44318627434222 285.2061234258822 0 285.2061234258822 -196.20692861095006 0 0 0 0 -446.48494514094568 332.72076951453596 0 332.72076951453596 -243.94239020787745 0 0 0 0 -496.91496268684023 362.15017610576365 0 362.15017610576365 -128.62510202128942 0 0 0 0 2.5404517830134035 1.9702754518472476 0 1.9702754518472476 -7.9479724759100172 0 0 0 0 -105.72136237261475 -32.967011742104887 0 -32.967011742104887 -141.27415705909607 0 0 0 0 -500.50554621283982 21.032871660805768 0 21.032871660805768 28.448600195302788 0 0 0 0 -848.45312007407097 369.78510313066545 0 369.78510313066545 -70.212030074939094 0 0 0 0 -0.64184653983211337 3.4819813127701376 0 3.4819813127701376 -6.4520939326348117 0 0 0 0 -546.09052660914472 596.7283685743439 0 596.7283685743439 -822.05745641985959 0 0 0 0 -233.21645707358175 341.13317404283862 0 341.13317404283862 -1215.6012410011604 0 0 0 0 -585.43085695996353 543.90079801460024 0 543.90079801460024 -1186.4895980102433 0 0 0 0 -742.78703595687591 -321.34209843903437 0 -321.34209843903437 -843.91637212262867 0 0 0 0 -324.90388951492321 1.0959466082294966 0 1.0959466082294966 -595.94685204262464 0 0 0 0 -241.68141787299501 -194.55650303113293 0 -194.55650303113293 -487.08945721967302 0 0 0 0 -103.38353356377257 -81.690570408105032 0 -81.690570408105032 -403.69023034815064 0 0 0 0 -86.41661498768525 54.302517688043281 0 54.302517688043281 -728.58368033962552 0 0 0 0 -521.34576322096837 451.76692481652572 0 451.76692481652572 -294.64009138741676 0 0 0 0 -225.80332029014141 217.01525221676775 0 217.01525221676775 -812.74380133888008 0 0 0 0 -241.4056057841857 201.00789641336661 0 201.00789641336661 -455.18520153415739 0 0 0 0 -191.69675630741483 173.68411957240596 0 173.68411957240596 -441.35459149720327 0 0 0 0 -30.389804865594328 98.006584765573052 0 98.006584765573052 -452.39152931324134 0 0 0 0 -192.68472626776665 162.53647549916465 0 162.53647549916465 -297.97097947587918 0 0 0 0 29.653206981793119 122.47830770816586 0 122.47830770816586 -324.29990942061204 0 0 0 0 -9.5534358639383186 35.613417449301437 0 35.613417449301437 -265.92936600249686 0 0 0 0 104.11530896061504 46.331258021144322 0 46.331258021144322 -357.12686493128922 0 0 0 0 70.333287845497637 -54.9337978313024 0 -54.9337978313024 -320.62313963036286 0 0 0 0 -77.125287610597013 -7.4646001507621804 0 -7.4646001507621804 -356.92991756405604 0 0 0 0 190.49916129618657 35.09743391770121 0 35.09743391770121 -174.13822233358405 0 0 0 0 276.02771346512395 62.565335881361989 0 62.565335881361989 -189.06938029313142 0 0 0 0 109.37245579370119 105.3169664673203 0 105.3169664673203 -203.88303297822858 0 0 0 0 206.06681769296665 19.917257112043899 0 19.917257112043899 -258.42628222050917 0 0 0 0 107.40628655387081 22.954619593919006 0 22.954619593919006 -241.09200992991282 0 0 0 0 223.3749217297086 -5.5049762175235628 0 -5.5049762175235628 -309.20483468519524 0 0 0 0 214.10083745028584 34.945041782861011 0 34.945041782861011 -254.76652862710125 0 0 0 0 188.45201455703091 -19.696208554109489 0 -19.696208554109489 -327.1336761571838 0 0 0 0 166.23716278650141 16.460487680695792 0 16.460487680695792 -265.99194708512186 0 0 0 0 104.92840146651326 4.5922895665362375 0 4.5922895665362375 -288.6279321632519 0 0 0 0 60.573806773138699 -87.311954836445238 0 -87.311954836445238 -272.77269111860323 0 0 0 0 26.166364803757091 12.709150551090715 0 12.709150551090715 -423.91791733175796 0 0 0 0 54.758447489425777 -70.83711475278551 0 -70.83711475278551 -318.32649496788872 0 0 0 0 -52.977849109916313 -156.86557569875049 0 -156.86557569875049 -374.60045694567839 0 0 0 0 -99.792003575681321 -141.6944639670487 0 -141.6944639670487 -225.39739496710172 0 0 0 0 -49.953607299511447 -191.68713469370732 0 -191.68713469370732 -278.44329541407023 0 0 0 0 147.46945064244892 -22.306015723606606 0 -22.306015723606606 -232.64491756446614 0 0 0 0 20.290244529653322 -108.55468712854758 0 -108.55468712854758 -188.63409790754849 0 0 0 0 51.402970303348525 -120.55688834227203 0 -120.55688834227203 -234.67830863128756 0 0 0 0 15.736249277777659 -120.34556977220791 0 -120.34556977220791 -101.81399507404603 0 0 0 0 -19.37919543159817 -186.42413198439874 0 -186.42413198439874 -195.31656077261414 0 0 0 0 -128.70680210463075 -229.59153228777018 0 -229.59153228777018 -212.3150482907524 0 0 0 0 -90.073311094748888 -170.68665816584121 0 -170.68665816584121 -125.58304543574059 0 0 0 0 -217.7216733295291 -225.30936371270298 0 -225.30936371270298 -240.04458553534823 0 0 0 0 -188.32828464355623 -162.19740920391359 0 -162.19740920391359 -136.48993192307125 0 0 0 0 -287.49254577060663 -107.35095385547879 0 -107.35095385547879 -176.25911958148095 0 0 0 0 -175.63625570942949 -173.64259173254482 0 -173.64259173254482 -140.16129303398429 0 0 0 0 -295.87795788195359 -226.91195781921851 0 -226.91195781921851 -447.79649218440272 0 0 0 0 -172.51391609051856 -113.8333735738895 0 -113.8333735738895 -331.88745448374766 0 0 0 0 -432.93854594752156 -13.819500556648791 0 -13.819500556648791 -351.82538062521007 0 0 0 0 -245.25439146710846 -121.77480169436217 0 -121.77480169436217 -288.97536710395207 0 0 0 0 -180.45102106516981 -237.33774983962485 0 -237.33774983962485 -337.70343203093387 0 0 0 0 386.23538409215894 153.09671535415964 0 153.09671535415964 -16.071882260036773 0 0 0 0 -11.485233415063249 13.211772950661725 0 13.211772950661725 24.994332442364794 0 0 0 0 38.366520959811112 49.864041852712035 0 49.864041852712035 10.249274024370152 0 0 0 0 -0.078196484086907769 8.6777220528689281 0 8.6777220528689281 -31.955186731779698 0 0 0 0 265.06751459445258 91.473505880783506 0 91.473505880783506 -24.809369052440161 0 0 0 0 228.99227454502784 -15.21457123577602 0 -15.21457123577602 -69.317183643779799 0 0 0 0 181.60581840452664 -2.2595772674355885 0 -2.2595772674355885 -3.822054072654737 0 0 0 0 214.28542095633225 -51.712247294906319 0 -51.712247294906319 -110.79234834632496 0 0 0 0 10.43592235669837 -166.30358452302698 0 -166.30358452302698 -130.88293856615428 0 0 0 0 115.05136262131194 -50.023186359952064 0 -50.023186359952064 -71.987995155173394 0 0 0 0 103.30850563908984 -101.12927901346234 0 -101.12927901346234 -160.28851950491548 0 0 0 0 88.046863504255043 -51.382038768616894 0 -51.382038768616894 -113.07441805120652 0 0 0 0 150.14799226426123 4.8915531233533329 0 4.8915531233533329 -198.11388759004694 0 0 0 0 153.66232960587274 31.777716487754788 0 31.777716487754788 -36.938993528602396 0 0 0 0 258.9583345975102 90.625154446108354 0 90.625154446108354 31.384873363282736 0 0 0 0 239.72247696465774 -46.999649753737685 0 -46.999649753737685 -106.15257001493865 0 0 0 0 273.89289050874174 -24.432931955749609 0 -24.432931955749609 -22.256400414168183 0 0 0 0 80.31376981923313 224.36590116022103 0 224.36590116022103 -13.512169798918421 0 0 0 0 278.32345282664573 299.75099295647078 0 299.75099295647078 -387.97302664668769 0 0 0 0 359.92469203487371 153.36113872455689 0 153.36113872455689 -301.78391802614351 0 0 0 0 -278.59113585173941 -348.2283135820287 0 -348.2283135820287 790.05033627936609 0 0 0 0 -202.87297175777076 480.81964269269974 0 480.81964269269974 -244.03251946539058 0 0 0 0 134.37879693996967 -7.222178537546597 0 -7.222178537546597 -207.41837134834805 0 0 0 0 251.46083583568634 78.05582847639198 0 78.05582847639198 -222.93989899003486 0 0 0 0 273.79638340199631 91.796317371941541 0 91.796317371941541 -277.27388779208104 0 0 0 0 269.55370176546944 188.37859221131043 0 188.37859221131043 -311.51427611245163 0 0 0 0 306.52842968059258 33.93835499996112 0 33.93835499996112 -289.87616835213976 0 0 0 0 291.58109653187051 86.529516408597885 0 86.529516408597885 -293.6442842763081 0 0 0 0 334.42626716733525 23.487776438103992 0 23.487776438103992 -260.88183528744707 0 0 0 0 307.99962653013949 63.890552180756913 0 63.890552180756913 -222.16289351816795 0 0 0 0 474.23287095109322 73.915443594190265 0 73.915443594190265 -273.53582656086155 0 0 0 0 402.56472370259348 50.432284120865461 0 50.432284120865461 -282.80927710076912 0 0 0 0 368.30968510997172 142.46730688560683 0 142.46730688560683 -317.79931848929027 0 0 0 0 448.21594318866573 49.569217551609199 0 49.569217551609199 -172.56171087911889 0 0 0 0 380.44479604808384 83.482979654688734 0 83.482979654688734 -189.35385128019107 0 0 0 0 421.21633251714081 16.477319039477493 0 16.477319039477493 -202.32217343111188 0 0 0 0 335.53239761155237 80.875989294957435 0 80.875989294957435 -137.73509915354066 0 0 0 0 395.75638081118097 282.7019770891506 0 282.7019770891506 -369.36708233991885 0 0 0 0 733.69947847417291 1086.3292256514389 0 1086.3292256514389 -87.040514273086956 0 0 0 0 -1.9788061562665116 11.242762747739924 0 11.242762747739924 -28.654469861872581 0 0 0 0 -0.96180946298495273 4.7736796843865914 0 4.7736796843865914 -7.6620434660469474 0 0 0 0 493.47613755080602 126.79953528557098 0 126.79953528557098 -248.91777775676155 0 0 0 0 926.17160834493052 711.38034879481529 0 711.38034879481529 -2.1238780971507367 0 0 0 0 396.57772489202989 219.99161532767494 0 219.99161532767494 -337.73336038051912 0 0 0 0 177.27874070092344 -14.16329033218426 0 -14.16329033218426 -705.811895166059 0 0 0 0 -227.43722450879193 13.92695909216809 0 13.92695909216809 77.327913921290019 0 0 0 0 347.318920885696 -73.330818146096135 0 -73.330818146096135 -138.64792511849009 0 0 0 0 -25.9322888638211 319.6782353080016 0 319.6782353080016 -541.55517163469358 0 0 0 0 80.246090579548707 190.4004130302942 0 190.4004130302942 169.33060129745354 0 0 0 0 -1.667916294324008 11.989410404612546 0 11.989410404612546 -36.431464523025205 0 0 0 0 841.74157349400184 -1.7530697641352617 0 -1.7530697641352617 -82.561159530415352 0 0 0 0 -117.97525247917341 -88.497412756963058 0 -88.497412756963058 167.06214721922515 0 0 0 0 40.132542814075094 20.091179830895271 0 20.091179830895271 2.8079238442023779 0 0 0 0 -7.789888391595241 46.29053935086813 0 46.29053935086813 12.457168244081913 0 0 0 0 -3.2479500124262257 1.7105015102888519 0 1.7105015102888519 -1.2970101386929578 0 0 0 0 -38.482196560370085 91.233888971986744 0 91.233888971986744 -454.34164579618573 0 0 0 0 -91.093397382217631 -135.74233293226644 0 -135.74233293226644 -64.304890893305128 0 0 0 0 151.20748572238421 -180.97487424453902 0 -180.97487424453902 -451.31486062746626 0 0 0 0 78.89737255994612 4.6969324719693759 0 4.6969324719693759 -915.23478108306881 0 0 0 0 259.11099922597646 -350.99646907881151 0 -350.99646907881151 -698.71189828954084 0 0 0 0 -136.45091935692901 -25.608987927900671 0 -25.608987927900671 -535.13067277165192 0 0 0 0 -41.388757204721912 -240.23245482305992 0 -240.23245482305992 -258.80949678750039 0 0 0 0 -17.079023386637868 -254.06311766529234 0 -254.06311766529234 -334.76983445551377 0 0 0 0 -33.778350624439852 -370.96094880766213 0 -370.96094880766213 -300.53959915816449 0 0 0 0 58.086320046269861 -294.56303162035692 0 -294.56303162035692 -505.79754292682719 0 0 0 0 -15.721357209531618 -275.63442725615641 0 -275.63442725615641 -375.24000463714401 0 0 0 0 -23.562179024211702 -351.42899064480389 0 -351.42899064480389 -403.01179420878907 0 0 0 0 -54.416162447146689 -156.85229786242598 0 -156.85229786242598 -522.2089500910032 0 0 0 0 -9.1079551978975246 -232.07667363900146 0 -232.07667363900146 -402.66030751997096 0 0 0 0 -7.3841736217681975 -298.59109925149141 0 -298.59109925149141 -518.34080935611928 0 0 0 0 9.3826344488721247 -255.70036136935778 0 -255.70036136935778 -165.34157196314482 0 0 0 0 9.1092318346630918 -239.12467280579949 0 -239.12467280579949 -445.08016463218883 0 0 0 0 199.03386480093945 -419.13489917495326 0 -419.13489917495326 -342.97485639471051 0 0 0 0 117.34535640608419 -392.38793657357746 0 -392.38793657357746 -137.52992160260874 0 0 0 0 196.98096043333453 -62.790051896861769 0 -62.790051896861769 -37.291906251903583 0 0 0 0 113.71803507652857 -274.51456999589396 0 -274.51456999589396 166.16180645751228 0 0 0 0 109.5847399887208 -283.50073217090903 0 -283.50073217090903 -370.87810827603971 0 0 0 0 115.82137729805322 -382.41809211765576 0 -382.41809211765576 -380.43685405891301 0 0 0 0 1064.5814571293008 79.391641658837216 0 79.391641658837216 756.87230386911597 0 0 0 0 315.48025568449702 291.09904888978701 0 291.09904888978701 279.49059067527071 0 0 0 0 385.10486384570504 275.00717708285038 0 275.00717708285038 8.7461808709861657 0 0 0 0 288.24187764716544 91.421420414201293 0 91.421420414201293 98.564716894234152 0 0 0 0 299.81341191333695 6.5835312411222731 0 6.5835312411222731 -76.749764767437227 0 0 0 0 404.26779265091818 -33.487276533482145 0 -33.487276533482145 17.229948248109395 0 0 0 0 324.22518110419651 146.96462680378272 0 146.96462680378272 52.816717625706588 0 0 0 0 316.96100093874884 37.605938015030688 0 37.605938015030688 290.65778219672302 0 0 0 0 484.65068025527444 -40.562621465921211 0 -40.562621465921211 24.935285834780188 0 0 0 0 115.65278381857323 167.03307155047582 0 167.03307155047582 25.368051696692419 0 0 0 0 -126.90212287015729 -185.13401163126946 0 -185.13401163126946 149.10628799612505 0 0 0 0 -161.96977928655599 -409.79735093538966 0 -409.79735093538966 -180.14222672376854 0 0 0 0 -155.21116779384326 -408.91414964489263 0 -408.91414964489263 -602.21930171829081 0 0 0 0 -57.443270195698418 -260.26846998915607 0 -260.26846998915607 -516.45956517295599 0 0 0 0 -0.72178968757960149 -376.16847913724769 0 -376.16847913724769 -513.96693395204602 0 0 0 0 -122.77575613812627 -18.610233018374856 0 -18.610233018374856 -774.97546855908968 0 0 0 0 -45.041019284195613 -290.69713974371916 0 -290.69713974371916 -638.97254338773928 0 0 0 0 -60.136606678915953 -151.36063035348252 0 -151.36063035348252 -494.69646892058518 0 0 0 0 -113.48563228568253 -131.50586364185438 0 -131.50586364185438 -973.19611310505934 0 0 0 0 -2.2114770786301845 9.241149702608265 0 9.241149702608265 -20.109045408675268 0 0 0 0 749.23179280431964 910.01056522479212 0 910.01056522479212 -1142.80213769498 0 0 0 0 653.48977115934485 381.9519150014512 0 381.9519150014512 14.752318933929757 0 0 0 0 -0.66226034167486114 3.9099901546719602 0 3.9099901546719602 -10.139809342696957 0 0 0 0 -582.98248967170309 354.29788614051813 0 354.29788614051813 -864.32277914548308 0 0 0 0 -363.31639082227412 -989.68970740280201 0 -989.68970740280201 347.2571029040937 0 0 0 0 -917.29333441719643 491.87448693123588 0 491.87448693123588 1248.2761298319219 0 0 0 0 -295.65245650328143 -526.70779054492596 0 -526.70779054492596 -517.57937173382288 0 0 0 0 -300.20722122064376 -457.3999323297694 0 -457.3999323297694 -666.92759148157438 0 0 0 0 -217.04096155309543 -160.2911362822615 0 -160.2911362822615 -305.59513461996903 0 0 0 0 -324.84528235164726 6.2906664364327298 0 6.2906664364327298 -401.81599040601941 0 0 0 0 -59.636185250413575 -98.208058722606438 0 -98.208058722606438 -519.87026461900587 0 0 0 0 -200.51845439262149 -132.71000341427134 0 -132.71000341427134 -520.54051076636642 0 0 0 0 107.20789804384194 -109.1101531852471 0 -109.1101531852471 -1034.5577432821246 0 0 0 0 137.95174112427912 -430.29582745407379 0 -430.29582745407379 -1500.4592446018414 0 0 0 0 -18.556494816613974 -435.03656927114025 0 -435.03656927114025 -1265.0542332512741 0 0 0 0 -33.659783240271885 -795.64716469703762 0 -795.64716469703762 -995.73995472298429 0 0 0 0 793.00818865243491 120.39394261222378 0 120.39394261222378 -362.72419730918773 0 0 0 0 0.84585050486972801 2.2925149229634849 0 2.2925149229634849 -7.2525208241737253 0 0 0 0 109.54952415629703 205.44617924698832 0 205.44617924698832 -289.94000240052219 0 0 0 0 357.76053588516385 -40.223687545873418 0 -40.223687545873418 -324.98238153734928 0 0 0 0 130.85320398353258 3.9585768922729585 0 3.9585768922729585 310.65011923800921 0 0 0 0 443.74481273362301 261.20066929324253 0 261.20066929324253 -6.5592674590425304 0 0 0 0 79.477440878222524 36.203065005129247 0 36.203065005129247 -196.04559152809907 0 0 0 0 95.44783422713391 -219.5062095854073 0 -219.5062095854073 -269.9096518434435 0 0 0 0 48.222755883651587 -68.196110778590082 0 -68.196110778590082 -487.92000214781001 0 0 0 0 -85.193014344696394 -96.649850318521203 0 -96.649850318521203 -367.81165014444468 0 0 0 0 23.045263854476275 -35.783992252108874 0 -35.783992252108874 -778.46459021723967 0 0 0 0 41.665542382668889 46.475612889742479 0 46.475612889742479 -429.46498756391793 0 0 0 0 157.02542102535276 23.876819444392368 0 23.876819444392368 -756.28618959134474 0 0 0 0 437.7619108311826 527.9844298863045 0 527.9844298863045 -1497.2847926501472 0 0 0 0 146.18273015250651 236.4280408018767 0 236.4280408018767 -736.96400724321666 0 0 0 0 172.0708877888778 39.09853587949965 0 39.09853587949965 -884.7446808523091 0 0 0 0 406.40692664382914 -88.219101231892637 0 -88.219101231892637 -156.64049976250135 0 0 0 0 1.0071056175990964 0.29429659379178297 0 0.29429659379178297 -3.0978604367827458 0 0 0 0 6.7889504418537321 -1.2955865313133472 0 -1.2955865313133472 -1477.5751963707226 0 0 0 0 1.3439572560271402 -0.2624791563666895 0 -0.2624791563666895 -2.3262765110044583 0 0 0 0 -27.397738451672343 843.03197344259752 0 843.03197344259752 -114.60351228215313 0 0 0 0 373.32713907213724 -214.15899910845155 0 -214.15899910845155 -560.09275550710299 0 0 0 0 -360.30274851288192 -1175.3578549622016 0 -1175.3578549622016 -1488.5344459860171 0 0 0 0 360.06548483002655 -251.65500713713209 0 -251.65500713713209 -309.61073560475415 0 0 0 0 363.17996835120471 -62.320934433724688 0 -62.320934433724688 -308.5916836358773 0 0 0 0 2.1066009931936232 -1.0031479815606463 0 -1.0031479815606463 -5.8811352096749658 0 0 0 0 551.80318867275219 -24.458050041049319 0 -24.458050041049319 -410.84548885268123 0 0 0 0 16.112990113487584 -8.5709787441905974 0 -8.5709787441905974 -12.977551516647509 0 0 0 0 437.83065944911868 -221.41234165294918 0 -221.41234165294918 -205.13643632581807 0 0 0 0 -166.7899031986293 -4.1252168234068449 0 -4.1252168234068449 -278.67052031470666 0 0 0 0 -232.09957540554751 -264.86828574346555 0 -264.86828574346555 -324.0956575139644 0 0 0 0 67.092183076933452 203.67254179041447 0 203.67254179041447 -312.95982961566642 0 0 0 0 -15.962647661448955 -206.57772977625427 0 -206.57772977625427 -156.00078380471132 0 0 0 0 39.402132106805766 64.93186720157064 0 64.93186720157064 -456.76064188740747 0 0 0 0 259.84214676776674 10.600526590720619 0 10.600526590720619 -443.38658305410354 0 0 0 0 2.2610714201345812 -0.17923163401763631 0 -0.17923163401763631 -3.3655946368808074 0 0 0 0 3.9344772606438481 -570.26981362083279 0 -570.26981362083279 -1499.0359588431293 0 0 0 0 368.03290856298634 -54.181643619457645 0 -54.181643619457645 -603.42385224029931 0 0 0 0 264.86485373766948 377.54646558378408 0 377.54646558378408 -560.68574808326707 0 0 0 0 519.83821304581761 3.7451959422578511 0 3.7451959422578511 -1499.4974894631359 0 0 0 0 129.16155782018129 -250.86812550104423 0 -250.86812550104423 -696.94224644106362 0 0 0 0 338.56697914662732 216.91147354838176 0 216.91147354838176 -1032.9683357166041 0 0 0 0 435.85334583094567 179.03070958381431 0 179.03070958381431 -1021.6644105996825 0 0 0 0 -1.2377507683615594 347.32296916242922 0 347.32296916242922 -670.81748529684228 0 0 0 0 1.7118106277501424 -0.14414868111096268 0 -0.14414868111096268 -1.7837795433715087 0 0 0 0 -18.059288883649515 -286.69015291757569 0 -286.69015291757569 -1161.9045259315499 0 0 0 0 38.726756348883214 193.85276438022083 0 193.85276438022083 -574.18139637361674 0 0 0 0 -74.171454344394647 176.09791735067847 0 176.09791735067847 -410.01931876033996 0 0 0 0 19.272182639024209 265.7250741693133 0 265.7250741693133 -381.75302138121015 0 0 0 0 3.3335811676173392 287.43949413414703 0 287.43949413414703 -634.99160922994452 0 0 0 0 38.699807622329999 200.52203568672724 0 200.52203568672724 -468.50264570404397 0 0 0 0 -45.177262273780968 280.77623491497616 0 280.77623491497616 -461.21830765934214 0 0 0 0 -49.954374030752106 196.71898010211231 0 196.71898010211231 -316.9243063441354 0 0 0 0 -12.156606688338798 192.8288568035523 0 192.8288568035523 -323.27872500789636 0 0 0 0 25.233762596376323 149.48955060254229 0 149.48955060254229 -330.40431157827811 0 0 0 0 -125.81746752793634 143.14949653083295 0 143.14949653083295 -129.57931892075794 0 0 0 0 97.998897688026545 256.60415242815361 0 256.60415242815361 -443.05906663818678 0 0 0 0 20.92958460687322 126.81103505094779 0 126.81103505094779 -268.07714782516632 0 0 0 0 59.961407522565878 95.643048464511594 0 95.643048464511594 -481.87189038779707 0 0 0 0 34.340454809540688 -1.7141023124258936 0 -1.7141023124258936 -600.22193298191542 0 0 0 0 97.775283400254821 248.73247883956873 0 248.73247883956873 -681.05093337885046 0 0 0 0 45.525765428805926 36.059806421696521 0 36.059806421696521 -847.60358193707827 0 0 0 0 -214.03830213070341 111.54906383792331 0 111.54906383792331 -538.11900712854549 0 0 0 0 0.20644042196324269 -0.375442271232858 0 -0.375442271232858 -3.9272690227230527 0 0 0 0 29.758652861054202 -21.865775846788893 0 -21.865775846788893 -847.56048143332555 0 0 0 0 0.31824234874744062 0.94767194617102568 0 0.94767194617102568 -3.2169929892878457 0 0 0 0 -36.233613044674229 30.42855336075985 0 30.42855336075985 -13.006561060821696 0 0 0 0 64.08002804418561 122.08762743070474 0 122.08762743070474 382.28597436126256 0 0 0 0 -16.373352743530177 278.93747740027447 0 278.93747740027447 -569.58413830639756 0 0 0 0 310.73250259550093 588.37581497504834 0 588.37581497504834 -59.516155607827386 0 0 0 0 290.3019366037156 438.81706256797133 0 438.81706256797133 -502.63514481405946 0 0 0 0 -24.66944659149442 171.99353440849609 0 171.99353440849609 -92.789069787126209 0 0 0 0 -2.2489624128612746 -37.956800344546082 0 -37.956800344546082 -508.76431223686996 0 0 0 0 -0.17332252581659457 1.2646984114735105 0 1.2646984114735105 -5.2000679445288398 0 0 0 0 -436.8689018599506 -525.0367378904557 0 -525.0367378904557 -382.93833023331536 0 0 0 0 32.899603570632827 -572.92290484308796 0 -572.92290484308796 -1286.0295988371927 0 0 0 0 -210.99532838119939 -873.29535980559285 0 -873.29535980559285 -1498.0642840173714 0 0 0 0 -710.46879433193953 -887.51052143038032 0 -887.51052143038032 -680.06486536094053 0 0 0 0 -752.30155782406496 -991.57911125645842 0 -991.57911125645842 -924.41102088300977 0 0 0 0 -2.2071221235424066 1.8663741021995861 0 1.8663741021995861 -10.183168764075575 0 0 0 0 -1152.5533228023946 567.43881517744194 0 567.43881517744194 -258.72649506196467 0 0 0 0 -1062.4242324039458 1033.3785275869452 0 1033.3785275869452 -854.95725194223633 0 0 0 0 -241.45888156203387 -378.82349356568375 0 -378.82349356568375 227.53668908304917 0 0 0 0 -183.64772917958976 65.413560142205824 0 65.413560142205824 70.118070191958395 0 0 0 0 0.23244863873169308 3.5617744048319668 0 3.5617744048319668 -24.175461516323089 0 0 0 0 215.37984613014441 -60.078937903016595 0 -60.078937903016595 -55.110014756599412 0 0 0 0 0.85698203970119413 0.33788054906400689 0 0.33788054906400689 -2.7510300814259381 0 0 0 0 -365.76289371136818 487.54603002527347 0 487.54603002527347 -540.57944786108828 0 0 0 0 -415.47188309882478 365.31345974464966 0 365.31345974464966 -449.75178761961342 0 0 0 0 -585.00556584995411 718.00926007870112 0 718.00926007870112 -659.37074521622708 0 0 0 0 -623.85968671866817 541.54359169261443 0 541.54359169261443 -335.75178144636357 0 0 0 0 -113.49188722873066 637.99124352144554 0 637.99124352144554 -1156.6645217927708 0 0 0 0 -326.06908126607027 934.36412802544237 0 934.36412802544237 -1497.3242130814833 0 0 0 0 -101.92574139461432 556.0270879903901 0 556.0270879903901 -958.20043059968157 0 0 0 0 258.41424027268727 417.44914994489363 0 417.44914994489363 -1500.0910659521705 0 0 0 0 -338.26208241920392 421.25296395796158 0 421.25296395796158 -414.58435772072153 0 0 0 0 -44.05584267132182 449.51993430762559 0 449.51993430762559 -908.99674472074639 0 0 0 0 -207.21248788009325 227.3961011043898 0 227.3961011043898 -244.95556761101216 0 0 0 0 -182.54614874516378 331.36769932545758 0 331.36769932545758 -405.41567353683058 0 0 0 0 -147.06595321777166 200.28628204588415 0 200.28628204588415 -273.00111244977961 0 0 0 0 -153.07522598710625 223.05737112617953 0 223.05737112617953 -184.31707218665906 0 0 0 0 10.059704413624232 -34.14073546542204 0 -34.14073546542204 -7.9565785012064225 0 0 0 0 1.3443462526870809 -0.34351408379930781 0 -0.34351408379930781 -5.3021018003379652 0 0 0 0 -84.126788898271798 35.071496956225019 0 35.071496956225019 -58.287538238611432 0 0 0 0 -67.730309385031319 70.416693219456647 0 70.416693219456647 -51.1538311588738 0 0 0 0 -26.709191295009703 18.886272573226051 0 18.886272573226051 22.522465033999651 0 0 0 0 1.7460323807318232 -3.9726246102608513 0 -3.9726246102608513 -6.3156916974413733 0 0 0 0 18.606120500342286 -17.413539741869499 0 -17.413539741869499 -70.464190648999647 0 0 0 0 2.2829250898910232 -27.901567660229375 0 -27.901567660229375 11.903841267012467 0 0 0 0 3.9880940220054488 -0.4032244368923763 0 -0.4032244368923763 -11.075120003656735 0 0 0 0 12.639333057076708 14.657035544450082 0 14.657035544450082 -26.674078519125032 0 0 0 0 10.552181914496714 11.220238182344474 0 11.220238182344474 -29.386862182524055 0 0 0 0 1.452502528886896 4.8703019200711424 0 4.8703019200711424 -26.711001126252995 0 0 0 0 5.0647010901628846 11.21238891588655 0 11.21238891588655 -18.27875643918378 0 0 0 0 0.97502042085168572 1.3503244619192216 0 1.3503244619192216 -23.732052850725424 0 0 0 0 277.2415468575395 15.814771457296956 0 15.814771457296956 -113.56855896160414 0 0 0 0 187.8515183953588 -61.686459659479624 0 -61.686459659479624 0.11797834349636105 0 0 0 0 88.803040934464605 -0.67363807668698428 0 -0.67363807668698428 -27.333620891291503 0 0 0 0 40.356281757003615 -146.99371892294494 0 -146.99371892294494 71.421632092268737 0 0 0 0 228.84246638144913 49.968519947997265 0 49.968519947997265 -120.04062694590539 0 0 0 0 24.134752229319034 3.6062228658192907 0 3.6062228658192907 -21.977292332988327 0 0 0 0 15.37644245215337 10.644404945129281 0 10.644404945129281 -17.924853412459925 0 0 0 0 0.017498980486697388 3.183089296478494 0 3.183089296478494 -24.559667274453133 0 0 0 0 196.34339502963329 146.1007430997106 0 146.1007430997106 -173.22033393332094 0 0 0 0 28.219795703120866 11.55715737605442 0 11.55715737605442 -27.109279132382653 0 0 0 0 121.97534755235105 140.414414393882 0 140.414414393882 66.879312629702326 0 0 0 0 18.201609966285162 1.9758258088695584 0 1.9758258088695584 -23.483332541827622 0 0 0 0 4.1867527127683886 10.030884149497524 0 10.030884149497524 -25.965457396792772 0 0 0 0 4.1979350779942948 10.311853956210371 0 10.311853956210371 -20.808499283892161 0 0 0 0 14.34960744247293 5.8958555631452327 0 5.8958555631452327 -25.177667435422336 0 0 0 0 2.6571887845232567 10.663411007771174 0 10.663411007771174 -19.585080439093872 0 0 0 0 -1.6231061084530722 4.6061570276197017 0 4.6061570276197017 -24.344991292154191 0 0 0 0 -5.1111441030068079 8.7144912647891033 0 8.7144912647891033 -26.712227309497393 0 0 0 0 -10.780685184509025 6.3948246581439889 0 6.3948246581439889 -25.089055241100141 0 0 0 0 -9.0215204511908667 10.530998986871055 0 10.530998986871055 -26.000694811784342 0 0 0 0 -12.797205498727749 8.5689192225399893 0 8.5689192225399893 -26.01967762546974 0 0 0 0 -4.4781379901879177 10.384322509064077 0 10.384322509064077 -20.918290336980135 0 0 0 0 -5.9976783115861849 7.5649831067858031 0 7.5649831067858031 -25.230822745630576 0 0 0 0 -9.7379642617899265 12.672295573536758 0 12.672295573536758 -23.121287659254449 0 0 0 0 -9.1499634083144201 18.422008118602207 0 18.422008118602207 -30.580816863315704 0 0 0 0 -12.74412293154441 15.464302644330928 0 15.464302644330928 -22.859838359749119 0 0 0 0 -3.6202282963817538 7.7645869299049082 0 7.7645869299049082 -23.072709929867415 0 0 0 0 -9.3121053328273717 12.889285291237684 0 12.889285291237684 -27.82694523363898 0 0 0 0 1.5219880857538914 -1.7053465107008776 0 -1.7053465107008776 -5.5013943468999287 0 0 0 0 -12.437897160404589 9.5988208974649751 0 9.5988208974649751 -31.167682323535701 0 0 0 0 -14.601781632843426 11.829538172958564 0 11.829538172958564 -31.00462709927524 0 0 0 0 -0.030234351669112147 -4.4937207366199274 0 -4.4937207366199274 -9.0928268634298099 0 0 0 0 -11.828523955540703 3.3659347726202213 0 3.3659347726202213 17.970965342039563 0 0 0 0 -15.125745080147681 11.828815524493621 0 11.828815524493621 -26.297424699740077 0 0 0 0 -14.628747088682644 12.372504284387105 0 12.372504284387105 -29.437849471411027 0 0 0 0 -14.909366488983437 9.3536174761538859 0 9.3536174761538859 -29.609114891304216 0 0 0 0 -13.336408445863015 11.03231222429531 0 11.03231222429531 -28.804898944683373 0 0 0 0 -13.47046124669771 8.2496931382629555 0 8.2496931382629555 -27.080749188118716 0 0 0 0 -13.465632868374826 7.301794499711832 0 7.301794499711832 -27.632288140317542 0 0 0 0 -11.418861025004105 8.20344159101478 0 8.20344159101478 -29.23114735056879 0 0 0 0 -13.771192279223982 6.1949927123996531 0 6.1949927123996531 -30.497864430002664 0 0 0 0 -13.878255595711011 9.4632765545984512 0 9.4632765545984512 -30.522467617051007 0 0 0 0 -12.264015207232745 5.5709859760772815 0 5.5709859760772815 -34.155235914575314 0 0 0 0 -13.973680570811609 7.6256339449009829 0 7.6256339449009829 -33.506083394848247 0 0 0 0 -9.0305793290276597 3.3605468026071321 0 3.3605468026071321 -32.656826647189519 0 0 0 0 -14.389937201801359 2.9545453068212737 0 2.9545453068212737 -33.016049805450166 0 0 0 0 -1.4052687207818595 14.536607445572198 0 14.536607445572198 -15.187350238789382 0 0 0 0 155.01016536084967 100.00514965384627 0 100.00514965384627 -46.974708915114206 0 0 0 0 -7.2389725686295492 -4.6161672030702903 0 -4.6161672030702903 -40.152584665921495 0 0 0 0 -9.8644191295275334 3.9298323627263017 0 3.9298323627263017 -34.889868251424559 0 0 0 0 -1.7817197021161348 7.1662038093936644 0 7.1662038093936644 -27.565480991019285 0 0 0 0 -9.3299092066263114 2.2757906681717941 0 2.2757906681717941 -24.866309515582543 0 0 0 0 5.4062298040937833 1.8447229167031765 0 1.8447229167031765 -24.849017570472824 0 0 0 0 10.200216266195202 11.218049138245078 0 11.218049138245078 -15.210588486326742 0 0 0 0 11.561607266669 -0.88404464551786077 0 -0.88404464551786077 -23.813186881239744 0 0 0 0 1.9603719455568296 -4.0889350874858792 0 -4.0889350874858792 -29.481673678528068 0 0 0 0 17.479523361642563 -6.6532498459055205 0 -6.6532498459055205 -38.361055220429989 0 0 0 0 2.5328397524213608 2.141696883484542 0 2.141696883484542 -24.576313850589941 0 0 0 0 19.042326893072644 -2.1326463242260161 0 -2.1326463242260161 -76.569306494504417 0 0 0 0 16.751571375462447 18.441081562774343 0 18.441081562774343 -53.286587532806152 0 0 0 0 -0.83323348690217358 -52.64835474712163 0 -52.64835474712163 12.319804816517717 0 0 0 0 -0.082968751528999185 3.076535476727142 0 3.076535476727142 -24.269653412046644 0 0 0 0 39.678238327002035 21.417678881677602 0 21.417678881677602 -17.429199422309466 0 0 0 0 95.991854688153239 59.217342355397705 0 59.217342355397705 19.251546999701532 0 0 0 0 7.9669121158857337 18.150833491916273 0 18.150833491916273 13.51495186491664 0 0 0 0 -52.199761509242478 -57.249523539260736 0 -57.249523539260736 -15.939104647181011 0 0 0 0 -41.60652569157935 -12.473655410740093 0 -12.473655410740093 -1.6794761592318537 0 0 0 0 -139.4823474018051 83.200919859636087 0 83.200919859636087 38.615249561764358 0 0 0 0 -9.1330151133357624 4.4208526330909628 0 4.4208526330909628 -1.9110089917661597 0 0 0 0 117.9604935139547 -74.891610148477412 0 -74.891610148477412 -449.75790945992958 0 0 0 0 18.714869274275429 -25.677402436396733 0 -25.677402436396733 -282.54298768733315 0 0 0 0 -128.65787806719391 26.218343702814764 0 26.218343702814764 -289.81668526790781 0 0 0 0 38.455124724830171 41.161806441700719 0 41.161806441700719 -307.72296065991759 0 0 0 0 2.0857351031754661 75.706025949566538 0 75.706025949566538 -251.94325969374768 0 0 0 0 35.940221895347747 45.909999630197035 0 45.909999630197035 -273.64095079094113 0 0 0 0 -22.475693107146185 -14.766376282568672 0 -14.766376282568672 -24.009194631285936 0 0 0 0 -2.3506084418143018 -13.420831917828764 0 -13.420831917828764 -130.39392007338211 0 0 0 0 -1.9140616719942045 -27.992034634989977 0 -27.992034634989977 -211.23046718251271 0 0 0 0 9.0203840720647008 8.9096862105816399 0 8.9096862105816399 -120.26369305535081 0 0 0 0 1.7551900824164477 -7.9944642376503907 0 -7.9944642376503907 -4.5858288393646944 0 0 0 0 16.72428870136298 59.700251955933709 0 59.700251955933709 -187.2219973105457 0 0 0 0 9.3906976002091369 85.509528974986097 0 85.509528974986097 -168.07578999091857 0 0 0 0 10.230452963112953 26.581841825249285 0 26.581841825249285 -162.41890650313599 0 0 0 0 29.200671371873568 64.043128950714163 0 64.043128950714163 -107.51517594275356 0 0 0 0 -18.294268710313872 34.459052622131821 0 34.459052622131821 -0.47622903937735828 0 0 0 0 -22.498539429756647 29.190671886655764 0 29.190671886655764 51.901588994158374 0 0 0 0 -2.0108463695470142 -3.8398050360569371 0 -3.8398050360569371 -19.3617912987038 0 0 0 0 -14.893029081772923 8.814855183315899 0 8.814855183315899 -35.810176560447871 0 0 0 0 -15.00226693748391 9.4586730698720203 0 9.4586730698720203 -31.366907226301009 0 0 0 0 -14.891289822333192 9.2347994759511494 0 9.2347994759511494 -31.864486559599754 0 0 0 0 116.07120165551032 -40.846785729041585 0 -40.846785729041585 19.043744912447437 0 0 0 0 -25.387153634362676 -29.566528999836009 0 -29.566528999836009 60.705408207194978 0 0 0 0 -2.9380206099450081 -6.1769635693383691 0 -6.1769635693383691 2.4808964872471293 0 0 0 0 -14.812346120481308 9.6023044910998578 0 9.6023044910998578 -31.982085741095943 0 0 0 0 -14.356405933858014 6.9693717114678293 0 6.9693717114678293 -33.620673353791062 0 0 0 0 -14.66103021744641 9.5330381389903778 0 9.5330381389903778 -32.352443018564372 0 0 0 0 2.9018194009544231 -43.547824070003117 0 -43.547824070003117 -8.4655011289546565 0 0 0 0 -25.08546950984703 21.702200363291922 0 21.702200363291922 42.75184491372147 0 0 0 0 -11.542618444357345 -62.978332199421857 0 -62.978332199421857 16.41453824376913 0 0 0 0 -22.864885336970019 -10.884689218568383 0 -10.884689218568383 -21.119181062867938 0 0 0 0 -11.261186695319793 -42.971043407789693 0 -42.971043407789693 -11.921838230328831 0 0 0 0 -27.141128424480939 19.009002927061829 0 19.009002927061829 -10.34456918674914 0 0 0 0 0.49540395022045836 6.0758337596415348 0 6.0758337596415348 -2.8601911997124851 0 0 0 0 481.27300485290755 221.67673385157377 0 221.67673385157377 -538.35531788675598 0 0 0 0 -425.79920802256129 355.62040303609683 0 355.62040303609683 405.12575494340126 0 0 0 0 -13.352915164380192 3.4653181588873849 0 3.4653181588873849 -39.74572447731407 0 0 0 0 -6.2759752311386077 15.746959906433368 0 15.746959906433368 -16.409037203869779 0 0 0 0 -14.029710351025415 7.2717879146039195 0 7.2717879146039195 -34.744848945338163 0 0 0 0 -14.071924206507333 6.8109045182463888 0 6.8109045182463888 -39.313271731323766 0 0 0 0 -13.868412764378775 2.8941464703029851 0 2.8941464703029851 -37.679746380861616 0 0 0 0 212.8224946004874 -71.585656383801052 0 -71.585656383801052 -269.04052422050518 0 0 0 0 13.278218402304446 395.22107932792642 0 395.22107932792642 302.09556388508281 0 0 0 0 248.08168247874164 130.72806382063345 0 130.72806382063345 -620.17151172673948 0 0 0 0 163.88589459027116 46.90729547628689 0 46.90729547628689 124.25354348679639 0 0 0 0 -464.58628737557001 255.11731646060616 0 255.11731646060616 39.448548579733597 0 0 0 0 -34.827009073882436 -309.13595430265332 0 -309.13595430265332 -1552.7810502150096 0 0 0 0 149.53752842004997 416.56261041434982 0 416.56261041434982 -120.77308061005351 0 0 0 0 0.2828530897259891 0.97036036227005784 0 0.97036036227005784 -2.4909704252408744 0 0 0 0 -16.007457761598744 32.291886717894158 0 32.291886717894158 -9.9065124467001624 0 0 0 0 -25.936472121165764 14.711223456774633 0 14.711223456774633 4.8569817052357394 0 0 0 0 -20.439295199766548 8.1190869710399056 0 8.1190869710399056 -14.866097214472575 0 0 0 0 -12.208185542404632 5.9081098192918482 0 5.9081098192918482 -5.3471662071671808 0 0 0 0 -19.122293620624589 4.1813834904780833 0 4.1813834904780833 -3.144410105454881 0 0 0 0 -7.0930546569068156 17.667449348977698 0 17.667449348977698 8.7273276990101749 0 0 0 0 -4.3185692054942137 15.72556247380362 0 15.72556247380362 -7.554065828127932 0 0 0 0 11.809091810764187 29.755510950908956 0 29.755510950908956 -16.23482611603049 0 0 0 0 3.6302175566303374 5.058442080355281 0 5.058442080355281 -1.6455383941048574 0 0 0 0 -133.82429134715881 74.579559866459931 0 74.579559866459931 -4.3206981733743746 0 0 0 0 -147.26768322653891 135.63182358677295 0 135.63182358677295 -43.073870348864148 0 0 0 0 -137.02743001086242 165.50733687039906 0 165.50733687039906 15.076102082273337 0 0 0 0 -117.73931687632955 117.54336754851897 0 117.54336754851897 -131.57849666751281 0 0 0 0 2.9605218418640011 2.2240556112666852 0 2.2240556112666852 1.260320787867979 0 0 0 0 -116.39350506904429 60.298633505246471 0 60.298633505246471 -91.091553630183626 0 0 0 0 -116.49887330886031 127.44121512927904 0 127.44121512927904 -52.605298284423952 0 0 0 0 -117.39789295762353 53.126531940608174 0 53.126531940608174 -134.36959797085365 0 0 0 0 -0.14117865812185881 0.19367931444874609 0 0.19367931444874609 -7.7213741343562177 0 0 0 0 -217.97055386446186 232.61110560614611 0 232.61110560614611 1095.6524367117872 0 0 0 0 -61.217292027508165 -237.96684911540888 0 -237.96684911540888 -208.86776052204368 0 0 0 0 104.72350720230207 -137.3947325020581 0 -137.3947325020581 -265.34672908736138 0 0 0 0 206.58456250952901 -86.749464435223899 0 -86.749464435223899 -244.63585926875749 0 0 0 0 144.68407542437853 -247.35945157773585 0 -247.35945157773585 -558.90712437745447 0 0 0 0 142.04588359533204 21.43855747800535 0 21.43855747800535 11.362345752484089 0 0 0 0 17.853510485951801 -112.39531609382357 0 -112.39531609382357 -13.369612222237265 0 0 0 0 -119.36383139589179 153.15320968793344 0 153.15320968793344 -62.297615329246582 0 0 0 0 1.1893199845712128 2.1882195589502356 0 2.1882195589502356 -4.5759468451144762 0 0 0 0 -49.907860805421194 -5.9072607888538187 0 -5.9072607888538187 -220.66314458683246 0 0 0 0 212.38190751048893 95.308562904732554 0 95.308562904732554 -195.56258211816657 0 0 0 0 278.38074679259512 -19.023410024528857 0 -19.023410024528857 -69.981590872293964 0 0 0 0 -298.9720611166365 490.67943578093195 0 490.67943578093195 83.788368966741245 0 0 0 0 0.46773690621612835 0.72932633229438171 0 0.72932633229438171 -22.817058287336085 0 0 0 0 129.32460222319082 -8.4214996879227328 0 -8.4214996879227328 -33.690699953864168 0 0 0 0 85.480055618721337 -92.983178756863026 0 -92.983178756863026 -49.998438634129343 0 0 0 0 235.81201713386599 26.525149455392238 0 26.525149455392238 -28.16029600548427 0 0 0 0 162.12621495831957 -51.822232264270951 0 -51.822232264270951 -2.1757536072964285 0 0 0 0 731.75864899637065 -27.944338732071174 0 -27.944338732071174 -344.16039822498709 0 0 0 0 -356.01835197743605 281.604884997883 0 281.604884997883 22.421789333949619 0 0 0 0 -370.84222111971917 246.41098804271064 0 246.41098804271064 -54.049204700671112 0 0 0 0 -187.76938041282256 119.55588089645903 0 119.55588089645903 -256.42360535916487 0 0 0 0 -308.03652609874564 -13.901918123308405 0 -13.901918123308405 -3.3548001929881739 0 0 0 0 -1.4860350675211591 0.82851532372094838 0 0.82851532372094838 -3.1176680270587145 0 0 0 0 -43.17831531952362 133.89962928448995 0 133.89962928448995 -174.94760220335229 0 0 0 0 -74.33810368974207 -69.126924391936967 0 -69.126924391936967 44.472487172399269 0 0 0 0 278.19415127476248 79.810326122806259 0 79.810326122806259 -422.41532174335453 0 0 0 0 -274.93046886940328 91.445115316507952 0 91.445115316507952 109.21473395965768 0 0 0 0 0.7376599322773334 1.5485464902942754 0 1.5485464902942754 -2.2518652009474298 0 0 0 0 15.801610635479094 -7.1805198794954777 0 -7.1805198794954777 -23.203028603615167 0 0 0 0 10.560055907193275 5.7518278242533079 0 5.7518278242533079 -18.547317740847681 0 0 0 0 -16.708792050566672 -0.8378705467674763 0 -0.8378705467674763 -53.270991987061279 0 0 0 0 18.388423159482475 24.065714345161723 0 24.065714345161723 -34.653126541779784 0 0 0 0 5.0574267044553523 16.419796265185141 0 16.419796265185141 -19.559805832512211 0 0 0 0 3.3029636091479802 10.231333904686835 0 10.231333904686835 -29.933061253270353 0 0 0 0 -0.0035767613204313875 0.82745147371315397 0 0.82745147371315397 -41.551833497590451 0 0 0 0 5.8380037663020659 -4.2521312730441423 0 -4.2521312730441423 -45.023500047376729 0 0 0 0 4.6296464843795713 11.630784154477936 0 11.630784154477936 -13.041750034962568 0 0 0 0 -29.617332654800293 16.444606188746548 0 16.444606188746548 -53.480263104307141 0 0 0 0 -45.984581374740969 -94.712959165184657 0 -94.712959165184657 -114.96685631345281 0 0 0 0 7.0117364891852958 -55.828749780645921 0 -55.828749780645921 -114.21788985297326 0 0 0 0 -2.0896746522529335 2.2688783628107352 0 2.2688783628107352 -1.2902452296814282 0 0 0 0 -22.383590929546429 -26.578526458198212 0 -26.578526458198212 -112.56663619018491 0 0 0 0 0.36766287146899801 0.86977116705235424 0 0.86977116705235424 -1.6226955237539826 0 0 0 0 14.18715978666998 -99.221798264569316 0 -99.221798264569316 -163.42952102075469 0 0 0 0 96.439283933731929 -105.9715459296176 0 -105.9715459296176 -115.00978060839952 0 0 0 0 81.667677852611178 -80.031656324451433 0 -80.031656324451433 -145.04898240972216 0 0 0 0 78.411176180372422 -64.606774925634454 0 -64.606774925634454 -121.64887889936972 0 0 0 0 92.846023166867582 -73.467070398847227 0 -73.467070398847227 -65.91134338948541 0 0 0 0 42.987094308081097 -88.015322672028105 0 -88.015322672028105 -65.505553546679948 0 0 0 0 64.627639662855273 -43.160114148142839 0 -43.160114148142839 -86.832451280095484 0 0 0 0 39.861539806359872 -57.23199051813117 0 -57.23199051813117 -31.691875740611067 0 0 0 0 106.35589300815775 -1.0762222011007907 0 -1.0762222011007907 -67.363158982511777 0 0 0 0 13.462266339149636 -27.690630724706352 0 -27.690630724706352 -51.705196570628686 0 0 0 0 -19.669732482266909 -33.467951281627393 0 -33.467951281627393 -65.737960701392694 0 0 0 0 -4.8397146875043404 -63.456718003810693 0 -63.456718003810693 -90.592766068673882 0 0 0 0 -54.943133604605549 -94.601935718330651 0 -94.601935718330651 -78.359909382279511 0 0 0 0 -53.55065200816648 -69.275043654016372 0 -69.275043654016372 -92.382404722133288 0 0 0 0 -45.998565959685834 -55.330377721334116 0 -55.330377721334116 -68.54709664987945 0 0 0 0 -62.287311969059147 -70.183764219482327 0 -70.183764219482327 -92.973056909805109 0 0 0 0 -27.833225647581855 -61.413038494213652 0 -61.413038494213652 -159.89091019333864 0 0 0 0 -49.681367422699594 -70.045173528618989 0 -70.045173528618989 -93.881623995788686 0 0 0 0 -60.085643218645828 -65.258454816505036 0 -65.258454816505036 -126.56654205800805 0 0 0 0 -105.24355870026056 -77.954615145066782 0 -77.954615145066782 -78.437599197113741 0 0 0 0 -75.097610625542984 -30.41371943676495 0 -30.41371943676495 -47.091598300699843 0 0 0 0 -45.067219005569541 -42.274933241968938 0 -42.274933241968938 -71.147210581782019 0 0 0 0 -5.206821521756865 125.88456346521343 0 125.88456346521343 -238.89984616588117 0 0 0 0 10.542200448888252 165.46995520470591 0 165.46995520470591 -449.41261794178263 0 0 0 0 -7.3672555606390233 -48.705645518775782 0 -48.705645518775782 -365.39961869508033 0 0 0 0 -92.968641909904392 -125.80292506801743 0 -125.80292506801743 -178.20757271208458 0 0 0 0 -6.5164335220542853 -15.139329107529193 0 -15.139329107529193 -286.63899450316785 0 0 0 0 -8.1707295755947484 -21.851472656359874 0 -21.851472656359874 -238.2906800555138 0 0 0 0 -12.431599768783258 9.6342838011105414 0 9.6342838011105414 -148.7618898094679 0 0 0 0 -21.128912385237527 111.65051101980134 0 111.65051101980134 -248.91342824459446 0 0 0 0 -4.0491122592570434 74.646276095772464 0 74.646276095772464 -168.75710675181108 0 0 0 0 23.298488000033728 70.040521336137317 0 70.040521336137317 -147.99596117767032 0 0 0 0 -5.200037914261145 84.632746995615889 0 84.632746995615889 -134.8462181262305 0 0 0 0 -0.35622470812228357 -10.60747386120056 0 -10.60747386120056 -129.10475305556793 0 0 0 0 28.877259951254814 7.2535457280329183 0 7.2535457280329183 -123.6258876073698 0 0 0 0 31.179766651025197 -13.055494155039696 0 -13.055494155039696 -38.49706433846768 0 0 0 0 12.962564622115963 58.423738289677203 0 58.423738289677203 -50.066759966575773 0 0 0 0 103.78517095175198 44.928254454644957 0 44.928254454644957 -94.469928748067105 0 0 0 0 58.211929897759433 12.39435152351632 0 12.39435152351632 0.89418597026087809 0 0 0 0 47.199735275386161 92.234121321610473 0 92.234121321610473 -120.44715218793863 0 0 0 0 -3.4186376847225404 92.659726296198642 0 92.659726296198642 -91.878899917213857 0 0 0 0 1.2301540585692123 106.03907164582597 0 106.03907164582597 -220.76272519468148 0 0 0 0 36.784746954195626 149.14231319209875 0 149.14231319209875 -195.89234422192749 0 0 0 0 53.626339075588561 140.04771849838289 0 140.04771849838289 -403.64983428770211 0 0 0 0 13.850158545919157 114.77097319963741 0 114.77097319963741 -274.11228390968427 0 0 0 0 -31.995130709818625 119.93343899113643 0 119.93343899113643 -168.07682760126409 0 0 0 0 -30.726807117082444 119.94243679525653 0 119.94243679525653 -177.60185922485107 0 0 0 0 0.017166945503536368 130.02867513345274 0 130.02867513345274 -165.02338496893935 0 0 0 0 -20.545330220756284 106.3304237185348 0 106.3304237185348 -117.25689696965401 0 0 0 0 -46.564334050362618 141.58115812016149 0 141.58115812016149 -156.72176184730779 0 0 0 0 -24.661963291922689 138.19484417943659 0 138.19484417943659 -186.43678012019927 0 0 0 0 -61.83758191029932 143.02668345464463 0 143.02668345464463 -156.82395511633331 0 0 0 0 -74.241883042439099 138.08812564986965 0 138.08812564986965 -154.81201751788831 0 0 0 0 22.505364506005662 47.628054137248 0 47.628054137248 19.436680384742658 0 0 0 0 -73.938225741511928 143.63963633654294 0 143.63963633654294 -64.841710762728326 0 0 0 0 -81.143720266235277 200.44298404441042 0 200.44298404441042 -243.71727728594669 0 0 0 0 -56.884572444310379 227.56535719272506 0 227.56535719272506 -213.55521346997921 0 0 0 0 -0.23867909556640221 0.83842828876435505 0 0.83842828876435505 -0.40880237751952375 0 0 0 0 -123.04166430151872 -167.45385133295645 0 -167.45385133295645 -219.59763713407361 0 0 0 0 -178.19729937296506 -395.77928902145027 0 -395.77928902145027 -887.96069798273743 0 0 0 0 -309.17944470232715 -646.35621891058918 0 -646.35621891058918 -526.96181347083802 0 0 0 0 -637.48708042332157 -187.7617747117103 0 -187.7617747117103 -421.37536988437705 0 0 0 0 -373.13986986267787 293.24664748741924 0 293.24664748741924 -424.65719453517659 0 0 0 0 -126.16247017693854 62.757084796078516 0 62.757084796078516 -224.17945167416156 0 0 0 0 -72.932819138328128 297.35651090212218 0 297.35651090212218 42.787281161363353 0 0 0 0 322.68737881867185 -14.213962818786058 0 -14.213962818786058 -72.100458013110256 0 0 0 0 1.0555419423990866 -0.41261382547346281 0 -0.41261382547346281 -32.77569384002269 0 0 0 0 112.2994285209767 -30.28418325167695 0 -30.28418325167695 -4.7523296744402614 0 0 0 0 242.49387942996486 -51.078425177998724 0 -51.078425177998724 -32.207416816910154 0 0 0 0 165.71964743651449 55.643816951409462 0 55.643816951409462 -48.563539753386976 0 0 0 0 116.74364588039995 -3.5816141263416057 0 -3.5816141263416057 3.3199775684370252 0 0 0 0 1.0533703869947433 -2.7601079796963894 0 -2.7601079796963894 -31.01509265283828 0 0 0 0 47.755191683193402 -404.67372947120691 0 -404.67372947120691 102.11442053994688 0 0 0 0 972.29290314566447 -142.60676928049497 0 -142.60676928049497 -556.76746920134883 0 0 0 0 -121.73592734718909 406.09502285768667 0 406.09502285768667 -256.64237350957228 0 0 0 0 340.45308264556786 -65.163682312312631 0 -65.163682312312631 -57.786825037928793 0 0 0 0 7.3726395296989722 63.716264647175194 0 63.716264647175194 104.82535044842552 0 0 0 0 12.88980940922545 135.49934071324151 0 135.49934071324151 -88.482321035811765 0 0 0 0 54.87534852714839 111.84117616989533 0 111.84117616989533 -202.50104346825174 0 0 0 0 154.96094158870551 132.76819829560827 0 132.76819829560827 -647.04208044880943 0 0 0 0 13.723247162679968 146.79896834763713 0 146.79896834763713 -197.49966117512213 0 0 0 0 133.96911326481194 220.51970116522853 0 220.51970116522853 -322.68715433576563 0 0 0 0 -0.27429702818199725 -3.0120680253327574 0 -3.0120680253327574 -13.316677964076032 0 0 0 0 -693.35341815388017 -869.09613027753403 0 -869.09613027753403 150.26761878068282 0 0 0 0 -497.47960368100803 -827.04382756249288 0 -827.04382756249288 -176.82530655559458 0 0 0 0 -3.0401533477048526 -4.626419489508427 0 -4.626419489508427 -5.2116410493034913 0 0 0 0 -451.73193751509802 -976.42449715927069 0 -976.42449715927069 -7.5940524899081083 0 0 0 0 25.447295999541666 -47.553265528868678 0 -47.553265528868678 -580.26161126896022 0 0 0 0 -332.98631802265527 -700.83774579958822 0 -700.83774579958822 -635.4908989684518 0 0 0 0 -528.33348743055194 -683.41593410965106 0 -683.41593410965106 -274.23994760985317 0 0 0 0 -489.46210944885456 -355.50938243092457 0 -355.50938243092457 -35.631604197505112 0 0 0 0 23.437669373605331 129.45070524193898 0 129.45070524193898 -128.10308944436213 0 0 0 0 -131.12817129952805 14.089424160185899 0 14.089424160185899 19.842100108164232 0 0 0 0 -4.8847871148568922 -9.0234096457121815 0 -9.0234096457121815 -16.156666747864794 0 0 0 0 116.69258390044979 -38.327311356741347 0 -38.327311356741347 -20.655758024125134 0 0 0 0 -74.992799715315527 -19.545536688782022 0 -19.545536688782022 38.137842106941946 0 0 0 0 92.181066260556463 -118.86874355439627 0 -118.86874355439627 25.244519996724108 0 0 0 0 -153.74988363220444 -173.10635563407666 0 -173.10635563407666 25.325787235293177 0 0 0 0 -94.432839945991645 95.419389640551572 0 95.419389640551572 -110.53799454890873 0 0 0 0 -2.04575513487984 -3.6902612334441267 0 -3.6902612334441267 -7.0211210282045737 0 0 0 0 189.06030786926306 75.477973258138903 0 75.477973258138903 -933.63314953438919 0 0 0 0 26.091771368476202 -235.76171169564964 0 -235.76171169564964 -1034.2804765968222 0 0 0 0 -311.09007601584403 -236.12895181431159 0 -236.12895181431159 -744.35598961670837 0 0 0 0 11.051403679384748 -31.920770937221295 0 -31.920770937221295 -664.41718606431721 0 0 0 0 -154.9619197853284 -478.5977777820172 0 -478.5977777820172 -110.28988639205295 0 0 0 0 61.152241245225014 283.49593688640152 0 283.49593688640152 -939.22780172711191 0 0 0 0 -1.1360209300587758 -2.5858228626601916 0 -2.5858228626601916 -5.3291358797845785 0 0 0 0 146.86498008977128 -148.08770763385917 0 -148.08770763385917 -1163.274020541679 0 0 0 0 -5.7114748492439134 -294.74368559195557 0 -294.74368559195557 -629.12667799140263 0 0 0 0 -82.03863761155435 -330.36821075533499 0 -330.36821075533499 -470.41060945514903 0 0 0 0 -14.560135020615007 -108.09424720061628 0 -108.09424720061628 -405.14221940780601 0 0 0 0 0.33450750170398358 -0.52370153621630555 0 -0.52370153621630555 -0.58285410811815663 0 0 0 0 -156.04811083363876 -232.16881536344346 0 -232.16881536344346 -287.96157111930233 0 0 0 0 -111.60439105950729 21.020550889899027 0 21.020550889899027 -1089.5004462038482 0 0 0 0 -29.889346837973903 -485.68442983363138 0 -485.68442983363138 -788.87402224499351 0 0 0 0 81.633954264368867 -105.68621669528838 0 -105.68621669528838 -507.13588817295226 0 0 0 0 -190.06911394069789 222.48067524836094 0 222.48067524836094 -858.53194818613031 0 0 0 0 30.99077821153935 81.29896207958609 0 81.29896207958609 -737.69625998880258 0 0 0 0 30.145172439684984 56.144061544137486 0 56.144061544137486 -334.45187244462045 0 0 0 0 -159.26845309233744 246.9267440842026 0 246.9267440842026 -354.37499006903045 0 0 0 0 -140.19817834314983 117.75465806629279 0 117.75465806629279 -44.012206876076561 0 0 0 0 -111.28085898262674 53.938829178097258 0 53.938829178097258 65.849140819901862 0 0 0 0 0.039099731268187998 0.28556778030380747 0 0.28556778030380747 -2.9545728243084692 0 0 0 0 -192.20819735896924 -106.83868310642231 0 -106.83868310642231 -57.156177348100428 0 0 0 0 -25.392533042934815 41.583809437560546 0 41.583809437560546 66.274122646679089 0 0 0 0 17.543674239516605 22.990081783347435 0 22.990081783347435 14.228081851523086 0 0 0 0 -17.619189100462279 -27.590506964059387 0 -27.590506964059387 -24.880322726444092 0 0 0 0 6.6510141687110718 -5.7268478529587128 0 -5.7268478529587128 -5.2884853867199126 0 0 0 0 0.20063222327977426 0.31798940164881784 0 0.31798940164881784 -5.8113569640102911 0 0 0 0 -16.880083251617407 6.9393462138741597 0 6.9393462138741597 12.235975981420097 0 0 0 0 -33.47070061380947 84.050445308989538 0 84.050445308989538 -104.70065471311602 0 0 0 0 -0.14129642737935533 -0.07757557180040342 0 -0.07757557180040342 0.1858113548071203 0 0 0 0 -0.86260351930587831 29.00771635872502 0 29.00771635872502 -110.73469061583123 0 0 0 0 -19.762459620387261 71.298090779739141 0 71.298090779739141 -123.49816347743626 0 0 0 0 0.22699369067183284 42.939679646441164 0 42.939679646441164 -161.9185839001002 0 0 0 0 4.7625416787829522 93.985799305384376 0 93.985799305384376 -348.10089181471267 0 0 0 0 -3.5548573373855561 103.06945629610266 0 103.06945629610266 -222.80854205436094 0 0 0 0 4.2288803059007591 49.947278113362472 0 49.947278113362472 -137.8331796165071 0 0 0 0 -1.1992623736632595 58.829228837685378 0 58.829228837685378 -135.58803981779766 0 0 0 0 0.1338108366583981 47.966504180001266 0 47.966504180001266 -201.56125065565834 0 0 0 0 -6.334954039682259 59.297495524580881 0 59.297495524580881 -141.06636590299036 0 0 0 0 -14.84619927985824 49.760822844454538 0 49.760822844454538 -136.79897413793708 0 0 0 0 -4.176609853334071 2.4598308596805509 0 2.4598308596805509 -225.15350762219214 0 0 0 0 -26.94537179357593 6.5979105153345472 0 6.5979105153345472 -157.11491199351264 0 0 0 0 -7.9816327544730825 12.201294457006725 0 12.201294457006725 -189.18786488783098 0 0 0 0 -17.611842285313003 -37.032788980481428 0 -37.032788980481428 -209.44943338408132 0 0 0 0 39.344388873231537 29.302809013496244 0 29.302809013496244 -396.70133593672949 0 0 0 0 17.484982650684088 17.949866851946695 0 17.949866851946695 -289.31848287270896 0 0 0 0 2.345949050625677 -2.6801360940854693 0 -2.6801360940854693 -283.96135836339869 0 0 0 0 -27.195502181606173 -64.794861509883049 0 -64.794861509883049 -258.30426307031308 0 0 0 0 1.6561695693261811 -68.656783821955003 0 -68.656783821955003 -331.90877437207973 0 0 0 0 -27.072149060239155 -106.5176019510086 0 -106.5176019510086 -381.80104015689705 0 0 0 0 -99.111219773085153 -125.1272134770814 0 -125.1272134770814 -280.79710781330436 0 0 0 0 0.4437241344243652 -0.86109338861081408 0 -0.86109338861081408 -0.27421306319159378 0 0 0 0 -71.108081284995905 -167.58338106235135 0 -167.58338106235135 -247.31637169047553 0 0 0 0 -107.66579246017608 -165.78091221297996 0 -165.78091221297996 -80.75104807433587 0 0 0 0 -105.63870220245184 -165.83855746184827 0 -165.83855746184827 -137.7958065759085 0 0 0 0 -103.26594223459443 -180.97924184081671 0 -180.97924184081671 -141.3729713252726 0 0 0 0 0.71684808480088691 -65.486122386101385 0 -65.486122386101385 -249.61676398204418 0 0 0 0 0.1548841818191462 -0.33790981590417202 0 -0.33790981590417202 -0.1324642070028923 0 0 0 0 -93.106743908983788 -84.189367695142892 0 -84.189367695142892 -24.995454482286505 0 0 0 0 -46.001445813259494 -105.22640108338396 0 -105.22640108338396 -101.57086452604972 0 0 0 0 -12.438770656205946 -57.903639698278653 0 -57.903639698278653 -30.646989740391518 0 0 0 0 -124.33399801255064 -103.38615028036816 0 -103.38615028036816 -22.888255384986479 0 0 0 0 -75.625821687693445 -99.36179556216598 0 -99.36179556216598 -44.055444075645482 0 0 0 0 -92.571568499431436 -162.30685342853536 0 -162.30685342853536 -83.953503467545488 0 0 0 0 -139.88578834553746 -167.36281334369937 0 -167.36281334369937 -75.844069336804864 0 0 0 0 -175.72891798755626 -205.30644218664986 0 -205.30644218664986 -113.50954963012009 0 0 0 0 -174.35737426835223 -116.25867173555159 0 -116.25867173555159 -77.141866377641236 0 0 0 0 -184.76912059048442 -131.86215100494383 0 -131.86215100494383 -40.871502560752532 0 0 0 0 -110.90895733873735 -166.45069285030752 0 -166.45069285030752 -85.648415379749167 0 0 0 0 -96.936893920591729 -196.31671357732625 0 -196.31671357732625 -102.38508908278232 0 0 0 0 -67.493491955266677 -193.59858218029899 0 -193.59858218029899 -136.61554496778331 0 0 0 0 -134.33928442746804 -198.35934475536814 0 -198.35934475536814 -93.177178951269525 0 0 0 0 -57.610916682158674 -153.81479831114137 0 -153.81479831114137 -87.507744805149741 0 0 0 0 -22.798353272896748 -163.57492181652469 0 -163.57492181652469 -108.17723236346501 0 0 0 0 -36.122655997521647 -124.21141669786954 0 -124.21141669786954 -72.670613578198299 0 0 0 0 70.530095337831199 -92.18241132882531 0 -92.18241132882531 -104.70148703566747 0 0 0 0 -5.8236037640901372 -147.55741604202501 0 -147.55741604202501 -104.74068668730251 0 0 0 0 9.3909698519610743 -49.190803559266215 0 -49.190803559266215 -60.965692681888754 0 0 0 0 71.999923562058825 -100.50987607296815 0 -100.50987607296815 -77.248364675579182 0 0 0 0 140.16557411398657 1.5553649702121106 0 1.5553649702121106 -51.353977158036741 0 0 0 0 135.67399340923382 -43.59297167080922 0 -43.59297167080922 -88.126011433231724 0 0 0 0 145.36613211107206 19.59333137291037 0 19.59333137291037 -48.864806962164778 0 0 0 0 1.1849710252008225 4.6179668447396232 0 4.6179668447396232 -26.752815333579424 0 0 0 0 133.10870337623754 10.608512885352297 0 10.608512885352297 -29.663508046116476 0 0 0 0 131.86262735431129 3.3959672001112153 0 3.3959672001112153 -68.173932843099465 0 0 0 0 98.105387126383647 -27.050432123039286 0 -27.050432123039286 -38.614384957284528 0 0 0 0 98.086682663475159 -30.401449148792608 0 -30.401449148792608 -77.998636976693433 0 0 0 0 -2.7684143254312024 -5.8302233642088455 0 -5.8302233642088455 -15.627316994925287 0 0 0 0 121.53245417645729 -15.146825866741779 0 -15.146825866741779 -35.988437761233399 0 0 0 0 127.28621121103907 -27.710557475245196 0 -27.710557475245196 -38.858910877424478 0 0 0 0 -3.0535648384048906 -6.3672545018396498 0 -6.3672545018396498 -11.125603092889698 0 0 0 0 76.591002387665981 -8.5727076359004286 0 -8.5727076359004286 -163.06267667585439 0 0 0 0 -320.36040282551096 66.449171463497805 0 66.449171463497805 -46.18581826503123 0 0 0 0 225.29257985285091 -126.08668506497258 0 -126.08668506497258 -10.571432391497211 0 0 0 0 146.28256393652754 8.2711587750574154 0 8.2711587750574154 -55.016608763303793 0 0 0 0 -156.59096952332976 -97.634061292972092 0 -97.634061292972092 100.4021812866954 0 0 0 0 -71.08085741564031 -85.112342917050455 0 -85.112342917050455 -128.17888810884699 0 0 0 0 -154.94858568441137 -298.16657960663849 0 -298.16657960663849 -200.22225796864359 0 0 0 0 -44.275344754683033 -126.29409735385354 0 -126.29409735385354 -108.97853319319324 0 0 0 0 -137.89398755110102 -201.7580609129169 0 -201.7580609129169 -113.36751756008857 0 0 0 0 -82.312923117629282 -102.22650663438014 0 -102.22650663438014 -42.035346002659935 0 0 0 0 17.334548723704103 11.905576262641262 0 11.905576262641262 -177.08661683629907 0 0 0 0 0.048134272884599372 -0.091076525503282824 0 -0.091076525503282824 -0.13837302888745384 0 0 0 0 -45.442529006897203 27.905742840699531 0 27.905742840699531 -109.92213511102455 0 0 0 0 -26.742055822701694 128.26442710530318 0 128.26442710530318 -315.40475377324583 0 0 0 0 -0.2280802607321549 -32.667788176406681 0 -32.667788176406681 -213.15825036299793 0 0 0 0 -57.85922639574845 80.31350346022009 0 80.31350346022009 -155.50751330147341 0 0 0 0 8.3299749419093132 20.400044524940313 0 20.400044524940313 -131.22867495191167 0 0 0 0 -18.692236963700907 45.97378351399675 0 45.97378351399675 -120.22974713441363 0 0 0 0 -4.5020225578196005 17.013089574622427 0 17.013089574622427 -94.868295307391236 0 0 0 0 -6.8749702242219541 0.32617803540051682 0 0.32617803540051682 -64.789482546460931 0 0 0 0 23.996085039953641 -7.114030041913793 0 -7.114030041913793 -66.047515488273348 0 0 0 0 7.3881834957896189 -24.458551559966509 0 -24.458551559966509 -73.755507685084012 0 0 0 0 -11.152581352099901 4.9745932520090719 0 4.9745932520090719 -37.213479392510635 0 0 0 0 -0.018373702097019384 -0.24159912081965729 0 -0.24159912081965729 0.010823753352941168 0 0 0 0 25.014070964895978 -43.600583339687546 0 -43.600583339687546 -42.909268776395038 0 0 0 0 2.7003857015621033 -0.63876539268790111 0 -0.63876539268790111 1.0207450045270861 0 0 0 0 -10.965011797727811 -8.6391470577473228 0 -8.6391470577473228 17.138167706001695 0 0 0 0 49.000706700825702 16.182100690424704 0 16.182100690424704 -34.933899852803734 0 0 0 0 80.137373317434623 2.0156701237719972 0 2.0156701237719972 -125.71108812310558 0 0 0 0 0.93681984739373569 -1.800477828567125 0 -1.800477828567125 -9.9276015855225381 0 0 0 0 -11.525509911028678 -20.559148822219868 0 -20.559148822219868 -79.74405618734454 0 0 0 0 49.925116369908608 10.719789344424498 0 10.719789344424498 -64.971974461244827 0 0 0 0 -21.38642303357355 31.293010820716518 0 31.293010820716518 -55.119300712067343 0 0 0 0 -0.13150756076242118 19.058859132011094 0 19.058859132011094 22.450432628043927 0 0 0 0 0.92249555838131747 -0.13111222389545674 0 -0.13111222389545674 -0.18405395018942983 0 0 0 0 4.9741461297775551 48.584611849046269 0 48.584611849046269 -47.869642856101564 0 0 0 0 -39.343451235760746 -8.58987445450839 0 -8.58987445450839 71.585210062257829 0 0 0 0 51.317249943024393 -24.171389175120567 0 -24.171389175120567 -69.304276131175357 0 0 0 0 -109.13847160083922 -96.284269742747711 0 -96.284269742747711 -127.05090405657756 0 0 0 0 28.972095939768906 38.125985964077699 0 38.125985964077699 -96.985963180228282 0 0 0 0 29.185937220084529 51.063542968970069 0 51.063542968970069 -74.804009153809602 0 0 0 0 57.604421618555421 75.491471747709511 0 75.491471747709511 -7.3131110944115676 0 0 0 0 0.20575804316664642 -1.9647364223346813 0 -1.9647364223346813 -462.26522805595596 0 0 0 0 -306.41486636440561 -138.85782831766846 0 -138.85782831766846 -1498.9839168697836 0 0 0 0 65.003493387315842 -321.80048000648776 0 -321.80048000648776 -16.128386458942259 0 0 0 0 -0.45446982569764416 -2.1723877392502544 0 -2.1723877392502544 -5.3558157939291391 0 0 0 0 86.863959023992635 -389.94343163476719 0 -389.94343163476719 -1679.5388640207675 0 0 0 0 22.541783750981065 385.7658432403623 0 385.7658432403623 -1692.9354493848696 0 0 0 0 41.614784415132888 10.267682459818388 0 10.267682459818388 -528.80770716202096 0 0 0 0 40.941250753480503 35.688966498655645 0 35.688966498655645 -525.73129916850667 0 0 0 0 -1.3331893992238746 -5.807609113492056 0 -5.807609113492056 -9.8512679740172473 0 0 0 0 126.63211879057494 -70.738775305086165 0 -70.738775305086165 -23.734228579633054 0 0 0 0 43.026578909312889 11.969533874827903 0 11.969533874827903 -50.49452288811699 0 0 0 0 29.130051496894055 28.560355659734341 0 28.560355659734341 -55.860927785669446 0 0 0 0 11.087793325093998 7.8998729894410644 0 7.8998729894410644 -45.477592499941238 0 0 0 0 51.072390155145371 -3.5874850910495297 0 -3.5874850910495297 -42.144514394363796 0 0 0 0 -1.3097339859078885 -3.4831782551956678 0 -3.4831782551956678 -15.53692933537981 0 0 0 0 -7.2934655664739836 -56.136544621025678 0 -56.136544621025678 -16.958284734195331 0 0 0 0 -74.988651860220216 32.875106044568383 0 32.875106044568383 -44.063697996778501 0 0 0 0 -1.6193329406258599 19.250989941664031 0 19.250989941664031 -24.103724662237781 0 0 0 0 -19.671886907161415 62.727519995040325 0 62.727519995040325 -10.287915756525763 0 0 0 0 -66.900180284176884 6.9696283579232841 0 6.9696283579232841 -35.361862617392035 0 0 0 0 -100.38821003983688 51.398031029726553 0 51.398031029726553 -21.108471517467137 0 0 0 0 -4.1277481356327428 46.580903496907922 0 46.580903496907922 -245.955699457234 0 0 0 0 -165.74853095892811 -634.07632442771865 0 -634.07632442771865 -1500.3772562131203 0 0 0 0 -260.42928028749947 -178.17010840436706 0 -178.17010840436706 -298.7438844019598 0 0 0 0 27.291657798691546 -44.535392730200329 0 -44.535392730200329 -102.74522516632715 0 0 0 0 0.71106841936847331 22.619622636939312 0 22.619622636939312 -223.74953072870994 0 0 0 0 -139.72195995442675 -325.67409573326222 0 -325.67409573326222 -135.32686790357002 0 0 0 0 -119.07154038801036 -175.89269465806501 0 -175.89269465806501 197.56813023795257 0 0 0 0 48.180025474677386 -134.69310889370536 0 -134.69310889370536 -1926.8770860595323 0 0 0 0 -1.8540863854556708 -2.2314018865163519 0 -2.2314018865163519 -1.9294007668672997 0 0 0 0 75.778557686949057 -442.00537811048707 0 -442.00537811048707 -1452.8335190161633 0 0 0 0 107.79879968145444 36.533001855481416 0 36.533001855481416 -833.82731862245419 0 0 0 0 -191.03337244320574 -405.25470728317032 0 -405.25470728317032 -838.69885924848131 0 0 0 0 -4.2556771850122619 -5.4579711653414549 0 -5.4579711653414549 -2.4649199537505666 0 0 0 0 15.111159338029665 -32.539774236727681 0 -32.539774236727681 12.705607968604454 0 0 0 0 -19.593875950684946 0.97784937829055707 0 0.97784937829055707 -7.3494998732276144 0 0 0 0 -0.64831944038977052 -1.1659264234354012 0 -1.1659264234354012 -3.6797649032892679 0 0 0 0 164.27850955433937 204.26428951311391 0 204.26428951311391 -1498.9570421163871 0 0 0 0 86.89445639172493 14.093241725737244 0 14.093241725737244 -50.798902162330705 0 0 0 0 48.082261569594607 -41.038341162220604 0 -41.038341162220604 -23.235752920765663 0 0 0 0 11.065979061600956 4.8436537182205939 0 4.8436537182205939 -75.297041768515555 0 0 0 0 40.292987030148652 -23.629181396787317 0 -23.629181396787317 -60.001665894182224 0 0 0 0 -3.2027763228084041 -4.6141904636315303 0 -4.6141904636315303 -11.584519397758413 0 0 0 0 -0.12154546831925472 -7.9634874847324681 0 -7.9634874847324681 -44.393917608555057 0 0 0 0 -23.318748272366292 18.652283790768706 0 18.652283790768706 -11.594251725611684 0 0 0 0 41.123233769152534 13.959559652897951 0 13.959559652897951 -73.370332934318867 0 0 0 0 0.996809051715279 19.387738473430545 0 19.387738473430545 -17.205821108744452 0 0 0 0 27.590743585856671 41.509888991382468 0 41.509888991382468 -113.60374190623338 0 0 0 0 -4.731162710512308 -30.356166214183759 0 -30.356166214183759 -53.690082318469649 0 0 0 0 50.125329499490817 -23.694098657320865 0 -23.694098657320865 -120.86964249813173 0 0 0 0 -15.915475771960018 39.662777264224133 0 39.662777264224133 -149.45501588002298 0 0 0 0 58.946597554771216 2.0837970225429672 0 2.0837970225429672 -176.47026324665785 0 0 0 0 7.4536366764418744 20.092165576545085 0 20.092165576545085 -67.879208002573932 0 0 0 0 -50.710864143807612 -2.2528669116654783 0 -2.2528669116654783 -108.72287898116338 0 0 0 0 -14.379942771260176 8.912357068820711 0 8.912357068820711 -107.74253222587868 0 0 0 0 -13.925303135162192 -17.934728474895508 0 -17.934728474895508 -108.36644143189187 0 0 0 0 -15.309257523710585 -2.0858136378519703 0 -2.0858136378519703 -110.54573920199437 0 0 0 0 -16.264629366962481 -3.1051800646710035 0 -3.1051800646710035 -70.673077073370223 0 0 0 0 2.747984217733574 1.6879562879803416 0 1.6879562879803416 -115.25684213880595 0 0 0 0 4.3506920593667928 -10.239864861498063 0 -10.239864861498063 -96.600039977558481 0 0 0 0 -1.0682096103831551 -0.80173005019436516 0 -0.80173005019436516 -0.47948424135590528 0 0 0 0 8.8267554374874635 10.411995394781115 0 10.411995394781115 -147.39177714652737 0 0 0 0 2.9582169055020131 3.7536326640401967 0 3.7536326640401967 -114.53793330819462 0 0 0 0 5.4733303452369455 -0.093941594117495697 0 -0.093941594117495697 -139.34927867278748 0 0 0 0 -3.125462565430098 -10.611529366913601 0 -10.611529366913601 -147.64119080624369 0 0 0 0 45.035351948399239 -51.845555586281989 0 -51.845555586281989 -135.73328991577728 0 0 0 0 -30.496723190276498 -20.362670095921203 0 -20.362670095921203 -130.61110270574864 0 0 0 0 197.0015201656779 -56.574205489087035 0 -56.574205489087035 -349.55778238130733 0 0 0 0 -15.369521111224913 37.667354136581707 0 37.667354136581707 -90.900121512466285 0 0 0 0 -25.55686140438479 97.312264082663205 0 97.312264082663205 -184.53497549894382 0 0 0 0 -1.1074598022527025 -3.0296357067181106 0 -3.0296357067181106 1.0782854717943735 0 0 0 0 19.078349096647344 6.391033254818467 0 6.391033254818467 -110.91869955251605 0 0 0 0 18.494158124289697 3.6181963122362504 0 3.6181963122362504 -116.31352457837784 0 0 0 0 12.048773376649478 25.312972637228086 0 25.312972637228086 -153.38069844243728 0 0 0 0 21.603204046085011 -12.392930957859789 0 -12.392930957859789 -98.656279431037547 0 0 0 0 -18.959968294195278 31.24053701574303 0 31.24053701574303 -64.828306103576324 0 0 0 0 -0.0052774350507753809 -3.4824488502042499 0 -3.4824488502042499 -5.5908350264456095 0 0 0 0 -25.359904182333594 -21.720816252094664 0 -21.720816252094664 -12.315711872604879 0 0 0 0 1.1629614160760866 -4.6194540220349154 0 -4.6194540220349154 -28.833873243405833 0 0 0 0 1.4369714370094313 -3.9659017018969109 0 -3.9659017018969109 -16.622194656798797 0 0 0 0 1.3487165675267525 -1.6463793434368981 0 -1.6463793434368981 -10.739900625311293 0 0 0 0 2.215862527571403 -4.33446605350764 0 -4.33446605350764 -7.0090278499919805 0 0 0 0 -4.9103949132206708 -10.050377372526782 0 -10.050377372526782 -0.19216222851537168 0 0 0 0 1.0848354020620263 -3.5743141899201873 0 -3.5743141899201873 -30.922259826911613 0 0 0 0 4.6020900857853313 -8.9992762566370104 0 -8.9992762566370104 -24.865651700314032 0 0 0 0 2.2375146915741899 -9.6081183401934283 0 -9.6081183401934283 -14.987071538647761 0 0 0 0 44.153658085969255 34.837613964919001 0 34.837613964919001 -192.83383056370803 0 0 0 0 7.6521442415662477 15.96646536103799 0 15.96646536103799 -65.671184210401407 0 0 0 0 -0.75803593989880902 -0.17100470973353055 0 -0.17100470973353055 -0.23612827156090788 0 0 0 0 -12.174403196561343 -55.332572801267816 0 -55.332572801267816 -65.578460206110321 0 0 0 0 -152.26331707959616 162.00069240185258 0 162.00069240185258 -165.67714560593595 0 0 0 0 -15.567819880684283 -73.674353876795067 0 -73.674353876795067 -74.550516655745923 0 0 0 0 22.508155689833529 7.9183609552437701 0 7.9183609552437701 -83.944566803143971 0 0 0 0 3.1559783955697038 -19.506340126968112 0 -19.506340126968112 -42.132379640051767 0 0 0 0 -16.904937006406044 8.3703967803958221 0 8.3703967803958221 -94.70541529755792 0 0 0 0 4.7252737310295263 -19.651996015971235 0 -19.651996015971235 -79.168735015489801 0 0 0 0 6.8790753147306987 -17.560469592654044 0 -17.560469592654044 -32.434545279764279 0 0 0 0 13.385125796118245 -10.003295007900306 0 -10.003295007900306 -27.202795948207495 0 0 0 0 4.2188847079495089 -0.29375099912569169 0 -0.29375099912569169 -9.5403783091859111 0 0 0 0 7.2622440185032247 -17.775069913423067 0 -17.775069913423067 -32.315189782028028 0 0 0 0 10.901096627577544 -16.914520123420516 0 -16.914520123420516 -43.230396719191049 0 0 0 0 10.594829118260296 -17.47549597061078 0 -17.47549597061078 -43.6666509153074 0 0 0 0 5.1115762107622231 -24.945295204881404 0 -24.945295204881404 -29.426926822183304 0 0 0 0 10.43750495099448 -13.128119645672996 0 -13.128119645672996 -58.081164623479708 0 0 0 0 9.9240328007713288 -23.982797089374799 0 -23.982797089374799 -49.609819518133008 0 0 0 0 -8.7652309378388509 -15.08525009902587 0 -15.08525009902587 -52.566643799302256 0 0 0 0 37.303925398932051 -13.241849187019398 0 -13.241849187019398 -59.230066908454319 0 0 0 0 36.198780682191 14.042028177078464 0 14.042028177078464 -30.456668134029314 0 0 0 0 0.97693293568883632 44.038796024681687 0 44.038796024681687 -34.082132199357147 0 0 0 0 -0.5924270227752686 24.362297358828073 0 24.362297358828073 -34.614774930072713 0 0 0 0 0.63824642490777217 5.8410494379977997 0 5.8410494379977997 -4.4582632731601137 0 0 0 0 0.85821146606695864 7.4472543623441751 0 7.4472543623441751 -28.066042746543062 0 0 0 0 0.33704342372165219 3.0729047078498013 0 3.0729047078498013 -31.86595384016573 0 0 0 0 17.830773678684153 4.8381410849760869 0 4.8381410849760869 -16.132209914881969 0 0 0 0 2.0361036398174575 1.2361583237024973 0 1.2361583237024973 -12.400579532138323 0 0 0 0 3.6081348400653894 2.806796603183102 0 2.806796603183102 -13.180039256563759 0 0 0 0 2.7337544897602593 15.454162376344811 0 15.454162376344811 -32.299608149596295 0 0 0 0 10.724776090532941 1.9592816946096718 0 1.9592816946096718 -27.650264850439271 0 0 0 0 1.5170877938219309 0.90318032774845491 0 0.90318032774845491 -16.215019427339115 0 0 0 0 1.4897870517832164 -4.8192375026260539 0 -4.8192375026260539 -2.0162812409530773 0 0 0 0 9.7287731964663635 -0.2027199358890357 0 -0.2027199358890357 -32.331283116247505 0 0 0 0 17.148027665104621 -1.6259617979030736 0 -1.6259617979030736 -42.81644754568697 0 0 0 0 13.217233368243569 -3.3227230870052153 0 -3.3227230870052153 -41.529470732872142 0 0 0 0 -3.092778825744972 -3.4955307794152759 0 -3.4955307794152759 -27.407493607403012 0 0 0 0 20.443812766027577 13.312328102353604 0 13.312328102353604 -21.858641896156769 0 0 0 0 17.623278973701346 7.2167708513143225 0 7.2167708513143225 -29.933258425226086 0 0 0 0 16.278602255231135 11.0227929890425 0 11.0227929890425 -20.113263123598927 0 0 0 0 14.149628512217873 5.7730892619947554 0 5.7730892619947554 -15.693557986507585 0 0 0 0 20.776324996618939 11.127514410287404 0 11.127514410287404 -14.882760500448057 0 0 0 0 12.175103023277643 -0.85556221258593723 0 -0.85556221258593723 -22.178717221053375 0 0 0 0 21.079697699553662 -3.5300259319064935 0 -3.5300259319064935 -4.6164216407341883 0 0 0 0 65.494550332587266 -24.205549460828479 0 -24.205549460828479 -7.4916561018924313 0 0 0 0 -0.055179558468778978 0.89866234466285277 0 0.89866234466285277 -0.53617355769733166 0 0 0 0 72.452686921137058 18.255025467071391 0 18.255025467071391 -25.436746941843012 0 0 0 0 17.255186005262942 15.817199750288637 0 15.817199750288637 -12.906987022121029 0 0 0 0 39.436560417100253 10.859549248990334 0 10.859549248990334 -24.841475065215491 0 0 0 0 17.647849923196919 17.775495270744386 0 17.775495270744386 -16.294132773022284 0 0 0 0 -43.321529929102923 36.498600308303139 0 36.498600308303139 -30.856394648766582 0 0 0 0 -20.554893069202279 30.219643595506568 0 30.219643595506568 -6.8218614727520617 0 0 0 0 -23.393858364098861 15.218335135432426 0 15.218335135432426 -8.9608799842662847 0 0 0 0 -60.199116885775879 15.563210116783011 0 15.563210116783011 4.0102896108128334 0 0 0 0 -54.722526455602612 28.835088642752453 0 28.835088642752453 8.5631318804189505 0 0 0 0 -49.519359064824542 16.627950486558348 0 16.627950486558348 -5.025355226440297 0 0 0 0 -20.697807742454188 12.855029890040896 0 12.855029890040896 -13.976321976841064 0 0 0 0 -23.938427133958442 23.072231882992128 0 23.072231882992128 -10.426525886633044 0 0 0 0 -47.336983834800364 6.5201535459923434 0 6.5201535459923434 -7.3303602416126523 0 0 0 0 -22.11141123924898 -16.325424313933581 0 -16.325424313933581 -36.282228024334472 0 0 0 0 -5.5480210833639205 29.664257525844732 0 29.664257525844732 -138.68173561734147 0 0 0 0 -32.954822607827793 16.76247069486999 0 16.76247069486999 -15.695926782351307 0 0 0 0 -24.36382272352671 69.239214689949222 0 69.239214689949222 -15.860690868881647 0 0 0 0 -50.574806851976604 -14.248384610082212 0 -14.248384610082212 -58.01380268975845 0 0 0 0 -56.793403305125487 2.010239229860872 0 2.010239229860872 -11.772399556095479 0 0 0 0 -61.291959620399268 0.20162780196096719 0 0.20162780196096719 -65.933681583512225 0 0 0 0 -18.774185033294124 -31.74635041476904 0 -31.74635041476904 -100.57215085470671 0 0 0 0 -21.262140470193565 -34.323122922040056 0 -34.323122922040056 -69.316356382158119 0 0 0 0 0.12400176402604754 -0.35894776846274112 0 -0.35894776846274112 -0.26074954397897798 0 0 0 0 -19.069292097276218 -11.306410338445858 0 -11.306410338445858 -34.30733847069132 0 0 0 0 -3.1095727172156984 -1.8600317431337317 0 -1.8600317431337317 -85.526763206156829 0 0 0 0 7.0849815805248681 -4.1837946329033002 0 -4.1837946329033002 -80.864907710369152 0 0 0 0 12.814270747294131 7.6753033015156689 0 7.6753033015156689 -77.477632163213457 0 0 0 0 -0.25197589976397672 -0.78029427296876008 0 -0.78029427296876008 -0.48697435463816063 0 0 0 0 8.7634062818339089 2.4455155866653513 0 2.4455155866653513 -92.347276571195835 0 0 0 0 12.546747026809953 4.3075698517932324 0 4.3075698517932324 -91.805803672590741 0 0 0 0 15.405040579507613 -1.2564645984821254 0 -1.2564645984821254 -91.848893930298402 0 0 0 0 25.919293924605654 15.828026271621638 0 15.828026271621638 -161.04485877764637 0 0 0 0 40.091996916555587 -36.893818578932951 0 -36.893818578932951 -138.72962148204533 0 0 0 0 19.926778189161894 19.98158276662798 0 19.98158276662798 -19.161000694171435 0 0 0 0 20.773525534544774 15.994349480359233 0 15.994349480359233 -27.130985877612147 0 0 0 0 0.93398793366900978 -0.49563797741898696 0 -0.49563797741898696 -1.0835966025978081 0 0 0 0 -18.691516248004291 14.877610050127259 0 14.877610050127259 -58.370607121955345 0 0 0 0 11.335625166520742 13.792623039544196 0 13.792623039544196 -0.81931307199920411 0 0 0 0 3.1510559337716586 -3.6949995007853431 0 -3.6949995007853431 -17.341831656245631 0 0 0 0 5.0228858482871601 2.3841327961708885 0 2.3841327961708885 -18.4776115653749 0 0 0 0 -8.3840189621623722 63.597067867745864 0 63.597067867745864 -106.98180428343039 0 0 0 0 -0.17507658182829888 -0.26493203031683166 0 -0.26493203031683166 -0.74325144149820233 0 0 0 0 -0.11380399401014074 -39.023590158678417 0 -39.023590158678417 -98.5611429362325 0 0 0 0 -17.17031548972318 36.813410084345378 0 36.813410084345378 -102.70588960673194 0 0 0 0 0.073703627559794427 -37.386521569044589 0 -37.386521569044589 -163.14887604996329 0 0 0 0 20.774692945550271 -5.4033398891860998 0 -5.4033398891860998 -140.62776908022352 0 0 0 0 -1.0593801559334679 47.580653899276513 0 47.580653899276513 -208.43393887447019 0 0 0 0 -43.271372135748607 71.806436206788931 0 71.806436206788931 -123.06305587480892 0 0 0 0 -47.996945913992022 92.732277827657526 0 92.732277827657526 -158.59687738917273 0 0 0 0 8.1052124845446087 13.189461354180821 0 13.189461354180821 -123.4585556311722 0 0 0 0 9.3144210960499549 17.389070731733227 0 17.389070731733227 -159.45219085214194 0 0 0 0 -27.839303641148945 -8.5864033143807319 0 -8.5864033143807319 -160.12700054809102 0 0 0 0 2.8476402732183033 -4.7028683413300314 0 -4.7028683413300314 -93.819224029170073 0 0 0 0 -6.6832077670201215 4.4998455013483181 0 4.4998455013483181 -91.624302061740309 0 0 0 0 -19.033879972073464 16.815066915693023 0 16.815066915693023 -100.42708347715961 0 0 0 0 1.8223728758148354 26.752488041092874 0 26.752488041092874 -136.45613336039241 0 0 0 0 -15.737801319965797 28.189104428340215 0 28.189104428340215 -117.34268470690586 0 0 0 0 -4.4501064319620127 8.3107361243819469 0 8.3107361243819469 -103.69495617350185 0 0 0 0 4.8828391065426331 12.283539561147336 0 12.283539561147336 -132.63694407050752 0 0 0 0 1.9572635959020772 -10.942203895592684 0 -10.942203895592684 -63.14051871186166 0 0 0 0 14.426845520190682 -0.96592713638165151 0 -0.96592713638165151 -82.744724654006859 0 0 0 0 -6.7800227884124524 -3.5675214852280988 0 -3.5675214852280988 -82.701108929097245 0 0 0 0 -6.719313490241575 13.254234205236571 0 13.254234205236571 -99.015670988934289 0 0 0 0 4.3926747422840435 4.0097269810576108 0 4.0097269810576108 -100.66756883660173 0 0 0 0 14.496441382278988 -1.5387599037021573 0 -1.5387599037021573 -91.040284935254022 0 0 0 0 13.131103607050051 -1.3225080415377306 0 -1.3225080415377306 -88.802815635965089 0 0 0 0 14.004377891593776 -0.13896316417230992 0 -0.13896316417230992 -90.382313964812056 0 0 0 0 16.224315656604176 4.143179289309046 0 4.143179289309046 -86.975583931323854 0 0 0 0 8.2944261104703401 1.3012832684653404 0 1.3012832684653404 -87.523452186644136 0 0 0 0 0.47088169594820783 25.282565171253736 0 25.282565171253736 -31.762097973499294 0 0 0 0 -0.22025250990779455 8.9692628913153385 0 8.9692628913153385 -34.592025774130889 0 0 0 0 4.7762742104168083 6.3442403010203634 0 6.3442403010203634 -81.440498441290401 0 0 0 0 4.4930312003616706 14.418247862524368 0 14.418247862524368 -46.3442652860831 0 0 0 0 -13.132381885746781 -12.967388686945924 0 -12.967388686945924 -42.363314585243643 0 0 0 0 4.2205989572667768 16.687419709717929 0 16.687419709717929 -18.156448691413729 0 0 0 0 -16.621176301133119 -14.115136498778156 0 -14.115136498778156 -44.282152235406102 0 0 0 0 -8.1525464713114388 -19.244861896866496 0 -19.244861896866496 -61.945272459342959 0 0 0 0 -2.7246245736005221 -0.040491063518857118 0 -0.040491063518857118 -59.931897297645264 0 0 0 0 5.1558949895049295 -8.5053307568814489 0 -8.5053307568814489 -70.447116973315133 0 0 0 0 -218.93041459928159 304.67303634052587 0 304.67303634052587 -721.3559806910489 0 0 0 0 -1.4128073529463658 -0.88740606188839166 0 -0.88740606188839166 -6.5919241790105154 0 0 0 0 0.22159179555303465 -0.57865058362182964 0 -0.57865058362182964 -3.2209930112679501 0 0 0 0 -2.8783810424186003 -12.236128257715777 0 -12.236128257715777 -19.256192756514039 0 0 0 0 11.422322267089596 387.90838796242679 0 387.90838796242679 -1496.5059819870949 0 0 0 0 -141.40770756251197 231.72812864292609 0 231.72812864292609 -991.32866050351004 0 0 0 0 -123.78401387529368 406.53305498162445 0 406.53305498162445 -1006.9773678798374 0 0 0 0 -73.312264728928525 217.32789815218894 0 217.32789815218894 -1258.334288930113 0 0 0 0 -298.86718716065201 752.71196574107671 0 752.71196574107671 -1500.3654602628167 0 0 0 0 -172.39336451697093 506.91581513924393 0 506.91581513924393 -1045.9080456838201 0 0 0 0 -4.1049637432084483 -6.0272742098182945 0 -6.0272742098182945 -7.3106757248437688 0 0 0 0 -1.9102172499897279 0.062575251024099998 0 0.062575251024099998 -10.479948492360563 0 0 0 0 -129.59840471034863 297.61149467445898 0 297.61149467445898 -994.40236725397699 0 0 0 0 -3.4884016919323755 -4.0520013331802573 0 -4.0520013331802573 -4.7520939504708508 0 0 0 0 51.761054639149265 286.68966439341511 0 286.68966439341511 -556.23545376614857 0 0 0 0 0.51496177756753725 -0.10605796957597846 0 -0.10605796957597846 -5.1200160999218127 0 0 0 0 -242.41349140868181 -88.883277746244403 0 -88.883277746244403 -438.46698583694524 0 0 0 0 -146.20837859044281 721.99446854822054 0 721.99446854822054 -1497.923003377985 0 0 0 0 1.3380539521710544 5.0187208087176032 0 5.0187208087176032 -2.1120136931990601 0 0 0 0 -526.31990904625559 466.73508032439895 0 466.73508032439895 -426.34478957584724 0 0 0 0 -622.03938558039556 389.0130143482711 0 389.0130143482711 -270.20913433761598 0 0 0 0 -686.77988285328468 375.10610706271837 0 375.10610706271837 -148.10111079423223 0 0 0 0 -381.79757657219238 630.67845040411339 0 630.67845040411339 -240.37625014670948 0 0 0 0 171.38756405146023 -80.225986504399771 0 -80.225986504399771 -555.01569589201608 0 0 0 0 196.19576108079684 -97.703488137478416 0 -97.703488137478416 -573.87697520478105 0 0 0 0 -254.60515488058468 419.97071330797189 0 419.97071330797189 -1048.0218999194185 0 0 0 0 0.82204866139074406 -0.42205045138653574 0 -0.42205045138653574 -4.8001549481920591 0 0 0 0 -364.68549781369558 604.9933141986703 0 604.9933141986703 -854.25397994445666 0 0 0 0 253.32233032073032 -89.680082566712372 0 -89.680082566712372 -592.96246124809841 0 0 0 0 -16.34583263083826 29.579079000768616 0 29.579079000768616 -139.14365029376495 0 0 0 0 0.2220546899796294 1.4412405243767665 0 1.4412405243767665 0.98819795032839153 0 0 0 0 -2.5883375447774366 10.67433761805114 0 10.67433761805114 -34.71692770266236 0 0 0 0 -8.0866247459212843 47.325720909457232 0 47.325720909457232 -101.0125068551788 0 0 0 0 -8.0633664688442366 23.701702666410711 0 23.701702666410711 -35.264116826639565 0 0 0 0 -2.1248425020857269 27.839649893030582 0 27.839649893030582 -53.201197304568268 0 0 0 0 9.077216470140911 5.9433677678316599 0 5.9433677678316599 -81.578071993208141 0 0 0 0 9.6285880088750559 10.070249422184133 0 10.070249422184133 -95.739576294487051 0 0 0 0 -10.460531106744497 4.7011880038990057 0 4.7011880038990057 -107.93330479549968 0 0 0 0 8.6398573907208274 4.3930393978880602 0 4.3930393978880602 -119.68356157795643 0 0 0 0 4.0255425398705142 -11.130408271044871 0 -11.130408271044871 -92.296214396592404 0 0 0 0 13.659270945817184 -2.4764079796295846 0 -2.4764079796295846 -102.22946463802509 0 0 0 0 -63.467699937220573 -5.3767837245904957 0 -5.3767837245904957 -142.79711156096892 0 0 0 0 -12.843022599072157 16.807949398618803 0 16.807949398618803 -139.85780091242486 0 0 0 0 -21.232845303981662 -17.531564994351356 0 -17.531564994351356 -98.844854565162677 0 0 0 0 -22.527731844296767 -0.21025072944030399 0 -0.21025072944030399 -109.07724370073356 0 0 0 0 -58.198597071723341 -23.872622499027557 0 -23.872622499027557 -123.14779399667896 0 0 0 0 -55.43525370800532 -7.2422582387935108 0 -7.2422582387935108 -147.61834466476284 0 0 0 0 -98.614538780201656 10.931851734978409 0 10.931851734978409 -102.06385088036768 0 0 0 0 -114.53602151182008 23.913344908847648 0 23.913344908847648 -151.93336556339455 0 0 0 0 -77.808093184561471 0.27409930956491735 0 0.27409930956491735 -162.4226553941171 0 0 0 0 -84.255882329654241 31.16866483521153 0 31.16866483521153 -184.04787310101619 0 0 0 0 -113.48727451683612 56.216759742979775 0 56.216759742979775 -181.49709756852508 0 0 0 0 -50.054418889259182 32.581297733726387 0 32.581297733726387 -288.02877700300451 0 0 0 0 -15.199324296017039 63.695762474817457 0 63.695762474817457 -302.46517697487798 0 0 0 0 -50.090507195489522 140.70139115005077 0 140.70139115005077 -466.12853344903851 0 0 0 0 -71.467182485409694 128.56264298152382 0 128.56264298152382 -255.08145343180513 0 0 0 0 -224.00862783672505 103.81377426995459 0 103.81377426995459 -190.56536172018969 0 0 0 0 -459.23702485945842 138.29279083597066 0 138.29279083597066 -90.993900164321531 0 0 0 0 -121.97670349364512 10.373148096754448 0 10.373148096754448 -146.24180767067082 0 0 0 0 -109.29934330926471 29.028153515369922 0 29.028153515369922 -157.97064662071352 0 0 0 0 -109.04197125653718 -9.5662724823123426 0 -9.5662724823123426 -135.50685558509576 0 0 0 0 -117.41028476061524 50.042202435433865 0 50.042202435433865 -188.51120118523249 0 0 0 0 -29.515502496029342 1.4425679134383245 0 1.4425679134383245 -243.73926662935264 0 0 0 0 -63.470136428508738 -13.478334124618414 0 -13.478334124618414 -151.6146818472771 0 0 0 0 -62.868599771997424 -7.0894724699974176 0 -7.0894724699974176 -190.19772348818515 0 0 0 0 -60.601224433536117 23.672229490526661 0 23.672229490526661 -175.97982626283556 0 0 0 0 -50.355865855271929 31.115830956096033 0 31.115830956096033 -245.55329571594484 0 0 0 0 -2.9931794186063598 -1.8160018101079913 0 -1.8160018101079913 -331.87047615122174 0 0 0 0 -23.914808386991808 -8.2453813457468641 0 -8.2453813457468641 -328.2204331392677 0 0 0 0 -21.547566552019134 -60.433736893326568 0 -60.433736893326568 -311.26173037628541 0 0 0 0 -44.031022635372835 -10.337138952645546 0 -10.337138952645546 -240.36081784721318 0 0 0 0 10.796727897497931 -33.807335511963174 0 -33.807335511963174 -432.1101770466048 0 0 0 0 37.919687686983252 -25.904964830115205 0 -25.904964830115205 -432.16724148311675 0 0 0 0 43.927093922642307 -56.949463562869596 0 -56.949463562869596 -562.64721127575467 0 0 0 0 30.40574965339249 -119.73552794617171 0 -119.73552794617171 -637.26310382760857 0 0 0 0 308.00461604366177 41.948168878036086 0 41.948168878036086 -591.72998494988133 0 0 0 0 79.984627274525565 206.41966139306169 0 206.41966139306169 -601.9474411146075 0 0 0 0 -282.18594852921876 355.37317896037712 0 355.37317896037712 -498.84988213877659 0 0 0 0 73.888967164948554 18.843524434774736 0 18.843524434774736 -452.78885846302182 0 0 0 0 83.999951241830658 66.673821845012981 0 66.673821845012981 -431.83872989473457 0 0 0 0 82.172268553161416 39.916008068048541 0 39.916008068048541 -487.73437342122634 0 0 0 0 0.088997036995976941 13.756513512833408 0 13.756513512833408 -443.95447637805773 0 0 0 0 163.26458408486573 -32.308889455964163 0 -32.308889455964163 -593.34473911845271 0 0 0 0 201.89719368938131 -18.379561140900478 0 -18.379561140900478 -592.49462789431482 0 0 0 0 75.029376159537094 -34.29348623650003 0 -34.29348623650003 -559.39990522331937 0 0 0 0 90.681863251218601 56.638282122858072 0 56.638282122858072 -614.11941978359755 0 0 0 0 136.8461491146652 -27.57402289158199 0 -27.57402289158199 -804.26838885430334 0 0 0 0 132.49388413383684 -38.936399187095049 0 -38.936399187095049 -667.06777796641836 0 0 0 0 341.32188912176605 -42.224653710948587 0 -42.224653710948587 -928.29860789571467 0 0 0 0 346.46078941701609 0.67853558102615352 0 0.67853558102615352 -1499.9750975264906 0 0 0 0 198.59771554997351 302.17333953223442 0 302.17333953223442 -1071.245992242857 0 0 0 0 125.24997378901402 -365.25281267804166 0 -365.25281267804166 -879.39247074453306 0 0 0 0 124.98585131500167 -388.79599326417156 0 -388.79599326417156 -999.80293710494152 0 0 0 0 323.38557955392935 -245.38168657794995 0 -245.38168657794995 -1499.7523231461694 0 0 0 0 146.46984294565038 -85.488183544117419 0 -85.488183544117419 -937.82360578370572 0 0 0 0 36.919627858881938 -186.38389745928362 0 -186.38389745928362 -646.32917736277523 0 0 0 0 83.911121668019177 -259.05046540787407 0 -259.05046540787407 -849.18148479933961 0 0 0 0 1.8952887043126623 -272.96194879049835 0 -272.96194879049835 -329.59555588712101 0 0 0 0 -47.916696883138513 -102.23329445730087 0 -102.23329445730087 -23.66092296856732 0 0 0 0 29.596882006301882 -155.96627017292303 0 -155.96627017292303 -427.07586052672559 0 0 0 0 15.043862927389796 -98.699393404448529 0 -98.699393404448529 -370.50170761127083 0 0 0 0 -29.568013505311171 -189.37631563636387 0 -189.37631563636387 -384.80835855079204 0 0 0 0 -13.42648739003954 -47.188570533699931 0 -47.188570533699931 -374.41535520676553 0 0 0 0 -49.382128779585059 -85.865627284940274 0 -85.865627284940274 -218.20109467914881 0 0 0 0 -36.905147329847978 -39.75324308261952 0 -39.75324308261952 -168.6897726877869 0 0 0 0 -0.32820413286572148 -28.304002390072128 0 -28.304002390072128 -177.34043815800032 0 0 0 0 -28.101337159630589 -1.4432834258013827 0 -1.4432834258013827 -100.0902228160121 0 0 0 0 -16.59112053566048 -11.769143979294313 0 -11.769143979294313 -218.91911624193872 0 0 0 0 83.672666310893163 21.613960247303112 0 21.613960247303112 -123.29671405752015 0 0 0 0 -8.7713380816856628 -6.603489805890149 0 -6.603489805890149 -49.641272874847346 0 0 0 0 68.802037368512401 68.705695131011453 0 68.705695131011453 -75.329496653217575 0 0 0 0 82.676841696765678 63.164921598508954 0 63.164921598508954 -80.869054861577752 0 0 0 0 56.92769715484593 94.155632984311524 0 94.155632984311524 -38.994164680661925 0 0 0 0 11.910455417834704 53.046936458158598 0 53.046936458158598 -68.387941171240527 0 0 0 0 55.92284809181524 76.86795459075438 0 76.86795459075438 -68.539919455305949 0 0 0 0 -0.068929493341387871 0.44344394272557608 0 0.44344394272557608 -0.48779966057882973 0 0 0 0 69.748382885177989 63.324624809394663 0 63.324624809394663 -72.846048163022715 0 0 0 0 177.6141681541753 44.055212027555513 0 44.055212027555513 48.105255427788506 0 0 0 0 80.18584981994394 27.51980392780024 0 27.51980392780024 -60.176656417670529 0 0 0 0 -2.1136696023365573 5.8221385311962877 0 5.8221385311962877 34.441607824130188 0 0 0 0 -10.966235235582758 51.056232625609482 0 51.056232625609482 -67.028200579869008 0 0 0 0 -5.8343593878940894 9.4725220101677223 0 9.4725220101677223 -112.93337729504856 0 0 0 0 14.272598103491362 36.870056996122003 0 36.870056996122003 -61.416625623660366 0 0 0 0 16.572145481399616 36.902455107810965 0 36.902455107810965 -112.67683690174817 0 0 0 0 -30.869056151820928 35.813539907805534 0 35.813539907805534 -135.97127593589539 0 0 0 0 -70.864662498765426 -4.5621467263299564 0 -4.5621467263299564 -114.99384199883207 0 0 0 0 -71.854933102662699 -14.470342781058207 0 -14.470342781058207 -71.407130733052327 0 0 0 0 -38.571500090650488 20.943773078633967 0 20.943773078633967 -106.7608090827689 0 0 0 0 -47.883523828335854 9.3683278292137402 0 9.3683278292137402 -44.912136892591661 0 0 0 0 -73.701671825282915 -26.616547166100645 0 -26.616547166100645 -103.46950813781291 0 0 0 0 -83.306619060784897 -4.5134724118406666 0 -4.5134724118406666 -125.0083112448483 0 0 0 0 -72.262385376637098 17.221069242888916 0 17.221069242888916 -113.01385225909689 0 0 0 0 -51.426234626374963 0.87618854013635428 0 0.87618854013635428 -29.85116781668512 0 0 0 0 -68.214894142823482 -26.501876120139059 0 -26.501876120139059 -51.67369465833508 0 0 0 0 -48.690528882588652 15.427219592980236 0 15.427219592980236 -51.693767201300943 0 0 0 0 -45.757144439708838 -10.312110580223816 0 -10.312110580223816 -10.497241848021076 0 0 0 0 -5.7910214599931464 32.067782533207719 0 32.067782533207719 -40.966227338448334 0 0 0 0 24.159856897570819 8.6642906541346747 0 8.6642906541346747 6.0127321749623661 0 0 0 0 -36.298952165986691 26.575370953627498 0 26.575370953627498 15.39451350019408 0 0 0 0 -58.615179555318349 21.86433056892929 0 21.86433056892929 28.046975596987977 0 0 0 0 -58.252951321685018 -8.2623332346684037 0 -8.2623332346684037 8.8912474446115084 0 0 0 0 -33.408918952538613 -2.086775596922962 0 -2.086775596922962 42.875400272034312 0 0 0 0 -51.199478122994208 51.623242447583834 0 51.623242447583834 40.519508267642777 0 0 0 0 47.910880450663853 35.811402472996633 0 35.811402472996633 11.649614809843115 0 0 0 0 -0.032869979668985971 3.9010096087138635 0 3.9010096087138635 -22.829751994712204 0 0 0 0 52.041861724816407 8.8523107081177841 0 8.8523107081177841 -93.646576314371487 0 0 0 0 44.763179035724022 13.79402602920527 0 13.79402602920527 -14.690714951764676 0 0 0 0 56.262947812688139 15.927497839205898 0 15.927497839205898 -22.157072792077088 0 0 0 0 51.837650827812013 39.28487937556929 0 39.28487937556929 30.082989290425758 0 0 0 0 71.386112458143884 61.723807032125478 0 61.723807032125478 50.794704784930218 0 0 0 0 86.183435065935896 41.296157372584275 0 41.296157372584275 -13.426343815270229 0 0 0 0 51.98733201405048 39.361784659893601 0 39.361784659893601 8.4231178760346666 0 0 0 0 34.527788892274103 79.876237523210079 0 79.876237523210079 48.951208897571632 0 0 0 0 -0.45604520025920658 0.81643879744428105 0 0.81643879744428105 -0.83801185105899378 0 0 0 0 26.566627453834769 23.986271470230349 0 23.986271470230349 -7.2402177387702977 0 0 0 0 42.344927132367957 13.56922130932071 0 13.56922130932071 -1.3719423033398925 0 0 0 0 24.129266420995805 11.415847332522389 0 11.415847332522389 0.60705489965766901 0 0 0 0 46.888218058062421 14.893170176461354 0 14.893170176461354 -17.158650883109658 0 0 0 0 47.986662478507128 29.953342465179048 0 29.953342465179048 10.389690417039674 0 0 0 0 3.9948999408851238 -0.97700532294689424 0 -0.97700532294689424 -13.933635448606296 0 0 0 0 18.316412190663868 6.3541644697324955 0 6.3541644697324955 -8.566415694742318 0 0 0 0 -2.5343524586272155 -2.2913288993349497 0 -2.2913288993349497 0.0052852478337399589 0 0 0 0 10.892131963306907 -15.650718299477695 0 -15.650718299477695 -20.788379427414256 0 0 0 0 1.9773660559862347 3.4786698234843634 0 3.4786698234843634 -10.323910996979308 0 0 0 0 51.471823165119332 12.493787443890142 0 12.493787443890142 -30.451914264842344 0 0 0 0 0.93041714317735946 -2.3242234460196247 0 -2.3242234460196247 -2.6150853620890828 0 0 0 0 31.661020283196706 12.803603747664965 0 12.803603747664965 -0.93758943214106694 0 0 0 0 48.236000121865516 23.440567761514103 0 23.440567761514103 -30.912134044250706 0 0 0 0 29.883478683167382 1.6100605422129775 0 1.6100605422129775 -59.118531054613413 0 0 0 0 -0.40269198337962092 0.40000775919062548 0 0.40000775919062548 -0.29115776853026887 0 0 0 0 -57.29567404105925 21.834982247359221 0 21.834982247359221 -66.953882788020564 0 0 0 0 -46.197613620011474 52.653834924682087 0 52.653834924682087 -49.680653361236182 0 0 0 0 -66.624575921851886 28.423379306836068 0 28.423379306836068 -69.794012700021995 0 0 0 0 0.51943996989592733 73.554044998640165 0 73.554044998640165 -66.360871853749131 0 0 0 0 26.827855368850877 31.845767995071185 0 31.845767995071185 -9.9215883385622874 0 0 0 0 -54.968048073555849 89.954780827163631 0 89.954780827163631 -15.854340284661703 0 0 0 0 -41.207757428523792 166.23257800817191 0 166.23257800817191 137.86524300646488 0 0 0 0 -524.95192925817662 136.47547539415245 0 136.47547539415245 228.55451606326096 0 0 0 0 -176.08567809193315 139.06260278227637 0 139.06260278227637 226.98121955650277 0 0 0 0 6.550660539040706 48.943965829897934 0 48.943965829897934 -326.49330416820112 0 0 0 0 -15.540375376127237 157.82284695578392 0 157.82284695578392 -80.673212384870567 0 0 0 0 3.2234465708723974 0.92635771726461513 0 0.92635771726461513 -0.2254472078798333 0 0 0 0 -15.068547393012182 374.29444516569947 0 374.29444516569947 285.85822764342811 0 0 0 0 -146.63024362748155 16.02242231758828 0 16.02242231758828 -139.49073390016565 0 0 0 0 152.95053790205284 256.47383275524498 0 256.47383275524498 -379.5807642583386 0 0 0 0 26.559061753682418 -98.265378243479063 0 -98.265378243479063 -616.20892561313121 0 0 0 0 -299.76323152695454 404.87569894130866 0 404.87569894130866 -426.32548803415921 0 0 0 0 -674.252516435247 145.82997193565461 0 145.82997193565461 -116.91231439774856 0 0 0 0 -449.25991859664771 706.7436927703875 0 706.7436927703875 -1033.8365840484112 0 0 0 0 -1865.4433703756604 -456.59864004013798 0 -456.59864004013798 -367.43592831827118 0 0 0 0 -451.43516981446061 -624.64493976416315 0 -624.64493976416315 46.092046149213274 0 0 0 0 906.48895403086647 -604.41300244358354 0 -604.41300244358354 -1728.9786599351428 0 0 0 0 850.7791359493408 172.24444611521903 0 172.24444611521903 -741.93693872922449 0 0 0 0 351.07878519795122 -1238.0042894808794 0 -1238.0042894808794 -1957.8180028493807 0 0 0 0 668.00388785525683 -219.7990686673711 0 -219.7990686673711 -286.78877924750122 0 0 0 0 0.022118187100899744 -1.0245111458082405 0 -1.0245111458082405 4.8611752708316089 0 0 0 0 161.874291267648 -758.58949184981338 0 -758.58949184981338 -35.963119636842748 0 0 0 0 132.20007516685746 -623.84868096137507 0 -623.84868096137507 -647.2584898279456 0 0 0 0 -559.55599205142607 547.78521893481752 0 547.78521893481752 353.72159720235504 0 0 0 0 -115.93368396632795 170.96505289748893 0 170.96505289748893 349.86333665238635 0 0 0 0 114.53295847720929 -67.525012037562192 0 -67.525012037562192 66.576940681356064 0 0 0 0 -35.585297296607109 -147.79671769143533 0 -147.79671769143533 259.8589599420975 0 0 0 0 821.90430298298452 -139.26390813139733 0 -139.26390813139733 -343.40280660353528 0 0 0 0 351.25961888907113 -416.36265459858259 0 -416.36265459858259 -298.52258348574105 0 0 0 0 12.019532739257897 -9.9068601581602707 0 -9.9068601581602707 132.96152952261036 0 0 0 0 -218.78493446598185 13.245787927954552 0 13.245787927954552 144.71866726807639 0 0 0 0 -5.1016023530159478 2.458503970768426 0 2.458503970768426 -9.5636248529236081 0 0 0 0 4.1785855978369497 5.1520826636580246 0 5.1520826636580246 -46.992208165473791 0 0 0 0 85.468489123864856 -334.4543214977457 0 -334.4543214977457 -257.03313688910566 0 0 0 0 3.7029143751113591 -7.9370313550562877 0 -7.9370313550562877 5.7649173223011871 0 0 0 0 -1.5333398874586237 19.878688180107929 0 19.878688180107929 -63.810712223790688 0 0 0 0 18.457201971621544 -193.75924998694245 0 -193.75924998694245 -189.32188792669331 0 0 0 0 90.006366673405182 4.4435211497693672 0 4.4435211497693672 -0.27871969548141351 0 0 0 0 2.7179065851319137 -18.387368828382023 0 -18.387368828382023 -72.377235015490442 0 0 0 0 460.95837867775117 239.06295211464749 0 239.06295211464749 -32.82115804485511 0 0 0 0 1169.2632544343578 787.37744188174838 0 787.37744188174838 355.12386771482124 0 0 0 0 -97.919744913291083 -38.565379377046611 0 -38.565379377046611 -40.323233614544733 0 0 0 0 591.72855972974139 81.165901389744249 0 81.165901389744249 -46.587824515778266 0 0 0 0 -62.923854973259949 -45.722874049435632 0 -45.722874049435632 -49.221511933140846 0 0 0 0 30.22181199580109 39.680304423567577 0 39.680304423567577 -54.978655462928145 0 0 0 0 -2.1147918236240599 6.8596490462228612 0 6.8596490462228612 -39.730236608404667 0 0 0 0 -46.712841593155645 -45.717221537091973 0 -45.717221537091973 -56.7402419290338 0 0 0 0 3.9208296594689251 0.37441090237991403 0 0.37441090237991403 -8.1710326722974784 0 0 0 0 -175.88770667928475 -121.76870943419453 0 -121.76870943419453 -68.589316203842827 0 0 0 0 -69.24058455438626 -26.972622997207509 0 -26.972622997207509 -45.322715849186352 0 0 0 0 -88.320100371363935 -98.314999309347627 0 -98.314999309347627 -195.58456034509072 0 0 0 0 -146.63381877977184 35.033451003537721 0 35.033451003537721 92.702343171284156 0 0 0 0 -361.70993153789686 -262.61405495387044 0 -262.61405495387044 -16.489722685917513 0 0 0 0 -110.55151873755858 -200.79751510097958 0 -200.79751510097958 -492.99052015610869 0 0 0 0 -166.65815141521762 -300.00051254551727 0 -300.00051254551727 -571.64439849275732 0 0 0 0 -112.34369336953478 -228.73037359992668 0 -228.73037359992668 -309.79434896239582 0 0 0 0 -14.18924878210612 -6.3503455599347944 0 -6.3503455599347944 -594.0893434546706 0 0 0 0 -346.53595853777301 -367.36385277244699 0 -367.36385277244699 -614.00183296666728 0 0 0 0 -0.97477098664331563 -3.8915346830344948 0 -3.8915346830344948 -21.455705339501094 0 0 0 0 -331.58197833375698 892.14021796845191 0 892.14021796845191 -441.32611445979273 0 0 0 0 30.715393171672304 902.32301593230568 0 902.32301593230568 -1015.2992384987283 0 0 0 0 -281.44077402801872 -207.58385708894457 0 -207.58385708894457 -298.47660757068661 0 0 0 0 -1.5963177262174038 5.030787561700599 0 5.030787561700599 -14.849652266701256 0 0 0 0 32.928048758036837 946.64299271761934 0 946.64299271761934 -782.2663766085534 0 0 0 0 101.11518071913434 1172.0044575121528 0 1172.0044575121528 -321.49082243347948 0 0 0 0 -141.40751263157836 416.28934566863609 0 416.28934566863609 -1067.0990535457095 0 0 0 0 4.3326953918958679 817.10155598267738 0 817.10155598267738 -587.87022395932581 0 0 0 0 -306.13074248171961 768.12287281227327 0 768.12287281227327 -115.02267122020567 0 0 0 0 -50.6485130126066 17.44711890513463 0 17.44711890513463 443.90233820451249 0 0 0 0 -255.4057719983486 1008.6374131643815 0 1008.6374131643815 -693.54594669687503 0 0 0 0 -75.308542397109022 1245.9983201248233 0 1245.9983201248233 -2111.9057412593756 0 0 0 0 -1941.3770673722586 -440.27537714373557 0 -440.27537714373557 1311.0842536206474 0 0 0 0 -6.81335190677828 93.760684624494388 0 93.760684624494388 32.454516673220496 0 0 0 0 -28.19065015084152 31.597226957983366 0 31.597226957983366 -510.48055942861174 0 0 0 0 -40.043502492345851 143.42563767226784 0 143.42563767226784 -1085.8745037243643 0 0 0 0 13.827036979600962 97.593268662958508 0 97.593268662958508 -1566.6461770802398 0 0 0 0 -172.2267781066148 -219.1969308446387 0 -219.1969308446387 -1263.068437367554 0 0 0 0 -842.19828381030311 845.66564495297098 0 845.66564495297098 -876.41959186458553 0 0 0 0 -216.02322199212767 65.564920477605483 0 65.564920477605483 43.62761286422392 0 0 0 0 -171.97469215784395 378.73276637910567 0 378.73276637910567 -301.4248798637509 0 0 0 0 10.577257159441956 140.64284292993534 0 140.64284292993534 -615.41459019335889 0 0 0 0 -95.682128686784836 112.98319037362853 0 112.98319037362853 207.46617761422567 0 0 0 0 57.497479487058399 100.71895555158244 0 100.71895555158244 -38.348525919143867 0 0 0 0 24.872422785998879 95.908819419670181 0 95.908819419670181 -124.17552853845973 0 0 0 0 201.54553145789009 -595.77506326243019 0 -595.77506326243019 36.861551370335292 0 0 0 0 5.0047652614433673 -25.607165319172054 0 -25.607165319172054 -69.630289083921525 0 0 0 0 73.870583756398673 10.962163319834872 0 10.962163319834872 -60.28443493350278 0 0 0 0 -2.9437750958319855 -13.650704928255397 0 -13.650704928255397 -44.359247992844445 0 0 0 0 10.312762730525776 -26.439267869940522 0 -26.439267869940522 -49.982835045138927 0 0 0 0 8.9622467800015784 -32.091320257938605 0 -32.091320257938605 -29.233322748284991 0 0 0 0 5.3366044989237906 -2.3353109093810431 0 -2.3353109093810431 -12.166093500986431 0 0 0 0 -1.7816337250512619 -12.758578820847177 0 -12.758578820847177 -50.870369084806242 0 0 0 0 41.280174995640891 7.1173096457287102 0 7.1173096457287102 -59.615221052918059 0 0 0 0 22.608325968213649 34.567850200152861 0 34.567850200152861 -99.40579209677162 0 0 0 0 -0.88005514113472305 -2.2701556521196125 0 -2.2701556521196125 -15.206078514927416 0 0 0 0 31.547517964105282 -70.207014273903042 0 -70.207014273903042 -153.24425612878986 0 0 0 0 16.507669027043448 -132.31887673228266 0 -132.31887673228266 199.76234548870707 0 0 0 0 2.119345208419257 0.81771347937565508 0 0.81771347937565508 0.96006815132978751 0 0 0 0 35.501964919888508 -49.327713707474686 0 -49.327713707474686 -112.56774187836709 0 0 0 0 35.577191627978323 -43.604005565768603 0 -43.604005565768603 -60.835794598348002 0 0 0 0 -50.489185584795962 -9.5359960178793699 0 -9.5359960178793699 -16.317226983650471 0 0 0 0 -46.962877756329746 -57.078858609442818 0 -57.078858609442818 -34.761852447711135 0 0 0 0 -74.161529742024413 -15.391167802859854 0 -15.391167802859854 -17.343976130643568 0 0 0 0 103.26597255694287 -179.20789214748947 0 -179.20789214748947 -10.655981223633717 0 0 0 0 1.6347847930364878 -99.627666338602467 0 -99.627666338602467 -79.074423539386771 0 0 0 0 -84.723495358664991 -70.847335963357182 0 -70.847335963357182 -29.470030844535358 0 0 0 0 2.1430386483439179 -106.7828779337342 0 -106.7828779337342 -149.67717216357414 0 0 0 0 1.5977591002781537 -93.407551385796978 0 -93.407551385796978 -144.16434376690813 0 0 0 0 -33.497546582667269 -166.54696977000094 0 -166.54696977000094 -284.81073866950101 0 0 0 0 -179.4717401753685 29.487208244336216 0 29.487208244336216 102.20698081458613 0 0 0 0 -134.40799737889324 -22.986510542974429 0 -22.986510542974429 47.661477515182924 0 0 0 0 -208.10734158866444 -110.42339578864267 0 -110.42339578864267 -41.860963320694282 0 0 0 0 -112.99959216727927 -104.1807694774725 0 -104.1807694774725 -67.147643222662737 0 0 0 0 -194.34028160321594 -156.97216584424677 0 -156.97216584424677 -69.449982024497103 0 0 0 0 -269.05344002045763 -99.402127719935379 0 -99.402127719935379 0.60627485938675818 0 0 0 0 -170.89466898988474 -108.75898989019333 0 -108.75898989019333 -65.001574652276759 0 0 0 0 -261.52180300440261 -253.88519617929853 0 -253.88519617929853 -225.99874010108033 0 0 0 0 -150.85035327743103 -196.94600862790503 0 -196.94600862790503 -291.71990427174751 0 0 0 0 -129.13448170647428 -118.94983858428168 0 -118.94983858428168 -470.11925244965823 0 0 0 0 -201.22886446633561 -379.53211497419034 0 -379.53211497419034 -805.3692743746542 0 0 0 0 -50.055980403527599 161.8192182159537 0 161.8192182159537 -1350.4707145414941 0 0 0 0 133.42026908765428 57.914309635895279 0 57.914309635895279 -231.76948021888893 0 0 0 0 85.554715262820991 -94.565722133267627 0 -94.565722133267627 -307.89871780409158 0 0 0 0 141.94540998280843 -48.503532602748237 0 -48.503532602748237 -629.10684702260914 0 0 0 0 79.916010028307483 61.891221247162321 0 61.891221247162321 -141.82936025119625 0 0 0 0 135.72695514027646 -57.492954237854974 0 -57.492954237854974 -97.248444004857447 0 0 0 0 127.20345101926523 -51.606985573478596 0 -51.606985573478596 -86.199494626063824 0 0 0 0 149.17918399564405 -90.745688769984554 0 -90.745688769984554 -52.707915466620761 0 0 0 0 122.06471833777778 -30.314594139461406 0 -30.314594139461406 -206.28623942432387 0 0 0 0 120.07494116562543 -48.926679964140931 0 -48.926679964140931 -92.337182103834493 0 0 0 0 145.74198460586831 -61.005399231780757 0 -61.005399231780757 -121.80778205762181 0 0 0 0 118.80012822488834 -85.418092986059492 0 -85.418092986059492 -101.79715440777727 0 0 0 0 125.16218133013263 -152.99600442620795 0 -152.99600442620795 51.961084033435327 0 0 0 0 129.53453566561166 -127.1813495514034 0 -127.1813495514034 -12.250784850413766 0 0 0 0 98.153563638967626 -121.39114262775001 0 -121.39114262775001 -0.59992879835044732 0 0 0 0 130.97616134876898 -137.57047522066568 0 -137.57047522066568 -67.10703268328507 0 0 0 0 144.65443308446629 -100.87509353339556 0 -100.87509353339556 -11.693817207342363 0 0 0 0 141.99945175117409 -143.14371691612541 0 -143.14371691612541 45.118316767475335 0 0 0 0 134.01449765464713 -81.955899753018457 0 -81.955899753018457 -39.748310021004727 0 0 0 0 188.12054789861395 -141.09693210764453 0 -141.09693210764453 38.190744496729167 0 0 0 0 -512.45438201584784 873.6329151798127 0 873.6329151798127 -297.34071416142979 0 0 0 0 150.51062769585337 -105.43820955320007 0 -105.43820955320007 120.69049489073223 0 0 0 0 122.99503345154881 -190.78751856786766 0 -190.78751856786766 124.32878990431345 0 0 0 0 -2.2786756596532101 -3.352853294706911 0 -3.352853294706911 -5.4379337999422006 0 0 0 0 100.06290764462256 -209.26853704198766 0 -209.26853704198766 208.31901360152369 0 0 0 0 91.665621638692528 -188.08073313315799 0 -188.08073313315799 137.5021115532727 0 0 0 0 189.13261274184822 -15.345801844296147 0 -15.345801844296147 1.1038109150540549 0 0 0 0 28.818427158038048 -31.848778400119045 0 -31.848778400119045 19.011736345346435 0 0 0 0 78.214893784161177 -54.798060699373309 0 -54.798060699373309 239.13268760527717 0 0 0 0 117.86942698792006 -33.1421305833519 0 -33.1421305833519 -7.1251662816794124 0 0 0 0 171.03965623944526 -208.17387524526566 0 -208.17387524526566 28.394668285713124 0 0 0 0 -248.66374970194556 259.8121232699159 0 259.8121232699159 -776.4329688539201 0 0 0 0 -4.5140596400035999 -11.649543251544827 0 -11.649543251544827 -18.465381422820926 0 0 0 0 -7.0154384329311323 -11.933416111094949 0 -11.933416111094949 -17.074780131802626 0 0 0 0 155.41190239938305 -192.76987869792447 0 -192.76987869792447 87.714775275111606 0 0 0 0 -300.92726021765696 466.78331835926656 0 466.78331835926656 -623.99297349443805 0 0 0 0 104.4320453042817 -116.84277353623202 0 -116.84277353623202 109.4749613945969 0 0 0 0 58.113064912604841 -185.01616034558538 0 -185.01616034558538 279.2728748370846 0 0 0 0 -504.56980701471434 655.50946622519768 0 655.50946622519768 -639.34466984663959 0 0 0 0 -1.3852596966998605 -4.0474778285607869 0 -4.0474778285607869 -7.1946535546503725 0 0 0 0 202.11161915579896 -397.41401788476651 0 -397.41401788476651 143.05667550227372 0 0 0 0 76.871559651199277 -135.6842865188446 0 -135.6842865188446 15.091046452642331 0 0 0 0 197.28481271305441 283.18967074479588 0 283.18967074479588 -1064.5477881898041 0 0 0 0 -13.129557658601719 -20.724937002798001 0 -20.724937002798001 -28.111507940062374 0 0 0 0 -4.1895395677784109 -58.807458628405584 0 -58.807458628405584 38.725130060274751 0 0 0 0 111.14815379667016 -33.563701434821269 0 -33.563701434821269 -35.534896000324807 0 0 0 0 112.97790532719773 -119.03414067249832 0 -119.03414067249832 -97.934067596608656 0 0 0 0 109.9440002407664 61.328716307642026 0 61.328716307642026 -273.56589092942158 0 0 0 0 -32.717528677248993 -100.44963945270501 0 -100.44963945270501 172.60434370305666 0 0 0 0 123.66668689131257 -32.811696083852439 0 -32.811696083852439 -239.26535146961396 0 0 0 0 0.24192534338052951 0.86099112385880261 0 0.86099112385880261 0.9769983465999772 0 0 0 0 90.635264162755448 26.58785415814873 0 26.58785415814873 -21.832761573346943 0 0 0 0 -76.569651562635045 74.605821234847099 0 74.605821234847099 -43.680117274867371 0 0 0 0 9.3433909441355354 -110.15307503501754 0 -110.15307503501754 -75.397371312479663 0 0 0 0 66.796735843593268 29.373752582841917 0 29.373752582841917 -65.637616752846952 0 0 0 0 -96.190889424788111 -46.789927163150423 0 -46.789927163150423 -40.462559248771868 0 0 0 0 -17.32603067303512 -24.159149945286117 0 -24.159149945286117 -18.134092107513425 0 0 0 0 21.509835958205542 31.395489601445036 0 31.395489601445036 -93.466534493018116 0 0 0 0 31.082667107300949 -24.724514408371761 0 -24.724514408371761 -130.69304543728867 0 0 0 0 24.896055373042962 -40.518467684891675 0 -40.518467684891675 -105.64185127751261 0 0 0 0 -19.757005311044082 6.2188407764697331 0 6.2188407764697331 -111.49979305317902 0 0 0 0 15.370208856827361 18.781358157022623 0 18.781358157022623 -109.67002593692268 0 0 0 0 15.31727961790002 0.57988907464069683 0 0.57988907464069683 -0.36984148129872807 0 0 0 0 128.92749357120556 -25.880913168221923 0 -25.880913168221923 -291.45195231785328 0 0 0 0 114.17606699565067 -123.06021257340399 0 -123.06021257340399 -80.176872849879146 0 0 0 0 126.42409773294253 79.852039416276057 0 79.852039416276057 -153.19966707877757 0 0 0 0 128.19320162440067 71.804171200907149 0 71.804171200907149 -245.46941663964753 0 0 0 0 -9.623841104023402 36.591867025827923 0 36.591867025827923 -137.83411816735315 0 0 0 0 9.6616917258100514 1.1922720480078581 0 1.1922720480078581 -0.64017899663980327 0 0 0 0 16.367099557435779 28.555681791616735 0 28.555681791616735 -191.11554700559464 0 0 0 0 14.061465522073121 11.549158364068717 0 11.549158364068717 -149.52298162976513 0 0 0 0 1.467051882514447 31.406327090407785 0 31.406327090407785 -132.27271192380795 0 0 0 0 22.494374558271261 -4.8267071352020139 0 -4.8267071352020139 -98.889970521240684 0 0 0 0 -34.171212671339241 46.690848551064846 0 46.690848551064846 -96.373195224836309 0 0 0 0 -2.77045409691807 16.794532337537703 0 16.794532337537703 -123.43006021471956 0 0 0 0 -21.457888464732292 14.327153231988632 0 14.327153231988632 -44.429056454475358 0 0 0 0 -11.590355078541677 24.565989500500109 0 24.565989500500109 -63.239695744377968 0 0 0 0 5.2004414479152956 -0.014077671163249761 0 -0.014077671163249761 -28.147232757572056 0 0 0 0 13.692888931608167 23.51256568912504 0 23.51256568912504 16.644746861245949 0 0 0 0 45.4573621289112 -52.98949314838319 0 -52.98949314838319 -54.903118026584707 0 0 0 0 0.11908564859061244 10.356195202948584 0 10.356195202948584 1.6237137697899016 0 0 0 0 -0.42517359033608088 -0.11868202187184451 0 -0.11868202187184451 -2.9821131087912818 0 0 0 0 -63.635664027215824 66.206157081793208 0 66.206157081793208 -33.87494894417614 0 0 0 0 -166.27353860953613 125.21226220582776 0 125.21226220582776 -94.449005191432661 0 0 0 0 -32.886271911259882 39.145006961472973 0 39.145006961472973 -45.207307880707958 0 0 0 0 0.097520250860513802 0.074403838407903322 0 0.074403838407903322 -1.104856419689753 0 0 0 0 69.333135397367982 -36.884531217077893 0 -36.884531217077893 -71.399564839186496 0 0 0 0 95.34898231388874 23.408560209312782 0 23.408560209312782 -0.42830909322219668 0 0 0 0 9.7062109089366686 29.082949170280699 0 29.082949170280699 -222.26914550720539 0 0 0 0 -56.686748416709122 4.1400304264880106 0 4.1400304264880106 -99.086333159666538 0 0 0 0 -35.094223400986721 68.205263881948213 0 68.205263881948213 -157.58238865259773 0 0 0 0 22.538922414781666 5.9939691102281358 0 5.9939691102281358 -94.299505049701111 0 0 0 0 87.507150869379359 3.3983944846095255 0 3.3983944846095255 -205.77396867011703 0 0 0 0 -0.11726070836654096 5.4844238017820537 0 5.4844238017820537 -49.305625466177389 0 0 0 0 100.89023938557057 23.521524744212002 0 23.521524744212002 -81.852346048879554 0 0 0 0 42.50929205013847 67.276297984739358 0 67.276297984739358 -175.98224451123315 0 0 0 0 -110.77471584535817 -65.838744753151332 0 -65.838744753151332 102.28465743765992 0 0 0 0 -10.700532895713536 32.976397192978766 0 32.976397192978766 -88.995722559253409 0 0 0 0 23.943387874340942 -12.67929603094035 0 -12.67929603094035 -69.516865515539394 0 0 0 0 75.069653424310445 66.183896919890685 0 66.183896919890685 -65.722847762470337 0 0 0 0 -0.35053017697867972 70.534930443084704 0 70.534930443084704 -43.125558741114219 0 0 0 0 -18.455303575816913 -44.190991195195238 0 -44.190991195195238 -12.767554045640281 0 0 0 0 87.836816097332758 22.054639113463054 0 22.054639113463054 -55.743672312833951 0 0 0 0 -1.5747635674373486 3.3618531862531142 0 3.3618531862531142 -16.721474126591346 0 0 0 0 -1.9017539768691136 8.6115508198893984 0 8.6115508198893984 -39.902310906646875 0 0 0 0 77.701840275478787 -34.363564013185169 0 -34.363564013185169 -36.585796008177567 0 0 0 0 8.5284686709289872 -7.4169669787297607 0 -7.4169669787297607 -42.092559787408391 0 0 0 0 63.966211473932162 -12.94285953167855 0 -12.94285953167855 -63.18764284093777 0 0 0 0 -52.45779850005249 -2.0050426162415533 0 -2.0050426162415533 -61.66515256976345 0 0 0 0 9.5158986730600361 0.089619265468854792 0 0.089619265468854792 -81.684813739426318 0 0 0 0 -7.9519888193403858 90.633696651282662 0 90.633696651282662 -161.48575992316546 0 0 0 0 -51.931569760977823 86.911458783932176 0 86.911458783932176 -35.421735233510844 0 0 0 0 -5.6896852516124454 148.0027317299282 0 148.0027317299282 -77.338691618038865 0 0 0 0 -67.247011771382404 90.081655610680173 0 90.081655610680173 5.313906315170243 0 0 0 0 -10.587954933727246 73.48202229546223 0 73.48202229546223 5.3517738564987667 0 0 0 0 4.0664137555086199 3.2443238789928728 0 3.2443238789928728 60.55077060702024 0 0 0 0 -22.761019618324553 52.360608486138517 0 52.360608486138517 -22.249871208488912 0 0 0 0 223.62677505700196 -126.39124115052618 0 -126.39124115052618 -283.14746708628445 0 0 0 0 -82.058675672824847 -222.21589844796836 0 -222.21589844796836 -43.831123526120791 0 0 0 0 -1.1443052300484191 2.3392338788924434 0 2.3392338788924434 -3.9383093333138106 0 0 0 0 -82.076393155488176 152.771004978571 0 152.771004978571 -69.012585967342602 0 0 0 0 -32.047051922903847 209.99867462951079 0 209.99867462951079 -94.242270518807345 0 0 0 0 263.53905506601723 -17.86068803818489 0 -17.86068803818489 -12.24080739839701 0 0 0 0 0.85300438079137275 -0.043861997012584197 0 -0.043861997012584197 -1.2365810063008524 0 0 0 0 -6.3135849142270217 115.03092535534233 0 115.03092535534233 -28.166772320837481 0 0 0 0 147.49676798716973 141.24725015532749 0 141.24725015532749 -228.94922732681152 0 0 0 0 121.17573486034257 40.206837862358952 0 40.206837862358952 -65.161971917648771 0 0 0 0 154.10339567010658 21.586394396832475 0 21.586394396832475 -135.49963128307718 0 0 0 0 217.39862684835498 52.572530421908596 0 52.572530421908596 19.966072301322129 0 0 0 0 183.9113945513277 -23.273111898168281 0 -23.273111898168281 -83.017255688275327 0 0 0 0 58.154670665867286 48.737338803111925 0 48.737338803111925 101.07368602731731 0 0 0 0 74.506286537816322 110.59988041879842 0 110.59988041879842 -112.66378182459448 0 0 0 0 166.91654479099543 -26.93251349100683 0 -26.93251349100683 -72.503311430555186 0 0 0 0 171.58078702889816 -64.970761806438531 0 -64.970761806438531 40.313786746264668 0 0 0 0 204.68527316480413 -70.064390240942885 0 -70.064390240942885 -158.76728303444906 0 0 0 0 8.7674515344724568 9.6623877640449791 0 9.6623877640449791 -55.465874151530443 0 0 0 0 -17.63766415092141 57.67710715055 0 57.67710715055 -120.51021931171999 0 0 0 0 -58.81908785656924 35.35281674826183 0 35.35281674826183 -25.206269692396745 0 0 0 0 -21.206032813996899 -34.709068986207058 0 -34.709068986207058 45.299417969159549 0 0 0 0 -190.17574926364273 136.20012128078633 0 136.20012128078633 96.24240604129227 0 0 0 0 18.695643303343331 7.9485532569233328 0 7.9485532569233328 -143.31267617873164 0 0 0 0 2.6311500813835664 -3.6790923775261035 0 -3.6790923775261035 -137.92246981780409 0 0 0 0 -526.96363748244812 17.099425587253791 0 17.099425587253791 62.447784881431289 0 0 0 0 1.1757309628083807 -0.41052855262043408 0 -0.41052855262043408 -10.416410704733991 0 0 0 0 9.1423311820881281 6.0719126507538022 0 6.0719126507538022 -30.625631949540548 0 0 0 0 0.25054019845724484 0.14904880504734308 0 0.14904880504734308 -6.5945392921569379 0 0 0 0 -6.4340971522246768 -7.0869124601190663 0 -7.0869124601190663 -17.175488021387668 0 0 0 0 0.59092531805617909 -6.5787643399235094 0 -6.5787643399235094 -17.319581035197189 0 0 0 0 -25.433219289687258 -26.220534743486496 0 -26.220534743486496 -77.423458924968145 0 0 0 0 -14.116592396079795 -11.449562350651831 0 -11.449562350651831 -81.838561734792165 0 0 0 0 0.050988049816686143 0.69006636128942489 0 0.69006636128942489 -25.213921434200415 0 0 0 0 1.668711833069052 -9.1647999292369118 0 -9.1647999292369118 -41.190802021650583 0 0 0 0 -26.329436446350883 -19.101870681814034 0 -19.101870681814034 -65.421916237479309 0 0 0 0 6.4538353293679984 1.9471511160483352 0 1.9471511160483352 -32.353904541301262 0 0 0 0 13.433666860959796 5.0342385676081207 0 5.0342385676081207 -23.993492135561475 0 0 0 0 2.2944508987902736 -39.609025565139746 0 -39.609025565139746 -121.57187482187146 0 0 0 0 10.494063626421848 -41.572922929830384 0 -41.572922929830384 -96.806107234893716 0 0 0 0 -5.6615083055821742 -54.980016484340013 0 -54.980016484340013 -91.00256505307334 0 0 0 0 104.9555641727311 -53.695054167066701 0 -53.695054167066701 -131.67163380190323 0 0 0 0 -19.48569236403273 -45.048780393379275 0 -45.048780393379275 -96.236091791724903 0 0 0 0 7.4006652142739018 -11.639201350697078 0 -11.639201350697078 -17.499199311530823 0 0 0 0 0.20025018547654838 -9.0792622147341717 0 -9.0792622147341717 -48.573744219342188 0 0 0 0 1.8568021845033236 6.2954648377150164 0 6.2954648377150164 -54.819392952109496 0 0 0 0 52.248060023801315 -4.2035016780009755 0 -4.2035016780009755 -84.174518698044267 0 0 0 0 280.29598777454459 22.449928987396561 0 22.449928987396561 -160.98563439080317 0 0 0 0 20.478612984425126 -14.080484505066124 0 -14.080484505066124 -51.522209918641238 0 0 0 0 21.927173112602645 -41.587888069785549 0 -41.587888069785549 -85.193361010520675 0 0 0 0 14.017443238501755 -38.191112352957134 0 -38.191112352957134 -71.751146404183601 0 0 0 0 23.355085076060959 -22.360132121257266 0 -22.360132121257266 -105.60248736888752 0 0 0 0 16.315405862798229 -37.676308397583853 0 -37.676308397583853 -82.650307287854957 0 0 0 0 5.5227797584338987 -5.2782322598504834 0 -5.2782322598504834 -116.91844416058302 0 0 0 0 61.583073673968556 -90.81104101634719 0 -90.81104101634719 -191.18994890940667 0 0 0 0 2.0516610083496114 0.81543100247179012 0 0.81543100247179012 -3.4740311489453859 0 0 0 0 18.299284282650245 -1.8509818599205801 0 -1.8509818599205801 -3.2633122832648809 0 0 0 0 11.15991143960855 20.155789219534199 0 20.155789219534199 -45.829978476824181 0 0 0 0 -35.456772932057447 -5.5286208493707818 0 -5.5286208493707818 -52.25406247551291 0 0 0 0 2.7659500467479603 -1.6005656494399787 0 -1.6005656494399787 -7.0626303374640216 0 0 0 0 -19.00005349655062 -26.249778870234298 0 -26.249778870234298 -27.693269463343171 0 0 0 0 -130.90506760564222 -300.0419250713021 0 -300.0419250713021 142.05444225363317 0 0 0 0 -36.086032204813819 -58.320371154786699 0 -58.320371154786699 9.5360143323123339 0 0 0 0 45.243099052665684 -62.906625874404654 0 -62.906625874404654 -101.31153238316983 0 0 0 0 -269.23577602397927 52.085340823025035 0 52.085340823025035 -80.77850014995056 0 0 0 0 -38.445794633146761 -89.631853831248009 0 -89.631853831248009 5.9809118239500094 0 0 0 0 -41.086250938191881 -42.154357214474658 0 -42.154357214474658 -96.018788502216921 0 0 0 0 -19.825465474255708 -26.577573720397822 0 -26.577573720397822 -27.579517840962779 0 0 0 0 -27.588715959721753 9.9134537164281937 0 9.9134537164281937 102.42501890855783 0 0 0 0 4.9990300064232542 61.511723521936801 0 61.511723521936801 174.8628284616716 0 0 0 0 134.08352330902198 56.47941218737833 0 56.47941218737833 58.336299868999049 0 0 0 0 -5.7008891612554287 -0.2859129032127079 0 -0.2859129032127079 7.5029822939613027 0 0 0 0 39.915262168534809 -53.888631532357977 0 -53.888631532357977 -68.57635501074401 0 0 0 0 88.131017449436285 3.6945983734367474 0 3.6945983734367474 -165.51007076428505 0 0 0 0 164.90618359752125 -102.05640937838325 0 -102.05640937838325 -26.371429435443133 0 0 0 0 53.618697558291501 -32.110469138431654 0 -32.110469138431654 -287.06482227582092 0 0 0 0 94.034791560669476 -137.64656778082883 0 -137.64656778082883 -237.35448673340579 0 0 0 0 5.4292918796927552 11.215179900304065 0 11.215179900304065 -163.57141405264883 0 0 0 0 -415.21913910055309 -264.69069387116906 0 -264.69069387116906 247.20097669542884 0 0 0 0 -853.93909866985268 -44.069112335710088 0 -44.069112335710088 243.80869450851185 0 0 0 0 -279.27759339459317 270.42966396088741 0 270.42966396088741 -364.63427462057734 0 0 0 0 1.5624072859257012 25.572802851507731 0 25.572802851507731 -193.76125669166504 0 0 0 0 105.09984161115858 -35.370305847878626 0 -35.370305847878626 -540.74979476199223 0 0 0 0 143.00490398770307 -194.08191033238109 0 -194.08191033238109 113.00063086839509 0 0 0 0 91.932588234692275 -70.292031128163217 0 -70.292031128163217 -97.020997883635573 0 0 0 0 273.69642114919145 -293.77602300503349 0 -293.77602300503349 -158.69589071691735 0 0 0 0 -10.152536946032171 -88.817457968889357 0 -88.817457968889357 -139.68702364690762 0 0 0 0 48.874312554554351 -73.97137392511604 0 -73.97137392511604 -204.48907266466267 0 0 0 0 45.904878913191482 -56.124519541018344 0 -56.124519541018344 -10.680486089055194 0 0 0 0 73.618201554335542 14.591902970843876 0 14.591902970843876 -177.30311173039445 0 0 0 0 -55.977263754955914 -27.082660595498965 0 -27.082660595498965 -475.65423686537542 0 0 0 0 -52.974594492112402 -67.424519965490617 0 -67.424519965490617 -159.68075942255746 0 0 0 0 -10.379769499435952 -105.86280279182938 0 -105.86280279182938 -234.90671827096958 0 0 0 0 -196.56982153908996 -192.11254948818896 0 -192.11254948818896 -165.16102126445912 0 0 0 0 -58.755493943041557 -34.799508232697008 0 -34.799508232697008 -11.655157586857968 0 0 0 0 8.3664337505647381 -14.641841760665557 0 -14.641841760665557 -74.569112096156459 0 0 0 0 -79.39202675043633 -125.53037029267898 0 -125.53037029267898 -129.01728583365912 0 0 0 0 -4.7145689860057587 -18.498229641027137 0 -18.498229641027137 -88.730213240943158 0 0 0 0 -16.373727675825826 -5.3083048650842102 0 -5.3083048650842102 -18.477705340199464 0 0 0 0 -3.3281157673982946 -3.9034549620460037 0 -3.9034549620460037 -2.1685949842591015 0 0 0 0 -16.072969449311842 -9.9868570710223139 0 -9.9868570710223139 -16.269682968331836 0 0 0 0 -4.3507435202169358 1.3485014310036121 0 1.3485014310036121 -6.5297825498330653 0 0 0 0 27.114817275666041 -14.964588980616099 0 -14.964588980616099 -11.725651342894707 0 0 0 0 -18.968327818648106 9.647302629468868 0 9.647302629468868 8.3543674407337676 0 0 0 0 -43.598045230337902 -3.0188869856792735 0 -3.0188869856792735 11.313756424046005 0 0 0 0 -3.5347294265368419 0.21297865058295429 0 0.21297865058295429 9.9000705227008439 0 0 0 0 -1.2455551075493045 1.231942995245106 0 1.231942995245106 -4.5357845352027439 0 0 0 0 13.484415949384868 2.5277756170289649 0 2.5277756170289649 -12.174976678263192 0 0 0 0 26.762329108794205 12.143177773021307 0 12.143177773021307 -5.2417615286176442 0 0 0 0 0.35918838105754053 -0.31296601011993896 0 -0.31296601011993896 -8.7458721795252359 0 0 0 0 1.3717282571928624 -1.104977835019227 0 -1.104977835019227 -2.8858121325799573 0 0 0 0 27.820472204160069 8.9323038571637881 0 8.9323038571637881 -24.415673291565327 0 0 0 0 46.368773955648464 1.9844320506672375 0 1.9844320506672375 -22.232385608283948 0 0 0 0 52.542726376291682 62.962892398696567 0 62.962892398696567 41.094052281110635 0 0 0 0 0.26682854932276123 -0.26440814489984632 0 -0.26440814489984632 0.15337833101451537 0 0 0 0 -15.338955366550074 48.426002132024223 0 48.426002132024223 -157.43243830066785 0 0 0 0 92.754639072805219 74.240476416020101 0 74.240476416020101 -169.39156852635642 0 0 0 0 0.33523203597706674 0.21428128905898669 0 0.21428128905898669 -9.8401399698168177 0 0 0 0 -0.052995521907689636 0.59050767030203133 0 0.59050767030203133 -45.383296294574393 0 0 0 0 -3.4481879984537045 8.1459360118460609 0 8.1459360118460609 -28.597071697786305 0 0 0 0 -0.23730036854933362 -0.11569783233128783 0 -0.11569783233128783 -3.6954854070504837 0 0 0 0 -123.84798199112805 102.68495948168857 0 102.68495948168857 -54.053688535968831 0 0 0 0 -187.82522956122796 190.89988625438127 0 190.89988625438127 -171.82629758881376 0 0 0 0 41.734015966451238 94.794831307332061 0 94.794831307332061 -177.65293350242428 0 0 0 0 71.816940547043828 122.84151577094599 0 122.84151577094599 -167.90862111475963 0 0 0 0 18.955331122485234 144.04676651655427 0 144.04676651655427 -273.24601091521617 0 0 0 0 1.6605974342394347 10.117586976110033 0 10.117586976110033 -204.78628805895823 0 0 0 0 29.634043607681519 55.757620941909408 0 55.757620941909408 -139.54933704871655 0 0 0 0 2.8139356124812025 53.53433394034073 0 53.53433394034073 -509.15254123989143 0 0 0 0 -0.030296996048256523 -11.461612422297549 0 -11.461612422297549 17.456847617708263 0 0 0 0 48.358323797589208 -5.0480307332691154 0 -5.0480307332691154 23.190293080500851 0 0 0 0 76.233056672088026 27.876884384921141 0 27.876884384921141 -182.21905571952811 0 0 0 0 21.880111766328127 109.14177094775005 0 109.14177094775005 -110.18029092311554 0 0 0 0 75.794375455402033 127.2680757630842 0 127.2680757630842 -201.2840902887765 0 0 0 0 100.13168905005494 105.89135418740989 0 105.89135418740989 -208.25668913025584 0 0 0 0 27.816347192683967 -32.244804850466608 0 -32.244804850466608 6.0930516844400699 0 0 0 0 -5.2391102784768071 175.86266849831736 0 175.86266849831736 -218.47549947095831 0 0 0 0 0.089332984574027066 79.978084087721072 0 79.978084087721072 -298.28339102031896 0 0 0 0 0.071234262872043833 -0.28932279481423251 0 -0.28932279481423251 -1.7492452613284684 0 0 0 0 14.374850307662527 26.859830293844425 0 26.859830293844425 -160.79265835391379 0 0 0 0 54.638944319752838 51.22341087294626 0 51.22341087294626 -316.90798203922168 0 0 0 0 -92.499766068855152 -34.236382305876759 0 -34.236382305876759 -184.53107281724078 0 0 0 0 60.660734578268361 100.19294058561354 0 100.19294058561354 -142.80471918267722 0 0 0 0 36.691209521175779 -20.887099502619094 0 -20.887099502619094 -151.96514459713489 0 0 0 0 72.308703507084829 36.020367357462419 0 36.020367357462419 -64.933000033910503 0 0 0 0 33.169470007559426 -29.413368890385755 0 -29.413368890385755 -64.284123469115798 0 0 0 0 -0.11282048208915577 -35.691736411750753 0 -35.691736411750753 -75.06582536607857 0 0 0 0 -3.625015133890102 -15.081358561721572 0 -15.081358561721572 -27.929738388327678 0 0 0 0 0.024545137035448326 -29.169192687091709 0 -29.169192687091709 0.18974325772069278 0 0 0 0 18.170979053664183 -20.75354942156082 0 -20.75354942156082 -28.587689594616677 0 0 0 0 25.815199168472958 -9.4993496279093961 0 -9.4993496279093961 -28.62344879605007 0 0 0 0 27.961309526295651 -2.0136489179312775 0 -2.0136489179312775 -11.738021712531918 0 0 0 0 0.18059614389723433 -0.67112285544509165 0 -0.67112285544509165 -7.763224309617641 0 0 0 0 14.207611448767066 -4.4342183839032714 0 -4.4342183839032714 -9.5361280506404 0 0 0 0 15.869169626328315 -14.510262740936014 0 -14.510262740936014 -2.3145980038771086 0 0 0 0 15.763497459949775 -20.866355145954913 0 -20.866355145954913 -9.6771749674953753 0 0 0 0 16.327745111883701 -12.49626039188297 0 -12.49626039188297 -1.3100977539179439 0 0 0 0 -20.715997042723984 75.903478708194598 0 75.903478708194598 -129.49475810570766 0 0 0 0 -0.38725202229037869 -0.28223463610687682 0 -0.28223463610687682 -1.0063288309582106 0 0 0 0 -4.849978806325506 -19.34751403755115 0 -19.34751403755115 -100.68891580511263 0 0 0 0 -0.66478281070818956 -2.0770346548250274 0 -2.0770346548250274 -3.4824058579294501 0 0 0 0 -67.680267672759655 68.005999764167882 0 68.005999764167882 -104.79783463778585 0 0 0 0 -19.364645743206324 29.629688312877988 0 29.629688312877988 -77.320523217455047 0 0 0 0 -12.394081669390431 69.030504659094731 0 69.030504659094731 -126.74931581739656 0 0 0 0 -10.935945837386535 70.178939890227866 0 70.178939890227866 -164.07581819127518 0 0 0 0 -12.780575460620049 54.649037019931257 0 54.649037019931257 -139.55038928515569 0 0 0 0 -15.910312655637679 40.839392048981608 0 40.839392048981608 -147.93426921327045 0 0 0 0 0.078987002932528805 -0.39522260214486948 0 -0.39522260214486948 -1.0501986279026596 0 0 0 0 0.011635716876124299 -21.850203431127738 0 -21.850203431127738 27.580860646827205 0 0 0 0 12.254934860342653 -14.743186921533834 0 -14.743186921533834 11.16174271186901 0 0 0 0 11.047811332648401 -27.394438505489234 0 -27.394438505489234 16.022298383903035 0 0 0 0 -0.15085188153447993 -1.4502301002257028 0 -1.4502301002257028 -2.1363879175206222 0 0 0 0 -82.027348611346255 26.916013553094672 0 26.916013553094672 -88.234367575963915 0 0 0 0 0.002532743491307228 44.567709180177189 0 44.567709180177189 -131.84220466782062 0 0 0 0 -61.128165879714501 -12.071853367113363 0 -12.071853367113363 -34.406478995879297 0 0 0 0 -3.6242356131590938 31.395899031333101 0 31.395899031333101 -42.673509380148971 0 0 0 0 -19.38582417477474 -22.452211106923642 0 -22.452211106923642 -31.568071409701588 0 0 0 0 11.156229639238489 4.3286159409035463 0 4.3286159409035463 6.2841701377474237 0 0 0 0 38.241005162031243 37.30562087936778 0 37.30562087936778 -17.09453275586111 0 0 0 0 12.696852340531599 16.739120442649437 0 16.739120442649437 -20.429960757508525 0 0 0 0 -0.55623679036031604 -13.585676892165793 0 -13.585676892165793 -24.592710697383154 0 0 0 0 -51.218586918105729 -2.7911289904659498 0 -2.7911289904659498 -33.594908330524049 0 0 0 0 -51.36993898316841 -31.201530949743756 0 -31.201530949743756 -45.504947022760462 0 0 0 0 -38.181005531546639 -33.661981745783123 0 -33.661981745783123 -47.450555164401521 0 0 0 0 -27.637145121098197 -2.3320836181246705 0 -2.3320836181246705 -21.513054696464678 0 0 0 0 -20.871845371327609 -27.139610405341955 0 -27.139610405341955 -39.686231454292283 0 0 0 0 -38.75481269230913 -45.660992605469801 0 -45.660992605469801 -80.024788663013169 0 0 0 0 -52.689002643966091 -12.590248178984893 0 -12.590248178984893 -43.679468747155624 0 0 0 0 -50.736155208439733 -49.840022565689878 0 -49.840022565689878 -78.681393266611849 0 0 0 0 -49.344605056375897 -49.970844282051871 0 -49.970844282051871 -100.40232126364208 0 0 0 0 -0.10500587405304668 -11.633832030607664 0 -11.633832030607664 -70.560095527791418 0 0 0 0 -0.0039485526282145786 -40.73376634217675 0 -40.73376634217675 -116.37952228520044 0 0 0 0 -1.0311094478639178 -54.422457926368224 0 -54.422457926368224 -134.63278067987267 0 0 0 0 -34.476368524189581 -125.25295322833699 0 -125.25295322833699 -225.07586768721376 0 0 0 0 0.070468387841219671 -41.258869450772181 0 -41.258869450772181 -149.13563232382876 0 0 0 0 1.2610783635572886 21.655064242228036 0 21.655064242228036 -19.348982138733845 0 0 0 0 43.779741092580153 3.2986481635462042 0 3.2986481635462042 -196.1437196831248 0 0 0 0 -0.13572967437684241 -1.2169426807515862 0 -1.2169426807515862 -3.2908286756428424 0 0 0 0 179.47337836409628 -115.97494243171241 0 -115.97494243171241 -105.34777143620886 0 0 0 0 35.769499380099923 -33.567380870312263 0 -33.567380870312263 -11.276453368780494 0 0 0 0 -233.19806733198908 -163.42185902401616 0 -163.42185902401616 -125.416603331847 0 0 0 0 -100.40520252468264 -26.13989781366945 0 -26.13989781366945 11.882130796358979 0 0 0 0 158.01101802270654 -30.813467466250586 0 -30.813467466250586 -177.45174972810491 0 0 0 0 -0.31506683381144651 -0.81980883708373398 0 -0.81980883708373398 -1.6226849444774984 0 0 0 0 -103.0738645192761 -192.75301958504679 0 -192.75301958504679 -14.133449669977381 0 0 0 0 -119.35627720148554 -127.92422057252952 0 -127.92422057252952 -142.26667479424941 0 0 0 0 -43.698094126729984 -57.808324346762674 0 -57.808324346762674 -168.75339731213535 0 0 0 0 -118.59560320732105 -70.760875572308578 0 -70.760875572308578 -78.054098680101959 0 0 0 0 -82.083925182040304 -15.584169463606486 0 -15.584169463606486 -100.12415263283765 0 0 0 0 1.0420269394300625 -24.096855336272711 0 -24.096855336272711 -94.361529573674488 0 0 0 0 -39.669975757668205 -5.9863496297106735 0 -5.9863496297106735 -49.665315115693375 0 0 0 0 -10.907488526987121 -3.222746081331934 0 -3.222746081331934 -49.904600044690596 0 0 0 0 44.220261455736591 23.925474644096539 0 23.925474644096539 -69.714214057996287 0 0 0 0 -28.638826769987993 -17.205492815508023 0 -17.205492815508023 -64.285847392922733 0 0 0 0 -56.038616282079857 -26.928556571812805 0 -26.928556571812805 -77.042114271513128 0 0 0 0 -12.57124506497675 -48.022115951958767 0 -48.022115951958767 -115.30856244533607 0 0 0 0 -68.906440708225887 -50.238928273344754 0 -50.238928273344754 -79.322084335013642 0 0 0 0 -0.27463668818398901 -24.501273615494938 0 -24.501273615494938 -262.02285838054377 0 0 0 0 -155.88881753655164 -45.210880503313092 0 -45.210880503313092 -78.871181898364739 0 0 0 0 -263.07352027650501 39.828208809767148 0 39.828208809767148 -145.17606333054573 0 0 0 0 86.01400721694408 8.0894273367273399 0 8.0894273367273399 -184.00906033807405 0 0 0 0 -4.1267162161473152 -21.772232350534978 0 -21.772232350534978 -125.36793176273386 0 0 0 0 78.256681068207399 -55.517419129617338 0 -55.517419129617338 -131.48693265727343 0 0 0 0 58.337078092703734 10.189140130161832 0 10.189140130161832 -133.39781903025067 0 0 0 0 61.715253904332769 -10.792482072480198 0 -10.792482072480198 -17.058091690883884 0 0 0 0 179.91481267157303 -46.745481644533356 0 -46.745481644533356 -152.57819809689681 0 0 0 0 117.59907607051514 -12.012277741583603 0 -12.012277741583603 -59.254730570177344 0 0 0 0 73.315804548415798 8.8447683009762841 0 8.8447683009762841 -70.526840056165383 0 0 0 0 94.410772547077954 33.235584160102007 0 33.235584160102007 -47.627248258359032 0 0 0 0 71.693376204632358 27.610882946633865 0 27.610882946633865 -31.753744951070985 0 0 0 0 93.369640119459063 36.634098651307795 0 36.634098651307795 -38.641041550879891 0 0 0 0 74.617517647668478 65.851489357808532 0 65.851489357808532 71.262372489232803 0 0 0 0 123.48212878289434 50.330892383481114 0 50.330892383481114 -7.8894482809846522 0 0 0 0 106.4020943596026 67.787236137246509 0 67.787236137246509 46.253205552689906 0 0 0 0 42.950391276752924 17.411440920142923 0 17.411440920142923 -31.107864435813099 0 0 0 0 80.496977495267231 48.608987460360368 0 48.608987460360368 -4.4403229429972271 0 0 0 0 103.90551595817453 20.590409545635339 0 20.590409545635339 -40.052341991904541 0 0 0 0 50.382319021398267 2.3309287809615853 0 2.3309287809615853 -64.628527890141413 0 0 0 0 4.4532292719639965 3.4581987268829835 0 3.4581987268829835 -22.223803274719103 0 0 0 0 10.057797991807353 -15.544407698103896 0 -15.544407698103896 -56.510015646177635 0 0 0 0 -11.810116682858014 7.8993116661822569 0 7.8993116661822569 -24.035424096728093 0 0 0 0 14.270365744336106 -10.6042306687159 0 -10.6042306687159 -12.520666732503742 0 0 0 0 117.25457543988429 6.1053878450511547 0 6.1053878450511547 0.65117365901096491 0 0 0 0 55.003308879548769 12.428584417724778 0 12.428584417724778 -35.356169231459717 0 0 0 0 47.548835625111352 21.755919527415244 0 21.755919527415244 4.463634660882235 0 0 0 0 98.509598313873028 76.162001711538323 0 76.162001711538323 41.352190450117632 0 0 0 0 56.058985446606457 26.323941595418546 0 26.323941595418546 -7.8381202740274603 0 0 0 0 21.65518840480334 26.589190549515479 0 26.589190549515479 1.0644114045444439 0 0 0 0 55.930811298366891 27.722621045885717 0 27.722621045885717 -17.185423488583183 0 0 0 0 38.995370549303843 34.865767956704076 0 34.865767956704076 -9.7799406792037189 0 0 0 0 66.8723825005778 26.804672502395988 0 26.804672502395988 -13.325073834959767 0 0 0 0 35.42161854777747 1.6663521955561009 0 1.6663521955561009 -14.447784640578902 0 0 0 0 42.675400884183077 13.742592399268688 0 13.742592399268688 41.562957692389318 0 0 0 0 575.85715987927369 109.48379003896116 0 109.48379003896116 145.99367772889673 0 0 0 0 -0.077766971124943074 0.83000100509179475 0 0.83000100509179475 -0.81382619385389887 0 0 0 0 130.53576035205208 389.95506427486544 0 389.95506427486544 258.97288983559702 0 0 0 0 59.935687767869432 39.230174677988543 0 39.230174677988543 -5.9946025608310265 0 0 0 0 25.420916189452782 -142.97565304637101 0 -142.97565304637101 -124.99898800632218 0 0 0 0 1.7479182376846372 -0.61054734856910642 0 -0.61054734856910642 0.39536568628913926 0 0 0 0 -57.543383457820596 -84.248534958261416 0 -84.248534958261416 -78.764487234147964 0 0 0 0 -58.486728609438615 -58.246267558577529 0 -58.246267558577529 -102.46010403700711 0 0 0 0 -41.585687392656155 -76.024558234125834 0 -76.024558234125834 -83.831089722152683 0 0 0 0 -23.926875635206443 -81.940033596098147 0 -81.940033596098147 -116.14582625795447 0 0 0 0 -38.616593231360184 -58.255815980883199 0 -58.255815980883199 -104.92043718292007 0 0 0 0 -25.529137336542249 -73.524647980071677 0 -73.524647980071677 -144.55570779352274 0 0 0 0 133.49533138602479 111.15443426615093 0 111.15443426615093 85.076358696920579 0 0 0 0 6.4731218029095379 -2.1718667633698914 0 -2.1718667633698914 0.10588728127396507 0 0 0 0 173.64647808742114 49.605202055714471 0 49.605202055714471 50.201124461182189 0 0 0 0 113.82950838306644 17.297824759738432 0 17.297824759738432 221.95919074473204 0 0 0 0 36.463376550940666 -70.235797938985343 0 -70.235797938985343 -127.00580061149958 0 0 0 0 -18.544178577823004 -61.867851241244352 0 -61.867851241244352 -112.81606014837234 0 0 0 0 14.442076010986966 -78.056642059662408 0 -78.056642059662408 -110.81772999016539 0 0 0 0 10.958549920425867 -80.647054743745684 0 -80.647054743745684 -78.536032450152561 0 0 0 0 15.049950994933539 -63.008648300587083 0 -63.008648300587083 -115.53203388157999 0 0 0 0 57.394435450867604 1.8744261391439068 0 1.8744261391439068 -48.985287117306143 0 0 0 0 -31.667743805799546 -45.152203191126318 0 -45.152203191126318 46.28212993593479 0 0 0 0 6.4881620339165238 -102.49306350020197 0 -102.49306350020197 -125.46980934284511 0 0 0 0 134.36442648799402 30.191019813368257 0 30.191019813368257 -63.713840989701566 0 0 0 0 58.661997781342507 39.269144872720062 0 39.269144872720062 -10.048372690725955 0 0 0 0 202.26225577829064 141.55792505195132 0 141.55792505195132 45.647875944741827 0 0 0 0 -1.9987120585365119 127.2981406893814 0 127.2981406893814 -554.56529653234429 0 0 0 0 215.83573644622993 519.37539383839612 0 519.37539383839612 -498.9246650889836 0 0 0 0 -371.93725872701361 -598.32153368512809 0 -598.32153368512809 142.46897461891785 0 0 0 0 -139.78161592505057 60.63374672691134 0 60.63374672691134 468.45109980415145 0 0 0 0 -128.95298011167813 -163.69133928469978 0 -163.69133928469978 -85.461340545734856 0 0 0 0 44.495520748837407 -348.89584328943238 0 -348.89584328943238 -723.66332808800507 0 0 0 0 11.843486481431682 -232.37110539512287 0 -232.37110539512287 -662.34966202358191 0 0 0 0 40.392407289929906 -79.081334525144484 0 -79.081334525144484 -139.17976173791794 0 0 0 0 21.830136896109252 -165.33688976602571 0 -165.33688976602571 -92.78731848148891 0 0 0 0 40.407307081870385 -144.64590351310835 0 -144.64590351310835 -313.61765915842261 0 0 0 0 21.662595984536893 -25.163079145906522 0 -25.163079145906522 -46.579656627910481 0 0 0 0 2.0210209261722412 -17.383667495269037 0 -17.383667495269037 -43.818990776817373 0 0 0 0 1.5858095861940456 77.626588532028109 0 77.626588532028109 -195.55993807873529 0 0 0 0 -170.37171000724993 -130.56938672624892 0 -130.56938672624892 -62.366087586349749 0 0 0 0 -2.8919055121727535 -3.4621299936902936 0 -3.4621299936902936 -4.5294082780544187 0 0 0 0 -50.317631880390763 -11.283906361670233 0 -11.283906361670233 0.72405780286135268 0 0 0 0 63.000973143183728 -52.25067534554546 0 -52.25067534554546 -14.896498115058421 0 0 0 0 38.366421644804177 -5.4402150361274835 0 -5.4402150361274835 -39.9641023482327 0 0 0 0 -6.9542547920696052 -56.262108320781408 0 -56.262108320781408 -26.196787111999583 0 0 0 0 -19.164646805482334 -39.043616239276162 0 -39.043616239276162 -14.681235052208649 0 0 0 0 31.220052802775626 3.7689939638830765 0 3.7689939638830765 -35.957122060048277 0 0 0 0 1.6003477594392415 -10.923063261225003 0 -10.923063261225003 -15.047684852044682 0 0 0 0 14.371578352262896 -8.2320330726311468 0 -8.2320330726311468 -0.87866045438613583 0 0 0 0 13.989130895874496 -9.7054773527797806 0 -9.7054773527797806 -52.48712725918449 0 0 0 0 49.113512118031167 -9.7285586984799011 0 -9.7285586984799011 -10.997841078558849 0 0 0 0 1.1770886602439958 -1.4242183029854232 0 -1.4242183029854232 -51.690500848337251 0 0 0 0 13.807620494603725 -49.957084693371144 0 -49.957084693371144 -141.99936562470248 0 0 0 0 10.832590177737071 -4.3183137614273335 0 -4.3183137614273335 1.431950008113418 0 0 0 0 14.05324410148387 -53.665220983202744 0 -53.665220983202744 -112.42864688771806 0 0 0 0 62.773113224619124 38.587167066672919 0 38.587167066672919 8.6245688353737933 0 0 0 0 77.702905650031767 41.200216344079308 0 41.200216344079308 8.9943916342381272 0 0 0 0 45.321165502880945 12.829902483219485 0 12.829902483219485 -15.271595777403718 0 0 0 0 103.97603948395204 13.189618326701748 0 13.189618326701748 -15.339213626172523 0 0 0 0 60.728331247816129 -9.6571470186509032 0 -9.6571470186509032 -4.8690714097538148 0 0 0 0 4.3908129127961306 -3.6412763722128929 0 -3.6412763722128929 -7.8577366053500697 0 0 0 0 57.190361320234842 -4.3201852755082655 0 -4.3201852755082655 -8.5391739044080168 0 0 0 0 -7.9791083671815954 54.88120181740851 0 54.88120181740851 -84.516012113457691 0 0 0 0 -0.35812709557619993 -1.3082250228662673 0 -1.3082250228662673 -4.8016042883248389 0 0 0 0 115.8096374755616 -0.79600903173013648 0 -0.79600903173013648 -8.6941163026931463 0 0 0 0 148.7350485265099 -34.582429111462261 0 -34.582429111462261 -14.165049323719359 0 0 0 0 212.31947917778814 -140.19707647175892 0 -140.19707647175892 4.9167037841584715 0 0 0 0 0.21232795153245743 -0.4114592944355806 0 -0.4114592944355806 -1.7823703375204616 0 0 0 0 55.603544707442779 -9.9864803034906799 0 -9.9864803034906799 -84.270940134312696 0 0 0 0 52.011806056057935 14.623104491649428 0 14.623104491649428 -16.960013431464176 0 0 0 0 2.7326437592845991 -16.060549331035872 0 -16.060549331035872 -32.099639827873034 0 0 0 0 133.9863488412966 -124.75807320310923 0 -124.75807320310923 -165.93493109796691 0 0 0 0 -56.768417636379013 198.21519144070453 0 198.21519144070453 -265.71667101172352 0 0 0 0 -117.47251895877071 -168.04812567700719 0 -168.04812567700719 -909.85783152624026 0 0 0 0 -6.6976362207290308 -15.411550745117168 0 -15.411550745117168 -22.692556151415218 0 0 0 0 -86.579808645701021 431.65852294545959 0 431.65852294545959 -167.39079755407874 0 0 0 0 93.782481849285475 -76.625373604609194 0 -76.625373604609194 -17.100642258046719 0 0 0 0 121.0617032295736 -19.064625560993591 0 -19.064625560993591 -50.81954838756792 0 0 0 0 79.314928095831988 -41.28249444719404 0 -41.28249444719404 -42.747612964813015 0 0 0 0 47.128112516760211 -5.3616283744377142 0 -5.3616283744377142 -43.434380034143032 0 0 0 0 56.181866060459697 -13.191309557747445 0 -13.191309557747445 -59.513845004290488 0 0 0 0 24.44677802168917 -27.891557369293878 0 -27.891557369293878 -6.3736810554510157 0 0 0 0 11.698205087491431 -10.890143663809795 0 -10.890143663809795 -29.009804791545321 0 0 0 0 38.724481548825622 -50.76477684384372 0 -50.76477684384372 1.1109538764430908 0 0 0 0 25.021697780275531 -16.791985987287262 0 -16.791985987287262 -37.201404485902458 0 0 0 0 31.267722891359711 -5.0878334415083373 0 -5.0878334415083373 -40.664845964158303 0 0 0 0 12.392106046502136 -13.234628919701208 0 -13.234628919701208 -36.060404458642552 0 0 0 0 32.062843852690435 2.779663610872376 0 2.779663610872376 -40.5096774465419 0 0 0 0 30.103694943369419 -1.1104893695046485 0 -1.1104893695046485 -48.214778684436169 0 0 0 0 23.955608850298631 -5.5691772635291272 0 -5.5691772635291272 -40.461358041171479 0 0 0 0 20.000372924714441 0.45527474282789626 0 0.45527474282789626 -36.298583919742669 0 0 0 0 25.420060139718316 -0.50058286570492783 0 -0.50058286570492783 -37.204625412989117 0 0 0 0 20.682871235414041 -1.2574138376548945 0 -1.2574138376548945 -32.00126719185937 0 0 0 0 21.27791580766754 -3.7756963629865439 0 -3.7756963629865439 -9.805904581848182 0 0 0 0 9.2063084718356265 -20.866003644143348 0 -20.866003644143348 -39.99677576997783 0 0 0 0 7.0320218078562675 -17.455716180404124 0 -17.455716180404124 -36.490742436566961 0 0 0 0 17.113087678287229 -6.6092446286565973 0 -6.6092446286565973 -33.274455718143145 0 0 0 0 -35.544424052352042 55.880494247927345 0 55.880494247927345 -24.632809195099981 0 0 0 0 1.9642563538546991 0.38752701924840949 0 0.38752701924840949 -1.3216034943398967 0 0 0 0 12.707113612040549 4.1801319628964535 0 4.1801319628964535 -14.548641518221203 0 0 0 0 26.049828388177957 -27.025533975353028 0 -27.025533975353028 -25.603331752977653 0 0 0 0 -17.879309114928219 -34.256913601588167 0 -34.256913601588167 -47.486201768078899 0 0 0 0 -12.299702831274544 -27.114198828247027 0 -27.114198828247027 -41.394991418143036 0 0 0 0 2.6317777617386664 -3.680664991654929 0 -3.680664991654929 -10.706578768410083 0 0 0 0 -6.6558170765759996 -21.567741840123745 0 -21.567741840123745 -57.656480272067711 0 0 0 0 -3.435291530835002 -23.737120986130321 0 -23.737120986130321 -59.881854772833321 0 0 0 0 1.0583274760929271 -33.215994801095803 0 -33.215994801095803 -51.20644737911789 0 0 0 0 -10.105639390470515 -27.240075891528249 0 -27.240075891528249 -53.529756279100184 0 0 0 0 48.818893716810805 -4.1377954611525638 0 -4.1377954611525638 7.5008817896741675 0 0 0 0 -2.2529740815334662 -33.227705084176705 0 -33.227705084176705 -69.159585656765557 0 0 0 0 17.51727586909729 11.523314903726547 0 11.523314903726547 -35.150318161753404 0 0 0 0 -1.4376317427177128 -37.404288010231539 0 -37.404288010231539 -66.651200672049526 0 0 0 0 12.451768328407017 6.4948830783516698 0 6.4948830783516698 -34.700520099785933 0 0 0 0 16.691723314843784 -23.371706078859461 0 -23.371706078859461 -37.47687909877277 0 0 0 0 15.147470007307589 20.764523086816553 0 20.764523086816553 -4.7583795941100107 0 0 0 0 0.87693575439703464 -0.41788801390116959 0 -0.41788801390116959 -6.5717031481215429 0 0 0 0 14.554107838195989 -17.407214674443821 0 -17.407214674443821 -54.019758300659305 0 0 0 0 11.169982153969954 -21.061149154294981 0 -21.061149154294981 -42.707170495574246 0 0 0 0 12.757313937921253 -10.499446134028403 0 -10.499446134028403 -40.806764478395053 0 0 0 0 12.605779455331913 -19.081491904806171 0 -19.081491904806171 -43.739954090546235 0 0 0 0 11.011145243259307 -40.932590499516664 0 -40.932590499516664 22.380759440726251 0 0 0 0 14.122663123547682 -17.156007385601697 0 -17.156007385601697 -41.309310039854608 0 0 0 0 -1.7262588585799676 -4.8649971900667879 0 -4.8649971900667879 -37.802975116981543 0 0 0 0 -23.969989202889337 -28.515415645691974 0 -28.515415645691974 125.09796676255064 0 0 0 0 -4.2001998642542642 -13.277669481653071 0 -13.277669481653071 -22.807888718637059 0 0 0 0 42.646870182919429 121.1719251506438 0 121.1719251506438 -173.82024286956221 0 0 0 0 -54.194057005001014 139.24236971641221 0 139.24236971641221 236.33420733996172 0 0 0 0 -54.768556471746706 163.80076382287734 0 163.80076382287734 -2.3027559136717173 0 0 0 0 -37.114991166544314 35.022805546810559 0 35.022805546810559 89.140503329912463 0 0 0 0 14.496585616851917 11.058714611499454 0 11.058714611499454 -8.9143963397364132 0 0 0 0 13.081742948235444 1.3589358672534217 0 1.3589358672534217 -74.97213455309975 0 0 0 0 -8.4371948586341432 49.901618114678058 0 49.901618114678058 -61.233605906934827 0 0 0 0 1.0912194938807147 1.3269555995284463 0 1.3269555995284463 -52.541280425029981 0 0 0 0 26.137694820070891 1.6317408732447802 0 1.6317408732447802 -92.697493963423767 0 0 0 0 52.499804786792993 24.385976622052112 0 24.385976622052112 -84.744096275022457 0 0 0 0 42.779287841134874 51.105301841340406 0 51.105301841340406 -66.451010508735635 0 0 0 0 50.247109201879823 4.2003203031690646 0 4.2003203031690646 -95.509150603102171 0 0 0 0 21.199758279464049 -9.4301648068721988 0 -9.4301648068721988 -84.887852347248554 0 0 0 0 59.403947653116802 -14.719145508236579 0 -14.719145508236579 -111.71777777021634 0 0 0 0 197.75777305974913 -370.25561078482224 0 -370.25561078482224 -362.34054960993672 0 0 0 0 171.11513292002246 178.86498487340577 0 178.86498487340577 -606.3403519690437 0 0 0 0 198.1046603402217 28.601115169532932 0 28.601115169532932 -182.28813703578635 0 0 0 0 31.058377612931622 -22.60963481951876 0 -22.60963481951876 -74.315401100906456 0 0 0 0 1.0234191860307291 -10.387798102477436 0 -10.387798102477436 -54.037779499633785 0 0 0 0 55.092463330073315 -60.830538820622678 0 -60.830538820622678 -11.766412483208114 0 0 0 0 215.71846669038996 -31.51853659587232 0 -31.51853659587232 -79.38836298989736 0 0 0 0 2.1450095330274621 -14.631716289793985 0 -14.631716289793985 -42.894241213811256 0 0 0 0 19.524652611513602 -7.3370216687790162 0 -7.3370216687790162 -82.477635586190445 0 0 0 0 -1.0185305167733247 -6.7887511538428953 0 -6.7887511538428953 -82.413828175058825 0 0 0 0 69.920275519599784 86.348651446278382 0 86.348651446278382 -39.463204044979648 0 0 0 0 12.687634985791863 15.37904512819954 0 15.37904512819954 -35.117296438737171 0 0 0 0 19.263385136510919 8.9246527779760072 0 8.9246527779760072 -142.84497242653742 0 0 0 0 15.414724854741507 10.734931965203941 0 10.734931965203941 -78.552428178129048 0 0 0 0 24.510124274261269 6.5198490643779223 0 6.5198490643779223 -106.85523683404608 0 0 0 0 0.52861922369407921 -57.643618220352437 0 -57.643618220352437 -157.25867922055477 0 0 0 0 -26.334957138835534 -29.313896325249516 0 -29.313896325249516 -79.981560327149055 0 0 0 0 -0.27163003085564696 86.684367993322667 0 86.684367993322667 54.505968531680992 0 0 0 0 0.28506123430078856 0.40886983746235472 0 0.40886983746235472 -0.62866352229075062 0 0 0 0 10.215690389704832 11.526696581211581 0 11.526696581211581 -68.789539063938719 0 0 0 0 95.161638822473833 70.549134785924252 0 70.549134785924252 -89.151444394126884 0 0 0 0 77.446766315521018 33.606981269029347 0 33.606981269029347 -114.31861197844046 0 0 0 0 -4.3493996134775443 52.792795842360647 0 52.792795842360647 -33.835058505370398 0 0 0 0 -35.543311570379728 -0.96056443405541359 0 -0.96056443405541359 -20.192896217122325 0 0 0 0 411.63755924105544 256.44680087551387 0 256.44680087551387 -3.3172429304213438 0 0 0 0 4.8765637341660462 -2.7488248972049583 0 -2.7488248972049583 -12.325457813257714 0 0 0 0 318.6634187348277 -14.301745489973655 0 -14.301745489973655 -157.30412822309881 0 0 0 0 133.70527639221064 -33.665951920613225 0 -33.665951920613225 -94.849842519797676 0 0 0 0 152.5573275680315 -84.851356436040987 0 -84.851356436040987 -191.59009493276244 0 0 0 0 3.9859462668051853 9.205808690075953 0 9.205808690075953 -5.4513679367673546 0 0 0 0 -73.562963417994979 -150.40764273918649 0 -150.40764273918649 -166.7806895306494 0 0 0 0 35.63787431945093 -10.617323987695272 0 -10.617323987695272 -142.00484492622127 0 0 0 0 18.730196784403233 -33.388278562371852 0 -33.388278562371852 -124.5681770885094 0 0 0 0 14.923895624266152 -51.964109032713168 0 -51.964109032713168 -135.58511759428075 0 0 0 0 16.078104010103743 -31.14879523538184 0 -31.14879523538184 -124.8345407356901 0 0 0 0 24.307322054347424 -22.732332680971012 0 -22.732332680971012 -104.21621621873055 0 0 0 0 16.777228920097514 -43.107334951393568 0 -43.107334951393568 -97.830975299148122 0 0 0 0 -8.235312142969633 -25.326934062065448 0 -25.326934062065448 -77.231966332888987 0 0 0 0 12.841497824927501 0.22908855896821478 0 0.22908855896821478 -75.706518712266188 0 0 0 0 -1.7293579442480222 -11.748208066865118 0 -11.748208066865118 -84.607244054881448 0 0 0 0 20.461324391297239 -17.0210977413808 0 -17.0210977413808 -88.224824953234929 0 0 0 0 37.276685049866728 2.3129435640048541 0 2.3129435640048541 -101.0856302294851 0 0 0 0 20.280945542810514 -18.901252745556121 0 -18.901252745556121 -107.82114369016381 0 0 0 0 20.44662048351347 -44.344959735768498 0 -44.344959735768498 -79.93439541038606 0 0 0 0 21.262348400719929 -40.915066214340186 0 -40.915066214340186 -109.4914331647542 0 0 0 0 4.7999488833738724 -44.828744953782007 0 -44.828744953782007 -62.957157388314954 0 0 0 0 6.0871483429327782 -27.922359174750454 0 -27.922359174750454 -94.909373336242425 0 0 0 0 6.4385777771484527 -34.781418768537606 0 -34.781418768537606 -71.916648053578683 0 0 0 0 1.4386736264004867 -37.896505653523491 0 -37.896505653523491 -73.739583620968915 0 0 0 0 -1.122701214497738 -38.395564984078192 0 -38.395564984078192 -65.201673194365867 0 0 0 0 -3.5716509351186687 -36.918481725397214 0 -36.918481725397214 -65.225082022883498 0 0 0 0 -3.6004193898488666 -57.819722459744298 0 -57.819722459744298 -12.551443851712975 0 0 0 0 -2.7278991996354307 -36.514270544987085 0 -36.514270544987085 -65.955997454722819 0 0 0 0 -13.366445322114316 -25.705292935764369 0 -25.705292935764369 -39.120403325849239 0 0 0 0 -5.7535815572528008 -39.425959180611244 0 -39.425959180611244 -61.802729371207533 0 0 0 0 1.7866083724742703 -9.3418670636573253 0 -9.3418670636573253 -9.4512402333294716 0 0 0 0 -0.19477509632582723 -56.229885030772948 0 -56.229885030772948 -69.817896357188147 0 0 0 0 -62.841630161090279 -17.418810053352217 0 -17.418810053352217 -93.82643278127216 0 0 0 0 -50.0708093045655 -69.970511283119777 0 -69.970511283119777 -72.196235117633478 0 0 0 0 -18.152379663903048 -26.763711178698941 0 -26.763711178698941 -14.555521350470372 0 0 0 0 29.645627098137993 -46.187358396058698 0 -46.187358396058698 -97.774811938078926 0 0 0 0 36.37847858198802 -7.1965727854712895 0 -7.1965727854712895 -27.613102849660208 0 0 0 0 -35.850939697191279 -80.000450743908004 0 -80.000450743908004 -27.221630196314436 0 0 0 0 -15.934487832146374 -86.866444915945976 0 -86.866444915945976 -79.474237924030604 0 0 0 0 -14.576097778399799 -30.752805526218253 0 -30.752805526218253 -55.288799322252089 0 0 0 0 6.5544491683565411 74.024620189811685 0 74.024620189811685 9.961117396107511 0 0 0 0 -55.29653118930446 -29.708431569686809 0 -29.708431569686809 -30.880020938835514 0 0 0 0 2.1491580384232849 2.4204194807279436 0 2.4204194807279436 -9.3684930421376649 0 0 0 0 -70.801286511596231 -156.10195642094754 0 -156.10195642094754 -166.71723283861502 0 0 0 0 0.90801757773809522 0.38665786572643768 0 0.38665786572643768 -21.959891543315138 0 0 0 0 -0.79412814985607838 -11.786141042082818 0 -11.786141042082818 -91.8887664121321 0 0 0 0 8.0736630432188736 0.96500206039410585 0 0.96500206039410585 -51.901768400711759 0 0 0 0 21.864941839310404 -26.924515920089107 0 -26.924515920089107 -67.452382169831253 0 0 0 0 5.5927697086822263 -27.636090680851339 0 -27.636090680851339 -59.681958974508234 0 0 0 0 -11.46207768786735 -39.637796211954992 0 -39.637796211954992 -54.084418566271779 0 0 0 0 8.0302594400959606 -43.059406235843198 0 -43.059406235843198 -53.662468396560143 0 0 0 0 -19.891678494746884 -34.777924578229431 0 -34.777924578229431 -34.118729458874441 0 0 0 0 -10.600923759386887 -64.028417347859431 0 -64.028417347859431 -76.867084425211942 0 0 0 0 -23.230738603131613 -57.166068336067838 0 -57.166068336067838 -31.143816723187228 0 0 0 0 -16.649894257345295 -48.294994991512795 0 -48.294994991512795 -27.541632757631305 0 0 0 0 -81.628246024343298 -97.434184170019762 0 -97.434184170019762 -47.874596442867187 0 0 0 0 39.673213334223419 -41.671424767622739 0 -41.671424767622739 -80.920353930370766 0 0 0 0 7.2703826399133504 -97.625241366371483 0 -97.625241366371483 -172.21620384674316 0 0 0 0 17.030882790473242 -29.340320849369164 0 -29.340320849369164 -64.391376051384213 0 0 0 0 61.692933262928136 42.354704237370242 0 42.354704237370242 -80.226474222857178 0 0 0 0 8.8164573587037545 4.1619980581276934 0 4.1619980581276934 -49.572488983266595 0 0 0 0 -22.287440320088535 -8.3012271385096028 0 -8.3012271385096028 -48.182315529131301 0 0 0 0 57.766246148917617 26.490407630222762 0 26.490407630222762 -136.98270535073243 0 0 0 0 -17.775916745804807 140.27908487274544 0 140.27908487274544 239.85528275933029 0 0 0 0 109.65347116501653 -3.216648676636396 0 -3.216648676636396 -128.12765270273303 0 0 0 0 84.657250297754217 -20.259589237219188 0 -20.259589237219188 -49.339283864571826 0 0 0 0 144.48067790757977 11.929182695378586 0 11.929182695378586 -51.342562925136008 0 0 0 0 6.0717356728549206 5.7774873849782722 0 5.7774873849782722 -11.086285388303637 0 0 0 0 19.487948409644559 57.580217454189551 0 57.580217454189551 -38.774500142373654 0 0 0 0 -8.9099199889298522 3.4434555119701002 0 3.4434555119701002 -9.933133968279634 0 0 0 0 -18.914776069380224 9.9878646952276995 0 9.9878646952276995 -10.202006976014673 0 0 0 0 13.537699542069277 14.216198101123155 0 14.216198101123155 -42.567690030562517 0 0 0 0 34.845914803309938 2.9942969218095641 0 2.9942969218095641 -27.740533060761663 0 0 0 0 0.93931414652951029 2.373137056735299 0 2.373137056735299 -27.425707473300449 0 0 0 0 -20.861135951233337 27.496548984543551 0 27.496548984543551 -41.36376831769303 0 0 0 0 -98.24377796146166 19.029298304802978 0 19.029298304802978 2.5520070795464562 0 0 0 0 -111.21406484350598 154.53225967108642 0 154.53225967108642 -159.92546340504487 0 0 0 0 -0.37512627979788249 3.0071151094323216 0 3.0071151094323216 -12.147400932061927 0 0 0 0 13.714309126537955 30.555822650696427 0 30.555822650696427 -107.5113613524623 0 0 0 0 -61.571462655063442 -23.696636430247963 0 -23.696636430247963 -18.515612729650456 0 0 0 0 -120.04000704336613 -135.16159854218131 0 -135.16159854218131 -103.4568157264444 0 0 0 0 94.40930105448615 -7.4660069268084044 0 -7.4660069268084044 -27.572943696575749 0 0 0 0 -1.5846517347135887 0.96386713529112811 0 0.96386713529112811 -6.4356037814558782 0 0 0 0 -43.074308078969239 7.2201180398915312 0 7.2201180398915312 -11.45840571527151 0 0 0 0 -2.7168463577236377 6.6439957373189031 0 6.6439957373189031 -0.54215305554026116 0 0 0 0 -30.114731738921364 44.950350054604769 0 44.950350054604769 -53.757937929323816 0 0 0 0 -21.514627962387749 21.55551556923092 0 21.55551556923092 -7.4539894470617583 0 0 0 0 -5.8104287266269239 1.2552168687579979 0 1.2552168687579979 -64.515686625934904 0 0 0 0 99.495777648378862 -48.31010649423115 0 -48.31010649423115 -51.17659234742132 0 0 0 0 -4.7568301042828676 17.003466583094816 0 17.003466583094816 -44.868262486147614 0 0 0 0 33.772971845816755 -16.832600272391574 0 -16.832600272391574 -36.391938884851697 0 0 0 0 19.881298599428717 74.862416622629297 0 74.862416622629297 55.254373168638267 0 0 0 0 71.393364309447861 41.780317277542053 0 41.780317277542053 -49.889451492286753 0 0 0 0 -11.762742005815198 -16.664035163054905 0 -16.664035163054905 207.29082360584289 0 0 0 0 25.269795524245637 -349.56902046415053 0 -349.56902046415053 202.11326436326522 0 0 0 0 -3.5267042867872505 13.402384229673942 0 13.402384229673942 -40.400791870906517 0 0 0 0 -247.06395796145716 79.558053343545907 0 79.558053343545907 -649.23532545602939 0 0 0 0 239.58247336683235 167.93131211312539 0 167.93131211312539 -424.79070226574004 0 0 0 0 227.98017502460243 -751.60971676260669 0 -751.60971676260669 -541.42629600403598 0 0 0 0 322.61343497356211 -37.956590095724096 0 -37.956590095724096 -729.1736006824467 0 0 0 0 214.3721674198141 -10.561092473886674 0 -10.561092473886674 -316.64561465717816 0 0 0 0 88.016053610317613 -129.87255377820111 0 -129.87255377820111 -364.20049360011762 0 0 0 0 7.3306357817955359 42.339725948597334 0 42.339725948597334 -57.219391205007923 0 0 0 0 19.643428604425935 63.312312645448401 0 63.312312645448401 -201.08692009561491 0 0 0 0 190.46724261388295 69.785419309072495 0 69.785419309072495 -236.63738466916402 0 0 0 0 76.133976392633485 152.28824496479683 0 152.28824496479683 -281.41501033819441 0 0 0 0 75.341649419638998 155.06151639968812 0 155.06151639968812 -209.74973545183457 0 0 0 0 35.481811800187643 -56.130724666920287 0 -56.130724666920287 95.536515886966299 0 0 0 0 205.46098076697172 252.02060372073356 0 252.02060372073356 -208.51300113946127 0 0 0 0 -0.7622523191153765 -2.3018661027634586 0 -2.3018661027634586 -5.0102150117341182 0 0 0 0 -44.532056752465451 -251.85970219220508 0 -251.85970219220508 -111.19209608435631 0 0 0 0 268.90509931810629 -223.25174380650606 0 -223.25174380650606 -96.374158945709496 0 0 0 0 -79.396976930974688 30.506880330571221 0 30.506880330571221 141.03662229525071 0 0 0 0 -1.3623048563686568 -4.8863467084404668 0 -4.8863467084404668 -10.292413580137676 0 0 0 0 400.83316424615805 -321.33418805868678 0 -321.33418805868678 -197.95970071654847 0 0 0 0 23.365874736397927 48.723879923196364 0 48.723879923196364 12.947891615491244 0 0 0 0 -470.62911561024384 -216.29181601104938 0 -216.29181601104938 -66.464177964488044 0 0 0 0 63.974154953017319 -70.691604301341613 0 -70.691604301341613 -626.9796615307605 0 0 0 0 -0.27113019273729844 0.39764443389089976 0 0.39764443389089976 -4.8761669828512026 0 0 0 0 -436.27735229835889 184.44759990795319 0 184.44759990795319 -72.180423840864023 0 0 0 0 -152.1688766128409 357.86641486461849 0 357.86641486461849 -369.72646359510691 0 0 0 0 -161.11846011702818 -156.1549533603029 0 -156.1549533603029 -320.70094577876444 0 0 0 0 -127.51425794788247 -58.934436362224005 0 -58.934436362224005 -556.92846302217094 0 0 0 0 -153.91963904411705 -288.07488548360334 0 -288.07488548360334 -421.48567061572976 0 0 0 0 -90.696670501076767 -256.22366383056033 0 -256.22366383056033 -392.26511949564156 0 0 0 0 -428.20301479937734 26.905824385372398 0 26.905824385372398 -268.98951576424224 0 0 0 0 -278.34526666202396 -133.25341681502141 0 -133.25341681502141 -130.02605820465033 0 0 0 0 -257.88677501299787 -199.72692705674399 0 -199.72692705674399 -179.23899268183959 0 0 0 0 -394.32866717630009 -230.5782199054629 0 -230.5782199054629 172.60935385699122 0 0 0 0 -306.87268134093017 -254.22938122450432 0 -254.22938122450432 -217.47227871434006 0 0 0 0 -273.28769205149376 -482.4955022465756 0 -482.4955022465756 -385.8991996887089 0 0 0 0 -56.843653239868296 -74.291817929416425 0 -74.291817929416425 -368.38027905108902 0 0 0 0 -51.400439334851171 -136.43281315403874 0 -136.43281315403874 -729.16781201606136 0 0 0 0 -233.55796786053475 5.0269452032061963 0 5.0269452032061963 -372.12769044931702 0 0 0 0 133.2742854049518 -33.061685688420766 0 -33.061685688420766 -381.49748175915101 0 0 0 0 -92.048384964895831 -85.998972577323002 0 -85.998972577323002 -490.19324833731298 0 0 0 0 -98.551464866976403 -96.143475758561181 0 -96.143475758561181 -390.88271438043375 0 0 0 0 -144.88865688158222 -269.61329591244407 0 -269.61329591244407 -578.26064117323767 0 0 0 0 35.476729159853448 -192.0118780392495 0 -192.0118780392495 -715.94920869722773 0 0 0 0 -1.2746359625468169 -2.8480226025340389 0 -2.8480226025340389 -4.9932578134559833 0 0 0 0 249.44517831165285 139.58871018227183 0 139.58871018227183 -497.39089857496401 0 0 0 0 -361.60440020356555 -440.99954015434741 0 -440.99954015434741 -63.043574637424172 0 0 0 0 -104.88863581186098 -163.30409742374854 0 -163.30409742374854 1.3292444974977116 0 0 0 0 -159.2623057943099 31.070382276201371 0 31.070382276201371 1.6615607392996026 0 0 0 0 -233.33381770861752 -90.950555971758149 0 -90.950555971758149 -195.89838815024723 0 0 0 0 -2.1746390956352242 7.4561777512903582 0 7.4561777512903582 -21.430774733675534 0 0 0 0 253.24671004319362 179.55159475475921 0 179.55159475475921 18.740644478457398 0 0 0 0 -350.8788592293356 -481.62728720313225 0 -481.62728720313225 -820.45163346172194 0 0 0 0 -287.99799697181425 -213.44469249330723 0 -213.44469249330723 -216.91957140707746 0 0 0 0 101.3848332986073 -39.729023220744239 0 -39.729023220744239 -667.48676480302311 0 0 0 0 -72.632380687434761 -67.591436342270754 0 -67.591436342270754 -640.60641020122785 0 0 0 0 -39.265450904622526 -15.824489052924037 0 -15.824489052924037 -1165.1641153716118 0 0 0 0 -257.63018038890823 126.03772040977492 0 126.03772040977492 -624.98530409605883 0 0 0 0 -446.47619018347268 249.80521818942725 0 249.80521818942725 -365.01891196158977 0 0 0 0 -349.72382063170198 362.64419104534136 0 362.64419104534136 -797.13761183430506 0 0 0 0 -222.63962081788122 45.641360452247682 0 45.641360452247682 -474.2364896412073 0 0 0 0 -117.63974085171913 -9.6999446271420311 0 -9.6999446271420311 -664.22846383720025 0 0 0 0 -173.00031389470359 -162.31591630784533 0 -162.31591630784533 -864.88009530769705 0 0 0 0 -39.49199670600342 78.988668303767554 0 78.988668303767554 -430.31956950344465 0 0 0 0 -592.54711434508772 182.0605461531577 0 182.0605461531577 -468.79631481806064 0 0 0 0 -312.38171463304207 42.192046046646283 0 42.192046046646283 -411.62311848261197 0 0 0 0 60.901802034487901 420.5179766854817 0 420.5179766854817 -992.08139040227979 0 0 0 0 0.012084354655371499 291.82042971887768 0 291.82042971887768 -393.0718831855811 0 0 0 0 -181.4395270358259 546.29731861839173 0 546.29731861839173 -177.25633925510192 0 0 0 0 -1.3788896919287215 2.9950071462760768 0 2.9950071462760768 -8.2986959522595072 0 0 0 0 -94.167129231681884 98.961332002296331 0 98.961332002296331 56.258778700639596 0 0 0 0 183.16768837742711 43.976655905893494 0 43.976655905893494 -120.89971886385683 0 0 0 0 -49.339658248679143 305.47355906462667 0 305.47355906462667 -390.39964808591321 0 0 0 0 -35.374022820605205 87.38804136185172 0 87.38804136185172 -69.277705380864063 0 0 0 0 16.020348663329628 92.881662338313618 0 92.881662338313618 -244.05552142577289 0 0 0 0 -3.4103105622671137 13.817630140914844 0 13.817630140914844 -121.43433278427983 0 0 0 0 48.393164068210126 -27.250815028482975 0 -27.250815028482975 -113.48500932112438 0 0 0 0 119.69406139758485 31.507837956476578 0 31.507837956476578 -84.143489811584004 0 0 0 0 154.65876563720258 -5.0000092884747573 0 -5.0000092884747573 -72.37950224409542 0 0 0 0 -217.85378128585489 -210.18346487042436 0 -210.18346487042436 -92.75895683206636 0 0 0 0 228.63049813741532 103.50692558557876 0 103.50692558557876 -27.914850265260611 0 0 0 0 -2.6539650523996103 10.219683187471688 0 10.219683187471688 -30.691302591069743 0 0 0 0 114.67801457681469 -16.855704758963384 0 -16.855704758963384 -90.372995675832499 0 0 0 0 101.86209067059553 23.36131145678155 0 23.36131145678155 -52.655122092786769 0 0 0 0 157.69717872569709 43.472445497707668 0 43.472445497707668 -63.526740977671579 0 0 0 0 130.49677900371717 7.7088690223536105 0 7.7088690223536105 -51.37943928326149 0 0 0 0 153.14788520673574 64.994988639569783 0 64.994988639569783 -60.01403416240646 0 0 0 0 101.72558271340216 2.4072053848285577 0 2.4072053848285577 -77.33512353914557 0 0 0 0 103.73511215936287 29.509813361979468 0 29.509813361979468 -61.155057637610298 0 0 0 0 111.23364068593946 26.084044472514506 0 26.084044472514506 -64.970890559877262 0 0 0 0 108.05400273065243 60.904257001573569 0 60.904257001573569 -41.305856668725028 0 0 0 0 96.52678016405298 26.240779148294678 0 26.240779148294678 -62.434951553790597 0 0 0 0 57.826570697049647 7.7753230735288525 0 7.7753230735288525 -42.865511037456599 0 0 0 0 49.100349115994959 -44.042444368255474 0 -44.042444368255474 -76.564023624930996 0 0 0 0 40.125735353569326 -37.914100629841414 0 -37.914100629841414 -67.647770189509174 0 0 0 0 38.798442260170305 -34.241696711527766 0 -34.241696711527766 -75.903497902771051 0 0 0 0 46.893344442111811 -38.968026459282555 0 -38.968026459282555 -85.858598782105219 0 0 0 0 -9.9972074667775814 -57.586348312412156 0 -57.586348312412156 -96.876112567611926 0 0 0 0 18.359226635555387 -70.357071724210982 0 -70.357071724210982 -102.74085825891962 0 0 0 0 32.551126757565726 -28.931011911741734 0 -28.931011911741734 -87.648134693765314 0 0 0 0 4.1691985273103001 -67.636880138386914 0 -67.636880138386914 -136.39605148872215 0 0 0 0 53.804667475560564 -45.852638396401744 0 -45.852638396401744 -83.379918775516046 0 0 0 0 -4.6826247100768796 -78.779543766224378 0 -78.779543766224378 -199.92096923259669 0 0 0 0 -13.731563881773127 -87.313481547036645 0 -87.313481547036645 -123.04557815712042 0 0 0 0 -14.169407719093215 -55.540729995333095 0 -55.540729995333095 -113.33811729327954 0 0 0 0 -26.836406267505481 -82.318077265885222 0 -82.318077265885222 -107.98659162485455 0 0 0 0 -11.875793807182191 -71.964291751434757 0 -71.964291751434757 -100.99875320116553 0 0 0 0 -14.290484286147489 -78.475015866320973 0 -78.475015866320973 -122.62741340950015 0 0 0 0 -26.558270032204859 -87.750889537359399 0 -87.750889537359399 -86.937259694168461 0 0 0 0 30.419081633404744 -118.24131373430646 0 -118.24131373430646 -91.285203752310736 0 0 0 0 122.61899093787815 -20.321518905140692 0 -20.321518905140692 -148.03873860524618 0 0 0 0 268.13329550538873 -92.715332833417051 0 -92.715332833417051 -134.38468648270646 0 0 0 0 17.541413229785348 -55.530945446225815 0 -55.530945446225815 -74.573838459786202 0 0 0 0 309.00203058602432 241.99103238387306 0 241.99103238387306 84.588263179015485 0 0 0 0 -31.477022783517146 73.019441723844466 0 73.019441723844466 3.7448874511828762 0 0 0 0 59.131590789280011 95.692700840339967 0 95.692700840339967 43.060070336214267 0 0 0 0 -1.0688730945905101 1.9556079085465612 0 1.9556079085465612 -2.4732265567872105 0 0 0 0 -26.30074761287548 24.165538804318203 0 24.165538804318203 -54.650341799671878 0 0 0 0 -115.46000573111058 -25.519530041096004 0 -25.519530041096004 28.448999637214001 0 0 0 0 -23.734383903616489 -40.596286546871852 0 -40.596286546871852 -260.77945854163409 0 0 0 0 28.286011977931707 -92.344024059317235 0 -92.344024059317235 -295.87130390013044 0 0 0 0 -47.735284843814355 -60.795357356073509 0 -60.795357356073509 -133.57473788523293 0 0 0 0 6.4219954510309663 22.044795211062592 0 22.044795211062592 -353.7403243577246 0 0 0 0 -2.8275781478159843 -169.12733847288473 0 -169.12733847288473 -442.0197228292709 0 0 0 0 -70.677329056805377 66.479814359141528 0 66.479814359141528 -568.93149735550105 0 0 0 0 33.411869108374276 31.685626766648056 0 31.685626766648056 -706.06400453702372 0 0 0 0 -169.72523632660057 -48.134766590301297 0 -48.134766590301297 -701.14824721926198 0 0 0 0 -33.704380876310609 127.84480597821675 0 127.84480597821675 -581.50067820555341 0 0 0 0 -35.45208589933145 158.5678877491282 0 158.5678877491282 -966.67434242686431 0 0 0 0 28.08318649370166 4.4427419756814288 0 4.4427419756814288 -398.35317127474991 0 0 0 0 38.434519363375557 154.32270711083584 0 154.32270711083584 -612.97993416401732 0 0 0 0 31.921992591711387 137.82865628891886 0 137.82865628891886 -337.06192488226952 0 0 0 0 15.263116931054128 98.852972008815414 0 98.852972008815414 -377.98892948408502 0 0 0 0 27.407798919917354 -18.714730723450884 0 -18.714730723450884 -302.77359246460401 0 0 0 0 -5.7071465614446879 -0.65386405155004468 0 -0.65386405155004468 -210.70045751396538 0 0 0 0 10.376027808239087 -7.3199187174468534 0 -7.3199187174468534 -233.39495903164061 0 0 0 0 1.5632097476013769 79.050819299780414 0 79.050819299780414 -205.41618233830559 0 0 0 0 -20.530559418610665 205.86894890498297 0 205.86894890498297 -222.3130288255411 0 0 0 0 -2.4406582176902702 247.42357029430605 0 247.42357029430605 -438.75245065230956 0 0 0 0 9.8516414516493569 255.240946627222 0 255.240946627222 -434.2857367618326 0 0 0 0 17.251679700523702 256.75576450861968 0 256.75576450861968 -434.8382043583988 0 0 0 0 36.111008130780704 285.33317810689368 0 285.33317810689368 -540.94343430556546 0 0 0 0 35.12990864678477 97.052853893997963 0 97.052853893997963 -563.86667444367868 0 0 0 0 7.9376562028031117 133.03721524917091 0 133.03721524917091 -406.94840275942624 0 0 0 0 -38.290533309358125 72.119808449588163 0 72.119808449588163 -171.82021406620333 0 0 0 0 -73.449348685989662 100.42529026831471 0 100.42529026831471 -185.93896173804569 0 0 0 0 11.118570266753963 104.39315823127799 0 104.39315823127799 -328.5202412197068 0 0 0 0 -46.329511344673051 237.56677351636245 0 237.56677351636245 -370.39699476759415 0 0 0 0 -37.887743297434554 216.15959432208911 0 216.15959432208911 -316.18443011728232 0 0 0 0 -133.29291906447537 189.68190856187721 0 189.68190856187721 -170.9879628231065 0 0 0 0 -243.29589651357026 296.07068556362901 0 296.07068556362901 -131.6402348327465 0 0 0 0 -80.298985093810813 345.0377469036157 0 345.0377469036157 -451.28414424092625 0 0 0 0 16.660341565141643 266.46367492550041 0 266.46367492550041 -491.51272913306457 0 0 0 0 -51.446938153764904 312.6227598925434 0 312.6227598925434 -431.10971630122367 0 0 0 0 -3.4454529079476401 244.95039029893724 0 244.95039029893724 -376.29957754176576 0 0 0 0 -72.81186525279827 294.74089261496556 0 294.74089261496556 -320.61742594984048 0 0 0 0 17.275896834450606 246.53180960578538 0 246.53180960578538 -471.79791533295793 0 0 0 0 -107.79915063667738 354.37998411001536 0 354.37998411001536 -453.26219202712309 0 0 0 0 15.362531355750928 271.85156557312575 0 271.85156557312575 -744.17303472679487 0 0 0 0 -120.98695775133774 443.66730806294436 0 443.66730806294436 -920.83701169562119 0 0 0 0 -165.17419661508188 237.27794272867322 0 237.27794272867322 -765.69779976577411 0 0 0 0 -164.65659659982293 141.61632542624284 0 141.61632542624284 -1562.3688437963428 0 0 0 0 -795.54803793685096 622.65475252860961 0 622.65475252860961 -81.735039824940031 0 0 0 0 -365.86864674069557 752.17767294331861 0 752.17767294331861 -1181.7510592607723 0 0 0 0 -294.44867565949107 423.90170219741049 0 423.90170219741049 -236.16096079608542 0 0 0 0 47.847763191053332 106.65193389132037 0 106.65193389132037 -1173.3462755930013 0 0 0 0 189.06173484237888 -301.13073300154792 0 -301.13073300154792 -2087.7347332597128 0 0 0 0 -66.812578254998186 -93.994032879843871 0 -93.994032879843871 -523.37235787863028 0 0 0 0 -1.1016733993794348 3.2080368944447066 0 3.2080368944447066 -5.9699883466574306 0 0 0 0 -594.85615958075323 -452.66315721393039 0 -452.66315721393039 -382.53948753385339 0 0 0 0 98.156978680835437 -349.9064678408904 0 -349.9064678408904 -466.84893866447237 0 0 0 0 -1.6205341284066361 2.7355294161211425 0 2.7355294161211425 2.5454433979517148 0 0 0 0 45.589964115901296 77.462955057659201 0 77.462955057659201 -173.62405116992704 0 0 0 0 0.099082809587613507 2.8193775747296108 0 2.8193775747296108 -9.9115853879378761 0 0 0 0 1.6233891991230394 23.251331634543021 0 23.251331634543021 13.713430137780961 0 0 0 0 147.13742040304805 151.85898888550219 0 151.85898888550219 -138.50767411760899 0 0 0 0 -2.5614346350721489 5.5954364680441486 0 5.5954364680441486 -6.0614214217598743 0 0 0 0 -237.42207533678493 359.03096127907702 0 359.03096127907702 -302.76371093605485 0 0 0 0 -211.6222169557293 -43.07327146238822 0 -43.07327146238822 61.931560045395599 0 0 0 0 -50.842296794926824 105.73970618077874 0 105.73970618077874 -114.10485923531132 0 0 0 0 -37.459640625668953 117.82376842110716 0 117.82376842110716 -107.40333139937138 0 0 0 0 35.544779080322314 -24.009202484196067 0 -24.009202484196067 67.345037176941332 0 0 0 0 -1.6513736386625384 5.3027192471955615 0 5.3027192471955615 -13.237442880994308 0 0 0 0 221.96469201427408 104.04643217868943 0 104.04643217868943 -20.16888317158373 0 0 0 0 -62.096095768495672 47.212578132138788 0 47.212578132138788 9.4353966280141321 0 0 0 0 17.13679975828245 -69.950347923382651 0 -69.950347923382651 -47.375979332686256 0 0 0 0 -0.0056947304418078701 54.946213171242562 0 54.946213171242562 -24.158962495072956 0 0 0 0 19.74914580073246 19.849959833619323 0 19.849959833619323 37.417485094974836 0 0 0 0 -11.586529058298765 17.485306581169425 0 17.485306581169425 9.3885244506018353 0 0 0 0 -1.5012987328651908 4.5811060691297207 0 4.5811060691297207 -11.229207774378068 0 0 0 0 35.606921592112371 9.3131042896766303 0 9.3131042896766303 -32.053165892015386 0 0 0 0 -21.287026926620854 36.98795798082574 0 36.98795798082574 22.753246122470955 0 0 0 0 85.228807302613689 105.90891902248586 0 105.90891902248586 -22.108279069107084 0 0 0 0 -25.178777849097443 -61.338804529441404 0 -61.338804529441404 -68.791936318929402 0 0 0 0 -0.064398737230195804 41.054838651632963 0 41.054838651632963 -271.95178696481162 0 0 0 0 35.865013953930529 -116.59875105600918 0 -116.59875105600918 -265.93608250915713 0 0 0 0 52.869562366205116 51.954695720402015 0 51.954695720402015 -496.77748029874419 0 0 0 0 46.659339891427862 -42.678710821983259 0 -42.678710821983259 -651.66032343918778 0 0 0 0 59.142424695279658 -47.345520244665749 0 -47.345520244665749 -484.53029059944311 0 0 0 0 0.28951486792524217 82.838646472042456 0 82.838646472042456 -597.85910827839689 0 0 0 0 39.635153816785561 107.17774157610256 0 107.17774157610256 -598.26129734228925 0 0 0 0 -41.011858283052817 267.94487067069349 0 267.94487067069349 -545.16801049213609 0 0 0 0 -26.66047584756339 242.62858004891132 0 242.62858004891132 -655.26400012558406 0 0 0 0 -149.01465363297808 194.7942221333451 0 194.7942221333451 -620.88578602159396 0 0 0 0 6.6974282371549236 200.25015927051481 0 200.25015927051481 -820.91004316991166 0 0 0 0 -231.43476175144428 342.80558531787392 0 342.80558531787392 -792.47818567729701 0 0 0 0 -185.61484093753154 188.67903125995508 0 188.67903125995508 -769.81954189033422 0 0 0 0 -553.85427373710991 683.18265818081636 0 683.18265818081636 -1402.983502643503 0 0 0 0 -229.69963454854212 232.56213742677937 0 232.56213742677937 -786.87698814318355 0 0 0 0 -930.51418140492103 55.619829261444465 0 55.619829261444465 -824.16239036186016 0 0 0 0 -2.7433867573096791 83.255376262617574 0 83.255376262617574 -651.08461641922531 0 0 0 0 -97.198234582528301 -143.84431033553483 0 -143.84431033553483 -192.92742417509726 0 0 0 0 -435.29950404414643 198.23400321898407 0 198.23400321898407 -590.65129846846321 0 0 0 0 -244.727570617949 228.76502097092089 0 228.76502097092089 -9.621861621766584 0 0 0 0 -0.93756458146573463 1.1819024841065868 0 1.1819024841065868 -1.6007244674302967 0 0 0 0 79.167938538951347 60.343147812443931 0 60.343147812443931 -31.387911729725602 0 0 0 0 -91.179265636038565 -7.7668482702920301 0 -7.7668482702920301 4.0948964468225313 0 0 0 0 1.1053343199913712 -7.0710607598293791 0 -7.0710607598293791 -36.97488141174108 0 0 0 0 -152.59659626102001 86.147973281984378 0 86.147973281984378 -75.366927632964689 0 0 0 0 -69.512076823760751 136.15270133175909 0 136.15270133175909 -236.98785046386183 0 0 0 0 -0.20468109164152637 84.705473034000534 0 84.705473034000534 -274.64357590412692 0 0 0 0 -21.343127935840812 -45.387288783549678 0 -45.387288783549678 -28.734296177360477 0 0 0 0 -8.9735698610734289 -49.123098470761335 0 -49.123098470761335 -51.565117098993255 0 0 0 0 -0.76073846550548296 -18.762349088702649 0 -18.762349088702649 -94.491523347082989 0 0 0 0 -55.740898558661456 -4.2891081710029795 0 -4.2891081710029795 5.8148088652431511 0 0 0 0 -0.61390968912025468 4.7389916353623445 0 4.7389916353623445 -0.27104408998221979 0 0 0 0 -24.670537271096464 29.931084753832607 0 29.931084753832607 -88.974882929007379 0 0 0 0 -91.124820037367726 -5.6705990603074383 0 -5.6705990603074383 -86.606578800414241 0 0 0 0 -35.779473913155698 3.4996278342925962 0 3.4996278342925962 -113.0943553835677 0 0 0 0 6.1822907944808776 -26.445764075550215 0 -26.445764075550215 -110.2958654513053 0 0 0 0 -39.362532905040212 -37.515099755049846 0 -37.515099755049846 -230.89443128203573 0 0 0 0 -3.091098761198964 -41.322213279290395 0 -41.322213279290395 -94.231806066850822 0 0 0 0 -10.967451103562553 -16.908330505059325 0 -16.908330505059325 -159.32085016046994 0 0 0 0 2.743183677165689 -23.585508351390843 0 -23.585508351390843 -127.2625159900108 0 0 0 0 -18.92737539491236 0.2713009115786349 0 0.2713009115786349 -108.6586456876845 0 0 0 0 -5.3341599765669319 -36.367873725490675 0 -36.367873725490675 10.817413109769859 0 0 0 0 6.0172315385066213 -53.223449895123423 0 -53.223449895123423 -46.805296802354263 0 0 0 0 -5.4766889182396179 -0.84591457385936342 0 -0.84591457385936342 -77.329418791310218 0 0 0 0 -10.724149781414781 -25.400096449896523 0 -25.400096449896523 -49.326044382395025 0 0 0 0 230.18527006840077 -49.058723747621116 0 -49.058723747621116 -82.326341274565493 0 0 0 0 224.58283873257187 -37.684183540872255 0 -37.684183540872255 -83.357302132229961 0 0 0 0 242.11341216400069 -25.997838915827742 0 -25.997838915827742 -75.638872496980184 0 0 0 0 43.853250365252734 -74.783308209509926 0 -74.783308209509926 -40.400861726413723 0 0 0 0 263.35941095419003 -14.839651912592672 0 -14.839651912592672 -75.935870521730976 0 0 0 0 260.8626056446011 -38.017400050711558 0 -38.017400050711558 -83.799281137515209 0 0 0 0 253.78254810957662 102.43179868697098 0 102.43179868697098 -95.363297656724171 0 0 0 0 2.0532139806300864 -6.4656453787036545 0 -6.4656453787036545 -56.694664848368426 0 0 0 0 63.183078998370775 -62.461144939348856 0 -62.461144939348856 -53.256903210713176 0 0 0 0 154.63682434823158 25.849013026139801 0 25.849013026139801 -55.242739512350454 0 0 0 0 150.2921816777889 -148.31454859152291 0 -148.31454859152291 56.503320218529552 0 0 0 0 583.21287911941272 22.420701538852882 0 22.420701538852882 -141.18785361823393 0 0 0 0 6.8781793084403766 2.1854580022449852 0 2.1854580022449852 -16.977404637750912 0 0 0 0 1.8447319238118731 -24.85665652838361 0 -24.85665652838361 -99.800371184914638 0 0 0 0 11.307764215602447 -32.80744595840094 0 -32.80744595840094 -23.933613568692181 0 0 0 0 2.7448513095208309 1.4295710093699798 0 1.4295710093699798 -15.521766113393348 0 0 0 0 53.818733032421505 -46.797779457768506 0 -46.797779457768506 -47.00735392417532 0 0 0 0 17.292216389782425 -44.67106095050076 0 -44.67106095050076 -44.756044889162808 0 0 0 0 0.95951988894319129 -63.982542133668176 0 -63.982542133668176 28.577054597040842 0 0 0 0 2.2356809391636716 -16.322463178046974 0 -16.322463178046974 -98.099629294686025 0 0 0 0 3.3200426234134475 -21.817635378684571 0 -21.817635378684571 -37.706900838107273 0 0 0 0 27.221211588695041 -55.043872427348106 0 -55.043872427348106 1.4594453123063431 0 0 0 0 475.74392647150125 -314.01398363812586 0 -314.01398363812586 110.63141063721196 0 0 0 0 456.02212093896009 -31.691293794819103 0 -31.691293794819103 -10.758701186961844 0 0 0 0 0.85562782598781517 -0.8420386447797874 0 -0.8420386447797874 -7.3174819329908427 0 0 0 0 14.973037201000807 -15.589157803371563 0 -15.589157803371563 -6.8471613518242975 0 0 0 0 0.67120842482423226 -9.614700445370671 0 -9.614700445370671 -8.5878466896662502 0 0 0 0 -1.03867364289898 -13.487205576311325 0 -13.487205576311325 4.6141323522637308 0 0 0 0 9.3431212157572592 4.4787077499156496 0 4.4787077499156496 -32.934841224074766 0 0 0 0 300.37302394042581 -138.41845496079441 0 -138.41845496079441 20.485277521820535 0 0 0 0 447.52116001484319 -120.69536915868412 0 -120.69536915868412 -26.475688546917809 0 0 0 0 -0.85714309494000851 -2.3083757004145058 0 -2.3083757004145058 3.0895113857137062 0 0 0 0 422.08179901471613 -68.67838416666018 0 -68.67838416666018 -80.410988341747725 0 0 0 0 352.42699858238939 -95.39559893329897 0 -95.39559893329897 38.186127706997468 0 0 0 0 301.86064113993643 -72.304920956497881 0 -72.304920956497881 35.043944038607151 0 0 0 0 306.50462747445454 -33.072984427286428 0 -33.072984427286428 -114.4013354931667 0 0 0 0 -24.446735871767714 -63.939640237367712 0 -63.939640237367712 32.769092921247648 0 0 0 0 -73.328478077395857 -12.872644521386974 0 -12.872644521386974 32.635384340061137 0 0 0 0 -0.25904442920843174 -4.7303381422436086 0 -4.7303381422436086 -11.093870270447098 0 0 0 0 -31.582585312042454 -33.274919201240664 0 -33.274919201240664 43.856083422593656 0 0 0 0 -68.9791735264198 -9.6856948146487412 0 -9.6856948146487412 33.81023583807837 0 0 0 0 -3.3308551377845106 -23.752795884582156 0 -23.752795884582156 -6.1802552651479346 0 0 0 0 -14.56355151606374 -11.152609528940957 0 -11.152609528940957 9.6873208736324159 0 0 0 0 -56.071409594075135 -43.414796212657166 0 -43.414796212657166 -13.973080198869866 0 0 0 0 -25.318523727937304 -33.567520558208344 0 -33.567520558208344 60.101270998102336 0 0 0 0 -0.31743801645961867 -26.37577874300257 0 -26.37577874300257 -42.853661107906703 0 0 0 0 53.125874851743419 -62.047035629443599 0 -62.047035629443599 -56.177074874613027 0 0 0 0 1.0033715417941678 0.64478324923677377 0 0.64478324923677377 -8.2473845508082739 0 0 0 0 3.8616437195143232 -23.875594682229124 0 -23.875594682229124 -28.086956884145263 0 0 0 0 34.646093790339137 -61.818847913031277 0 -61.818847913031277 36.627957982844237 0 0 0 0 -6.1804566523936728 0.9863107357010108 0 0.9863107357010108 -55.05307386746108 0 0 0 0 -10.365876957966492 -13.436304171282131 0 -13.436304171282131 -68.949677834666545 0 0 0 0 -4.9679799584989723 -26.88548241365379 0 -26.88548241365379 -93.447551246581725 0 0 0 0 6.0404009462517934 -8.1840678562781477 0 -8.1840678562781477 -80.877377622256972 0 0 0 0 3.2336989613479545 -4.0401990470939495 0 -4.0401990470939495 -82.252030374146898 0 0 0 0 0.20276201822844087 -20.487744491532794 0 -20.487744491532794 -66.425684291325979 0 0 0 0 6.9310706111423315 -13.084280109277273 0 -13.084280109277273 -59.774444135073509 0 0 0 0 -4.9571058531637391 -17.081536191769374 0 -17.081536191769374 -59.815962097577312 0 0 0 0 2.2654848458707875 -20.706586222612145 0 -20.706586222612145 -45.883391038768877 0 0 0 0 8.284653106148653 -10.40474350486852 0 -10.40474350486852 -57.140691671824698 0 0 0 0 10.36667911874838 -7.9601891088709635 0 -7.9601891088709635 -54.343407896152712 0 0 0 0 -8.9725042672622521 -8.5009551742415681 0 -8.5009551742415681 -54.143969005965573 0 0 0 0 -5.3049398851690057 -13.359729341951834 0 -13.359729341951834 -49.930038178873019 0 0 0 0 -6.5349315125667999 -8.6232344529960301 0 -8.6232344529960301 -49.724878405405434 0 0 0 0 -8.8713931274069182 -12.810080492754878 0 -12.810080492754878 -55.386457050232366 0 0 0 0 -15.193706991182125 -19.455520688672095 0 -19.455520688672095 -72.391787031423064 0 0 0 0 -0.92220171322060196 -8.2547219393422893 0 -8.2547219393422893 -87.467796204563228 0 0 0 0 -1.4981040574825784 -11.315655626246098 0 -11.315655626246098 -76.358062020518673 0 0 0 0 0.7382279040789399 -7.2602577142491782 0 -7.2602577142491782 -73.301823306855795 0 0 0 0 63.858414711009573 13.7229065052652 0 13.7229065052652 -39.418414367005425 0 0 0 0 84.86684863867788 63.771750278747959 0 63.771750278747959 -9.4846488955790846 0 0 0 0 -16.786643351108523 -16.906917183568225 0 -16.906917183568225 -57.933091293170492 0 0 0 0 -47.441596073449318 -62.073741006294313 0 -62.073741006294313 -113.09829854952773 0 0 0 0 -3.884689417337678 6.1482328737986078 0 6.1482328737986078 -8.8936012210607025 0 0 0 0 13.601591235789783 -15.481064257435719 0 -15.481064257435719 -125.06360046837597 0 0 0 0 16.267149241780317 4.7863503512751322 0 4.7863503512751322 -99.734293309241366 0 0 0 0 -10.616848628838852 -15.855006301517847 0 -15.855006301517847 -82.941695078455268 0 0 0 0 -52.02338953147455 15.659519443319368 0 15.659519443319368 -25.206261516435603 0 0 0 0 -3.8497615670593355 6.1541776298084203 0 6.1541776298084203 -2.4891198608842391 0 0 0 0 52.234990448518261 -25.836452445321711 0 -25.836452445321711 -155.71639647995227 0 0 0 0 2.6328532767136039 46.613645116191236 0 46.613645116191236 -125.91615929619172 0 0 0 0 -6.624414465134123 6.4708919454988063 0 6.4708919454988063 -59.671017365785474 0 0 0 0 -3.0214708648815929 -4.5216781111424069 0 -4.5216781111424069 -81.859272736644471 0 0 0 0 -1.5237083169390644 -6.380840389468176 0 -6.380840389468176 -85.221447741742509 0 0 0 0 -4.5413915427142229 -4.5112974692707439 0 -4.5112974692707439 -84.65205582650924 0 0 0 0 -38.17920764562632 9.4445098720803529 0 9.4445098720803529 -9.1658891742759465 0 0 0 0 -2.9817735954187423 5.5945269027574005 0 5.5945269027574005 -2.7409760541536552 0 0 0 0 4.2747554095089981 -73.015237542454898 0 -73.015237542454898 -103.99947186301497 0 0 0 0 -21.696325318974687 -10.075436889375496 0 -10.075436889375496 -130.76262263757917 0 0 0 0 60.235458907192992 -1.7961986660088023 0 -1.7961986660088023 -135.57919355765694 0 0 0 0 29.965305303244122 -29.97597870751072 0 -29.97597870751072 -238.80699004437611 0 0 0 0 -2.9757081402151573 -2.0123836648749611 0 -2.0123836648749611 0.17586754009042715 0 0 0 0 -22.302598609559439 -39.851463818332604 0 -39.851463818332604 83.088495516947205 0 0 0 0 -28.048688838148138 30.132518118657906 0 30.132518118657906 -186.38609117024879 0 0 0 0 -36.134412062418733 -36.342264657665766 0 -36.342264657665766 -118.17149746589435 0 0 0 0 -65.788591791167335 -23.223969902705903 0 -23.223969902705903 -27.743029970249154 0 0 0 0 -91.444162689494078 -72.780983968298187 0 -72.780983968298187 -58.732701034389265 0 0 0 0 15.044353409523028 -161.5591627551901 0 -161.5591627551901 -231.04427800880649 0 0 0 0 -21.204120942051816 -31.678063534244984 0 -31.678063534244984 -81.159583875739713 0 0 0 0 -7.0247727740405708 19.253363707463222 0 19.253363707463222 -43.850870654518417 0 0 0 0 16.997551737738149 -1.4741228159625734 0 -1.4741228159625734 -29.469901319353994 0 0 0 0 18.91958731656959 -16.194969694121369 0 -16.194969694121369 -40.10001667486722 0 0 0 0 17.853246420757131 -17.496947821169272 0 -17.496947821169272 -12.769267233917617 0 0 0 0 33.129060466313604 -36.15541460636166 0 -36.15541460636166 -20.891841457934198 0 0 0 0 16.707019778418044 -10.816343428943782 0 -10.816343428943782 -22.541554557690802 0 0 0 0 29.102395526784562 -5.5709560811682763 0 -5.5709560811682763 -74.445771909288851 0 0 0 0 -114.60414153989768 -57.594862062452648 0 -57.594862062452648 -11.051624668309728 0 0 0 0 103.23065343416238 142.51215335367658 0 142.51215335367658 169.55375501697085 0 0 0 0 -78.955983024779925 -157.47562526392176 0 -157.47562526392176 508.35326689390956 0 0 0 0 -1.1881287462709693 -0.3865459249627512 0 -0.3865459249627512 0.19362642490218124 0 0 0 0 28.053790269962519 -31.377539143139217 0 -31.377539143139217 -324.53090610891576 0 0 0 0 -2.2873570597204163 -0.64305168015011827 0 -0.64305168015011827 0.19450617607525311 0 0 0 0 4.5552578373171855 108.85093137375048 0 108.85093137375048 607.57607040895221 0 0 0 0 -74.905125134567072 -118.69039454864294 0 -118.69039454864294 -148.84795425086321 0 0 0 0 27.412527038853341 -34.461699354970733 0 -34.461699354970733 -232.11451914107033 0 0 0 0 12.020018670064474 -58.960931224479737 0 -58.960931224479737 -223.37170340735474 0 0 0 0 -30.987699659831833 -105.38580210965006 0 -105.38580210965006 -163.15827202006267 0 0 0 0 -9.6221509682885653 -29.066319948634828 0 -29.066319948634828 -114.551768795317 0 0 0 0 -8.9517150973032358 -47.868476989291594 0 -47.868476989291594 -112.16944935347237 0 0 0 0 6.3403301066316544 -48.871104855964177 0 -48.871104855964177 -148.3420403140135 0 0 0 0 6.3684838195960083 5.280500752764965 0 5.280500752764965 -188.2171954896362 0 0 0 0 -5.6509957025656377 -30.884703176877565 0 -30.884703176877565 -111.8433607100128 0 0 0 0 -1.4859847902354204 -32.360459446959794 0 -32.360459446959794 -142.88645792921579 0 0 0 0 -6.5313326184002563 -28.171633596199626 0 -28.171633596199626 -117.36668511021048 0 0 0 0 4.3047532617720208 10.290459234332047 0 10.290459234332047 -108.21221844643242 0 0 0 0 -22.32495649916018 -24.057319689722362 0 -24.057319689722362 -81.971404945872564 0 0 0 0 -7.9601235880547847 11.055261189472276 0 11.055261189472276 -102.28782579510562 0 0 0 0 -12.080754335710139 -22.812947140760116 0 -22.812947140760116 -88.674787411095167 0 0 0 0 -9.5890024985180844 -28.101101359695122 0 -28.101101359695122 -112.05911048500732 0 0 0 0 -4.1267647657783186 32.40540152122071 0 32.40540152122071 -19.549014760895489 0 0 0 0 -8.0202955415057886 -31.312602620096186 0 -31.312602620096186 -77.959265188679865 0 0 0 0 -15.388037101135126 -45.090873414123735 0 -45.090873414123735 -90.367238518329032 0 0 0 0 -1.0570732655888406 -2.4144946726648868 0 -2.4144946726648868 -47.747639611289742 0 0 0 0 -1.6034229956502486 -24.631357574471167 0 -24.631357574471167 -3.0464119322045917 0 0 0 0 -27.815146864471302 29.608347477781535 0 29.608347477781535 56.549967325643138 0 0 0 0 0.27025884957513924 0.10781345643629514 0 0.10781345643629514 -0.13493869326008179 0 0 0 0 -10.744946565768487 41.766328476467947 0 41.766328476467947 -112.45231995716745 0 0 0 0 12.677925878838408 0.83904637620889844 0 0.83904637620889844 -20.905802794125975 0 0 0 0 1.134587280838685 -0.021212384092747616 0 -0.021212384092747616 -0.086045063223121776 0 0 0 0 22.787881833494282 -0.55010932616414721 0 -0.55010932616414721 -44.862646084676953 0 0 0 0 0.88800377954777332 28.273157244075264 0 28.273157244075264 9.4469222791631182 0 0 0 0 17.59352400117173 -1.1401554459561112 0 -1.1401554459561112 -31.959392459592436 0 0 0 0 -21.567546436795297 -1.3367563099533584 0 -1.3367563099533584 -36.348063737406846 0 0 0 0 -0.39368637853476685 0.61965145276622025 0 0.61965145276622025 -29.619338619439304 0 0 0 0 -23.590134749726701 21.128350776247885 0 21.128350776247885 -13.516751526981352 0 0 0 0 9.4497954113738274 0.69652586714789777 0 0.69652586714789777 -16.045046103373124 0 0 0 0 -0.49584643354998548 -2.5746699178874337 0 -2.5746699178874337 -8.9074642332052463 0 0 0 0 0.31695462172219124 -0.60978993266049741 0 -0.60978993266049741 -1.2434805542773804 0 0 0 0 5.1566104422755643 3.9602648679201593 0 3.9602648679201593 -1.779772991466416 0 0 0 0 -4.2607920436391851 -12.532152630015702 0 -12.532152630015702 -10.340657849536058 0 0 0 0 -0.58464398513769367 -2.4874315172776855 0 -2.4874315172776855 -3.5185736310945694 0 0 0 0 2.6821731411774863 -3.0743450834213206 0 -3.0743450834213206 -13.027151830161088 0 0 0 0 1.4527317709851104 -0.35953740045417248 0 -0.35953740045417248 -7.986402052019713 0 0 0 0 2.1929110290991503 -0.12510519945509202 0 -0.12510519945509202 -11.953251425856976 0 0 0 0 1.552952583365323 -0.083835346139973232 0 -0.083835346139973232 -7.564760074211641 0 0 0 0 5.4021397327566092 -2.2076186115834844 0 -2.2076186115834844 -9.0931193249376747 0 0 0 0 1.8036430624615036 -2.9641083680243554 0 -2.9641083680243554 -10.591371943624239 0 0 0 0 2.5247777521576982 -0.64625354999284212 0 -0.64625354999284212 -1.1287446143876694 0 0 0 0 3.4755228914144141 -0.76492098765470473 0 -0.76492098765470473 -8.9445777260493742 0 0 0 0 1.0111963093480256 -0.56039047580902446 0 -0.56039047580902446 -6.7896102586809146 0 0 0 0 0.82139443899719933 1.0754586309527627 0 1.0754586309527627 -0.33093590952516649 0 0 0 0 10.530368957638302 -6.3755604118730389 0 -6.3755604118730389 -29.296270124243051 0 0 0 0 3.1393771727762214 -9.3069609447534276 0 -9.3069609447534276 -28.398991521578409 0 0 0 0 2.4384638586266192 -13.341720218822616 0 -13.341720218822616 -11.652521630664523 0 0 0 0 -0.72717556924305882 -13.281924550951771 0 -13.281924550951771 -9.2739042252046602 0 0 0 0 0.58844876992202444 -9.1230614303954098 0 -9.1230614303954098 -8.3808934496878464 0 0 0 0 0.91589515761825169 -10.928846816778332 0 -10.928846816778332 -12.90737241475108 0 0 0 0 -4.3314512880440645 -16.376913040145126 0 -16.376913040145126 -18.273327643229095 0 0 0 0 -5.8966283847150862 -4.55208580663475 0 -4.55208580663475 -20.879036838498905 0 0 0 0 -1.9588084119691302 -19.222275971026647 0 -19.222275971026647 -47.569924915675074 0 0 0 0 8.2756607110709979 -0.52574343834737647 0 -0.52574343834737647 -42.02341768072074 0 0 0 0 -0.86009004159700453 -8.4069587569420037 0 -8.4069587569420037 -12.09395683871935 0 0 0 0 2.5788421715770937 -4.2892744217265317 0 -4.2892744217265317 -15.735143132893427 0 0 0 0 1.0367661320076422 -10.888132887830579 0 -10.888132887830579 -17.15240164342822 0 0 0 0 -1.8193784683060721 -4.2537600595987888 0 -4.2537600595987888 -8.256556878229306 0 0 0 0 -5.4323795469572076 -8.7638588463086933 0 -8.7638588463086933 -17.260864655507817 0 0 0 0 3.5369731384347114 1.2811097717857034 0 1.2811097717857034 -4.5051382818324939 0 0 0 0 -0.41118083356147217 -0.97789819252046062 0 -0.97789819252046062 -2.3617665111098809 0 0 0 0 -16.404608204252327 15.058943898755388 0 15.058943898755388 -2.1717159456379704 0 0 0 0 -0.71651884672826327 -7.6154747412592769 0 -7.6154747412592769 -7.7307331133993102 0 0 0 0 0.85442506267268925 -12.310635076724338 0 -12.310635076724338 -13.640776897609612 0 0 0 0 -35.154419384429048 -8.2704002111195223 0 -8.2704002111195223 -1.9986541147104617 0 0 0 0 -0.65730156648069737 -0.948037405637701 0 -0.948037405637701 -1.5745317483803236 0 0 0 0 -48.381483290052529 54.450734119881986 0 54.450734119881986 -179.66300451965165 0 0 0 0 -8.5261412698105232 43.649957509210594 0 43.649957509210594 -222.14931652639018 0 0 0 0 -19.168401275940141 69.91216452349795 0 69.91216452349795 -271.40738691734339 0 0 0 0 -1.6861233233353281 -0.73977081475751505 0 -0.73977081475751505 0.78441171038478508 0 0 0 0 18.997839659266901 -18.689628854869866 0 -18.689628854869866 -211.56415862075812 0 0 0 0 -28.505950730283075 -65.386484484811604 0 -65.386484484811604 -171.30097738350233 0 0 0 0 -4.0890424182901963 -2.7790840552657787 0 -2.7790840552657787 -0.6894126774928101 0 0 0 0 -3.4451515509706496 -10.932214755178848 0 -10.932214755178848 10.929292131501086 0 0 0 0 4.6871832008559977 -18.127155165423574 0 -18.127155165423574 3.5723891008506143 0 0 0 0 -1.4033257024696866 -6.1313915607038325 0 -6.1313915607038325 0.22255067075184343 0 0 0 0 3.1891314025412218 4.5734628194740399 0 4.5734628194740399 -6.5324959562694547 0 0 0 0 83.669027282664501 52.607458696782942 0 52.607458696782942 -149.10133848243731 0 0 0 0 205.73163767991025 -50.307678583773168 0 -50.307678583773168 -62.95362694018695 0 0 0 0 -0.95858790757502854 -7.8224877058998512 0 -7.8224877058998512 -50.981580865564858 0 0 0 0 236.40468545451859 -80.114775444892075 0 -80.114775444892075 -37.539461446292989 0 0 0 0 94.955387172758265 -52.277465175794873 0 -52.277465175794873 -103.30867764331447 0 0 0 0 48.408234874681511 11.379577291748319 0 11.379577291748319 -136.54041819593053 0 0 0 0 -33.546401969206272 -30.237482849134153 0 -30.237482849134153 -129.76375478096338 0 0 0 0 -56.47166501579693 38.366625412015367 0 38.366625412015367 -23.478106472011632 0 0 0 0 15.589550199859332 36.341858312597651 0 36.341858312597651 -135.44442562559772 0 0 0 0 22.596469057295963 -2.8315439873630339 0 -2.8315439873630339 -17.499315722865276 0 0 0 0 0.099541959112457334 12.81212647691973 0 12.81212647691973 -13.105480587659301 0 0 0 0 -1.2920683053309858 0.21401203787604572 0 0.21401203787604572 -8.2615659498653713 0 0 0 0 12.905982485947334 25.858931123475713 0 25.858931123475713 -20.916309786067387 0 0 0 0 -6.5745575202108739 11.444399760511033 0 11.444399760511033 -12.909907068115444 0 0 0 0 -10.470359297994037 16.862271403304476 0 16.862271403304476 -19.993621738423087 0 0 0 0 2.2676521377739296 -2.7383472774713424 0 -2.7383472774713424 -22.443858696516198 0 0 0 0 41.610431787032439 13.782077798340993 0 13.782077798340993 -25.504962594576682 0 0 0 0 178.22069448962975 -61.217870199230674 0 -61.217870199230674 -23.84814460715279 0 0 0 0 0.89293320293278544 -2.9818152423629041 0 -2.9818152423629041 -28.162634610555131 0 0 0 0 272.55337304086152 -249.62294567584468 0 -249.62294567584468 45.41878984576033 0 0 0 0 10.494442689253447 0.294232470601969 0 0.294232470601969 -14.890636667591025 0 0 0 0 1.9312282100499232 -0.44636572118509221 0 -0.44636572118509221 -6.2007943778855399 0 0 0 0 1.0283934918897319 -7.2526433828198353 0 -7.2526433828198353 -20.157299998750744 0 0 0 0 -12.227811190598004 -3.2614236574686402 0 -3.2614236574686402 -7.4766865585233973 0 0 0 0 -2.8314626154123061 -16.785139812713851 0 -16.785139812713851 -37.22923940930923 0 0 0 0 1.6197850902470918 17.522498943384335 0 17.522498943384335 -30.548457533410328 0 0 0 0 -0.047377145493652684 1.2832285999919177 0 1.2832285999919177 -0.42032023446573419 0 0 0 0 7.7171395116472468 7.946784620751373 0 7.946784620751373 -21.190066028525507 0 0 0 0 6.7764802027264155 2.9376699848381866 0 2.9376699848381866 -15.075227361176434 0 0 0 0 -4.0383291462079596 -11.036631421806744 0 -11.036631421806744 -21.696457899158311 0 0 0 0 1.3367612393214472 -28.42455686239775 0 -28.42455686239775 33.121496044343985 0 0 0 0 40.851371206004842 -22.776850233621644 0 -22.776850233621644 -42.780585839648325 0 0 0 0 -11.646027731574804 16.004810432213162 0 16.004810432213162 -31.983874639377973 0 0 0 0 -10.106394908637185 19.853988670748095 0 19.853988670748095 -22.425819679448068 0 0 0 0 -3.48645903550584 -8.302528051335603 0 -8.302528051335603 -15.138437204518919 0 0 0 0 -16.452701143678951 10.872571288177824 0 10.872571288177824 17.717699158926735 0 0 0 0 577.22417268214895 -175.14258671075277 0 -175.14258671075277 -85.816545612568007 0 0 0 0 420.24405255294778 128.7093605520131 0 128.7093605520131 -134.9695290226191 0 0 0 0 -2.0815110223431965 -7.6849197790181059 0 -7.6849197790181059 -19.119710310981873 0 0 0 0 -25.631492189869732 30.276752788533486 0 30.276752788533486 2.8504281765253836 0 0 0 0 157.68186251145335 57.649682230345206 0 57.649682230345206 269.61188446063193 0 0 0 0 692.10235225585893 -502.86061111705385 0 -502.86061111705385 -114.84019741394695 0 0 0 0 -37.611389956161986 -516.17740692321013 0 -516.17740692321013 -1216.8366510201649 0 0 0 0 110.85046537931396 -139.79817509638906 0 -139.79817509638906 -838.74116765964482 0 0 0 0 -164.61481359729066 -132.37909759919421 0 -132.37909759919421 -161.81959301462575 0 0 0 0 -537.78466527749822 -483.21168921717344 0 -483.21168921717344 -451.21109381598217 0 0 0 0 -30.239343116253167 52.628928041916879 0 52.628928041916879 -104.62368723481904 0 0 0 0 -789.70563576255586 155.9953478105017 0 155.9953478105017 -32.101298330842837 0 0 0 0 -330.62871549638925 81.081897149556823 0 81.081897149556823 28.614535559878277 0 0 0 0 -75.873733960152094 3.09171276734196 0 3.09171276734196 4.9292722038171632 0 0 0 0 -353.34944101301261 -169.74740700369915 0 -169.74740700369915 -72.402272943025309 0 0 0 0 -234.76400422363008 -51.860605568117535 0 -51.860605568117535 23.107284418679228 0 0 0 0 -238.19780170419335 -62.546554122567613 0 -62.546554122567613 38.159660075765714 0 0 0 0 -247.25849849668475 -22.467161508211575 0 -22.467161508211575 61.195978448591632 0 0 0 0 -138.30618214895594 34.133284856871796 0 34.133284856871796 20.184194062065217 0 0 0 0 -103.55823180340758 -11.903713040574075 0 -11.903713040574075 11.748402236065886 0 0 0 0 -31.303716055614132 -23.714093722197504 0 -23.714093722197504 3.0912492055467737 0 0 0 0 146.66790214039338 27.352284507735021 0 27.352284507735021 -27.705617680055184 0 0 0 0 1.8021812421397954 23.521370562540596 0 23.521370562540596 -21.982888875802018 0 0 0 0 134.677069141625 -11.764183231898642 0 -11.764183231898642 -43.226798567324295 0 0 0 0 201.23440693062435 -9.8392669903087153 0 -9.8392669903087153 -74.02696595928137 0 0 0 0 143.49811601748297 -41.299895183276021 0 -41.299895183276021 -63.891016289006075 0 0 0 0 225.85173270971609 -51.811591797206347 0 -51.811591797206347 -88.211532132780803 0 0 0 0 228.32704838866266 -45.03694355719108 0 -45.03694355719108 -71.998427530350455 0 0 0 0 258.15825259699704 -47.459828321208988 0 -47.459828321208988 -78.186008066164504 0 0 0 0 238.41168984290016 -40.933327277456556 0 -40.933327277456556 -59.873372174290125 0 0 0 0 249.54219943069074 -21.014632362037446 0 -21.014632362037446 -73.073064570081669 0 0 0 0 290.36209082012965 4.9162792116467244 0 4.9162792116467244 -62.649631108881294 0 0 0 0 146.30845076995774 22.825131576073545 0 22.825131576073545 -40.425770336627465 0 0 0 0 265.45207515774382 -30.607107580810407 0 -30.607107580810407 64.719640170274943 0 0 0 0 349.41366134998498 -8.8251668679768045 0 -8.8251668679768045 -52.003744653648937 0 0 0 0 290.19500537992644 -101.83399316565192 0 -101.83399316565192 71.441032100556185 0 0 0 0 436.55695846259914 -50.959255687754194 0 -50.959255687754194 54.930751149837306 0 0 0 0 312.86780008924688 -64.509252715016373 0 -64.509252715016373 -3.5620297390087217 0 0 0 0 210.77787893752338 65.92983905973233 0 65.92983905973233 -47.918943003784079 0 0 0 0 -71.656976194401096 71.393080812906987 0 71.393080812906987 8.7737921498846845 0 0 0 0 56.710358411206016 -397.49987327490635 0 -397.49987327490635 -379.05646578324877 0 0 0 0 402.54143255983945 -81.870609803558182 0 -81.870609803558182 -449.16430183324701 0 0 0 0 -188.20891345966356 148.1333047449134 0 148.1333047449134 19.781968446683095 0 0 0 0 163.32010641792661 174.88171992084426 0 174.88171992084426 -92.396320421168639 0 0 0 0 -81.06245031974936 70.046819326302284 0 70.046819326302284 -63.883656434649311 0 0 0 0 -214.81366655403045 -61.616193491160061 0 -61.616193491160061 -113.83002971376482 0 0 0 0 -85.161525327471395 88.86181955578104 0 88.86181955578104 -97.917915796801026 0 0 0 0 -83.341274269991231 84.574345648125927 0 84.574345648125927 -108.44534845897579 0 0 0 0 -79.649654415081159 59.018036000881693 0 59.018036000881693 -215.16681334486657 0 0 0 0 185.73381140586832 -45.86881613692276 0 -45.86881613692276 -325.93038158692889 0 0 0 0 -64.018767113698772 -32.188117063677964 0 -32.188117063677964 -286.48362098101279 0 0 0 0 -31.757698129831539 -38.395981151163141 0 -38.395981151163141 -243.59405403858909 0 0 0 0 -60.082896157503441 -19.28203296369793 0 -19.28203296369793 -252.10220700038371 0 0 0 0 -25.560430273476761 45.844725742664195 0 45.844725742664195 -225.39919319319779 0 0 0 0 -31.615986581145179 24.573551493786908 0 24.573551493786908 -295.74446995690596 0 0 0 0 16.029235221666511 15.979480954139945 0 15.979480954139945 -347.19141281976772 0 0 0 0 -9.4431959243685242 -27.333293563357529 0 -27.333293563357529 -420.78246048820074 0 0 0 0 -164.56960365687263 -132.11914231671653 0 -132.11914231671653 -230.83295561914383 0 0 0 0 -52.993543791027946 -91.181767307325572 0 -91.181767307325572 -374.13717902522558 0 0 0 0 -105.99055064622894 -32.144892241742127 0 -32.144892241742127 -124.18465395195199 0 0 0 0 -239.00851158696281 -63.721732332250667 0 -63.721732332250667 -5.6730849711311748 0 0 0 0 -209.43320569535379 -84.87962432992299 0 -84.87962432992299 -56.011573492887692 0 0 0 0 -198.96389500531276 -47.29500240746529 0 -47.29500240746529 -34.441612497310416 0 0 0 0 -218.93474333043605 -19.676366295218031 0 -19.676366295218031 47.991148217030059 0 0 0 0 -156.68714273467623 8.3927121465030723 0 8.3927121465030723 30.839066976757749 0 0 0 0 -140.99945387978556 -29.012306477508901 0 -29.012306477508901 48.395929136953782 0 0 0 0 -40.337023471772426 36.358308276858224 0 36.358308276858224 -100.0969180072243 0 0 0 0 -84.965842107470152 -50.985644227648663 0 -50.985644227648663 -242.56419394843533 0 0 0 0 -78.160047839139025 -74.948710994406611 0 -74.948710994406611 -59.466881117752564 0 0 0 0 0.028005996783934659 -0.62450388522255551 0 -0.62450388522255551 -1.5160356362061975 0 0 0 0 13.26158691751823 45.106498227505199 0 45.106498227505199 65.786888196656946 0 0 0 0 97.400565701726009 -50.674838426539281 0 -50.674838426539281 -0.17637279424525332 0 0 0 0 256.20027590467294 74.920936989817619 0 74.920936989817619 -189.33190389213269 0 0 0 0 -378.64677571985112 -337.34717906586684 0 -337.34717906586684 -75.161319338032627 0 0 0 0 0.70049723603663838 -1.3431749642253852 0 -1.3431749642253852 -5.7035242388410765 0 0 0 0 -210.65046254743584 -37.487230498538338 0 -37.487230498538338 -59.773467151402656 0 0 0 0 64.805481787404275 -3.6502427436439575 0 -3.6502427436439575 -16.716942863855365 0 0 0 0 50.390660477333199 -2.7965240885355342 0 -2.7965240885355342 -14.989550926307857 0 0 0 0 60.909570646212387 6.7021630190283759 0 6.7021630190283759 -12.578658832288056 0 0 0 0 137.67208500348158 -9.7385831548690476 0 -9.7385831548690476 -29.253329384133394 0 0 0 0 1.2150350824150857 -0.93868753575821806 0 -0.93868753575821806 -14.962002257943738 0 0 0 0 73.218949597567189 9.6387339628963673 0 9.6387339628963673 -11.878378808613888 0 0 0 0 21.080945214128462 -33.17993537678376 0 -33.17993537678376 9.4067139523986043 0 0 0 0 0.18492435253019623 -0.7371351923379974 0 -0.7371351923379974 -4.0839060542299706 0 0 0 0 17.678384756484885 7.4601624046433699 0 7.4601624046433699 -7.9430858800369606 0 0 0 0 74.736719674620673 -0.84514609106247462 0 -0.84514609106247462 -15.932080872331426 0 0 0 0 -241.10546803291692 18.309821155469763 0 18.309821155469763 67.797857111416988 0 0 0 0 -222.60985599573991 -29.518915511332125 0 -29.518915511332125 68.671161219259375 0 0 0 0 -110.00160114517158 69.272197004245754 0 69.272197004245754 48.104002017651055 0 0 0 0 -231.08129883952546 -16.215639213559371 0 -16.215639213559371 68.445677528063243 0 0 0 0 -259.71277811828986 -35.120173168416841 0 -35.120173168416841 64.184448478190461 0 0 0 0 -317.61612934716845 -15.788456169633719 0 -15.788456169633719 73.969198846445579 0 0 0 0 -233.10450493789847 -32.095615931697466 0 -32.095615931697466 -18.539936311990459 0 0 0 0 -343.05671858987012 35.107723258227452 0 35.107723258227452 -58.151035397138912 0 0 0 0 -586.15368153918007 -131.27634262389984 0 -131.27634262389984 -129.75979319506314 0 0 0 0 -215.69516837487902 85.489295986500565 0 85.489295986500565 -666.59008438932869 0 0 0 0 -146.24066400601703 -135.44421626255007 0 -135.44421626255007 22.749791826175169 0 0 0 0 66.3003776954356 -0.69440192077308893 0 -0.69440192077308893 -20.616701221267249 0 0 0 0 91.869599097824789 101.18829188032123 0 101.18829188032123 -140.0120052793518 0 0 0 0 0.33487787415714598 -0.90532913067740628 0 -0.90532913067740628 -5.3706311943411151 0 0 0 0 47.842535942334052 19.002488711814294 0 19.002488711814294 -9.1620698200131301 0 0 0 0 63.000877794809355 -3.3184100026655869 0 -3.3184100026655869 -21.355944894352433 0 0 0 0 72.658148606587019 -107.59617494540726 0 -107.59617494540726 -15.767405726182915 0 0 0 0 59.706865685071534 -80.676368343600188 0 -80.676368343600188 -15.88985626881913 0 0 0 0 -61.860525481204832 -130.30778723645244 0 -130.30778723645244 19.396944988868199 0 0 0 0 45.120362920387834 -88.091500945776716 0 -88.091500945776716 -52.25702362618722 0 0 0 0 49.656700285738225 -66.442617204762428 0 -66.442617204762428 47.93764700194879 0 0 0 0 173.07471217045349 -98.728751918033595 0 -98.728751918033595 -33.660038827430981 0 0 0 0 265.42319200277598 -66.46115852048024 0 -66.46115852048024 18.435488917202747 0 0 0 0 211.94081293869567 -154.78427188761634 0 -154.78427188761634 39.257672516680032 0 0 0 0 307.8923055047735 -46.717231034983342 0 -46.717231034983342 -26.743517289516603 0 0 0 0 571.51593448268568 -146.68476862118928 0 -146.68476862118928 -6.8757446130621247 0 0 0 0 322.81693093997876 -94.264663936464331 0 -94.264663936464331 -69.507283252369234 0 0 0 0 231.63104730826717 -56.242884602054801 0 -56.242884602054801 -78.329720327903487 0 0 0 0 176.32416757682813 -113.66076233945478 0 -113.66076233945478 -38.423852798521693 0 0 0 0 231.33066182633775 -54.157875095070267 0 -54.157875095070267 -86.758391677605687 0 0 0 0 221.11836895223769 -39.818039875659451 0 -39.818039875659451 -86.593667593103419 0 0 0 0 158.92921432104868 -33.865278249038965 0 -33.865278249038965 -65.065882526960195 0 0 0 0 197.67190037462569 -61.890591924007822 0 -61.890591924007822 -78.378985274914157 0 0 0 0 118.98613848273999 -68.401116002823983 0 -68.401116002823983 -41.336388513017482 0 0 0 0 25.159941882104476 -14.411265067044951 0 -14.411265067044951 -35.776629515719833 0 0 0 0 72.280513802375026 -57.533099153013609 0 -57.533099153013609 -39.464340190168514 0 0 0 0 27.38361321921775 -97.819190123756925 0 -97.819190123756925 -9.275492357868643 0 0 0 0 -41.755631518647078 -45.107006920834465 0 -45.107006920834465 -1.3721341504242446 0 0 0 0 -2.3138325278775937 -57.897521612819673 0 -57.897521612819673 -5.0528223171022546 0 0 0 0 -205.0021798820776 -46.18740142778006 0 -46.18740142778006 51.851891322382471 0 0 0 0 -120.53452959373806 -44.205152967784215 0 -44.205152967784215 43.721939300503436 0 0 0 0 -101.48098427327295 -101.89407114131336 0 -101.89407114131336 19.697766641107592 0 0 0 0 -213.30514265925763 -61.888521102831874 0 -61.888521102831874 60.559785424506117 0 0 0 0 -258.07661306895204 -47.844763837881146 0 -47.844763837881146 69.464915501377618 0 0 0 0 -253.81544054313827 -51.651877639773375 0 -51.651877639773375 29.331316300809704 0 0 0 0 -257.78953548668642 -64.493366527052785 0 -64.493366527052785 -1.992411147311941 0 0 0 0 -283.25575200070125 -82.596160668141238 0 -82.596160668141238 30.695268361894705 0 0 0 0 -279.87566656790455 -70.890424879123202 0 -70.890424879123202 60.595539571429981 0 0 0 0 -206.36009396512077 -138.48168569335121 0 -138.48168569335121 -14.501312667125603 0 0 0 0 -90.643650574858611 -68.107645017358209 0 -68.107645017358209 11.413467633276014 0 0 0 0 -96.834397600862758 -63.247502408194123 0 -63.247502408194123 -90.678817079191504 0 0 0 0 -171.6186778342917 -62.467038199059971 0 -62.467038199059971 -78.579057391438255 0 0 0 0 -101.11558498437876 -115.28000337056255 0 -115.28000337056255 -163.09998344861378 0 0 0 0 -199.97156827493063 -147.33231363212599 0 -147.33231363212599 -324.823735835771 0 0 0 0 -442.92139774309499 -137.49831371467553 0 -137.49831371467553 -25.274756840837654 0 0 0 0 -210.97505673814521 65.522832502592792 0 65.522832502592792 -290.30908957414977 0 0 0 0 -214.50651503756444 -146.95640926211036 0 -146.95640926211036 -973.535671984484 0 0 0 0 -159.59300016263342 -38.909403614447911 0 -38.909403614447911 -261.56322118918069 0 0 0 0 -24.802505920972635 30.937970906479677 0 30.937970906479677 -236.23694255684677 0 0 0 0 101.00260150062513 -34.256543068058818 0 -34.256543068058818 -185.65129840082591 0 0 0 0 -27.379328014120802 6.6786734572451678 0 6.6786734572451678 -106.18185644261393 0 0 0 0 -37.549944250669796 -32.560547252269316 0 -32.560547252269316 -56.743991732539143 0 0 0 0 -61.893883191095711 -121.69190402784261 0 -121.69190402784261 -42.488514660639339 0 0 0 0 91.796286124907056 -67.108772446736111 0 -67.108772446736111 -123.31325557512628 0 0 0 0 298.55296587664179 -142.36169815489484 0 -142.36169815489484 140.94460099064963 0 0 0 0 344.0106198615149 -11.68874121407498 0 -11.68874121407498 87.407520414111787 0 0 0 0 232.96227925252151 -81.714137641236448 0 -81.714137641236448 51.46137633514445 0 0 0 0 127.15925030324752 -125.63719480897998 0 -125.63719480897998 24.820740957504313 0 0 0 0 223.51602445330082 -40.402750437646318 0 -40.402750437646318 -38.60756022708847 0 0 0 0 96.692483446832057 -44.276815575509772 0 -44.276815575509772 -20.85798185108797 0 0 0 0 248.62747797502652 -46.453666721536138 0 -46.453666721536138 -38.054048740012064 0 0 0 0 366.0358496870931 -90.5108375748041 0 -90.5108375748041 -37.425694395591563 0 0 0 0 355.94001853325585 -83.718691823851032 0 -83.718691823851032 -93.575784011329233 0 0 0 0 252.35264603303312 -36.31996058283039 0 -36.31996058283039 -105.63442240582299 0 0 0 0 109.70283411997025 -2.0375486024477141 0 -2.0375486024477141 -68.526205744199615 0 0 0 0 220.75774350886286 -9.2239071145268099 0 -9.2239071145268099 -152.47342999901593 0 0 0 0 215.38401988016767 -29.747379979637117 0 -29.747379979637117 -35.724519078738012 0 0 0 0 162.71499076000703 55.07909278594434 0 55.07909278594434 -10.625020464773115 0 0 0 0 98.633728232341582 25.091468144379178 0 25.091468144379178 -88.075210941829937 0 0 0 0 177.17975715292243 85.45918987287132 0 85.45918987287132 -201.35491078806081 0 0 0 0 61.304617311928723 115.23513964446465 0 115.23513964446465 -140.39240475831139 0 0 0 0 139.83143852213874 73.813159718968564 0 73.813159718968564 -157.61591586009672 0 0 0 0 2.8743210089292006 210.77898928138529 0 210.77898928138529 -227.65495189853209 0 0 0 0 122.4307491670707 191.3061770154236 0 191.3061770154236 -254.19328432358816 0 0 0 0 -34.448532820783839 256.67964434464375 0 256.67964434464375 -291.23217074714466 0 0 0 0 -69.682976781531124 202.4404645559589 0 202.4404645559589 -260.49663112679264 0 0 0 0 0.068382535433670455 73.695851218244115 0 73.695851218244115 -205.99475655477727 0 0 0 0 58.678025963506116 189.89685889946486 0 189.89685889946486 -327.22002528917801 0 0 0 0 79.248287862260895 100.29001241403967 0 100.29001241403967 -219.40616486208773 0 0 0 0 -9.9932415525714191 131.9073246703033 0 131.9073246703033 -492.81222181017438 0 0 0 0 -455.10589911155012 523.38010800903476 0 523.38010800903476 -634.90821481166859 0 0 0 0 -2.0861198241115364 -3.2999433239045359 0 -3.2999433239045359 -6.6875477262720793 0 0 0 0 -133.00681829378345 295.20638616580072 0 295.20638616580072 -355.74591353169126 0 0 0 0 -244.20001569842657 211.98215389204006 0 211.98215389204006 -290.07739726020918 0 0 0 0 -172.01715255327736 272.40376049687166 0 272.40376049687166 -277.36605919229919 0 0 0 0 -162.4429799459075 219.18217610605961 0 219.18217610605961 -216.39599810649452 0 0 0 0 -3.5589334089542604 -9.1328545162722783 0 -9.1328545162722783 -18.756554156336144 0 0 0 0 256.59617320292512 -30.658110364350364 0 -30.658110364350364 -95.948626129455079 0 0 0 0 276.00239368727102 -176.29484163415748 0 -176.29484163415748 8.1433483155378781 0 0 0 0 165.71515863458217 -2.9128764428005525 0 -2.9128764428005525 -115.77929000230142 0 0 0 0 199.00221613381655 -22.399176398746931 0 -22.399176398746931 -91.585312697385234 0 0 0 0 200.25019289788497 -22.510463424177942 0 -22.510463424177942 -137.75692890080973 0 0 0 0 156.21639767412489 -13.055766587000107 0 -13.055766587000107 -40.368906250893815 0 0 0 0 152.65803706102542 -1.0170444940822563 0 -1.0170444940822563 -79.908098941006756 0 0 0 0 -5.0626578407891056 -12.669540549680129 0 -12.669540549680129 -28.674296738659137 0 0 0 0 -8.2836598234403027 -19.412337782845498 0 -19.412337782845498 -216.9986416714255 0 0 0 0 85.457810312625952 -86.153443563907786 0 -86.153443563907786 -52.176791943049466 0 0 0 0 -8.4788741741708691 -1.350525882787224 0 -1.350525882787224 -353.91379117399651 0 0 0 0 -2.1865876805215199 -3.0042582650696996 0 -3.0042582650696996 -5.2402056203553897 0 0 0 0 45.07122510103386 19.218255076635614 0 19.218255076635614 -506.36316580085986 0 0 0 0 -57.112613212698307 34.180163006707517 0 34.180163006707517 -58.379695378136603 0 0 0 0 18.577680566419986 163.99907929030815 0 163.99907929030815 -358.78057704489953 0 0 0 0 -15.065190207791488 59.440495614399879 0 59.440495614399879 -531.37533446959424 0 0 0 0 60.340693322256357 209.69699830618265 0 209.69699830618265 -383.16062325628263 0 0 0 0 80.891942159135169 152.13080376874041 0 152.13080376874041 -342.44252534255793 0 0 0 0 15.974724364033364 210.23030645222707 0 210.23030645222707 -307.5513341712649 0 0 0 0 -70.162943640377307 140.97709112819211 0 140.97709112819211 -151.4279900438687 0 0 0 0 -35.853606480314738 172.32653633698465 0 172.32653633698465 -304.73121252368219 0 0 0 0 -1.3295002637346158 -0.024887048288327662 0 -0.024887048288327662 0.17553681084746842 0 0 0 0 -173.99737422074031 -536.9811289081299 0 -536.9811289081299 -85.061109199529028 0 0 0 0 -25.490020276996063 -152.19918772037363 0 -152.19918772037363 -666.63586936228603 0 0 0 0 -129.88674435168969 -267.10124523270497 0 -267.10124523270497 -364.52385098052491 0 0 0 0 -229.02749922579051 -384.63675159251943 0 -384.63675159251943 -486.89144177518392 0 0 0 0 47.30757307326212 11.417880396038527 0 11.417880396038527 -302.88227318319787 0 0 0 0 67.553101186675121 42.612052037144622 0 42.612052037144622 -57.174595892964135 0 0 0 0 0.24731092038566235 -1.3229542557225429 0 -1.3229542557225429 -2.8926261592900744 0 0 0 0 -103.50055089966554 -302.55775693774376 0 -302.55775693774376 -314.04249983235968 0 0 0 0 -20.342168101969584 -229.42172839276645 0 -229.42172839276645 -446.67020036730173 0 0 0 0 33.420880463436674 36.25619523745263 0 36.25619523745263 -28.481828427853543 0 0 0 0 -232.94962713066161 -322.06748237495049 0 -322.06748237495049 -296.62549980948825 0 0 0 0 -204.2916354800418 -227.39336826719955 0 -227.39336826719955 -314.15117555344477 0 0 0 0 -237.30924866989841 -346.35158453930489 0 -346.35158453930489 -378.3129419596371 0 0 0 0 -204.68723827976214 -234.82735967444023 0 -234.82735967444023 -413.56549366714353 0 0 0 0 -312.65921108316434 -244.39757831606221 0 -244.39757831606221 -279.1616875578693 0 0 0 0 -121.54953644780457 -256.23112954317003 0 -256.23112954317003 -337.82596609054235 0 0 0 0 -111.51981875258872 -278.68531575695533 0 -278.68531575695533 -210.02717088316058 0 0 0 0 -122.54370511962854 -244.82766962659298 0 -244.82766962659298 -271.8466545337443 0 0 0 0 -97.406307469576632 -189.35681620721516 0 -189.35681620721516 -104.81764002661748 0 0 0 0 -28.315039641163935 -391.60265358118795 0 -391.60265358118795 -547.71471320408273 0 0 0 0 -56.792044671605368 -377.14463781124505 0 -377.14463781124505 -264.47498803364465 0 0 0 0 -94.504579903338254 -484.78637452542716 0 -484.78637452542716 -207.47781949594355 0 0 0 0 0.16237279332335675 -59.354341722202662 0 -59.354341722202662 148.41249252547368 0 0 0 0 -100.96849931877955 -394.19013867925241 0 -394.19013867925241 68.431257496809849 0 0 0 0 87.031957018672983 -75.554877947227851 0 -75.554877947227851 -148.57866598446708 0 0 0 0 -22.43017696401192 -206.96510616455134 0 -206.96510616455134 -134.94887192719034 0 0 0 0 -42.473294642936708 -96.581125363689353 0 -96.581125363689353 -68.954408430363401 0 0 0 0 88.705669366014263 -87.474898134592877 0 -87.474898134592877 -67.486062406889687 0 0 0 0 100.54691645448929 -28.684295032497175 0 -28.684295032497175 -116.71470857707754 0 0 0 0 -12.07082735514723 -117.5619848491333 0 -117.5619848491333 -134.13313508200235 0 0 0 0 20.775447738550838 -45.966540843368421 0 -45.966540843368421 -142.65424776650434 0 0 0 0 0.89944224820260388 -96.325067010067869 0 -96.325067010067869 -193.58707502985453 0 0 0 0 -26.311207423689552 -94.05588236238691 0 -94.05588236238691 -170.24038886688868 0 0 0 0 -114.05636424398762 -136.72574649492162 0 -136.72574649492162 -164.50077563029845 0 0 0 0 -71.37352896404262 -182.47105600208715 0 -182.47105600208715 -172.5236148231379 0 0 0 0 -129.23287186738276 -140.48091271760495 0 -140.48091271760495 -199.76769194974509 0 0 0 0 -181.53935161388551 -186.80549407535727 0 -186.80549407535727 -266.37299032568427 0 0 0 0 -242.14721355871166 -279.46398747235617 0 -279.46398747235617 -268.70974580507755 0 0 0 0 -148.02103678128393 -223.61809516436733 0 -223.61809516436733 -226.15750842871785 0 0 0 0 -111.35550237458085 -140.09663814611849 0 -140.09663814611849 -221.30153954280377 0 0 0 0 -126.26504682386087 -99.625177239977347 0 -99.625177239977347 -206.4041949703701 0 0 0 0 -173.50611660520531 -177.31525335565311 0 -177.31525335565311 -217.14851516693307 0 0 0 0 -174.61104422128574 -162.1322375180971 0 -162.1322375180971 -270.22357283968449 0 0 0 0 -241.37582322731691 -112.5395134059072 0 -112.5395134059072 -251.25810969600843 0 0 0 0 -182.62539138292186 -170.94354688080784 0 -170.94354688080784 -275.58467848906548 0 0 0 0 -134.73886567007776 -213.38747431884985 0 -213.38747431884985 -415.79164844545448 0 0 0 0 -205.62700566363662 -240.00340505467739 0 -240.00340505467739 -262.62086166614608 0 0 0 0 -130.01450309934671 -268.52184652579672 0 -268.52184652579672 -356.57458833154669 0 0 0 0 -143.92337653734603 -238.56810694913656 0 -238.56810694913656 -360.03675175614626 0 0 0 0 -154.48607245215214 -94.051387825351412 0 -94.051387825351412 -226.34506873628925 0 0 0 0 -166.14812054388767 -144.24258023772018 0 -144.24258023772018 -413.08992939818563 0 0 0 0 -119.12465927627855 -90.478180707807041 0 -90.478180707807041 -244.19345912706285 0 0 0 0 -194.08510864029728 -159.006896843297 0 -159.006896843297 -227.07710808617776 0 0 0 0 -77.884443947578347 -121.72249282685334 0 -121.72249282685334 -223.36855827894396 0 0 0 0 -114.3970616385414 -66.318416558476656 0 -66.318416558476656 -156.62733905305504 0 0 0 0 -34.807428875804248 -84.877920375321992 0 -84.877920375321992 -201.83259659537316 0 0 0 0 -19.745395843760548 25.768743660395558 0 25.768743660395558 -191.42554151064519 0 0 0 0 65.709878548025017 50.816863498293969 0 50.816863498293969 -76.379615531164745 0 0 0 0 32.566837531912597 -23.22833862150901 0 -23.22833862150901 -122.54240840559942 0 0 0 0 35.115687409821248 -26.742409815426072 0 -26.742409815426072 -178.07690938944143 0 0 0 0 -62.052152116049058 -73.551007029777793 0 -73.551007029777793 -142.48626460149535 0 0 0 0 34.939580516529361 -78.36247015813251 0 -78.36247015813251 -134.14036085533735 0 0 0 0 36.615394123866736 -83.278604454015294 0 -83.278604454015294 -192.69761837716214 0 0 0 0 128.99309497892637 -31.956119197406224 0 -31.956119197406224 -159.11946117372281 0 0 0 0 87.276433419386194 -79.776299191020371 0 -79.776299191020371 -152.55154177967779 0 0 0 0 182.73484242618815 -23.070013150492741 0 -23.070013150492741 -150.31270798560945 0 0 0 0 226.15022555270889 -30.49302754504788 0 -30.49302754504788 -165.49049100699995 0 0 0 0 126.49771539935568 -31.374019062499428 0 -31.374019062499428 -129.35304429304961 0 0 0 0 129.61542960736188 -13.337707260190655 0 -13.337707260190655 -76.503791506762354 0 0 0 0 128.62328678622816 -44.157313750773028 0 -44.157313750773028 -147.01895261085883 0 0 0 0 234.15399317135007 -71.648485881072702 0 -71.648485881072702 -66.02186810389685 0 0 0 0 280.91311924025649 -72.722237416426651 0 -72.722237416426651 188.84121573472657 0 0 0 0 157.4170389277333 85.185707214813192 0 85.185707214813192 12.165271630838106 0 0 0 0 143.71007204960017 38.188380103439158 0 38.188380103439158 -148.90845247586549 0 0 0 0 86.316676859292556 122.86063119931714 0 122.86063119931714 -69.237573082515155 0 0 0 0 159.33904704787778 68.144588058632507 0 68.144588058632507 -459.34910139392196 0 0 0 0 206.88739341631813 143.31226472277399 0 143.31226472277399 -228.00245634613384 0 0 0 0 248.35256561382721 -182.55138297803933 0 -182.55138297803933 -1051.2889217500451 0 0 0 0 221.90894889983076 245.40709259897881 0 245.40709259897881 -335.26630232227762 0 0 0 0 16.039259991004087 135.14445247241019 0 135.14445247241019 -301.81145759233272 0 0 0 0 33.02020553428153 64.290630954636072 0 64.290630954636072 -303.36571862203709 0 0 0 0 86.289920141632791 132.2746519927764 0 132.2746519927764 -216.60592555263429 0 0 0 0 27.001494542534147 -20.441006435559757 0 -20.441006435559757 -178.03823199825274 0 0 0 0 -73.326492446889745 -35.086736668519734 0 -35.086736668519734 -256.65031337604887 0 0 0 0 -0.53885284272735134 103.21122687504612 0 103.21122687504612 -322.97577192121025 0 0 0 0 -69.21140283741147 70.478750403122831 0 70.478750403122831 -327.08469296502517 0 0 0 0 13.404731620551445 115.95770490627729 0 115.95770490627729 -387.71095949234223 0 0 0 0 -115.08561435804359 200.08066632757254 0 200.08066632757254 -600.0155975742091 0 0 0 0 -369.37018896696424 379.8946884222878 0 379.8946884222878 -395.06324941333332 0 0 0 0 -69.505691156152437 -24.263427924250209 0 -24.263427924250209 -474.16917494285008 0 0 0 0 -95.44109258033177 8.3331996522811096 0 8.3331996522811096 -319.1863169075823 0 0 0 0 3.6510518141624573 -4.6123196046657995 0 -4.6123196046657995 -29.026904165704764 0 0 0 0 5.275504435455332 -1.9115489938230894 0 -1.9115489938230894 -28.270379337563099 0 0 0 0 34.660891497778039 10.370108977394921 0 10.370108977394921 -61.909442867725375 0 0 0 0 4.5301219656717349 7.5154694047482984 0 7.5154694047482984 -18.492744410647727 0 0 0 0 3.749971927788911 -1.4227105482777702 0 -1.4227105482777702 -18.530759703044392 0 0 0 0 2.5603587876269103 -2.7246025381432446 0 -2.7246025381432446 -21.262027043172566 0 0 0 0 12.845288944402682 8.8960186757003612 0 8.8960186757003612 -5.1477868641086388 0 0 0 0 5.2655800039762743 1.5160877742132541 0 1.5160877742132541 -12.173754405550326 0 0 0 0 6.5751310404011321 9.9157548308413901 0 9.9157548308413901 -10.001852709496291 0 0 0 0 4.5676197538859924 2.4061782677727024 0 2.4061782677727024 -17.211119765299372 0 0 0 0 4.7588736691875848 -0.34703984126409892 0 -0.34703984126409892 -19.540083788047276 0 0 0 0 3.0031445314693288 -3.8382447037765175 0 -3.8382447037765175 -16.624282053761391 0 0 0 0 114.93905002404421 60.437068283737972 0 60.437068283737972 33.579637558699687 0 0 0 0 3.2750540258609622 1.4406919818511277 0 1.4406919818511277 -3.4540306299578845 0 0 0 0 4.6333650398102915 -1.9700517427650084 0 -1.9700517427650084 -18.877701811575506 0 0 0 0 -1.2047551630353155 4.1971774270159585 0 4.1971774270159585 -18.939394779019494 0 0 0 0 -7.8792927638469337 -19.010783461420942 0 -19.010783461420942 -27.28898685079912 0 0 0 0 -3.2894479421859213 1.6711641362307414 0 1.6711641362307414 -6.4229003137992393 0 0 0 0 38.363431717578408 14.513554577944888 0 14.513554577944888 -20.435357786425811 0 0 0 0 -0.13135623499249149 -1.1819754307199446 0 -1.1819754307199446 -22.351949578856171 0 0 0 0 5.4306548663371359 -1.5304403737300163 0 -1.5304403737300163 -22.985977063603059 0 0 0 0 2.876136311434812 3.4260964206237894 0 3.4260964206237894 -1.0980884168073288 0 0 0 0 6.8508809967461275 49.232639393752834 0 49.232639393752834 16.408486196960439 0 0 0 0 4.4515033585614221 -2.1373724659653988 0 -2.1373724659653988 -27.967968604943223 0 0 0 0 28.879771885038622 -11.537972680194798 0 -11.537972680194798 -34.167952747942763 0 0 0 0 126.12307562805836 -25.14766987000985 0 -25.14766987000985 -97.472126385953743 0 0 0 0 166.70374702101299 17.608599644489004 0 17.608599644489004 -84.074684969935333 0 0 0 0 170.79100706442182 6.9278375382668855 0 6.9278375382668855 -110.49159616119869 0 0 0 0 99.368584020017806 5.0600163776762201 0 5.0600163776762201 -83.069746401111388 0 0 0 0 181.31645624570774 -5.4410284361183585 0 -5.4410284361183585 -120.6268234970521 0 0 0 0 209.04062467365929 35.01107535239862 0 35.01107535239862 -94.38448292054818 0 0 0 0 219.1249894941368 0.809397652253665 0 0.809397652253665 -140.56261235158308 0 0 0 0 198.52542901536344 16.216823955292057 0 16.216823955292057 -117.41835914824696 0 0 0 0 268.69186092685322 -2.9421588295663241 0 -2.9421588295663241 -119.70943801055546 0 0 0 0 215.01111653616749 81.938476377466941 0 81.938476377466941 -52.869440267284517 0 0 0 0 169.22609645093871 37.979640829817072 0 37.979640829817072 -93.73041285896943 0 0 0 0 79.455086853680314 114.10609144347836 0 114.10609144347836 124.54021524972632 0 0 0 0 321.3694109115022 115.18972628486881 0 115.18972628486881 -49.927747894641925 0 0 0 0 279.12216984031329 46.855265505764692 0 46.855265505764692 -34.349694053431449 0 0 0 0 314.72239307812924 52.285554216497985 0 52.285554216497985 -97.162147110959268 0 0 0 0 32.2840439504198 8.8846161716573988 0 8.8846161716573988 -9.546947292369623 0 0 0 0 74.678110065575311 51.637315321171627 0 51.637315321171627 15.34371066409949 0 0 0 0 82.931701001372858 25.57133589377554 0 25.57133589377554 -11.040495145243767 0 0 0 0 166.03221249162289 58.98930113199458 0 58.98930113199458 -42.276882302678132 0 0 0 0 91.955604011068317 45.033557674822077 0 45.033557674822077 13.08969275230902 0 0 0 0 6.3534601799142463 -1.1717290104437268 0 -1.1717290104437268 -8.4347295534256546 0 0 0 0 6.9747089037355181 -3.1834047523152549 0 -3.1834047523152549 -25.979584761877049 0 0 0 0 7.8603970190014643 -0.39022450662405106 0 -0.39022450662405106 -12.187423806318272 0 0 0 0 9.0359853041121223 -13.559511009138348 0 -13.559511009138348 -13.675835058327522 0 0 0 0 74.174304405573082 -39.347351493397582 0 -39.347351493397582 14.0185132229999 0 0 0 0 -2.022541942224052 -12.238505152057769 0 -12.238505152057769 -15.847733102360507 0 0 0 0 11.35850531368169 -0.1876846816012403 0 -0.1876846816012403 -13.825242127009915 0 0 0 0 -1.6986301027531718 -5.2612220792195359 0 -5.2612220792195359 -1.8941658781372546 0 0 0 0 -1.5863679947348377 -1.1944410332300812 0 -1.1944410332300812 -2.010889844991965 0 0 0 0 -127.77285233721318 236.93254935188816 0 236.93254935188816 639.77216157769726 0 0 0 0 25.142958603159215 -98.476303735529655 0 -98.476303735529655 61.499383104193839 0 0 0 0 565.87832270155559 148.00628152715944 0 148.00628152715944 -22.167974229226274 0 0 0 0 3.9614088910375358 -0.16438696856494062 0 -0.16438696856494062 53.627889837167459 0 0 0 0 306.44168863520281 288.05148813929554 0 288.05148813929554 239.34632078694631 0 0 0 0 2.5846915802547681 -0.97127951410380575 0 -0.97127951410380575 -1.3166150779249293 0 0 0 0 0.92629788944649416 0.096399958458107449 0 0.096399958458107449 -1.7373792287202363 0 0 0 0 16.341245000216077 -15.153759187578544 0 -15.153759187578544 -24.764550097970641 0 0 0 0 212.70368512503046 -63.228533797635464 0 -63.228533797635464 11.515496848787734 0 0 0 0 -6.283096851636401 -53.624273580717272 0 -53.624273580717272 84.754788952457602 0 0 0 0 155.19183855878691 -163.09085056808908 0 -163.09085056808908 87.243406904868607 0 0 0 0 335.42509253981689 -143.36331120119212 0 -143.36331120119212 -14.285384168368182 0 0 0 0 407.04421932043351 355.46866866630808 0 355.46866866630808 -28.905105274443486 0 0 0 0 111.19621106748946 -225.890005653564 0 -225.890005653564 -1001.7866199866585 0 0 0 0 -1.2492474275478314 5.270160637204321 0 5.270160637204321 -16.403879379933457 0 0 0 0 -0.72366972653503581 1.5524279148387876 0 1.5524279148387876 -2.9259781674496992 0 0 0 0 304.77115259050333 340.93969273816765 0 340.93969273816765 -2155.9058872489841 0 0 0 0 160.25442206114849 156.71345616469989 0 156.71345616469989 -116.09058749121141 0 0 0 0 210.84475486780957 464.70309741435631 0 464.70309741435631 -712.47403482060326 0 0 0 0 87.990168407332249 -292.62232836264593 0 -292.62232836264593 131.02421967609916 0 0 0 0 128.38212678931143 -277.7788928880791 0 -277.7788928880791 -319.67031056701671 0 0 0 0 66.553837462556658 -704.23672753012761 0 -704.23672753012761 -1264.08598556379 0 0 0 0 -947.29572563586589 -1541.833216248102 0 -1541.833216248102 1301.8824475465808 0 0 0 0 125.7418248557085 353.35413894704288 0 353.35413894704288 -1001.5275866620232 0 0 0 0 128.8747450719377 295.66997191952032 0 295.66997191952032 -276.03930683575891 0 0 0 0 5.0248094486826744 3.9417100096509099 0 3.9417100096509099 -59.609993384491894 0 0 0 0 52.093416236309608 37.729471467226517 0 37.729471467226517 -36.687195930531743 0 0 0 0 182.77307485133429 -124.05400778701187 0 -124.05400778701187 -84.018575978829176 0 0 0 0 41.591887141886559 44.366034532107733 0 44.366034532107733 -32.328838180055754 0 0 0 0 -17.728511104567701 50.023878070038336 0 50.023878070038336 -1.5583426265911839 0 0 0 0 94.815299862364782 82.997834441870509 0 82.997834441870509 -15.931598529237817 0 0 0 0 101.69806697291472 57.181701141016674 0 57.181701141016674 -48.368381199541091 0 0 0 0 96.562119752049455 113.95187723077015 0 113.95187723077015 -66.496011781576726 0 0 0 0 117.78392163783053 89.207424923713234 0 89.207424923713234 -37.964804004093821 0 0 0 0 58.688059884390526 104.50968902306886 0 104.50968902306886 -80.208431009228661 0 0 0 0 69.500180900746386 84.689602310209921 0 84.689602310209921 11.645927044161908 0 0 0 0 52.132632473178518 101.09970480308357 0 101.09970480308357 -0.13487745351812919 0 0 0 0 103.86942827572261 76.511346092251188 0 76.511346092251188 -33.067353515474679 0 0 0 0 77.301510627732114 102.26865905982595 0 102.26865905982595 8.33340598999348 0 0 0 0 -63.960442118401119 95.451803156819096 0 95.451803156819096 -123.52607554056704 0 0 0 0 -155.10246170564187 18.431366125729255 0 18.431366125729255 -57.03881870884652 0 0 0 0 1.0621538726488211 125.81096958103808 0 125.81096958103808 -86.878321516392134 0 0 0 0 -64.464764761817207 80.603197330553485 0 80.603197330553485 -39.840470689814083 0 0 0 0 8.8252856989463453 59.178326966848999 0 59.178326966848999 -33.690011039197998 0 0 0 0 -54.914626379253946 110.17018289399493 0 110.17018289399493 28.872140810982273 0 0 0 0 -60.5257368619273 48.206732853528507 0 48.206732853528507 -20.781986322632292 0 0 0 0 -28.562487969817312 75.046016767129913 0 75.046016767129913 -6.5271319726043657 0 0 0 0 -57.258897049586039 84.748783022346288 0 84.748783022346288 6.2240434965424356 0 0 0 0 57.790920024717366 129.56299297567239 0 129.56299297567239 -4.0448122084094393 0 0 0 0 -39.221087068702388 175.85781238531899 0 175.85781238531899 -6.1322493458592362 0 0 0 0 5.3728825094619186 -1.4966665111759454 0 -1.4966665111759454 -2.0173772555040888 0 0 0 0 72.137879083071994 96.027100566159788 0 96.027100566159788 62.36621516505511 0 0 0 0 23.348141419264493 -16.650169985154662 0 -16.650169985154662 -21.866310148414414 0 0 0 0 74.652292075013975 100.73339398911685 0 100.73339398911685 18.256002902850014 0 0 0 0 14.346382415736997 154.97590191173754 0 154.97590191173754 225.90777731532944 0 0 0 0 -16.155442130728034 35.688523102836371 0 35.688523102836371 -115.50224766583779 0 0 0 0 -103.55699822864051 8.8944262034729036 0 8.8944262034729036 -123.68973652384375 0 0 0 0 1.2424564213654343 -0.80236657384271837 0 -0.80236657384271837 0.79812086789830872 0 0 0 0 -20.522877279002159 -25.148127514657062 0 -25.148127514657062 -22.783718210034749 0 0 0 0 48.54735731733237 -32.676241135813939 0 -32.676241135813939 -38.515523623287663 0 0 0 0 -2.2085400984437933 1.0257072964328451 0 1.0257072964328451 -0.30737724976310687 0 0 0 0 81.307173279741619 -33.625294073006444 0 -33.625294073006444 -767.3095505471083 0 0 0 0 -9.6964946736572983 119.37964828082477 0 119.37964828082477 6.6708496808396376 0 0 0 0 43.663551672540507 170.91363736990388 0 170.91363736990388 -578.28323703767637 0 0 0 0 162.68050945734058 148.52927772905423 0 148.52927772905423 -349.2065221683215 0 0 0 0 24.891710401599994 96.05749413684498 0 96.05749413684498 -364.87425508365413 0 0 0 0 -57.731608225664274 20.542697119512468 0 20.542697119512468 -397.5783007545906 0 0 0 0 77.660336313740927 -92.671504117185577 0 -92.671504117185577 -615.39298479343779 0 0 0 0 56.401291856763009 104.33319020419185 0 104.33319020419185 -418.69447297089937 0 0 0 0 169.67862733853281 83.464249649881822 0 83.464249649881822 -409.26419186029216 0 0 0 0 -69.353095516355296 -104.85609607347942 0 -104.85609607347942 -562.69324319260613 0 0 0 0 -20.851286644657591 189.38307787835834 0 189.38307787835834 -349.94601005296317 0 0 0 0 -219.50416961534748 116.77989250246173 0 116.77989250246173 -267.78103772764462 0 0 0 0 67.514871964559177 163.44152386773612 0 163.44152386773612 -309.74906474284217 0 0 0 0 14.921473013303739 133.00898982445779 0 133.00898982445779 -229.66748968809779 0 0 0 0 60.024105980059858 10.532959675750135 0 10.532959675750135 -230.38818990863183 0 0 0 0 42.875131832410403 19.238819926707947 0 19.238819926707947 -224.25963123323709 0 0 0 0 34.526336477242864 -43.91963464555829 0 -43.91963464555829 -623.59921863089767 0 0 0 0 -310.95815782424489 -126.20656743715881 0 -126.20656743715881 -123.60950124343981 0 0 0 0 -73.293455490065213 10.818098802383247 0 10.818098802383247 -44.985539151140983 0 0 0 0 -122.09203963436767 -66.602911714190668 0 -66.602911714190668 -22.805063560103008 0 0 0 0 64.23741201114899 -33.212719196734724 0 -33.212719196734724 -67.204141618916879 0 0 0 0 21.023439795777449 -138.66951258449808 0 -138.66951258449808 -268.4467781132189 0 0 0 0 49.614587627100946 -128.40163930840981 0 -128.40163930840981 -60.836148247439269 0 0 0 0 9.5375418005534698 -26.578300182563453 0 -26.578300182563453 81.594771534859319 0 0 0 0 38.022956080576137 -107.64654520667318 0 -107.64654520667318 118.57161272703524 0 0 0 0 -2.5769278194374694 -5.2820384796638074 0 -5.2820384796638074 4.7060883733663417 0 0 0 0 -19.234191916031591 -115.91687774406819 0 -115.91687774406819 199.87811381931897 0 0 0 0 -54.072647057370204 -16.732923897471665 0 -16.732923897471665 -27.111947932398834 0 0 0 0 11.853847944592076 -59.103845611178258 0 -59.103845611178258 -22.913695076567365 0 0 0 0 -38.871232064168225 12.449684191191409 0 12.449684191191409 22.372225776944106 0 0 0 0 -9.5823711876976176 7.9073699893324374 0 7.9073699893324374 1.4461676924111089 0 0 0 0 41.549489892849806 -85.582459516085692 0 -85.582459516085692 57.515519404227234 0 0 0 0 82.664597876474318 -85.912157678304766 0 -85.912157678304766 -20.689154001869611 0 0 0 0 -127.54620615337512 -22.300378162482957 0 -22.300378162482957 68.697156159498263 0 0 0 0 -1.2037671423942495 -2.9401968047328548 0 -2.9401968047328548 -8.1793865791416565 0 0 0 0 -117.36522781396314 38.280619979314906 0 38.280619979314906 19.081813800562486 0 0 0 0 -2.6632626066617036 1.1309263747098157 0 1.1309263747098157 -39.597405323998828 0 0 0 0 56.90967834285226 112.5308160244897 0 112.5308160244897 -81.438422591359995 0 0 0 0 497.86955103248374 -2.6513856969786502 0 -2.6513856969786502 -146.44947657188823 0 0 0 0 0.40019866143968097 0.42818792030115826 0 0.42818792030115826 0.75226931882319548 0 0 0 0 337.12852571742587 -67.938809773888352 0 -67.938809773888352 141.31483463199402 0 0 0 0 337.42144810844417 -60.53114374602302 0 -60.53114374602302 -43.587551212192921 0 0 0 0 337.55662517063047 88.341436628690644 0 88.341436628690644 -6.3682957214768976 0 0 0 0 287.09914068862508 9.0868948183251632 0 9.0868948183251632 -118.48711781464226 0 0 0 0 338.51210357805485 77.632027570674836 0 77.632027570674836 53.641245190223344 0 0 0 0 307.3476084396425 -99.190130962801959 0 -99.190130962801959 -73.554754799723014 0 0 0 0 189.75252569928307 123.42124617603258 0 123.42124617603258 -109.9164305019533 0 0 0 0 74.323923614237628 203.14621329334659 0 203.14621329334659 -189.99781279415038 0 0 0 0 65.186306199479986 115.56264167468089 0 115.56264167468089 -73.43088290288506 0 0 0 0 -0.12663539186776623 -0.59218008897002683 0 -0.59218008897002683 -3.6413062331207087 0 0 0 0 27.99304655593221 68.695580873812105 0 68.695580873812105 -56.221159671655187 0 0 0 0 -65.975264533669645 -125.61369811922395 0 -125.61369811922395 69.932724584774405 0 0 0 0 17.178817440641069 1.406200357895159 0 1.406200357895159 -74.246145062989854 0 0 0 0 12.604461938203372 -4.7063853734233563 0 -4.7063853734233563 -69.936641358954915 0 0 0 0 18.536735976570526 10.444425054221483 0 10.444425054221483 -81.153910447022554 0 0 0 0 8.8381382641127857 22.910686713543328 0 22.910686713543328 -87.660190223664358 0 0 0 0 62.114474931586301 59.445174906627017 0 59.445174906627017 -96.8762291461112 0 0 0 0 92.55074809576945 -31.268144078492696 0 -31.268144078492696 -29.387077346116712 0 0 0 0 0.84825142653343555 -0.40172261989079594 0 -0.40172261989079594 -0.84577172129648126 0 0 0 0 37.44323680788375 -6.1308021780799891 0 -6.1308021780799891 -34.358037060170318 0 0 0 0 106.16572217119847 27.750448750859505 0 27.750448750859505 -63.525823977857272 0 0 0 0 31.32902986413103 20.642446410216053 0 20.642446410216053 -29.575717095647633 0 0 0 0 -6.6579230197061889 9.2241170518189968 0 9.2241170518189968 -15.933718983426047 0 0 0 0 -26.078140506366253 -20.256662701177788 0 -20.256662701177788 -52.855343518048244 0 0 0 0 0.47200916773800117 2.6611900767201728 0 2.6611900767201728 -10.056139057099736 0 0 0 0 -17.255480448815433 -72.207921923589311 0 -72.207921923589311 80.997193560593587 0 0 0 0 10.236424651143363 -18.434643974638831 0 -18.434643974638831 -25.913207908038444 0 0 0 0 -29.985791223224169 -14.587227802863936 0 -14.587227802863936 -37.300145011220593 0 0 0 0 -16.035498849822943 -16.876277268609101 0 -16.876277268609101 -51.023126507093366 0 0 0 0 -4.9951151466843839 -13.353848586958975 0 -13.353848586958975 -38.347976528732715 0 0 0 0 -4.2788328092683514 -10.79846812443202 0 -10.79846812443202 -44.310727599565098 0 0 0 0 -12.903317885399247 -10.993844582296788 0 -10.993844582296788 -43.731341326079928 0 0 0 0 -6.7255427429554402 -14.694607062446721 0 -14.694607062446721 -47.976634575412163 0 0 0 0 -5.0892215028029568 -12.308250342074189 0 -12.308250342074189 -45.795239693981785 0 0 0 0 -6.7539308549485213 -15.595831818931629 0 -15.595831818931629 -40.759992323001825 0 0 0 0 4.35179145453003 -7.7922467939579292 0 -7.7922467939579292 -35.641999763234708 0 0 0 0 35.10758447992248 -65.903502572855359 0 -65.903502572855359 80.905595883446949 0 0 0 0 -116.41952932068216 -19.208094860838173 0 -19.208094860838173 157.93382965107594 0 0 0 0 -58.319874990091193 -22.778083298184356 0 -22.778083298184356 118.95164651585947 0 0 0 0 212.86492842079133 -129.77759154497471 0 -129.77759154497471 98.36642967035732 0 0 0 0 8.9591034565655718 -132.59788012735953 0 -132.59788012735953 182.12330474911141 0 0 0 0 7.2695552106284049 -0.85509567481603277 0 -0.85509567481603277 -48.165472801637804 0 0 0 0 266.45146070645387 -248.85395554730439 0 -248.85395554730439 74.066834249140811 0 0 0 0 7.7673751562888356 0.23364600629213328 0 0.23364600629213328 -19.939111824690485 0 0 0 0 1.316648114363554 3.9120394471498088 0 3.9120394471498088 -37.981526763737762 0 0 0 0 -18.967399763518642 -0.52320646551743266 0 -0.52320646551743266 -26.790867890920254 0 0 0 0 -9.9314435758715263 -7.9448386781832596 0 -7.9448386781832596 -44.390552930906779 0 0 0 0 -4.1720369298134212 6.3215079563525993 0 6.3215079563525993 -28.027385193446793 0 0 0 0 -2.778105151480009 -2.9818598791859547 0 -2.9818598791859547 3.1339985714504741 0 0 0 0 11.566651104206123 -21.761556567672578 0 -21.761556567672578 -25.54002355714448 0 0 0 0 13.546381389192902 -31.111503588006599 0 -31.111503588006599 79.595631527481601 0 0 0 0 4.7165558784017776 -5.2771589767312435 0 -5.2771589767312435 -44.116919169211769 0 0 0 0 -5.5041817928672572 -11.388342701106581 0 -11.388342701106581 -37.918659592543918 0 0 0 0 53.893017588091425 -77.095287312058645 0 -77.095287312058645 31.127152306260541 0 0 0 0 -51.079934280209727 12.340637288902144 0 12.340637288902144 39.843923074927488 0 0 0 0 -0.60883158276782012 -1.0155056796667239 0 -1.0155056796667239 -1.1505401852860047 0 0 0 0 87.087041849552406 -33.445940174515272 0 -33.445940174515272 -85.612016027233039 0 0 0 0 54.688794313480457 -82.463112634939534 0 -82.463112634939534 -122.21195258068292 0 0 0 0 69.732821232218157 -55.461220817185676 0 -55.461220817185676 -85.937324723166057 0 0 0 0 71.843042965584118 -73.030570873609577 0 -73.030570873609577 -121.31563391429518 0 0 0 0 87.231775566566029 -52.672545201433792 0 -52.672545201433792 -100.01073536595504 0 0 0 0 65.937340976721771 -81.883432789087237 0 -81.883432789087237 -125.29851063505339 0 0 0 0 63.874187906508268 -73.290805592735524 0 -73.290805592735524 -137.76936779078096 0 0 0 0 73.938089207786788 -84.992707985702509 0 -84.992707985702509 -156.57349179268022 0 0 0 0 212.11652854147678 -37.889266610029608 0 -37.889266610029608 -224.43564682182569 0 0 0 0 44.526939829665821 -76.680062534670924 0 -76.680062534670924 -95.158575461662622 0 0 0 0 -18.763917503154516 16.794731958285411 0 16.794731958285411 -53.275151071164146 0 0 0 0 2.6127442094571052 -239.17422050405003 0 -239.17422050405003 195.66408614095781 0 0 0 0 -125.71824336335703 -92.618499063275522 0 -92.618499063275522 178.87590654506175 0 0 0 0 55.53031031622686 -79.997215275187045 0 -79.997215275187045 -121.55156991718468 0 0 0 0 49.191010269796294 -37.961054124904862 0 -37.961054124904862 -62.568291846906504 0 0 0 0 52.802614248405177 29.451241440742024 0 29.451241440742024 -80.843305446805971 0 0 0 0 51.032085649492046 1.3592973092991087 0 1.3592973092991087 -138.86134447846598 0 0 0 0 49.232751815523898 -33.520945920450686 0 -33.520945920450686 -178.62868053692182 0 0 0 0 21.62132546090811 97.599057110501235 0 97.599057110501235 -108.57198471928314 0 0 0 0 54.4916838397437 22.791607829834902 0 22.791607829834902 -179.48240226219968 0 0 0 0 71.549121143947787 30.59316110252712 0 30.59316110252712 -103.52335719787106 0 0 0 0 11.556207979634262 -2.754741945292924 0 -2.754741945292924 -72.149082985407262 0 0 0 0 83.942653112666903 -9.12986684363932 0 -9.12986684363932 -82.511204680730998 0 0 0 0 81.285061261316969 -2.4955678886667556 0 -2.4955678886667556 -79.081175049988815 0 0 0 0 15.280588216393653 14.560637103166755 0 14.560637103166755 -78.765252867475283 0 0 0 0 91.416718291361121 2.7380230391272562 0 2.7380230391272562 -91.311048972036588 0 0 0 0 56.817538844859882 -5.8093957908049561 0 -5.8093957908049561 -118.93919898064223 0 0 0 0 67.441741825325153 17.185992681986136 0 17.185992681986136 -80.991243507123727 0 0 0 0 10.036856078733662 -0.68529466015831053 0 -0.68529466015831053 -72.952223562222798 0 0 0 0 15.171929959291219 13.628761485517771 0 13.628761485517771 -79.570847834918823 0 0 0 0 99.223922914766263 -85.780572632331314 0 -85.780572632331314 -129.07975275229546 0 0 0 0 6.3851960331193265 -12.637806774822835 0 -12.637806774822835 -1.5791262887172621 0 0 0 0 34.237610213967855 -38.948311106550136 0 -38.948311106550136 -20.431411403961647 0 0 0 0 15.482102515584756 13.493030536765218 0 13.493030536765218 -81.718224450033631 0 0 0 0 19.463200150042667 17.456775422843748 0 17.456775422843748 -78.408759465683033 0 0 0 0 12.936935856983951 14.89150069094876 0 14.89150069094876 -72.960523239842587 0 0 0 0 -6.7298142152217224 8.8414751176283062 0 8.8414751176283062 -53.070741819210525 0 0 0 0 -0.59374736729205324 9.434174659945711 0 9.434174659945711 -75.121236194273479 0 0 0 0 8.4539563871380778 0.79405432976273005 0 0.79405432976273005 -70.075576201968943 0 0 0 0 20.459675208048793 -29.821435418216424 0 -29.821435418216424 -24.65711723705499 0 0 0 0 12.019166720329849 1.2294326131941489 0 1.2294326131941489 -84.479045329045448 0 0 0 0 5.8689122885276932 6.9418794366685503 0 6.9418794366685503 -33.081625839896297 0 0 0 0 83.44051449726976 -2.5937359311683394 0 -2.5937359311683394 -88.28633141355931 0 0 0 0 11.448597215197537 8.5378699133675582 0 8.5378699133675582 -84.85819737872589 0 0 0 0 -22.915606045032746 67.110318300855397 0 67.110318300855397 -56.76114120137288 0 0 0 0 13.751653341709243 73.500140724991979 0 73.500140724991979 -56.993889972109173 0 0 0 0 17.7124145800326 39.774382791272501 0 39.774382791272501 -69.09820902674619 0 0 0 0 9.2813252020023356 52.123395514831827 0 52.123395514831827 -84.304254323520581 0 0 0 0 -33.337443655324023 36.198754493072556 0 36.198754493072556 -36.305638559442741 0 0 0 0 -12.391329909584783 32.413584602460105 0 32.413584602460105 -63.164593860519744 0 0 0 0 -24.733674468077425 30.485960898686244 0 30.485960898686244 -59.630338232406757 0 0 0 0 -68.91780404729775 56.572100164122276 0 56.572100164122276 -41.317099063799105 0 0 0 0 -89.666139330520764 64.516320576632097 0 64.516320576632097 -29.895827040361837 0 0 0 0 -97.132460943240403 -0.038005851901289134 0 -0.038005851901289134 -37.518172240151216 0 0 0 0 -42.180618806264192 20.942472397360689 0 20.942472397360689 -33.414482163550247 0 0 0 0 -46.106061261103378 5.9398698606589733 0 5.9398698606589733 -51.975822069494825 0 0 0 0 -26.055861676262793 11.075573388880002 0 11.075573388880002 -137.92243855840752 0 0 0 0 -75.154885267745613 37.784591105704294 0 37.784591105704294 -70.392215313764609 0 0 0 0 -105.34569751331969 41.099003737799649 0 41.099003737799649 -101.01305336621499 0 0 0 0 -130.95882337896342 -7.6494892660439291 0 -7.6494892660439291 -94.54914257911696 0 0 0 0 36.02245676990389 0.22747716994386735 0 0.22747716994386735 -30.377287864027494 0 0 0 0 6.6749199138470727 2.4407237254653769 0 2.4407237254653769 -45.999247570476186 0 0 0 0 5.47337356854365 -2.7654458923840366 0 -2.7654458923840366 -68.986577972686064 0 0 0 0 24.150382055132468 19.384355232105008 0 19.384355232105008 -51.516278322111987 0 0 0 0 121.82273421825511 20.913268974075152 0 20.913268974075152 -45.011654891946819 0 0 0 0 607.45939811761991 370.64531324693917 0 370.64531324693917 122.35235841429676 0 0 0 0 97.850429182672087 190.71034242862152 0 190.71034242862152 338.12047296351375 0 0 0 0 16.74436731654594 -2.0950939872694025 0 -2.0950939872694025 -51.38516611767848 0 0 0 0 5.8184651330684574 4.2162360584716225 0 4.2162360584716225 -51.389954463444155 0 0 0 0 -12.858919819571838 -17.728766247528256 0 -17.728766247528256 -55.719332481941819 0 0 0 0 11.242444470291048 0.26124713610624894 0 0.26124713610624894 -70.126051177122804 0 0 0 0 23.818079913227848 -15.569458778963963 0 -15.569458778963963 -60.506467065981269 0 0 0 0 -18.396455189819335 42.925642028319999 0 42.925642028319999 -6.5711467698074557 0 0 0 0 -2.1172694164779919 -0.012951349463456552 0 -0.012951349463456552 1.6401208827292919 0 0 0 0 1.5786086052725774 0.66099546424400391 0 0.66099546424400391 -50.940716378458106 0 0 0 0 62.07431680469972 -21.162045691236926 0 -21.162045691236926 -86.342830882954331 0 0 0 0 9.962094902476565 -159.89388733716646 0 -159.89388733716646 -323.94518732011454 0 0 0 0 1.7514824199374583 -4.4617496486771504 0 -4.4617496486771504 -11.48459922918795 0 0 0 0 -20.884117088086441 -61.679472429241287 0 -61.679472429241287 -18.809784605347886 0 0 0 0 -55.347599620129586 88.540027121320236 0 88.540027121320236 -85.254467294295864 0 0 0 0 -22.098307724324741 -45.599510803842463 0 -45.599510803842463 -231.7566346963431 0 0 0 0 -22.27351763372792 68.276431167436385 0 68.276431167436385 -299.67309498912255 0 0 0 0 -56.314138546613322 88.956793382971227 0 88.956793382971227 -57.898519289733485 0 0 0 0 293.22096001328305 79.989216496767767 0 79.989216496767767 -299.67696027550664 0 0 0 0 -29.271121206807948 256.88120064391342 0 256.88120064391342 -374.80106287937633 0 0 0 0 -0.61126733468661998 -2.3515615860776178 0 -2.3515615860776178 -17.063751807904936 0 0 0 0 -745.80834134967972 -619.2169908195583 0 -619.2169908195583 738.34886924524289 0 0 0 0 -203.04116373501802 231.01213186223004 0 231.01213186223004 -195.42159717106551 0 0 0 0 -251.43210748423246 -11.146570763361524 0 -11.146570763361524 -119.65805428989734 0 0 0 0 -169.58647392952412 23.005050706823113 0 23.005050706823113 -197.69258467811414 0 0 0 0 -100.78943537856821 -86.203181174507336 0 -86.203181174507336 -242.52268775632183 0 0 0 0 -54.029085037661389 -20.917645938899113 0 -20.917645938899113 -167.18799098001455 0 0 0 0 1.3742760719974285 8.169042936765436 0 8.169042936765436 -177.65409414156193 0 0 0 0 -30.787075386976142 -96.326229135827361 0 -96.326229135827361 -316.59521937245427 0 0 0 0 -224.87284702694797 -90.699160565853163 0 -90.699160565853163 -242.26294858793926 0 0 0 0 -309.07193950621172 8.9759164013967165 0 8.9759164013967165 -197.92048774773139 0 0 0 0 -189.41238831576385 -81.639659903968777 0 -81.639659903968777 -140.65787266445295 0 0 0 0 -613.69024297171256 -13.892845867517593 0 -13.892845867517593 167.11222842846837 0 0 0 0 0.71637975295941558 -2.0231466143770049 0 -2.0231466143770049 0.5827398728488884 0 0 0 0 -458.86427339946613 -259.00495504301693 0 -259.00495504301693 222.30833853552031 0 0 0 0 245.09682545429268 -122.76199242877647 0 -122.76199242877647 -314.65007959186192 0 0 0 0 137.74256011538682 64.656023310138835 0 64.656023310138835 -592.15450451456081 0 0 0 0 -268.23769141213222 357.35985157580126 0 357.35985157580126 -624.8155078523323 0 0 0 0 -632.23006619948626 245.50644582845416 0 245.50644582845416 -124.68098654379261 0 0 0 0 619.73750552156355 757.13847715338966 0 757.13847715338966 -1447.9579156702803 0 0 0 0 -296.44107238227252 -678.77355648617231 0 -678.77355648617231 209.82956644310934 0 0 0 0 1.3336430792418168 10.490728848317085 0 10.490728848317085 -58.742214957514093 0 0 0 0 279.77815089070509 222.79315695030527 0 222.79315695030527 -417.1184680536212 0 0 0 0 5.1875425173430578 4.3707893289551656 0 4.3707893289551656 -10.968315776264092 0 0 0 0 85.634750193678883 -107.79052598321618 0 -107.79052598321618 4.5439560407824047 0 0 0 0 87.81188456669588 95.546830436749701 0 95.546830436749701 -200.40888118283783 0 0 0 0 -1.4035502919181686 13.305257410012553 0 13.305257410012553 -45.955146764011801 0 0 0 0 -89.849777855798436 -324.49165575122424 0 -324.49165575122424 -422.79595327502557 0 0 0 0 -433.15681690407928 118.89215695978896 0 118.89215695978896 48.951548394378278 0 0 0 0 -177.35403507465207 76.906446369515379 0 76.906446369515379 40.269633654601421 0 0 0 0 -198.96682011478811 541.21921143981081 0 541.21921143981081 -359.67098832469821 0 0 0 0 -167.94047685061199 366.41357309526882 0 366.41357309526882 9.1490853965010501 0 0 0 0 -231.70014654514375 596.02869161287344 0 596.02869161287344 261.75671717896512 0 0 0 0 -3.5596905848418805 4.0720914664949035 0 4.0720914664949035 -4.985901074653512 0 0 0 0 200.70193582440459 94.969931945742587 0 94.969931945742587 -52.045962867499611 0 0 0 0 -94.634507130639463 376.76007268996136 0 376.76007268996136 -582.04838813936681 0 0 0 0 -527.08213781372444 449.86459458998786 0 449.86459458998786 -7.6866308445851246 0 0 0 0 -213.52615047251447 422.63721621382376 0 422.63721621382376 -584.95096438662313 0 0 0 0 260.19475747923769 -64.464803527157301 0 -64.464803527157301 -576.92980756930797 0 0 0 0 277.58128151232313 18.286996064120672 0 18.286996064120672 -254.50367863135352 0 0 0 0 -81.940468946064001 274.58666143087817 0 274.58666143087817 -147.64853683885573 0 0 0 0 196.41954956602524 -193.74408513452863 0 -193.74408513452863 -321.70618678067109 0 0 0 0 172.61407721416663 -380.84021292558555 0 -380.84021292558555 -536.92991946327004 0 0 0 0 107.98764069622825 -43.46511187780095 0 -43.46511187780095 -399.18606438402253 0 0 0 0 117.74354447164751 -193.0393762791457 0 -193.0393762791457 -1073.8644417292176 0 0 0 0 4.3959435670581115 -503.77924687612176 0 -503.77924687612176 -837.28208934515828 0 0 0 0 -362.47244376645676 -61.724207077337951 0 -61.724207077337951 -672.06955888659502 0 0 0 0 -723.68278608854848 -560.43119935046695 0 -560.43119935046695 -1302.2099600485021 0 0 0 0 -1362.4076106349544 -27.982007270025406 0 -27.982007270025406 -319.96199236974496 0 0 0 0 -306.05499275603029 483.11534350799047 0 483.11534350799047 -1153.7836061087582 0 0 0 0 173.28743654722052 66.436353005145975 0 66.436353005145975 -844.5949486501745 0 0 0 0 -32.58119044018872 -388.45576497668878 0 -388.45576497668878 -996.47370218417382 0 0 0 0 195.89602517716389 66.23614121626224 0 66.23614121626224 -1516.56806165935 0 0 0 0 -2.3026085751204897 4.7739730318909146 0 4.7739730318909146 -17.292114722325163 0 0 0 0 -873.62019140591747 526.01678150003772 0 526.01678150003772 -315.85674755599575 0 0 0 0 -213.41061485358182 441.95530731553959 0 441.95530731553959 -1580.4197949815316 0 0 0 0 -6.8336590028065842 -22.022680580477754 0 -22.022680580477754 -209.92663985423496 0 0 0 0 -29.637888539728095 -66.702433220881176 0 -66.702433220881176 -172.57854792802482 0 0 0 0 -172.2608956612915 -12.713001103112674 0 -12.713001103112674 -139.2393639991169 0 0 0 0 -30.73737526409267 -43.775000214160116 0 -43.775000214160116 -142.81008696212302 0 0 0 0 -1.2618594661116609 2.6831503262840162 0 2.6831503262840162 -4.8804696321605086 0 0 0 0 -9.4956030626562651 17.284689396229929 0 17.284689396229929 -27.573121838765587 0 0 0 0 69.97429346857507 12.443984241804742 0 12.443984241804742 -47.289173283174705 0 0 0 0 -35.424805053953378 46.880373291091928 0 46.880373291091928 -46.7035017096091 0 0 0 0 74.103256080595088 20.158522501512635 0 20.158522501512635 -70.032477533956808 0 0 0 0 166.41508947290572 -35.242181911958369 0 -35.242181911958369 -74.357281864721244 0 0 0 0 205.22976297353398 -134.86290352386618 0 -134.86290352386618 -71.69984047997059 0 0 0 0 151.13137491994758 -69.45466798100415 0 -69.45466798100415 -138.32913169345682 0 0 0 0 245.0207556920675 15.762289797349098 0 15.762289797349098 -131.95805714526716 0 0 0 0 -9.0729793777202588 14.837836562429192 0 14.837836562429192 -20.712897064671164 0 0 0 0 268.08598201624477 37.114469192241927 0 37.114469192241927 -133.3874738743624 0 0 0 0 240.72557051730337 146.62746598947223 0 146.62746598947223 10.738451263923992 0 0 0 0 -29.519419762043213 -93.802565658443882 0 -93.802565658443882 -247.87114426907101 0 0 0 0 334.24777267241871 389.57754462471075 0 389.57754462471075 76.123104777014646 0 0 0 0 -6.4285599074140549 10.6816257879671 0 10.6816257879671 -15.138367891361053 0 0 0 0 -37.712395483692816 -73.360161756132584 0 -73.360161756132584 -416.84196207086643 0 0 0 0 -58.625471159179511 -173.09831982640208 0 -173.09831982640208 -462.81605080030477 0 0 0 0 15.04855029212483 -48.456261824362173 0 -48.456261824362173 -424.07629141865436 0 0 0 0 -37.178783608210864 -23.209226976456648 0 -23.209226976456648 -280.88619694830322 0 0 0 0 0.4814021613056525 -26.313868064344206 0 -26.313868064344206 -280.67726832377139 0 0 0 0 -92.617627736963684 98.059400897417163 0 98.059400897417163 -443.60787038966464 0 0 0 0 60.638250938259191 -26.420759985403606 0 -26.420759985403606 -481.40699297377068 0 0 0 0 53.034783621087087 -45.826641312842298 0 -45.826641312842298 -399.8075842775379 0 0 0 0 67.957117312853171 -43.597773717558994 0 -43.597773717558994 -423.76695415792892 0 0 0 0 34.257846407763509 -39.660724629751712 0 -39.660724629751712 -399.70276792012749 0 0 0 0 26.817052861744955 46.914537014333973 0 46.914537014333973 -157.44326154949977 0 0 0 0 -0.16943543679072048 0.44559286350714089 0 0.44559286350714089 -0.52452501035019772 0 0 0 0 38.752558968270733 -57.740955795543982 0 -57.740955795543982 -327.1994682301447 0 0 0 0 -110.58313836232773 -306.12960005292553 0 -306.12960005292553 -1154.435637642338 0 0 0 0 19.317105193794042 -104.86608964084303 0 -104.86608964084303 -442.69010998405156 0 0 0 0 79.698459301589509 48.545304938463687 0 48.545304938463687 -448.34608497999477 0 0 0 0 -123.67803480543213 44.39881831958337 0 44.39881831958337 -358.11273407395765 0 0 0 0 -90.863957702687117 -51.923366829125143 0 -51.923366829125143 -81.763152756963791 0 0 0 0 -273.2302777767909 41.023482624752205 0 41.023482624752205 -78.2623298092185 0 0 0 0 -236.95120588078629 120.37930204886925 0 120.37930204886925 77.817943022949294 0 0 0 0 -1.0298836637008206 0.376494519316104 0 0.376494519316104 -0.28514908084630264 0 0 0 0 -216.55621116653606 136.86078178071966 0 136.86078178071966 -104.14803749900807 0 0 0 0 -14.520675066653144 14.810439704412147 0 14.810439704412147 -89.827933875872986 0 0 0 0 -10.923375694972833 42.820385667185406 0 42.820385667185406 -348.13618665753074 0 0 0 0 -194.7939877209958 133.57152306381613 0 133.57152306381613 -132.50388933572731 0 0 0 0 44.307774139094178 67.462347600908515 0 67.462347600908515 22.016084354970189 0 0 0 0 -0.9835133482762588 1.0996670572855596 0 1.0996670572855596 -0.90869520260765668 0 0 0 0 27.518728575783037 15.446842611466309 0 15.446842611466309 -117.49554524346695 0 0 0 0 22.794810994567797 5.2648065729194968 0 5.2648065729194968 -69.950792608307893 0 0 0 0 57.929263522775145 88.846873088670918 0 88.846873088670918 -62.289499348218669 0 0 0 0 40.207219379414667 41.146466854698701 0 41.146466854698701 -141.37799237166882 0 0 0 0 75.466106427683826 71.606667281413138 0 71.606667281413138 -50.079387139060145 0 0 0 0 148.28632055035132 104.55686561072298 0 104.55686561072298 -54.78296008252164 0 0 0 0 185.23762662444858 30.109350220584474 0 30.109350220584474 -22.179238681903371 0 0 0 0 0.68159694786094571 5.8901550781083287 0 5.8901550781083287 -24.546875791059797 0 0 0 0 -797.84371327737176 297.78697386639578 0 297.78697386639578 140.39787662866183 0 0 0 0 378.55584705952981 76.96899731663234 0 76.96899731663234 -53.760832985949492 0 0 0 0 1.1050533954375132 6.6987995924937032 0 6.6987995924937032 -42.323452413272292 0 0 0 0 -91.932521167467868 338.98987189873037 0 338.98987189873037 -117.95469192792007 0 0 0 0 173.89904805786671 61.24306627108308 0 61.24306627108308 -57.713416015740222 0 0 0 0 90.520464311053729 594.42684752858622 0 594.42684752858622 -126.35468552374368 0 0 0 0 -90.332097176953255 296.14127367717799 0 296.14127367717799 255.65075330592299 0 0 0 0 -94.197328313206299 353.49464560469278 0 353.49464560469278 -96.759466386858549 0 0 0 0 -2.4670216398349112 46.590557981926395 0 46.590557981926395 195.89945067724693 0 0 0 0 -82.94534459703857 -395.92023816953588 0 -395.92023816953588 -145.99639741741703 0 0 0 0 344.53112453671548 168.14179323123881 0 168.14179323123881 -58.561513774708146 0 0 0 0 -1.7539553291526406 11.643411318652879 0 11.643411318652879 -43.230462281978383 0 0 0 0 762.88636284514064 549.6395374595636 0 549.6395374595636 44.16683836453376 0 0 0 0 561.02292246761408 160.8253525374912 0 160.8253525374912 -172.60739660752733 0 0 0 0 -40.512614925162325 111.78296171380862 0 111.78296171380862 -87.198625531673372 0 0 0 0 -38.864565258495304 62.358404818520285 0 62.358404818520285 197.30461690106813 0 0 0 0 -117.18859419434989 466.81731881788983 0 466.81731881788983 83.459248894865596 0 0 0 0 308.46969159916353 363.67599235976195 0 363.67599235976195 -147.73436009234501 0 0 0 0 -0.057203359159075262 17.002976479518111 0 17.002976479518111 -172.77175012261978 0 0 0 0 -1.1520915776925869 12.966484103651021 0 12.966484103651021 -59.711583572050607 0 0 0 0 1220.3074879080248 348.51578920348857 0 348.51578920348857 -300.69745760917067 0 0 0 0 680.90326833108202 -78.544603355359868 0 -78.544603355359868 -15.138940925603379 0 0 0 0 585.89591848358771 323.20531601558378 0 323.20531601558378 93.518579086250611 0 0 0 0 51.993034632599169 225.9061676673507 0 225.9061676673507 -835.25782362673453 0 0 0 0 461.12583173164552 -29.789218537212946 0 -29.789218537212946 -259.31110285645264 0 0 0 0 4.4961103866347685 247.43285269555872 0 247.43285269555872 -232.13140794471292 0 0 0 0 -604.01512231656125 616.20509510991656 0 616.20509510991656 -320.67019137242005 0 0 0 0 118.23369185438801 -118.0070044162112 0 -118.0070044162112 -390.95825827411136 0 0 0 0 -166.11587682221381 301.24962032154417 0 301.24962032154417 -670.19293097568743 0 0 0 0 299.04075462830957 29.787608723216181 0 29.787608723216181 -614.09538242832741 0 0 0 0 159.56865222556121 64.511600719983107 0 64.511600719983107 2.8589479369134096 0 0 0 0 154.24038174793608 122.27572236948566 0 122.27572236948566 81.308515936871117 0 0 0 0 -0.16199552128189421 2.7483521861027382 0 2.7483521861027382 -8.2387194710643499 0 0 0 0 -223.39944165485292 279.20343243058187 0 279.20343243058187 -104.29510481273246 0 0 0 0 -1447.3682374531595 129.27066650417328 0 129.27066650417328 11.721850382367847 0 0 0 0 453.60121716183386 -206.33647901083532 0 -206.33647901083532 -265.39452889425775 0 0 0 0 484.31637176859249 -235.51794922533009 0 -235.51794922533009 44.123460730428633 0 0 0 0 3.8355606011041248 2.6294684206832422 0 2.6294684206832422 -4.1545312852809957 0 0 0 0 -258.52809639684409 201.87852806800674 0 201.87852806800674 -200.26104854692676 0 0 0 0 -82.329944447391313 85.728525764008737 0 85.728525764008737 -136.06568150537169 0 0 0 0 -198.33057163838615 132.16140699555217 0 132.16140699555217 -96.793442356778542 0 0 0 0 19.513290732625137 114.82761363464851 0 114.82761363464851 -99.367284794011539 0 0 0 0 50.281393223667919 -17.360037847018248 0 -17.360037847018248 -73.445540312935918 0 0 0 0 142.21864355356479 59.966727819661173 0 59.966727819661173 -276.03865393178057 0 0 0 0 -39.838211352528901 113.99000885479836 0 113.99000885479836 -256.0098601474856 0 0 0 0 260.06419724092029 -59.449168291115711 0 -59.449168291115711 -298.8160381952257 0 0 0 0 98.832160871817678 -54.016448552541988 0 -54.016448552541988 -298.12838298738779 0 0 0 0 91.429475958369437 25.438040995537449 0 25.438040995537449 2.7822448750666808 0 0 0 0 194.94260359125127 122.94672199101115 0 122.94672199101115 -65.230778344215651 0 0 0 0 0.13708409821424539 66.113898061457803 0 66.113898061457803 -1.2190793402896816 0 0 0 0 -123.37396524694049 135.79073982309274 0 135.79073982309274 -39.290815075186629 0 0 0 0 -16.844881335441897 19.737066546887036 0 19.737066546887036 -38.725018672437727 0 0 0 0 -67.160092114955106 38.019431247751527 0 38.019431247751527 -44.822920521291962 0 0 0 0 527.1994607512504 -386.14235421083322 0 -386.14235421083322 57.771595675581921 0 0 0 0 7.871885808611033 5.400627853942872 0 5.400627853942872 -2.1396538530921987 0 0 0 0 -121.62001873507779 -59.063319015192974 0 -59.063319015192974 115.07459997200749 0 0 0 0 237.36964567859945 6.7149660215318363 0 6.7149660215318363 63.548839507082448 0 0 0 0 71.338469977487421 -111.69974039224689 0 -111.69974039224689 193.3904269592349 0 0 0 0 -64.820599481291538 -346.50171228082399 0 -346.50171228082399 -489.5376871329936 0 0 0 0 -646.15834956799972 124.8244999186536 0 124.8244999186536 -69.755100966111058 0 0 0 0 62.911933893599809 32.447195990785076 0 32.447195990785076 -129.22316871935618 0 0 0 0 293.26828830459272 53.71287809236037 0 53.71287809236037 -88.570951436911855 0 0 0 0 -3.6068259856252212 -266.25460996676634 0 -266.25460996676634 227.73183844270898 0 0 0 0 582.17660869666224 -148.09867520431726 0 -148.09867520431726 -358.35880222682863 0 0 0 0 258.82947488043283 161.15850266613052 0 161.15850266613052 -753.09653668046667 0 0 0 0 256.01918413165185 164.01877107383916 0 164.01877107383916 -137.39183369342754 0 0 0 0 9.0897476261168375 16.30163814204613 0 16.30163814204613 -1.085108916507437 0 0 0 0 -34.006728894112598 93.603449697822725 0 93.603449697822725 -31.895004065076137 0 0 0 0 580.38131727011546 -210.61782893738075 0 -210.61782893738075 -129.5368904931529 0 0 0 0 69.179786137228007 71.767982820998441 0 71.767982820998441 -88.191433495019737 0 0 0 0 1005.970076321348 197.28287127958265 0 197.28287127958265 -162.06496443880314 0 0 0 0 -1.133477585428325 14.69548450214414 0 14.69548450214414 -67.281719907304335 0 0 0 0 982.3271638970582 235.36308268923312 0 235.36308268923312 -23.513466723583406 0 0 0 0 100.60732837662738 121.21580895030638 0 121.21580895030638 -48.014089464773861 0 0 0 0 619.76115519787618 130.31488319956406 0 130.31488319956406 106.636402126343 0 0 0 0 395.28707943344068 134.84745285592771 0 134.84745285592771 -32.848781582444644 0 0 0 0 341.59097422293075 224.04690285516972 0 224.04690285516972 25.702180421722005 0 0 0 0 654.45290282582027 23.001818171942432 0 23.001818171942432 139.21326238216716 0 0 0 0 596.91276084317724 97.42990316614555 0 97.42990316614555 50.340617978567025 0 0 0 0 509.74910800105863 64.889383563873707 0 64.889383563873707 -17.172592618084309 0 0 0 0 664.04146644568755 11.85080275263681 0 11.85080275263681 -6.666350468636665 0 0 0 0 582.70385098632141 88.170349845710007 0 88.170349845710007 -63.91013996935726 0 0 0 0 443.85717069712064 251.26956296614662 0 251.26956296614662 31.598443194423453 0 0 0 0 495.11820808447192 118.84883243164222 0 118.84883243164222 -29.36394276255669 0 0 0 0 709.44999925809134 204.31296567752725 0 204.31296567752725 0.14835373526148032 0 0 0 0 912.4501927174133 80.138530496311432 0 80.138530496311432 82.344496790743506 0 0 0 0 664.95500976759467 199.03870687355084 0 199.03870687355084 48.250095759161923 0 0 0 0 944.20342521659768 447.39764617824403 0 447.39764617824403 37.511571625276702 0 0 0 0 939.41418977924695 319.49017557254956 0 319.49017557254956 100.83103964490874 0 0 0 0 7.9945669576404796 -6.5693790262067093 0 -6.5693790262067093 -11.462184364478524 0 0 0 0 1268.9557445302253 399.38445706035054 0 399.38445706035054 73.437186465635023 0 0 0 0 316.78562259807677 231.15902530164294 0 231.15902530164294 60.088940867855854 0 0 0 0 -3.0392346016844987 7.0781802218038106 0 7.0781802218038106 3.93121491431571 0 0 0 0 1.8549018973892086 17.149327142558477 0 17.149327142558477 -68.892331337683032 0 0 0 0 432.14890653127395 111.73726246356364 0 111.73726246356364 -79.632150048375479 0 0 0 0 331.32312250548966 4.5218127833504695 0 4.5218127833504695 -78.748114549640377 0 0 0 0 499.60293454906423 6.3157730543925936 0 6.3157730543925936 -91.059265733234497 0 0 0 0 405.11494300001323 83.550688007013378 0 83.550688007013378 -61.48734605620848 0 0 0 0 258.46534929845302 -7.1817909540156961 0 -7.1817909540156961 -85.737181682135997 0 0 0 0 389.87372504144901 35.944888471290142 0 35.944888471290142 -87.579906908918929 0 0 0 0 351.36985923347652 125.82145676516393 0 125.82145676516393 -47.271293865229381 0 0 0 0 281.33593996183845 90.936345410160357 0 90.936345410160357 -41.225053680717338 0 0 0 0 210.95173557755678 49.284720018905659 0 49.284720018905659 -62.541141227065964 0 0 0 0 205.09320299407648 -46.112238333532559 0 -46.112238333532559 -111.06248491521001 0 0 0 0 80.576125007076371 -67.493769659062309 0 -67.493769659062309 -97.935290045686997 0 0 0 0 62.933570049028731 4.329361130921825 0 4.329361130921825 -62.942735687778168 0 0 0 0 163.63478732112208 43.033916626774953 0 43.033916626774953 -50.427673513450827 0 0 0 0 174.14159095110813 49.66252489762519 0 49.66252489762519 -57.745072007273848 0 0 0 0 -14.319110087374714 27.302960285868682 0 27.302960285868682 -43.373214370379472 0 0 0 0 129.21113753254085 97.993866839626321 0 97.993866839626321 -29.545014108429314 0 0 0 0 88.341954911602897 85.116795566087603 0 85.116795566087603 -4.3356669979420985 0 0 0 0 416.00192411166518 47.87023455198505 0 47.87023455198505 -71.892699809664919 0 0 0 0 202.42503930201522 125.94429832932468 0 125.94429832932468 8.8045273843163159 0 0 0 0 119.26370825091885 73.608200061133175 0 73.608200061133175 -23.887081667046004 0 0 0 0 244.70846700884431 148.99303736438014 0 148.99303736438014 -19.34231467000609 0 0 0 0 -12.982485574571237 39.754375808430332 0 39.754375808430332 -42.332801805329552 0 0 0 0 490.32743605678388 157.3093750369535 0 157.3093750369535 88.564735518884845 0 0 0 0 363.89570211480077 448.85544047084295 0 448.85544047084295 15.846607621345584 0 0 0 0 312.75471448688586 235.10062493813621 0 235.10062493813621 -123.81203391142662 0 0 0 0 -206.57078641091346 50.045515576070102 0 50.045515576070102 136.59698820325866 0 0 0 0 -47.685813716280961 181.57523213013701 0 181.57523213013701 211.97804948666544 0 0 0 0 -633.78327612678368 -42.457844442035366 0 -42.457844442035366 10.999942487273074 0 0 0 0 -457.9141084265857 452.0866286549608 0 452.0866286549608 -184.90147148346659 0 0 0 0 -99.253312555647426 -163.14729809114579 0 -163.14729809114579 -107.64367887333356 0 0 0 0 -188.69882393777107 -137.27757803894383 0 -137.27757803894383 -58.144724742385733 0 0 0 0 -120.72484701352926 -105.98310507187671 0 -105.98310507187671 -75.30065077639847 0 0 0 0 -180.31226266333545 -2.5018058923769786 0 -2.5018058923769786 -162.56346045648388 0 0 0 0 -297.16559511899254 -13.363346952257416 0 -13.363346952257416 -158.83115953940023 0 0 0 0 75.586332709659843 24.862631773276917 0 24.862631773276917 -423.65421791227072 0 0 0 0 -176.2074024354423 -8.6357170935216345 0 -8.6357170935216345 -270.87864555751912 0 0 0 0 -325.61209282346692 -59.882017601634743 0 -59.882017601634743 -119.21673554551307 0 0 0 0 -862.17481459074747 40.015282751103769 0 40.015282751103769 -272.97870373127262 0 0 0 0 -163.31537069380556 -217.15363039701151 0 -217.15363039701151 -657.21525373253326 0 0 0 0 -57.791767928084482 1.0906541682024908 0 1.0906541682024908 -257.51939812280398 0 0 0 0 151.95702758893458 -158.52407749321173 0 -158.52407749321173 -270.96022994378541 0 0 0 0 422.71967128226925 -35.109571120944565 0 -35.109571120944565 -287.09912225791231 0 0 0 0 51.47342808033909 -137.60133344525457 0 -137.60133344525457 -82.120326619457956 0 0 0 0 26.530067720350871 -219.83463301444499 0 -219.83463301444499 -295.03100721123838 0 0 0 0 765.09268275171826 -89.250349565289071 0 -89.250349565289071 -112.85746697567311 0 0 0 0 415.63973819808984 48.056643397845278 0 48.056643397845278 -45.799355850620486 0 0 0 0 639.77376168870751 146.92921908520293 0 146.92921908520293 11.591575534275762 0 0 0 0 568.5438178650229 -83.060352176091328 0 -83.060352176091328 -141.22183512491665 0 0 0 0 468.81785426703686 -91.351530310206499 0 -91.351530310206499 -84.921745278919843 0 0 0 0 549.50605109628509 -27.305944491380615 0 -27.305944491380615 -62.782171406182897 0 0 0 0 435.67533509923851 4.5898092423904018 0 4.5898092423904018 -4.9425127900467487 0 0 0 0 581.73286065436741 -12.864867237120052 0 -12.864867237120052 -24.629244400202879 0 0 0 0 291.2323951882754 -115.2812287065608 0 -115.2812287065608 -58.801728627793636 0 0 0 0 272.22373896260069 -77.362156226838124 0 -77.362156226838124 -18.719548361197667 0 0 0 0 282.79587389931248 -98.684575174906968 0 -98.684575174906968 -90.783260892982071 0 0 0 0 275.13074009298725 -153.3559379471717 0 -153.3559379471717 -112.33703098709248 0 0 0 0 442.78834369647302 -75.461168149930018 0 -75.461168149930018 -91.286738279235578 0 0 0 0 278.97927090410121 -78.705083247381481 0 -78.705083247381481 -79.591953251684572 0 0 0 0 394.88224432638344 -14.236882933571906 0 -14.236882933571906 -58.122592636953414 0 0 0 0 283.31843812768983 -107.6967147101733 0 -107.6967147101733 -140.2174534014157 0 0 0 0 134.87573882553261 -216.81558841132755 0 -216.81558841132755 -110.83401204323627 0 0 0 0 -14.44348272895536 -158.29653696927016 0 -158.29653696927016 -52.15190136993624 0 0 0 0 -8.6246617280878581 -130.06672661504308 0 -130.06672661504308 -117.6427954759165 0 0 0 0 -5.3232267089823235 -142.31375648552296 0 -142.31375648552296 -94.066504105589047 0 0 0 0 -4.9475873515743842 -159.23651760084249 0 -159.23651760084249 -70.639632232221629 0 0 0 0 123.40677675668712 -176.12072447141418 0 -176.12072447141418 -101.57692199976191 0 0 0 0 112.09311727593149 -153.3871807721298 0 -153.3871807721298 -101.69446239080753 0 0 0 0 197.4834678358643 -78.588725062050798 0 -78.588725062050798 -82.71302775537788 0 0 0 0 373.28420555946786 -64.968530555732741 0 -64.968530555732741 -112.99563745287378 0 0 0 0 121.96921779532052 -137.69441762523883 0 -137.69441762523883 -76.459693772441824 0 0 0 0 227.67848739269607 -131.07459510605986 0 -131.07459510605986 -119.59221674017226 0 0 0 0 108.69160705123659 -113.90386250352458 0 -113.90386250352458 -92.884761266383066 0 0 0 0 274.70593574097666 -12.403118925854869 0 -12.403118925854869 -97.953322751685846 0 0 0 0 141.25916293682576 -39.806974347447976 0 -39.806974347447976 -88.945691931876354 0 0 0 0 168.23573593921401 -96.346697908315946 0 -96.346697908315946 -117.61796870464241 0 0 0 0 114.92947620023665 -133.40214300718526 0 -133.40214300718526 -102.01789491561431 0 0 0 0 88.331682076033303 -132.06927303657812 0 -132.06927303657812 -113.3805183458453 0 0 0 0 83.708481382365335 -94.911020483496031 0 -94.911020483496031 -111.40468580073139 0 0 0 0 26.292900817670159 -129.81644487709264 0 -129.81644487709264 -97.973436572297942 0 0 0 0 89.819003506884656 -114.32930058376041 0 -114.32930058376041 -107.36535793204166 0 0 0 0 37.468101375470269 -149.01818861857282 0 -149.01818861857282 -89.947967655172761 0 0 0 0 41.347502292020067 -116.35823598041861 0 -116.35823598041861 -111.57369473728613 0 0 0 0 -28.119001891978769 -130.78469553025752 0 -130.78469553025752 -86.39806496491201 0 0 0 0 -76.507963225101093 -106.28894544906757 0 -106.28894544906757 -53.958733157451206 0 0 0 0 -27.707304253344091 -125.57978477904453 0 -125.57978477904453 -83.325731184334813 0 0 0 0 -62.294142015922489 -149.04747843199311 0 -149.04747843199311 -70.28855473967451 0 0 0 0 -106.98874164394931 -91.677095663325872 0 -91.677095663325872 -84.930177461992571 0 0 0 0 -164.97229753422516 -55.6959163113861 0 -55.6959163113861 -108.11204878331955 0 0 0 0 -78.217350223108042 -70.187653790539116 0 -70.187653790539116 -144.73133337693889 0 0 0 0 -135.12185774920096 -46.973866242787608 0 -46.973866242787608 -23.620550149610608 0 0 0 0 -73.964511819994982 -113.16653456698805 0 -113.16653456698805 -103.03206910879999 0 0 0 0 -74.477397597890786 -55.327144315980377 0 -55.327144315980377 -30.211916600963377 0 0 0 0 0.54615747722063235 -2.0794682175893922 0 -2.0794682175893922 -0.053606947024747775 0 0 0 0 -15.550439027376569 -31.482839984877501 0 -31.482839984877501 -94.531889336499717 0 0 0 0 -1.9558899572926975 -8.3834709387019757 0 -8.3834709387019757 -53.09166909547821 0 0 0 0 -11.454681901623644 -29.364281403924906 0 -29.364281403924906 -2.9280524001790127 0 0 0 0 -20.039519107510387 -40.299936494230678 0 -40.299936494230678 -100.05023092748525 0 0 0 0 0.25873908457970218 -0.19770061910984538 0 -0.19770061910984538 -0.061007229679616692 0 0 0 0 27.557633988607449 -35.494373439282754 0 -35.494373439282754 -186.98871254886853 0 0 0 0 23.56023953439211 -46.827488107154295 0 -46.827488107154295 -173.97316408049119 0 0 0 0 -14.12975688983397 -22.846453666428715 0 -22.846453666428715 -153.03489283791896 0 0 0 0 -16.016889522035854 -44.953917824277596 0 -44.953917824277596 -94.998286157588154 0 0 0 0 13.964025561046583 -63.729223398901013 0 -63.729223398901013 -113.54262237553485 0 0 0 0 -9.9382315107891266 -78.706754119422229 0 -78.706754119422229 -123.34950794232827 0 0 0 0 -51.163570362469216 -88.875373327131456 0 -88.875373327131456 -60.882024510741758 0 0 0 0 -9.9397601480166031 -77.963801415334274 0 -77.963801415334274 -71.224333470282545 0 0 0 0 38.902863883039117 -112.1437840584349 0 -112.1437840584349 -106.85171803851404 0 0 0 0 42.591544695301309 -119.87062860061633 0 -119.87062860061633 -104.9654076088209 0 0 0 0 50.920058654318268 -100.49321436545506 0 -100.49321436545506 -143.58686636746461 0 0 0 0 27.657078536412655 -115.88212418973217 0 -115.88212418973217 -137.5673076071962 0 0 0 0 109.91193557858969 -89.587530544498804 0 -89.587530544498804 -124.53694762395025 0 0 0 0 67.458858942911348 -88.112266220090476 0 -88.112266220090476 -119.99209310746119 0 0 0 0 71.80417017760692 -122.53031108078994 0 -122.53031108078994 -120.80298521238728 0 0 0 0 82.080770157238732 -60.374545643630427 0 -60.374545643630427 -189.18006000779314 0 0 0 0 71.199156982998034 -113.83400042458516 0 -113.83400042458516 -182.38360522173389 0 0 0 0 76.115336783439488 -99.938880907007842 0 -99.938880907007842 -144.29335954481985 0 0 0 0 60.62007930030677 -87.44759783164136 0 -87.44759783164136 -130.34107167523734 0 0 0 0 59.299227239787115 -93.059621526532283 0 -93.059621526532283 -142.01852140306437 0 0 0 0 75.856757503966946 -46.194286220317736 0 -46.194286220317736 -95.894296722613944 0 0 0 0 71.798644398529092 -17.474062174851383 0 -17.474062174851383 -127.04066522576431 0 0 0 0 108.05580814764153 155.52981971690042 0 155.52981971690042 21.742951662212363 0 0 0 0 17.471973058654157 -114.85095457703665 0 -114.85095457703665 -234.90577793925604 0 0 0 0 144.84080252444414 127.16140173916006 0 127.16140173916006 -364.19397515407218 0 0 0 0 270.63892222492063 92.370726101497894 0 92.370726101497894 -695.74849069647007 0 0 0 0 -681.39621253107475 -622.51181371285202 0 -622.51181371285202 -1106.22275168946 0 0 0 0 1.3953622602760654 -9.7448389060923137 0 -9.7448389060923137 -14.181079435958807 0 0 0 0 20.798437386634305 -24.36681528282088 0 -24.36681528282088 -423.45457870538576 0 0 0 0 1.9709803155344097 -0.62307940008516915 0 -0.62307940008516915 -0.61394762905712952 0 0 0 0 6.4831240176802387 -2.1955268095307776 0 -2.1955268095307776 -15.197946722237537 0 0 0 0 -442.93635203471877 -59.874800265468366 0 -59.874800265468366 -1206.0892100172714 0 0 0 0 98.148704551954665 -208.71634079659748 0 -208.71634079659748 -502.78973751115336 0 0 0 0 52.213964162048114 -400.45348586355067 0 -400.45348586355067 -1004.6275557731497 0 0 0 0 -89.047669419639533 419.21479484304245 0 419.21479484304245 -755.21843781321695 0 0 0 0 378.0158640634927 -67.054969606550912 0 -67.054969606550912 -693.71385524635127 0 0 0 0 112.90230410790582 -146.61679193384043 0 -146.61679193384043 -402.81057043106557 0 0 0 0 232.21653176877862 -142.47709550073887 0 -142.47709550073887 -701.03625669991106 0 0 0 0 284.49999708635141 -29.835432513068554 0 -29.835432513068554 -531.95125106910018 0 0 0 0 112.60577293009692 270.00104381498022 0 270.00104381498022 -266.47477004883876 0 0 0 0 188.15767035065528 164.92762954839282 0 164.92762954839282 -645.4113532750107 0 0 0 0 504.50327183124409 185.47045441070804 0 185.47045441070804 -661.40190744235588 0 0 0 0 -1.8898560692828532 1.7600581289272252 0 1.7600581289272252 -1.8654984562656658 0 0 0 0 23.961572587467799 331.40140745681038 0 331.40140745681038 108.76160723027897 0 0 0 0 -79.812383246436184 -262.09536351133465 0 -262.09536351133465 -785.86377352552336 0 0 0 0 59.747496650025823 -13.134729245175549 0 -13.134729245175549 -218.28854078971017 0 0 0 0 35.6715030110322 -73.952715395829728 0 -73.952715395829728 49.820859425681192 0 0 0 0 11.435886965845883 -1.5536891515717333 0 -1.5536891515717333 -0.52984401311606 0 0 0 0 6.520210358655496 -1.5827488509720649 0 -1.5827488509720649 -0.69758067566809778 0 0 0 0 43.060156125851336 -157.82901134439999 0 -157.82901134439999 -404.30387511380832 0 0 0 0 -7.4196208318978734 16.101991690906289 0 16.101991690906289 29.542691949424579 0 0 0 0 68.670838723906002 -49.616711260545031 0 -49.616711260545031 -14.702355867299048 0 0 0 0 -65.018163170927437 -96.628072731805332 0 -96.628072731805332 -176.90401545342343 0 0 0 0 -17.261089138554553 43.898080047887561 0 43.898080047887561 162.43977465954958 0 0 0 0 299.77632198058291 266.41164280767316 0 266.41164280767316 126.01825651485706 0 0 0 0 -11.535890929422575 18.662022471335028 0 18.662022471335028 -28.884955588921649 0 0 0 0 75.534863671194898 44.867884766701081 0 44.867884766701081 -94.810376873328096 0 0 0 0 -75.337454813200111 39.552713664440489 0 39.552713664440489 -84.678706099589363 0 0 0 0 -0.17188303642319624 -121.43145541964486 0 -121.43145541964486 -222.89051754963293 0 0 0 0 -18.837998529926153 26.297878655605018 0 26.297878655605018 -19.240026124927681 0 0 0 0 56.771232048864704 -61.02618797772675 0 -61.02618797772675 -116.60760862147072 0 0 0 0 113.85155473508735 -11.426826417649409 0 -11.426826417649409 -95.204769007301365 0 0 0 0 31.69714235285187 -30.233148528544007 0 -30.233148528544007 -141.67438686955393 0 0 0 0 -5.3088537378955607 19.280563904152643 0 19.280563904152643 -339.84146588256317 0 0 0 0 -137.6656904167686 -9.1865111361680647 0 -9.1865111361680647 -344.34148295738396 0 0 0 0 -21.180415356239131 -42.027623458372346 0 -42.027623458372346 -17.031725787163612 0 0 0 0 73.452686625650813 -62.221527338788746 0 -62.221527338788746 -652.73924594797336 0 0 0 0 45.089165764780205 57.307276686371097 0 57.307276686371097 -643.5524825397606 0 0 0 0 -5.6455902026500553 -44.455594248738635 0 -44.455594248738635 -113.84727359856151 0 0 0 0 -15.289364962665989 -38.088169974205286 0 -38.088169974205286 -9.2047643513155055 0 0 0 0 -59.862104138658538 45.899884217246381 0 45.899884217246381 -459.26923372774036 0 0 0 0 -5.1780188324428309 -220.80510740121736 0 -220.80510740121736 -367.53421140342743 0 0 0 0 -5.0716729235418825 -49.241905260183557 0 -49.241905260183557 -77.193404314439249 0 0 0 0 -20.39953557840181 -63.917360968509456 0 -63.917360968509456 -45.38681341847041 0 0 0 0 79.672457069313168 235.3944426325761 0 235.3944426325761 -712.99756483035708 0 0 0 0 -12.4481428294674 -35.602515220634558 0 -35.602515220634558 -2.2070340126062238 0 0 0 0 -11.214679287112631 -67.007587121679535 0 -67.007587121679535 -66.656035105470437 0 0 0 0 31.915528389216405 -123.4913034430075 0 -123.4913034430075 -693.60051216860302 0 0 0 0 -5.1820627455447852 7.1801715987767647 0 7.1801715987767647 -9.7412009035148941 0 0 0 0 -120.39768213191019 339.40338085713665 0 339.40338085713665 -74.884196702987538 0 0 0 0 64.330745988399258 55.529788976804412 0 55.529788976804412 -825.24591429247812 0 0 0 0 44.736837198529656 -39.30667265813463 0 -39.30667265813463 -218.69331678849994 0 0 0 0 32.601495797912321 -36.871356002651737 0 -36.871356002651737 -159.86422081440105 0 0 0 0 43.054952988110927 -33.371711296480498 0 -33.371711296480498 -165.8922702654163 0 0 0 0 24.822430678016644 -63.34122877527534 0 -63.34122877527534 -156.85622896770656 0 0 0 0 26.385907775868873 -67.097668880899619 0 -67.097668880899619 -166.94119119738752 0 0 0 0 38.223551524924005 -72.076130190853291 0 -72.076130190853291 -178.3738112219653 0 0 0 0 11.580347780427473 -96.283157702120661 0 -96.283157702120661 -138.44464846333722 0 0 0 0 -13.787351898979978 -84.358635076619976 0 -84.358635076619976 -69.26116400443243 0 0 0 0 4.0487911254740538 -68.835522089335427 0 -68.835522089335427 -103.7495200670819 0 0 0 0 4.0537058051633608 -68.500693559139563 0 -68.500693559139563 -124.08845139908954 0 0 0 0 -4.736402907712943 -44.699773546106258 0 -44.699773546106258 -115.19746260473039 0 0 0 0 14.998677601077361 -55.788696338229784 0 -55.788696338229784 -131.22434212949702 0 0 0 0 -4.8932266745960078 -43.707227383514692 0 -43.707227383514692 -116.68637328016757 0 0 0 0 7.7150211609759936 -49.20366304867639 0 -49.20366304867639 -117.91707022546325 0 0 0 0 13.517587515438208 -43.71792060658845 0 -43.71792060658845 -137.65560878799442 0 0 0 0 13.39205768622287 -49.046118038098939 0 -49.046118038098939 -129.37947406221792 0 0 0 0 23.157589693975751 -34.629213577121845 0 -34.629213577121845 -152.86579334263661 0 0 0 0 19.928414371693179 -31.441560870629473 0 -31.441560870629473 -133.12916722151567 0 0 0 0 12.271975060495606 -24.7126987679585 0 -24.7126987679585 -138.88003977929475 0 0 0 0 8.2903729807439959 -29.44331692999549 0 -29.44331692999549 -121.52538421982717 0 0 0 0 2.2527723960133699 -34.272737429350855 0 -34.272737429350855 -116.68613966713019 0 0 0 0 11.601590837231015 -23.826692794787959 0 -23.826692794787959 -118.28090847800377 0 0 0 0 7.7973340197950165 -43.642970730206798 0 -43.642970730206798 -125.72442969896656 0 0 0 0 -5.3827700560614176 -43.789219592861627 0 -43.789219592861627 -114.46435708640638 0 0 0 0 -15.039035982065798 -37.514778022297833 0 -37.514778022297833 -114.12445286360889 0 0 0 0 -15.524120733547647 -21.603261755685025 0 -21.603261755685025 -111.21231193828862 0 0 0 0 17.698109023216684 9.4586239943840038 0 9.4586239943840038 -82.528194080737734 0 0 0 0 -3.6658862522358504 -23.196630433099017 0 -23.196630433099017 -110.99910374379397 0 0 0 0 -3.6794475759597844 -22.461980902176947 0 -22.461980902176947 -106.98094674423191 0 0 0 0 20.918644507183785 12.537751308106115 0 12.537751308106115 -84.296490015926835 0 0 0 0 38.24176941389203 -3.701300733611447 0 -3.701300733611447 -136.55196611358224 0 0 0 0 18.809402083885743 -76.382619666419032 0 -76.382619666419032 -246.15477668292442 0 0 0 0 0.76619945549659541 -4.1761382192172185 0 -4.1761382192172185 -10.803372890489502 0 0 0 0 -2.358027523545843 -15.921563008450903 0 -15.921563008450903 -48.514203699127393 0 0 0 0 5.6417949545547703 0.72823706505653263 0 0.72823706505653263 -27.425100190469742 0 0 0 0 -2.1939598494725487 -14.037062141149363 0 -14.037062141149363 -38.94477173258565 0 0 0 0 -11.130735027979236 -23.334393406371269 0 -23.334393406371269 -9.6066863193193477 0 0 0 0 -4.4624051310213417 -17.14604291442447 0 -17.14604291442447 -68.612541920052536 0 0 0 0 10.098016493511523 -37.031016257056763 0 -37.031016257056763 -127.85441114607966 0 0 0 0 1.4865319506043306 16.511950127527598 0 16.511950127527598 -11.222506087549846 0 0 0 0 0.25311522417361787 -0.17727725406709993 0 -0.17727725406709993 -0.44076655147951982 0 0 0 0 6.4983590875257722 -6.7874084686640401 0 -6.7874084686640401 -40.720359740794152 0 0 0 0 9.8411993204965711 -56.481017607846297 0 -56.481017607846297 -92.967216624478169 0 0 0 0 9.3753705194758368 -1.8363204988090729 0 -1.8363204988090729 -47.642998231887759 0 0 0 0 19.463981527632036 11.790906925141726 0 11.790906925141726 -48.118477751193595 0 0 0 0 10.037721978032462 7.7150912288315325 0 7.7150912288315325 -13.32847757835205 0 0 0 0 12.218366327111653 37.855579724120616 0 37.855579724120616 -46.204329401811265 0 0 0 0 16.823523744670638 45.673753580274933 0 45.673753580274933 -164.01086159943952 0 0 0 0 34.22910342348132 11.776015281386208 0 11.776015281386208 -112.09541702074785 0 0 0 0 7.7162202899689873 -11.251081720511138 0 -11.251081720511138 -119.10956677531794 0 0 0 0 29.067885973657212 -2.1310133569058962 0 -2.1310133569058962 -132.16531652460981 0 0 0 0 6.5722397051595181 -20.350478303073032 0 -20.350478303073032 -142.37044903688366 0 0 0 0 29.121818535089915 -4.6415797020345053 0 -4.6415797020345053 -122.48751056533365 0 0 0 0 8.3894616317102191 -8.2040638524085807 0 -8.2040638524085807 -94.861653074945934 0 0 0 0 13.328662362714795 -20.046668560648868 0 -20.046668560648868 -124.13815156443161 0 0 0 0 21.213670789625212 -21.62902585500342 0 -21.62902585500342 -142.18510194961709 0 0 0 0 19.907675957678293 -6.8091196620516712 0 -6.8091196620516712 -141.75995714045939 0 0 0 0 30.034636319864148 -21.832970373929129 0 -21.832970373929129 -151.00786650204464 0 0 0 0 33.453718968217345 0.86226965896275942 0 0.86226965896275942 -156.32816020520113 0 0 0 0 29.835723535556099 -7.4399889392589102 0 -7.4399889392589102 -155.51666557625867 0 0 0 0 -11.527867939603311 4.5061647047186852 0 4.5061647047186852 -133.90129566793485 0 0 0 0 12.617306772564916 -6.1964551417258917 0 -6.1964551417258917 -134.57883938014857 0 0 0 0 10.27294437213186 -1.1687252455958514 0 -1.1687252455958514 -50.894675208399349 0 0 0 0 23.393473562497093 15.213233826609212 0 15.213233826609212 -147.79203992395924 0 0 0 0 7.8486639084467242 6.9642939928708074 0 6.9642939928708074 -83.820030488244811 0 0 0 0 10.432774793355993 8.9333353264045243 0 8.9333353264045243 -11.199874604030718 0 0 0 0 17.641344163917893 -45.555982878253417 0 -45.555982878253417 -129.02954241377302 0 0 0 0 39.001123083768221 14.995307814923763 0 14.995307814923763 -172.33914119751716 0 0 0 0 36.63006207433682 19.891281115233141 0 19.891281115233141 -130.58658904767071 0 0 0 0 39.221208073191065 -10.510840539138371 0 -10.510840539138371 -171.22099515466107 0 0 0 0 40.221925927761731 -8.5672457976761507 0 -8.5672457976761507 -167.68700453745987 0 0 0 0 35.394031140012885 -26.372230261153163 0 -26.372230261153163 -172.16901189760392 0 0 0 0 54.85283268779358 -11.610320833653532 0 -11.610320833653532 -183.07706280420825 0 0 0 0 -10.730860199547351 -79.295770631405048 0 -79.295770631405048 -200.01432277233016 0 0 0 0 110.32490086918597 -91.012036684259783 0 -91.012036684259783 -226.72120091616398 0 0 0 0 -128.97695692094203 -107.58991206477594 0 -107.58991206477594 -81.88883099513896 0 0 0 0 -13.541159758737649 -108.91738124932226 0 -108.91738124932226 -209.42017361560943 0 0 0 0 -74.341711599211521 -60.263434675582175 0 -60.263434675582175 -208.61301364525585 0 0 0 0 -113.7656063475124 -117.75443158983148 0 -117.75443158983148 -289.34403819818817 0 0 0 0 -137.27087643402183 145.10756126644458 0 145.10756126644458 -481.34165466303239 0 0 0 0 305.13842349958713 -85.882942954319333 0 -85.882942954319333 -243.03475592355153 0 0 0 0 -252.69923818746497 -93.195941920015457 0 -93.195941920015457 23.024469060133924 0 0 0 0 -12.603456053190712 -128.3912045831662 0 -128.3912045831662 -188.11610883976027 0 0 0 0 149.00973467305857 106.17840460264779 0 106.17840460264779 -65.727328763779951 0 0 0 0 38.946528581417624 52.760225981427538 0 52.760225981427538 12.374717431521503 0 0 0 0 33.195976124088247 18.34075694150124 0 18.34075694150124 -42.890865066882725 0 0 0 0 61.696838398893306 43.976427195868382 0 43.976427195868382 -69.027806787284135 0 0 0 0 69.175601587408892 9.0942533645402364 0 9.0942533645402364 -143.21940408516548 0 0 0 0 18.722376774673783 4.5907981827031303 0 4.5907981827031303 -83.059120531350928 0 0 0 0 35.132028795449628 33.551522678992569 0 33.551522678992569 -65.850337880281586 0 0 0 0 -23.437847729044734 -33.366453674700097 0 -33.366453674700097 -128.47036470533203 0 0 0 0 3.5610883120643848 16.265638680823486 0 16.265638680823486 -50.296814543103665 0 0 0 0 56.906839754534076 36.84037197843918 0 36.84037197843918 -114.07909423504861 0 0 0 0 60.492453481913799 -7.9811686926068433 0 -7.9811686926068433 -164.19724438149024 0 0 0 0 18.24575376264022 -14.499384600148687 0 -14.499384600148687 -112.73773549915131 0 0 0 0 54.128572382212951 -4.7786695462409625 0 -4.7786695462409625 -131.46670072135339 0 0 0 0 -36.64440989151899 -65.929707897136723 0 -65.929707897136723 -157.96124267597389 0 0 0 0 42.50292870230578 -89.753260697639689 0 -89.753260697639689 -241.40375737710019 0 0 0 0 -2.8300896046971502 -13.406508401440533 0 -13.406508401440533 -36.108936103795713 0 0 0 0 -54.525461617103701 -25.569881335546597 0 -25.569881335546597 -70.279325953993066 0 0 0 0 -3.5048321415145995 -10.994111145306579 0 -10.994111145306579 1.4260011921240796 0 0 0 0 -6.1231585168188758 -31.871872142068241 0 -31.871872142068241 -222.72075077074351 0 0 0 0 24.413952261530085 -28.641238374791783 0 -28.641238374791783 -222.68630421229591 0 0 0 0 -2.974731990997725 -13.166369890825081 0 -13.166369890825081 -36.245778860604787 0 0 0 0 -4.2908054666943372 -15.058936242726304 0 -15.058936242726304 -34.31168016184256 0 0 0 0 -6.0088795759408349 -9.6756987839790778 0 -9.6756987839790778 5.3279996644352678 0 0 0 0 -2.6166353538137344 -7.3087401275261072 0 -7.3087401275261072 -26.493408448390255 0 0 0 0 -28.138568948296097 -2.1232996003318476 0 -2.1232996003318476 -0.87104223495043698 0 0 0 0 -9.4340023527543089 -9.9011388484725238 0 -9.9011388484725238 2.9301709746127678 0 0 0 0 -4.4973838897186624 6.340508542391035 0 6.340508542391035 -49.951843754079164 0 0 0 0 -4.3862053605924132 -12.901140141945916 0 -12.901140141945916 -20.761593942766922 0 0 0 0 -83.647591473846433 -17.591770008848471 0 -17.591770008848471 5.1428491569549806 0 0 0 0 -3.8289080092450858 -8.4501892963756102 0 -8.4501892963756102 -17.976104640125357 0 0 0 0 44.307928562568804 13.573883656346879 0 13.573883656346879 -95.122266729174953 0 0 0 0 -7.9994505534072005 -5.8818887719442046 0 -5.8818887719442046 -11.327371109123305 0 0 0 0 2.9130939347421645 -35.140621036378434 0 -35.140621036378434 -2.6207579946662918 0 0 0 0 -5.9241313965281304 -9.5475099956928275 0 -9.5475099956928275 -12.226895320524953 0 0 0 0 27.014969120651585 -48.037974659796873 0 -48.037974659796873 -267.46640032869709 0 0 0 0 -3.8889985120032056 -0.99661755255625195 0 -0.99661755255625195 3.5025985635008787 0 0 0 0 -66.261895248895598 -4.311638239490776 0 -4.311638239490776 -59.878043101378353 0 0 0 0 -6.5685333761874922 -2.3990667338246716 0 -2.3990667338246716 -1.3132626345007186 0 0 0 0 29.971213764476488 -87.317777988866055 0 -87.317777988866055 -226.13296069463422 0 0 0 0 -27.092107665264393 -94.486984681757122 0 -94.486984681757122 -220.45168519286653 0 0 0 0 5.1993329297149558 -70.935099661938693 0 -70.935099661938693 -403.63708718828093 0 0 0 0 -138.63141487919393 -80.646500311187083 0 -80.646500311187083 -235.13716593837717 0 0 0 0 14.12665060730501 -47.851280422604759 0 -47.851280422604759 -258.71247518882046 0 0 0 0 28.260519914783117 -127.27454663782441 0 -127.27454663782441 -360.58712579871644 0 0 0 0 -67.274079198761683 -124.21303274164256 0 -124.21303274164256 -144.68010919930794 0 0 0 0 -42.067415672348602 -1.7330874500635218 0 -1.7330874500635218 -26.236568574530793 0 0 0 0 -6.2229779433960193 -1.258275999310376 0 -1.258275999310376 1.1257614432034888 0 0 0 0 -5.531340979168931 -5.9132180271640209 0 -5.9132180271640209 -15.009053099095127 0 0 0 0 -4.915875176360661 -1.5584424697008696 0 -1.5584424697008696 1.1110495843247499 0 0 0 0 -6.1950773298644748 -4.668436601677854 0 -4.668436601677854 -13.401758659178086 0 0 0 0 -7.3561749232539739 -6.8497649420919515 0 -6.8497649420919515 -14.797779325149349 0 0 0 0 -3.3165267504981557 -5.0303435998089299 0 -5.0303435998089299 -16.090146024975866 0 0 0 0 -3.8830115034124901 -4.0266325788008999 0 -4.0266325788008999 -14.431629389206137 0 0 0 0 -1.5325365577202206 -3.0582994402657278 0 -3.0582994402657278 -14.743165926942311 0 0 0 0 -2.0158054601134836 -1.5609936265777833 0 -1.5609936265777833 -13.286120938829754 0 0 0 0 1.4305493335164683 2.783881164678208 0 2.783881164678208 -1.5388043656113712 0 0 0 0 -0.54627635317984868 -1.2429488668417434 0 -1.2429488668417434 -13.623540049477015 0 0 0 0 -0.12016459365489141 0.63711344544935855 0 0.63711344544935855 -10.260060753492326 0 0 0 0 2.1772922307867351 2.5408092279530905 0 2.5408092279530905 -17.110394285393323 0 0 0 0 14.402592594307521 -6.8342909303780743 0 -6.8342909303780743 -25.133664348915772 0 0 0 0 2.9574186856627875 8.9232778754569892 0 8.9232778754569892 -21.633557435710657 0 0 0 0 2.7097363269294767 2.527317953142882 0 2.527317953142882 -3.9586905484221147 0 0 0 0 1.0026844735533587 -4.1559668112599866 0 -4.1559668112599866 -0.090715803818966378 0 0 0 0 -2.7095040880610668 -21.682861694106577 0 -21.682861694106577 -16.918252159787698 0 0 0 0 -0.091326576709710089 0.70463504520024767 0 0.70463504520024767 -4.6993608174707262 0 0 0 0 0.57106004318765713 1.2260755095112472 0 1.2260755095112472 -14.000489224481271 0 0 0 0 -5.3145235561146364 11.61327238810054 0 11.61327238810054 2.8314254752976922 0 0 0 0 1.8508386560196755 4.4928879551291629 0 4.4928879551291629 -3.1648642326499612 0 0 0 0 1.4666066504543775 9.8955513594655962 0 9.8955513594655962 -8.6635987243025827 0 0 0 0 -4.6706647041113456 11.275183667527017 0 11.275183667527017 -11.642701913414385 0 0 0 0 -17.068970246528124 13.987759518324765 0 13.987759518324765 -10.586669185782739 0 0 0 0 -14.386420450368689 3.1672389745301643 0 3.1672389745301643 -3.1011502154497066 0 0 0 0 -1.6212097531843881 -3.7453267862354096 0 -3.7453267862354096 -8.7627522161119487 0 0 0 0 -4.0775329955566235 -0.035849697742378339 0 -0.035849697742378339 -8.2633657737742396 0 0 0 0 -0.95651215453964422 -3.0783408093764248 0 -3.0783408093764248 -5.2809151267460379 0 0 0 0 -25.327277137216658 -1.3296547134232242 0 -1.3296547134232242 -4.4415899740811255 0 0 0 0 -63.061058291436211 46.263662294459664 0 46.263662294459664 66.989923718684281 0 0 0 0 0.45412036399321454 0.050387175480982371 0 0.050387175480982371 -1.8069343924434205 0 0 0 0 -12.351559775765509 14.420324452942168 0 14.420324452942168 -15.651486061819014 0 0 0 0 -20.091481339463826 25.554243155344011 0 25.554243155344011 -10.086830327434427 0 0 0 0 -4.0721461800647063 -3.7484607539496437 0 -3.7484607539496437 -10.79294885442232 0 0 0 0 -3.6345780560424714 -3.9842155071255547 0 -3.9842155071255547 -15.045295566334062 0 0 0 0 -2.0113541344400687 -2.6370852857339742 0 -2.6370852857339742 -11.576162517653302 0 0 0 0 -71.983161888278119 51.316138397427949 0 51.316138397427949 71.636338135681399 0 0 0 0 -1.9537456063015397 -2.2216074799509382 0 -2.2216074799509382 -0.37536524885385347 0 0 0 0 -74.498455129309377 -49.009700848039074 0 -49.009700848039074 -1.0324239903972057 0 0 0 0 28.705451680595161 14.144072426541243 0 14.144072426541243 -198.01050568112078 0 0 0 0 -2.0891911627468289 -164.93169201175874 0 -164.93169201175874 -315.97844242521342 0 0 0 0 37.544640283735589 -82.471962945542373 0 -82.471962945542373 -413.99615726409729 0 0 0 0 -1.0365129331826317 -1.3694070875672937 0 -1.3694070875672937 -0.47476162332984551 0 0 0 0 -74.371290400466137 -98.225180243542127 0 -98.225180243542127 -71.717747752482637 0 0 0 0 -72.476789122447144 -122.49835602942508 0 -122.49835602942508 -421.88611944680815 0 0 0 0 -77.081162185487898 -144.40851821682998 0 -144.40851821682998 -381.23916074572844 0 0 0 0 48.31036187145105 -150.0469209800026 0 -150.0469209800026 -417.77600311539913 0 0 0 0 -106.80234340217294 25.708894791505145 0 25.708894791505145 -113.56031670339735 0 0 0 0 -3.7832375177465565 26.036925977544342 0 26.036925977544342 -125.07329832558389 0 0 0 0 -35.485924871582711 77.418491404111137 0 77.418491404111137 -68.14484943064781 0 0 0 0 -57.679733947260161 -146.39515790558971 0 -146.39515790558971 -384.68604455417153 0 0 0 0 -23.030240923851807 28.370077058232255 0 28.370077058232255 -213.09683762014174 0 0 0 0 -74.394693716981692 -23.683613453973521 0 -23.683613453973521 -159.79748799301103 0 0 0 0 1.677263672228662 17.213744315388908 0 17.213744315388908 -180.24608745481146 0 0 0 0 -196.03560990607764 -127.04767413891227 0 -127.04767413891227 -260.3676175008095 0 0 0 0 -44.304441971934864 -21.823675412001876 0 -21.823675412001876 -213.62934757993935 0 0 0 0 -148.98346568219245 -128.76199505788213 0 -128.76199505788213 -266.06080332498016 0 0 0 0 -33.661239265058839 -35.335708304979335 0 -35.335708304979335 -203.65346121857192 0 0 0 0 -7.1247031729760693 21.382157959773622 0 21.382157959773622 -155.76703609480182 0 0 0 0 -116.08843272417644 16.285574414033817 0 16.285574414033817 -133.93135211363278 0 0 0 0 -71.855884428261561 -548.9971370821653 0 -548.9971370821653 -964.41353495808164 0 0 0 0 -484.7964136529481 -559.24258920985676 0 -559.24258920985676 -105.76975138326952 0 0 0 0 -250.13509139908592 -250.6034692143669 0 -250.6034692143669 -202.07044855798438 0 0 0 0 -238.57720538695742 -120.12513572006067 0 -120.12513572006067 -99.851116277422534 0 0 0 0 -256.46290257882737 -337.85225222479698 0 -337.85225222479698 -502.48336884391892 0 0 0 0 -1.6673466535195642 -2.2726897483298654 0 -2.2726897483298654 0.74376812406005188 0 0 0 0 -81.158225034180646 -132.88668198751941 0 -132.88668198751941 -588.36370997564131 0 0 0 0 -40.302996756868765 -200.98108674799289 0 -200.98108674799289 -736.79247734492947 0 0 0 0 -615.51200533036399 305.26785972681228 0 305.26785972681228 1454.7367089634918 0 0 0 0 -541.21335884467521 423.1179952090701 0 423.1179952090701 766.04291720384481 0 0 0 0 170.71979986981165 426.67577857922743 0 426.67577857922743 766.41032803585131 0 0 0 0 -1107.2088025777232 -337.48362131037754 0 -337.48362131037754 383.42950803650001 0 0 0 0 -4.2300550321609798 -1.9964506950273 0 -1.9964506950273 -0.52054888237409269 0 0 0 0 -180.71536739679004 -324.22751591613337 0 -324.22751591613337 -315.57776707528961 0 0 0 0 124.25076306726794 -450.68068685151047 0 -450.68068685151047 660.30521696883261 0 0 0 0 200.55335155384 313.67180642501717 0 313.67180642501717 -567.66767202483061 0 0 0 0 55.845488553079434 -66.793245548720208 0 -66.793245548720208 -288.38617809777406 0 0 0 0 -59.703340078914493 -174.59103069830849 0 -174.59103069830849 -389.35537698579947 0 0 0 0 -111.05590472081462 -144.73202159206676 0 -144.73202159206676 -377.0483246559204 0 0 0 0 1.3265860538814103 -8.7250460546196607 0 -8.7250460546196607 2.1956399144511103 0 0 0 0 -177.98919544123601 -282.22301325802709 0 -282.22301325802709 802.08857963634568 0 0 0 0 41.566213214836012 -582.83623481459722 0 -582.83623481459722 135.93107815290887 0 0 0 0 -97.915373798030714 -299.41687709373173 0 -299.41687709373173 78.865346091140509 0 0 0 0 130.96382481706797 -258.86225335424763 0 -258.86225335424763 1.8801410397504696 0 0 0 0 134.73637877218971 -135.3990018208608 0 -135.3990018208608 22.596895483283788 0 0 0 0 101.88412907366239 -171.13939573725179 0 -171.13939573725179 60.276068551747812 0 0 0 0 92.934993259354087 -108.26744697459981 0 -108.26744697459981 -69.359316698368275 0 0 0 0 35.223758880647438 -50.363814012313014 0 -50.363814012313014 97.795991114686558 0 0 0 0 13.750103061832977 -12.378174968982485 0 -12.378174968982485 0.13105237705146999 0 0 0 0 -149.63954938100778 -82.899914883429119 0 -82.899914883429119 -33.656725542237609 0 0 0 0 16.126714977332028 -8.8450670838018901 0 -8.8450670838018901 -18.587382767547737 0 0 0 0 9.1979000189492126 0.38481878387665347 0 0.38481878387665347 -30.121569569143503 0 0 0 0 16.583328388529701 -0.8883555298395418 0 -0.8883555298395418 -21.615871623857103 0 0 0 0 18.699843782623205 -7.8549255684520958 0 -7.8549255684520958 -16.136931019729047 0 0 0 0 5.0987976318524204 0.9837642072713475 0 0.9837642072713475 -10.794887857811506 0 0 0 0 28.701352806440809 -65.381772108364203 0 -65.381772108364203 -3.7655031616559427 0 0 0 0 18.47455729815556 -22.795750765060347 0 -22.795750765060347 -39.270619946122679 0 0 0 0 23.503222208092211 -7.0451086931665259 0 -7.0451086931665259 -47.015654718611131 0 0 0 0 32.180134114125394 -16.424626036883637 0 -16.424626036883637 -51.35933793010156 0 0 0 0 40.907963047748694 -46.601471310859836 0 -46.601471310859836 -17.587696159362167 0 0 0 0 45.503678735186384 -14.61090388745717 0 -14.61090388745717 -59.577071149522908 0 0 0 0 102.84634308805926 -84.786140839905329 0 -84.786140839905329 -39.906647098406893 0 0 0 0 78.566163778767532 -49.128893758681443 0 -49.128893758681443 -55.774912116320593 0 0 0 0 66.556468557671678 -37.335651926959599 0 -37.335651926959599 -65.456001033529901 0 0 0 0 77.013546290348586 -25.064483250506555 0 -25.064483250506555 -57.466738737063224 0 0 0 0 7.5528841138830103 21.935252879729433 0 21.935252879729433 -45.89155833047198 0 0 0 0 6.3247333397953298 -29.83943410683878 0 -29.83943410683878 -22.094117749044017 0 0 0 0 8.9006463765701156 -4.8942975470918588 0 -4.8942975470918588 -34.233908076021791 0 0 0 0 12.751242580511303 -2.5362832292958046 0 -2.5362832292958046 -26.104297503387443 0 0 0 0 9.9339580755137149 -9.9471029026972246 0 -9.9471029026972246 -28.056698144589291 0 0 0 0 2.6366313736695677 -2.2121780134119007 0 -2.2121780134119007 -6.0387290559633122 0 0 0 0 8.081233347250091 -17.576331876153802 0 -17.576331876153802 -26.764042509899809 0 0 0 0 -6.8505582979739756 -30.088538485060781 0 -30.088538485060781 -30.104670017075478 0 0 0 0 15.421164912261583 -2.6616692105469255 0 -2.6616692105469255 -0.39099182406779809 0 0 0 0 1.5820631845266178 -44.735169737795331 0 -44.735169737795331 -67.375759645270591 0 0 0 0 101.02790713998547 -8.637259966615602 0 -8.637259966615602 -207.7085739843701 0 0 0 0 37.51348107620845 33.640759387146318 0 33.640759387146318 -25.525973470421377 0 0 0 0 16.820484308148536 -44.41407987059938 0 -44.41407987059938 -103.44642486096927 0 0 0 0 14.070158793713858 -8.9443640943900391 0 -8.9443640943900391 -74.291147730660668 0 0 0 0 1.3142555538885707 1.1262894306498623 0 1.1262894306498623 -0.56926329832661793 0 0 0 0 22.276136811875176 -19.832193778684086 0 -19.832193778684086 -60.908386255610822 0 0 0 0 1.323070821478268 28.626115040054174 0 28.626115040054174 -2.1423711282741351 0 0 0 0 17.413701406022792 0.027350063179547135 0 0.027350063179547135 -9.1512718064349414 0 0 0 0 42.671779035616964 57.182322688884597 0 57.182322688884597 -77.102242205136008 0 0 0 0 21.364137464017858 -12.43770496498837 0 -12.43770496498837 -54.998513513866783 0 0 0 0 13.867098786023638 -12.795900982458885 0 -12.795900982458885 -31.5334539520425 0 0 0 0 13.070782628386723 -25.156326221642303 0 -25.156326221642303 -50.697056033696867 0 0 0 0 16.892949268271764 -14.112096562483202 0 -14.112096562483202 -50.199325203877379 0 0 0 0 11.676538409547106 -6.2922849171600319 0 -6.2922849171600319 -30.432052877011301 0 0 0 0 24.0373275953487 -4.8415145200551706 0 -4.8415145200551706 -40.031739428573928 0 0 0 0 16.282356791797838 -6.4939835491568374 0 -6.4939835491568374 -33.768163159969845 0 0 0 0 6.9467990664098807 -20.620434578444474 0 -20.620434578444474 -38.454840470231829 0 0 0 0 -5.0188587630950678 11.586284345335571 0 11.586284345335571 -223.09128609387244 0 0 0 0 -4.9795013922046873 7.6691980612930912 0 7.6691980612930912 -10.839074887293201 0 0 0 0 -12.150115779726434 -146.47096358800979 0 -146.47096358800979 -431.69607383609309 0 0 0 0 -4.8397617325182694 5.156505523511548 0 5.156505523511548 -4.7547139764647071 0 0 0 0 11.744855424183243 107.69494736439219 0 107.69494736439219 92.63798584782171 0 0 0 0 -3.0248882969490296 -161.93520036840437 0 -161.93520036840437 -454.71025164346156 0 0 0 0 67.038214071597395 95.413379100541079 0 95.413379100541079 -73.436848383229517 0 0 0 0 3.1718722094881286 -59.87680997877419 0 -59.87680997877419 -43.866871895279473 0 0 0 0 -26.799624258213044 -158.91068514082463 0 -158.91068514082463 -386.4435918113777 0 0 0 0 -65.537564335059358 -117.72469222238362 0 -117.72469222238362 -430.22916780678315 0 0 0 0 25.073409478290159 -135.51328646989805 0 -135.51328646989805 -441.66784558760537 0 0 0 0 6.0895519784207863 -140.2418999779693 0 -140.2418999779693 -357.66977025589728 0 0 0 0 -20.993030780990466 -214.48409025007277 0 -214.48409025007277 -519.67614149767996 0 0 0 0 39.971490444218432 -74.446419175262974 0 -74.446419175262974 -585.74771279876359 0 0 0 0 -231.99565535396368 -88.077560590422763 0 -88.077560590422763 -255.05488401609668 0 0 0 0 -156.57966987252235 -208.46473666954194 0 -208.46473666954194 -156.55028936324061 0 0 0 0 -19.176696450400868 -248.47941128626326 0 -248.47941128626326 -489.55311098225093 0 0 0 0 -0.88231975682948072 -1.6096676149164448 0 -1.6096676149164448 -3.0815707279854916 0 0 0 0 -0.0089525490300275123 37.30960352222337 0 37.30960352222337 -573.89647447561765 0 0 0 0 4.86619319826832 -13.042549059711973 0 -13.042549059711973 -4.5298010942142355 0 0 0 0 0.0058227965758960634 0.52973546340013133 0 0.52973546340013133 0.36484240189020056 0 0 0 0 -104.55391190082582 -54.881703771763569 0 -54.881703771763569 -28.843823182993219 0 0 0 0 0.024320521947964448 -0.2381898276317429 0 -0.2381898276317429 -0.26085301623621149 0 0 0 0 5.929857350401889 -42.039655749849771 0 -42.039655749849771 -58.703918771072495 0 0 0 0 -0.44392446118333573 -38.428607501988154 0 -38.428607501988154 -52.245431550010835 0 0 0 0 1.8225339465280115 -34.05904222341178 0 -34.05904222341178 -38.645865819060418 0 0 0 0 32.657477464344481 -23.828041763954388 0 -23.828041763954388 -48.949235676373064 0 0 0 0 54.499774973219246 -20.750118760723126 0 -20.750118760723126 -41.674617381975395 0 0 0 0 31.703856201864838 -26.888902000493545 0 -26.888902000493545 -17.469645409830264 0 0 0 0 52.059055593831886 -6.4207187325591804 0 -6.4207187325591804 -34.224361237708081 0 0 0 0 26.756520256430449 -18.426995441262989 0 -18.426995441262989 -31.891693534684237 0 0 0 0 38.005374086301146 -14.327963521272977 0 -14.327963521272977 -34.895226399785315 0 0 0 0 31.269796613134361 -23.674466310736534 0 -23.674466310736534 -47.651351097916631 0 0 0 0 35.274931615777746 -28.77880262200415 0 -28.77880262200415 -41.349020609442846 0 0 0 0 2.2183306406060641 -26.339662632411091 0 -26.339662632411091 -13.090228033513995 0 0 0 0 19.279163733596899 -36.210087616404451 0 -36.210087616404451 -14.184887556621106 0 0 0 0 40.324574162214518 -44.265472538158065 0 -44.265472538158065 -41.464415987436041 0 0 0 0 19.658032993680894 -19.724551417920424 0 -19.724551417920424 -28.957353437486745 0 0 0 0 8.8569589100785961 -11.559685303399419 0 -11.559685303399419 -25.830747878288093 0 0 0 0 3.3410205793150118 -7.361440386027958 0 -7.361440386027958 -16.001328571803015 0 0 0 0 8.1443957204738808 -7.1400089698636293 0 -7.1400089698636293 -13.53476572346608 0 0 0 0 6.3440579080752286 -10.651842492672586 0 -10.651842492672586 -11.377252241480164 0 0 0 0 13.304208642324365 -12.131784835637518 0 -12.131784835637518 -21.948152277708687 0 0 0 0 51.385869548347443 -1.7777252009145741 0 -1.7777252009145741 -23.932109230759124 0 0 0 0 2.9957300623824379 -1.7749425696269867 0 -1.7749425696269867 -5.1933864498139428 0 0 0 0 7.9952099595858472 -8.4208031489961712 0 -8.4208031489961712 -16.279643102027677 0 0 0 0 27.605108611825688 -30.47333764722498 0 -30.47333764722498 -10.639862428122797 0 0 0 0 -0.77742232683492318 -50.671788086315246 0 -50.671788086315246 -5.6583635818933544 0 0 0 0 0.74599171813655119 -12.56239207084036 0 -12.56239207084036 -22.557663134779432 0 0 0 0 4.2351106439282731 2.266517669928362 0 2.266517669928362 0.6168768567549705 0 0 0 0 -0.22101755431578507 0.31736370495240607 0 0.31736370495240607 -0.35865475945951175 0 0 0 0 -0.0082358014819354404 5.0722726425337896 0 5.0722726425337896 1.1510734794064774 0 0 0 0 -64.612379779237926 -22.200075206848851 0 -22.200075206848851 -3.3645185337081784 0 0 0 0 -0.46236257411426568 -2.9969063481603371 0 -2.9969063481603371 -16.392680954315438 0 0 0 0 1.872121799021389 -3.0065470162410968 0 -3.0065470162410968 -3.0651379589398005 0 0 0 0 9.0359602082859176 -4.8084546344180126 0 -4.8084546344180126 -18.454067161288549 0 0 0 0 -5.8959556219103177 -28.09821208735957 0 -28.09821208735957 -4.3533895560030942 0 0 0 0 6.9396730092876142 -6.9015567155267092 0 -6.9015567155267092 -19.920325433354066 0 0 0 0 26.142940624484254 -46.024200803356507 0 -46.024200803356507 -21.292417531294632 0 0 0 0 0.45532834580815096 2.7899134962325611 0 2.7899134962325611 -18.411345636961101 0 0 0 0 80.162030907664757 -86.825176448313869 0 -86.825176448313869 -96.290715471819567 0 0 0 0 125.8825097599447 -1.8132456212206307 0 -1.8132456212206307 -38.113164278503064 0 0 0 0 2.833633912165487 -3.0067701849335862 0 -3.0067701849335862 -10.346531462036808 0 0 0 0 1.9755793314916446 -2.4971245228880434 0 -2.4971245228880434 -12.012171217829746 0 0 0 0 -1.7466545990656599 5.2327877606760786 0 5.2327877606760786 -11.835822899282903 0 0 0 0 0.48437526173901879 26.297742354701768 0 26.297742354701768 9.9839063098625047 0 0 0 0 14.495629829641985 5.3720795981425908 0 5.3720795981425908 -21.106873223416187 0 0 0 0 -14.363857461333282 89.706477110341439 0 89.706477110341439 246.39456475214683 0 0 0 0 -1.8114373557181103 4.9543860114331224 0 4.9543860114331224 -11.866779311308434 0 0 0 0 -2.0062978206423141 6.1353962280894585 0 6.1353962280894585 -16.488532041443278 0 0 0 0 153.71813974480483 131.68582951017743 0 131.68582951017743 -514.40604851517128 0 0 0 0 -9.289894320935332 6.0312659415321832 0 6.0312659415321832 -4.0047440225389437 0 0 0 0 30.526727560620202 10.664185696716231 0 10.664185696716231 -30.171828932507196 0 0 0 0 45.932727664267418 44.789790079621525 0 44.789790079621525 7.9322679750184761 0 0 0 0 -21.311412281596517 -42.764780100851567 0 -42.764780100851567 -65.180777305326046 0 0 0 0 44.384632515607109 -41.68282437569178 0 -41.68282437569178 -87.310065456214943 0 0 0 0 21.017498718085335 -43.485653568819544 0 -43.485653568819544 188.39310867457971 0 0 0 0 191.46363754238166 -201.57115373140095 0 -201.57115373140095 -143.99597474021721 0 0 0 0 -0.9409847737138497 -1.3063535120700394 0 -1.3063535120700394 -1.9266231482759792 0 0 0 0 -63.456657361025918 -20.699117585954809 0 -20.699117585954809 19.835844362962234 0 0 0 0 81.444080585039728 66.499007901258665 0 66.499007901258665 -323.99180144501952 0 0 0 0 -15.495966223843197 -34.701256576172455 0 -34.701256576172455 -45.752486805808076 0 0 0 0 5.9971219360619443 -29.640873848510637 0 -29.640873848510637 -61.028630356770009 0 0 0 0 2.2929096532593576 -18.944836784487052 0 -18.944836784487052 -86.165323156531031 0 0 0 0 0.23134856949339166 -1.2897921446885121 0 -1.2897921446885121 -0.85678699384740753 0 0 0 0 -2.2531109608812665 -4.2969808292528242 0 -4.2969808292528242 -4.7315827248660725 0 0 0 0 -2.2179875716666402 -13.983870638163353 0 -13.983870638163353 -43.201698706950992 0 0 0 0 19.977693409256062 -18.706594454761216 0 -18.706594454761216 -9.0048602386086714 0 0 0 0 10.235694381741268 12.685450655084423 0 12.685450655084423 -22.56654537432405 0 0 0 0 -27.401948699029617 -39.603114710662339 0 -39.603114710662339 16.156228428117174 0 0 0 0 37.419170593631407 1.4287943794197417 0 1.4287943794197417 -35.974844861149904 0 0 0 0 -17.4176904441548 -3.6541627402712038 0 -3.6541627402712038 5.7614578307329793 0 0 0 0 5.1450164697062064 -28.006537326193211 0 -28.006537326193211 15.021813522616867 0 0 0 0 10.436650728754216 -17.618509792622717 0 -17.618509792622717 2.1931397197768092 0 0 0 0 26.185244660169051 -27.126693194559984 0 -27.126693194559984 5.4279346333278227 0 0 0 0 2.9451624579684239 -4.6381756890343695 0 -4.6381756890343695 -3.5227739466331514 0 0 0 0 -6.6601550331865838 -6.43662853594833 0 -6.43662853594833 0.3862441525052418 0 0 0 0 7.5029866071476112 -8.4098122360621232 0 -8.4098122360621232 -2.2235158808569793 0 0 0 0 3.9073461030335279 -6.3011749489213571 0 -6.3011749489213571 -7.5683649616624109 0 0 0 0 7.1729415160057215 -8.361597665847512 0 -8.361597665847512 -1.7341976380848791 0 0 0 0 2.0186869428257124 -5.2337142919281829 0 -5.2337142919281829 0.075379198688423799 0 0 0 0 2.4788945252397871 -2.1139872153383408 0 -2.1139872153383408 -2.3019841572021775 0 0 0 0 2.165560261140854 -3.7466760688912473 0 -3.7466760688912473 -3.654488628191757 0 0 0 0 5.5218515241644042 -1.376519050611023 0 -1.376519050611023 -1.1320126730643096 0 0 0 0 1.3070456339012313 -4.228433033111834 0 -4.228433033111834 -5.2269851570433588 0 0 0 0 11.097411209496386 -11.1122387679643 0 -11.1122387679643 -8.7888688379098312 0 0 0 0 0.31423958214483605 -2.9522938552672713 0 -2.9522938552672713 -7.3309944592401735 0 0 0 0 0.95754494802080814 -0.24178707291823154 0 -0.24178707291823154 -0.15066720286239388 0 0 0 0 -5.6896139345552683 -9.9972732350579463 0 -9.9972732350579463 2.7421061394961725 0 0 0 0 5.4384666179320291 -1.0290258732809434 0 -1.0290258732809434 -2.3573515372991096 0 0 0 0 11.590763167004297 10.860872900433606 0 10.860872900433606 -42.300331630191067 0 0 0 0 17.366403850439383 -15.524428388744127 0 -15.524428388744127 -71.657709828636143 0 0 0 0 0.047056098198936525 -4.2353723953820008 0 -4.2353723953820008 -3.4809358908369177 0 0 0 0 2.1664554269335667 -9.0208570139272979 0 -9.0208570139272979 -9.9361285298364237 0 0 0 0 0.8694290351957652 -2.5155984763323431 0 -2.5155984763323431 0.42222489537483199 0 0 0 0 0.36709221301909345 -2.6014751062269355 0 -2.6014751062269355 -2.5734078090533501 0 0 0 0 6.6036545081847464 -7.6071464703716174 0 -7.6071464703716174 -9.5665856362938939 0 0 0 0 -0.19879908634719534 2.2945927747985024 0 2.2945927747985024 -21.237274356302805 0 0 0 0 5.267358927437499 -2.3526673071537516 0 -2.3526673071537516 -7.758152855901244 0 0 0 0 -0.46343269635620837 -0.99710019858166987 0 -0.99710019858166987 -1.1670323175169841 0 0 0 0 -14.43513558043044 -17.425131600604459 0 -17.425131600604459 -16.441824990804889 0 0 0 0 -23.414952103815267 -45.117195307251677 0 -45.117195307251677 -45.700056760000734 0 0 0 0 -13.275990069701294 -6.9300906082294205 0 -6.9300906082294205 -68.599870215068222 0 0 0 0 -0.47018331722544326 0.49657018666536601 0 0.49657018666536601 -0.30378362307534701 0 0 0 0 -8.4876313679233135 -37.391996820773784 0 -37.391996820773784 -158.42005587888434 0 0 0 0 -45.705210622223831 -36.392852833938377 0 -36.392852833938377 -74.620957561335672 0 0 0 0 -26.240885222656161 -9.5756895779054503 0 -9.5756895779054503 -87.819978109560907 0 0 0 0 10.187966506305884 79.775246196326407 0 79.775246196326407 -31.520682372967713 0 0 0 0 -11.973802736222524 -84.346360931194795 0 -84.346360931194795 -407.52977299637723 0 0 0 0 -0.69493130158537175 0.26469128267833497 0 0.26469128267833497 -0.086745132344532294 0 0 0 0 42.33877000612847 3.2761608869132033 0 3.2761608869132033 -9.1871492140744522 0 0 0 0 -18.352014701232747 -68.126468978138291 0 -68.126468978138291 -15.863443379184901 0 0 0 0 25.915518464564343 -29.413459822107143 0 -29.413459822107143 -73.367218304778362 0 0 0 0 -1.2211523128160078 -1.2329952049439257 0 -1.2329952049439257 1.4906255156575483 0 0 0 0 -1.8667735256772175 -3.8662057308902149 0 -3.8662057308902149 -3.8254861484092544 0 0 0 0 -2.8196014329955688 -2.9384713261097204 0 -2.9384713261097204 -4.4096905095357215 0 0 0 0 -1.0895534862409022 -18.727692032911364 0 -18.727692032911364 28.409068402563207 0 0 0 0 -2.0103869062695594 -11.649935726105468 0 -11.649935726105468 -9.2001463428764119 0 0 0 0 1.4379469297549683 -1.428176931512958 0 -1.428176931512958 -0.71142731157890182 0 0 0 0 -0.48277606543206275 -3.2939339390759415 0 -3.2939339390759415 -3.8873607453606382 0 0 0 0 -34.32630340206947 90.161826620838838 0 90.161826620838838 36.234519078709127 0 0 0 0 0.49345646750319894 0.23551692506398325 0 0.23551692506398325 -0.41082220612871367 0 0 0 0 74.500419322405889 42.226621680814787 0 42.226621680814787 -74.230692198318138 0 0 0 0 104.39056306888028 -14.642291857994223 0 -14.642291857994223 -56.021710166514822 0 0 0 0 -3.0523071500309249 -3.5260519527831633 0 -3.5260519527831633 -2.8094998479059115 0 0 0 0 -2.2442741121669769 -10.652757371513871 0 -10.652757371513871 11.066837154590758 0 0 0 0 -13.393366046619349 -3.6119362878707761 0 -3.6119362878707761 15.287982069630743 0 0 0 0 91.382982179698672 -43.39418069198382 0 -43.39418069198382 -2.2524032563378569 0 0 0 0 66.141157419347195 9.575780960227803 0 9.575780960227803 2.723973849468166 0 0 0 0 2.6590989041440025 -2.8802290913044999 0 -2.8802290913044999 -2.9361896059417631 0 0 0 0 1.6382510026649015 -3.3516966065471934 0 -3.3516966065471934 -3.121667062267079 0 0 0 0 0.29079999794987454 -1.8215772557272416 0 -1.8215772557272416 0.21065296696919233 0 0 0 0 0.076929803311571732 -1.9690518965380761 0 -1.9690518965380761 -0.55677727641159436 0 0 0 0 0.55758076833406833 -6.5512770527284712 0 -6.5512770527284712 -10.180615528717496 0 0 0 0 17.63476031454033 -0.97504818043819341 0 -0.97504818043819341 -30.803949446541083 0 0 0 0 1.5487382544504271 -2.8754365834092823 0 -2.8754365834092823 -3.1264410372677958 0 0 0 0 1.9805425812457997 -3.6846414723841008 0 -3.6846414723841008 -3.163418867863129 0 0 0 0 3.2183720538745249 -0.26195653760132842 0 -0.26195653760132842 -2.2682020944408237 0 0 0 0 17.362684553044801 -22.995895954465595 0 -22.995895954465595 -7.2019164147859556 0 0 0 0 26.049006276049965 66.727902393116096 0 66.727902393116096 -16.666930934989068 0 0 0 0 0.12973538372666749 -0.0057109656550551335 0 -0.0057109656550551335 0.48801245132342785 0 0 0 0 -7.1727317953093461 4.2337309760478092 0 4.2337309760478092 4.0857103179878322 0 0 0 0 -58.173793617100841 19.968155741027658 0 19.968155741027658 15.443750700575038 0 0 0 0 2.2861202480682987 1.2929917918207323 0 1.2929917918207323 -5.0800751623672227 0 0 0 0 49.700627328039673 42.187510656778613 0 42.187510656778613 -13.720377474128327 0 0 0 0 1.086782227384719 -3.7450880273708762 0 -3.7450880273708762 -31.507204216054731 0 0 0 0 47.186020428786605 46.262533498746052 0 46.262533498746052 -18.267738475657097 0 0 0 0 89.016507801153239 -6.5856755608365347 0 -6.5856755608365347 -33.680685299023025 0 0 0 0 49.510463738422516 29.987510100769214 0 29.987510100769214 -58.546883169685316 0 0 0 0 36.860345926424543 51.109894175855516 0 51.109894175855516 -47.303724256518763 0 0 0 0 -58.315734539000914 -15.631882317207783 0 -15.631882317207783 -44.463389859541167 0 0 0 0 -218.60130984627597 -112.38728171179537 0 -112.38728171179537 -90.837853806544558 0 0 0 0 -67.902155699701211 0.7339215103929746 0 0.7339215103929746 -68.166214913937438 0 0 0 0 -148.66655980868461 -173.54672509425109 0 -173.54672509425109 -60.129754293768201 0 0 0 0 -43.854344454228382 -135.69701119893739 0 -135.69701119893739 -263.8333217497202 0 0 0 0 -20.020959516975083 15.649862543656809 0 15.649862543656809 -3.680630152404774 0 0 0 0 -46.352271694147248 -6.66595714723735 0 -6.66595714723735 -87.880827563419473 0 0 0 0 -0.065483695247495977 0.12993044785766017 0 0.12993044785766017 0.094423616544048627 0 0 0 0 -403.4075507342576 -224.28505297060474 0 -224.28505297060474 -124.18896243836866 0 0 0 0 -2.0140409748363015 -1.5329920620758983 0 -1.5329920620758983 -1.1768037986627888 0 0 0 0 -284.62251314068055 -278.65704414030188 0 -278.65704414030188 -125.69142931526949 0 0 0 0 -434.73791050253186 -163.19693819300846 0 -163.19693819300846 -18.171034600720304 0 0 0 0 -126.86849559725189 12.729239932925339 0 12.729239932925339 -105.50203662811691 0 0 0 0 -59.196325058111682 -67.450746840682768 0 -67.450746840682768 -12.510964673823764 0 0 0 0 33.010880036198657 54.319118846564379 0 54.319118846564379 -63.638005635653826 0 0 0 0 9.1598224683301162 51.267536355706397 0 51.267536355706397 50.071849230709631 0 0 0 0 18.805225814156529 -2.1911306288820924 0 -2.1911306288820924 -34.769874343615811 0 0 0 0 20.903380760381651 -14.835903806862007 0 -14.835903806862007 -25.868146582601184 0 0 0 0 -2.3349119925658215 -15.252275297330925 0 -15.252275297330925 -12.194660615951989 0 0 0 0 -144.20320729172488 37.323684595055965 0 37.323684595055965 28.735712580401014 0 0 0 0 6.9599627812585254 -52.826798572275948 0 -52.826798572275948 -96.063943521557121 0 0 0 0 -3.9238930824818188 -0.30339717492037011 0 -0.30339717492037011 -0.31602109634135234 0 0 0 0 -210.92336371290071 -305.38923154036456 0 -305.38923154036456 -466.1248873013792 0 0 0 0 -10.333934713693315 -1.4656262913283271 0 -1.4656262913283271 -0.099079253812569767 0 0 0 0 -82.235003810792705 -14.512438288153135 0 -14.512438288153135 -125.30627394350813 0 0 0 0 -62.284537002337629 -14.279816072197718 0 -14.279816072197718 -143.40302828024869 0 0 0 0 -92.509708417965157 -33.561450432345737 0 -33.561450432345737 -154.84838025086719 0 0 0 0 -306.21413888236157 -192.68817216596653 0 -192.68817216596653 -94.930157880315164 0 0 0 0 -76.887929771606906 -138.11567830773038 0 -138.11567830773038 -279.92863624336314 0 0 0 0 -245.10117680108806 -98.032259531602904 0 -98.032259531602904 -88.578268793593452 0 0 0 0 -581.96801099712275 -236.47237030211545 0 -236.47237030211545 -99.39427420515176 0 0 0 0 -328.88449166386778 -288.30121700604377 0 -288.30121700604377 -245.50898978004261 0 0 0 0 -73.162966173486438 126.7720007376447 0 126.7720007376447 -46.263087513943901 0 0 0 0 -296.12972356610953 -179.38625194687302 0 -179.38625194687302 88.383010857211048 0 0 0 0 -438.66576189761588 45.608492991159437 0 45.608492991159437 -71.512801224729628 0 0 0 0 -360.6097283093884 -52.945685580614736 0 -52.945685580614736 6.211973317025695 0 0 0 0 -146.7065658840595 -60.231452325320788 0 -60.231452325320788 -97.141899219750485 0 0 0 0 -50.533689772529897 -53.327183297158626 0 -53.327183297158626 -11.374933711857011 0 0 0 0 -163.5908059486128 1.3334880453803635 0 1.3334880453803635 -8.9210656820114309 0 0 0 0 -282.37534559397454 -122.55822342549072 0 -122.55822342549072 3.8372402348759351 0 0 0 0 -255.27087127800542 -68.960841111937043 0 -68.960841111937043 25.411732388638484 0 0 0 0 -149.15481210976151 -93.383974694207609 0 -93.383974694207609 -1.457109434180893 0 0 0 0 -61.997594075621237 -104.18871214153114 0 -104.18871214153114 -36.53570579920779 0 0 0 0 -239.80929246237974 -57.067284793924046 0 -57.067284793924046 17.948268406260468 0 0 0 0 -0.80493603554503679 0.46360275785449545 0 0.46360275785449545 -0.5800099245975332 0 0 0 0 -2.5935029255870425 0.032586921506130295 0 0.032586921506130295 0.57724035939313723 0 0 0 0 -22.168458469889174 58.684912466826063 0 58.684912466826063 40.379628386570403 0 0 0 0 -155.20025024284939 -14.331478651973498 0 -14.331478651973498 65.304501658934896 0 0 0 0 -2.5967166405159787 -2.42680188178565 0 -2.42680188178565 -3.6830751111156133 0 0 0 0 55.824650111812844 -118.31657562373948 0 -118.31657562373948 -88.708914000650111 0 0 0 0 -63.883320621601797 32.18844781527423 0 32.18844781527423 119.13343926434754 0 0 0 0 -50.593260726243329 248.44617470658568 0 248.44617470658568 -146.25581533098739 0 0 0 0 -357.60170522718363 -200.06792855626554 0 -200.06792855626554 -121.6992363652389 0 0 0 0 -2.6781757347886206 0.81322274704581332 0 0.81322274704581332 -0.10026576577928381 0 0 0 0 -257.05286539979033 -122.48013872696174 0 -122.48013872696174 -8.3494927695428487 0 0 0 0 0.6763980417675679 -0.11601184399102493 0 -0.11601184399102493 -0.21502923784780137 0 0 0 0 -417.41443484218144 192.15782214429055 0 192.15782214429055 -141.25413942886371 0 0 0 0 -32.202669794693065 153.30523024981812 0 153.30523024981812 -367.55873558892927 0 0 0 0 42.079550848823146 -12.020085672029381 0 -12.020085672029381 -460.16413099883175 0 0 0 0 -200.57037469350871 36.884377765774843 0 36.884377765774843 -148.74995346231299 0 0 0 0 -242.65261248774732 36.019027719277801 0 36.019027719277801 -326.2023392643423 0 0 0 0 -230.41722268163323 38.886914143332433 0 38.886914143332433 -468.30103182409948 0 0 0 0 -327.13522440761471 110.54626982614354 0 110.54626982614354 -385.06767574428159 0 0 0 0 -439.78726029160953 84.894570407319407 0 84.894570407319407 -305.26564944644633 0 0 0 0 -357.7362662261296 69.29062683185839 0 69.29062683185839 -394.77420979379531 0 0 0 0 -390.99624496745764 186.64955052952791 0 186.64955052952791 -373.98075342026277 0 0 0 0 -719.72134287247127 74.422741331212819 0 74.422741331212819 -12.692842681251932 0 0 0 0 -336.2843811903731 -38.859072925784858 0 -38.859072925784858 -39.003574950373149 0 0 0 0 -328.92445665654282 -24.218493217913419 0 -24.218493217913419 -10.835854246557574 0 0 0 0 -408.96319147538998 -34.797983388547436 0 -34.797983388547436 5.2351374500212842 0 0 0 0 -412.47182028331326 90.934811293045641 0 90.934811293045641 -85.706132998853718 0 0 0 0 -307.02522471727207 67.791416971569561 0 67.791416971569561 -157.08696475046781 0 0 0 0 -374.12176038623875 127.3390365287496 0 127.3390365287496 -181.66817106807139 0 0 0 0 -302.85199847432455 51.824680574056401 0 51.824680574056401 -109.45455005476833 0 0 0 0 -296.03321084173285 20.784104988291801 0 20.784104988291801 -68.49191931624955 0 0 0 0 -324.17038770722564 76.522217951840503 0 76.522217951840503 -90.314483433787245 0 0 0 0 -314.57829625933897 20.863754825354135 0 20.863754825354135 -37.685096818146121 0 0 0 0 -290.35146358819566 10.554438950832264 0 10.554438950832264 -50.509680238170404 0 0 0 0 -241.56688135077457 36.452966537635803 0 36.452966537635803 -72.290982600443385 0 0 0 0 -318.6223893157694 -24.394772830528382 0 -24.394772830528382 -22.04082913097227 0 0 0 0 -272.33590178014629 -91.397852135101857 0 -91.397852135101857 12.551864042057787 0 0 0 0 -318.56615707624997 -55.738393236653792 0 -55.738393236653792 5.4937024707942328 0 0 0 0 -236.8209159449616 -120.89083234507416 0 -120.89083234507416 -69.172514510160909 0 0 0 0 -213.46670242647701 -93.014834551897366 0 -93.014834551897366 -39.602930605971778 0 0 0 0 -256.86531930433785 -79.49379771907843 0 -79.49379771907843 -43.814643604375306 0 0 0 0 -186.63904635751442 5.296632577690616 0 5.296632577690616 -66.999909377802396 0 0 0 0 -231.53303770189609 -48.186441895711141 0 -48.186441895711141 -126.08087255275314 0 0 0 0 -142.52224545002991 77.454658515636766 0 77.454658515636766 -137.40566627476073 0 0 0 0 -215.33430909278331 67.049855876488436 0 67.049855876488436 -100.62427225487045 0 0 0 0 -177.45039207645641 107.68291853043775 0 107.68291853043775 -104.92366462585778 0 0 0 0 -129.40320422851346 125.85963341399838 0 125.85963341399838 -101.38697362852236 0 0 0 0 -149.31461415639069 42.347403971025415 0 42.347403971025415 -17.386413456588343 0 0 0 0 -153.88847108721393 152.20257558187677 0 152.20257558187677 -20.825780393599416 0 0 0 0 -171.83733346687245 95.992232020882511 0 95.992232020882511 -81.389010492930538 0 0 0 0 -250.0980158284865 95.542402045848576 0 95.542402045848576 -65.527036907722504 0 0 0 0 -257.62217476065598 104.98049338592591 0 104.98049338592591 -163.95476216699171 0 0 0 0 -208.89547338081638 53.35322960173653 0 53.35322960173653 -109.59812617438365 0 0 0 0 -147.93047686294506 56.060381677899386 0 56.060381677899386 -24.900457165098487 0 0 0 0 -191.01644570342376 93.283077371386753 0 93.283077371386753 -75.01974309868092 0 0 0 0 -180.48426502971506 -12.169871892059746 0 -12.169871892059746 -126.61616566592238 0 0 0 0 -194.39430929098762 14.442924098519143 0 14.442924098519143 -170.60595807286154 0 0 0 0 -116.56842968184651 -115.39592863939106 0 -115.39592863939106 -366.10626370485988 0 0 0 0 -129.70429086013257 -135.69735593591031 0 -135.69735593591031 -98.873472584309638 0 0 0 0 -200.23869316760329 -5.0015358856326202 0 -5.0015358856326202 -213.17061750339235 0 0 0 0 -225.06900448844885 11.401448666489159 0 11.401448666489159 -329.00443652514514 0 0 0 0 -224.03010277238843 66.735701877741121 0 66.735701877741121 -354.63139176816185 0 0 0 0 0.7579158352773403 0.41189228531896305 0 0.41189228531896305 -1.746710184111663 0 0 0 0 308.82999656546531 -318.90097358503044 0 -318.90097358503044 21.452594847898581 0 0 0 0 -55.893528083240426 67.160293776491017 0 67.160293776491017 -85.021869957854506 0 0 0 0 -36.213580197494593 -20.468074653541407 0 -20.468074653541407 85.44307250608108 0 0 0 0 188.69456883594103 43.334901966980397 0 43.334901966980397 -21.625664210098421 0 0 0 0 94.230944293643006 78.575945455233523 0 78.575945455233523 -9.6381359661372699 0 0 0 0 -129.38521988510723 82.013603578584707 0 82.013603578584707 62.187567770204623 0 0 0 0 -109.85363894078114 152.91584889186925 0 152.91584889186925 -97.816275939207117 0 0 0 0 -119.66349627006866 148.58925539023039 0 148.58925539023039 -99.664765166842699 0 0 0 0 -137.14172584621338 224.36390577450402 0 224.36390577450402 -105.23577733240381 0 0 0 0 -179.61493806858505 385.47674246297629 0 385.47674246297629 -889.25625241149828 0 0 0 0 -7.6473483192366487 -1.3104309338926257 0 -1.3104309338926257 -0.71743493880782694 0 0 0 0 -145.16593176200195 193.48039167732168 0 193.48039167732168 -254.30259270605166 0 0 0 0 -22.682593142844269 -0.40534006841472348 0 -0.40534006841472348 -1.0859335972461359 0 0 0 0 -5.4089972694337121 123.73615798245737 0 123.73615798245737 -542.36764498305274 0 0 0 0 -56.578936535085631 -2.8396314707933925 0 -2.8396314707933925 -3.4062331877005363 0 0 0 0 -83.047119707548518 201.41051842387242 0 201.41051842387242 -459.87046795028436 0 0 0 0 -93.498657489217749 148.951652678963 0 148.951652678963 -246.93995699311199 0 0 0 0 -105.52346912945222 138.29925295705834 0 138.29925295705834 -234.20100138962516 0 0 0 0 -83.471558739379361 152.62560869234221 0 152.62560869234221 -248.75068573583849 0 0 0 0 -110.31210064078951 200.05624683827466 0 200.05624683827466 -167.75823443201079 0 0 0 0 -117.57444813214772 143.24654815565009 0 143.24654815565009 -160.40196405276947 0 0 0 0 -80.590942122565252 134.73179132095902 0 134.73179132095902 -159.00769876677805 0 0 0 0 -120.69756681199419 53.308315856528679 0 53.308315856528679 -164.3948130998906 0 0 0 0 -13.960486719069195 25.620793685742683 0 25.620793685742683 -158.03655213058664 0 0 0 0 -49.358198064221597 69.908494015504402 0 69.908494015504402 -196.96055335464189 0 0 0 0 -4.2817952136915665 3.9084630301003926 0 3.9084630301003926 -24.356722082182159 0 0 0 0 -15.079871541840792 0.068880749479802716 0 0.068880749479802716 -1.7743064625528522 0 0 0 0 -63.449099047382106 95.763251856060378 0 95.763251856060378 -221.43787243655061 0 0 0 0 -38.134442664032122 76.125741401603591 0 76.125741401603591 -415.76224329497927 0 0 0 0 -9.5259707876612083 -6.1724799319854355 0 -6.1724799319854355 -6.8132171127144829 0 0 0 0 -5.0632807362065941 7.4262160145220735 0 7.4262160145220735 -16.457274985610539 0 0 0 0 -14.985950733605932 12.67419347806208 0 12.67419347806208 22.250503380055306 0 0 0 0 -10.388262203829072 8.1950356606648711 0 8.1950356606648711 -13.597008341846959 0 0 0 0 -14.680361394830925 13.284012082873232 0 13.284012082873232 -17.367032734800887 0 0 0 0 -0.22180467391990533 -36.31984173490855 0 -36.31984173490855 -87.452298643682298 0 0 0 0 18.10971459086656 18.385973258228148 0 18.385973258228148 -17.949718707495776 0 0 0 0 -0.5387093441060653 0.73381674268397035 0 0.73381674268397035 -0.47364721326118797 0 0 0 0 1.5819234468153809 29.119708661964978 0 29.119708661964978 -23.687904680406064 0 0 0 0 0.98435350662484367 7.3579453109522417 0 7.3579453109522417 -32.370658221659994 0 0 0 0 -19.667854119758061 6.8348113782260498 0 6.8348113782260498 -73.274979589637951 0 0 0 0 -4.5928178293256678 17.975496018489139 0 17.975496018489139 -185.50299539483967 0 0 0 0 -40.520918207556406 53.328942884919343 0 53.328942884919343 6.2632906134895165 0 0 0 0 -50.84952058570957 -47.943875543842296 0 -47.943875543842296 18.157154599408386 0 0 0 0 -84.048036094865893 87.026940861280309 0 87.026940861280309 -74.275331110082334 0 0 0 0 -197.37958714753313 -36.106481937153148 0 -36.106481937153148 -57.226505364280456 0 0 0 0 7.4743432230584226 -2.4877570958875204 0 -2.4877570958875204 -12.79641640272402 0 0 0 0 -144.26688384540603 -38.154007278454628 0 -38.154007278454628 -8.9620102819462772 0 0 0 0 -101.58080175865325 -45.348535570243257 0 -45.348535570243257 -20.777986755565507 0 0 0 0 -98.98334058987075 -66.172960906063963 0 -66.172960906063963 -49.025146870219032 0 0 0 0 -127.25737804826349 47.268886974212364 0 47.268886974212364 -32.503141728227092 0 0 0 0 -78.523305792944882 -10.726564991549822 0 -10.726564991549822 17.30840237286975 0 0 0 0 -143.8375082678815 -35.113448746353242 0 -35.113448746353242 43.480216939244201 0 0 0 0 -114.4705367574652 -75.530709529624801 0 -75.530709529624801 -43.448704160597117 0 0 0 0 -66.167721191124883 5.8025801894200413 0 5.8025801894200413 14.404456980199029 0 0 0 0 -114.84577288215951 -158.67106612506905 0 -158.67106612506905 -193.35982159341222 0 0 0 0 -29.007202717577684 1.1158831830452982 0 1.1158831830452982 -45.261177285392478 0 0 0 0 -24.687880361701005 1.4524389144961845 0 1.4524389144961845 -25.412220252284897 0 0 0 0 -60.532459169191497 0.010322531667043222 0 0.010322531667043222 -3.6219010647837422 0 0 0 0 -70.748604830650947 -53.884612453326554 0 -53.884612453326554 -74.757810286617314 0 0 0 0 -65.611970886339122 129.14824816204214 0 129.14824816204214 -20.078034603902779 0 0 0 0 -126.84639380247381 166.26679380557471 0 166.26679380557471 174.45306166843238 0 0 0 0 -146.25395773549485 294.07981052088326 0 294.07981052088326 -82.45061531610736 0 0 0 0 -75.835991328966884 154.80785247942003 0 154.80785247942003 85.764292953988843 0 0 0 0 -117.84364376204894 51.618681435002145 0 51.618681435002145 149.90918572448936 0 0 0 0 -88.399017684002956 144.7064182741733 0 144.7064182741733 77.808254268933524 0 0 0 0 -116.90688443937916 68.551767436120826 0 68.551767436120826 60.135862527220524 0 0 0 0 -72.611110478848786 41.231669613821396 0 41.231669613821396 -13.694643143202484 0 0 0 0 -116.48127036710201 35.390587750066402 0 35.390587750066402 -19.582829215527454 0 0 0 0 26.920669721136619 -38.086112237911948 0 -38.086112237911948 -67.69478250127213 0 0 0 0 1.1638580043061308 0.76856684238013173 0 0.76856684238013173 -9.9341548431647624 0 0 0 0 -3.7940541948810278 17.365999030746025 0 17.365999030746025 -31.245022525428794 0 0 0 0 -1.1890141166601731 7.8561038953076245 0 7.8561038953076245 -45.142747502481029 0 0 0 0 9.4848615002506449 -0.0080736547242850065 0 -0.0080736547242850065 -52.382751086533972 0 0 0 0 -15.02422362249979 -21.881500091363705 0 -21.881500091363705 -14.417251793300238 0 0 0 0 -0.10347328943378375 1.5577414197821753 0 1.5577414197821753 -2.5575137947303972 0 0 0 0 -13.055518416661471 0.3945613308405882 0 0.3945613308405882 -48.293854105695573 0 0 0 0 97.266351410435249 -11.223947413296514 0 -11.223947413296514 -112.5966475735695 0 0 0 0 0.14598096915968883 7.7045980296799286 0 7.7045980296799286 -67.840808885216205 0 0 0 0 -31.354025678495375 -99.958920648309004 0 -99.958920648309004 -145.37144394568895 0 0 0 0 35.208428356482827 -9.4304674260813499 0 -9.4304674260813499 -143.11959274109904 0 0 0 0 4.4838407352651428 -0.12494848233429678 0 -0.12494848233429678 -88.130781654090583 0 0 0 0 30.326879557024085 18.61241790314125 0 18.61241790314125 -68.758375917308513 0 0 0 0 76.698361882826248 14.690720851664082 0 14.690720851664082 -81.977680712032452 0 0 0 0 142.55127625571276 -107.95226462188748 0 -107.95226462188748 -161.15798565480964 0 0 0 0 10.114480296530019 -151.5000648349569 0 -151.5000648349569 -143.19137224038286 0 0 0 0 79.01512246220409 -25.006509200276923 0 -25.006509200276923 -92.017610814188629 0 0 0 0 180.67634822109449 90.727520292211921 0 90.727520292211921 -138.76433480854212 0 0 0 0 73.53188601860893 170.74961564670957 0 170.74961564670957 -189.76281190869486 0 0 0 0 69.381240183574391 146.67022859834174 0 146.67022859834174 -228.20059641731496 0 0 0 0 74.441420370413653 233.20281273562796 0 233.20281273562796 -350.45947321464701 0 0 0 0 73.369180420189082 -82.729288961591465 0 -82.729288961591465 -662.69941995669797 0 0 0 0 13.147379268942473 449.52077491511318 0 449.52077491511318 -1086.2969589173154 0 0 0 0 -30.855348355241404 -66.957278359754127 0 -66.957278359754127 -5.4440130881412188 0 0 0 0 -143.35832591300459 -114.64958191298319 0 -114.64958191298319 -12.403473320683361 0 0 0 0 2.1756438737167882 1.4245018230230144 0 1.4245018230230144 13.435310185189733 0 0 0 0 -9.4347093122301686 -34.939292020387391 0 -34.939292020387391 31.302296461260632 0 0 0 0 -1234.5484769825084 265.46429247080778 0 265.46429247080778 325.88173730967173 0 0 0 0 218.76736867276577 -770.48477105221536 0 -770.48477105221536 -1222.6952077174478 0 0 0 0 68.606117496031857 -419.55625818006956 0 -419.55625818006956 -140.79348041537742 0 0 0 0 6.9124417723523948 -166.1749473171385 0 -166.1749473171385 -106.16201891206197 0 0 0 0 -11.363850166310613 -66.081171165941214 0 -66.081171165941214 -56.540382633378613 0 0 0 0 -6.6486242122482508 -114.39337979498305 0 -114.39337979498305 -112.46025500258838 0 0 0 0 -14.374198020063659 -84.557258284955424 0 -84.557258284955424 -42.637986686488148 0 0 0 0 -8.8055409282367236 -124.65288128832071 0 -124.65288128832071 -127.19664923923847 0 0 0 0 -18.877269311361488 -119.66825454908758 0 -119.66825454908758 -38.521239648618575 0 0 0 0 9.8140248618365149 -89.006477043316409 0 -89.006477043316409 -132.44850597910408 0 0 0 0 7.6951422115576253 -41.645914480105859 0 -41.645914480105859 25.471148982723467 0 0 0 0 -99.593032015943436 -37.714760348624623 0 -37.714760348624623 28.272020975316991 0 0 0 0 -75.81015733918025 -219.51005900719065 0 -219.51005900719065 -323.6097756160525 0 0 0 0 -222.99018449293771 -184.64022303722049 0 -184.64022303722049 -115.97693469261139 0 0 0 0 36.779561843343203 -74.098837313875492 0 -74.098837313875492 -449.20389403114677 0 0 0 0 3.8870105615096691 -125.66194791517046 0 -125.66194791517046 -183.13998296007412 0 0 0 0 38.344133815086025 -74.131486005840998 0 -74.131486005840998 -234.90952199105595 0 0 0 0 -12.597603378786516 -99.930018436025421 0 -99.930018436025421 -143.43515081800797 0 0 0 0 34.702776632618225 -67.377434991161863 0 -67.377434991161863 -227.58250086840053 0 0 0 0 -13.968927878871 20.605969826801811 0 20.605969826801811 -175.91854906587469 0 0 0 0 56.413483375733676 -18.402522797039637 0 -18.402522797039637 -275.94127365508757 0 0 0 0 -24.783927925261878 85.304666821337378 0 85.304666821337378 -362.78333910278525 0 0 0 0 -59.727399307080759 5.7086851777148695 0 5.7086851777148695 48.312553838419262 0 0 0 0 31.719903292937943 52.60825029132684 0 52.60825029132684 -191.15976489110744 0 0 0 0 5.4143910888133178 41.383606562962086 0 41.383606562962086 -39.46499125866103 0 0 0 0 27.894709497335043 -48.047781465658773 0 -48.047781465658773 -209.94558000415566 0 0 0 0 -2.5098833349456982 -26.705909865527246 0 -26.705909865527246 -84.614898274317966 0 0 0 0 14.703033604099346 12.939277043997208 0 12.939277043997208 -159.19073347187259 0 0 0 0 -33.589851146384547 -74.603807665624117 0 -74.603807665624117 -43.74812568318157 0 0 0 0 -26.928126098657799 -123.05167354114565 0 -123.05167354114565 -387.99549541565648 0 0 0 0 -210.5930689136444 -17.761410354232794 0 -17.761410354232794 -151.64986082367614 0 0 0 0 75.386682716183941 -27.159632296546988 0 -27.159632296546988 -422.42481522231174 0 0 0 0 -2.9218210102835656 -47.706999074325722 0 -47.706999074325722 -209.94913681029823 0 0 0 0 49.090082393955058 -106.47418173731467 0 -106.47418173731467 -467.03120473758099 0 0 0 0 54.01847527265852 -74.970813853416075 0 -74.970813853416075 -418.40920585872664 0 0 0 0 -43.02925229308812 77.778806459513362 0 77.778806459513362 -210.56260641694644 0 0 0 0 0.32162550346420637 -6.8938637284269682 0 -6.8938637284269682 -3.4041589126279774 0 0 0 0 63.403555988020941 56.967786931393221 0 56.967786931393221 -26.764561489486368 0 0 0 0 3.0199637602497056 -2.0357936903256473 0 -2.0357936903256473 -11.641914960978283 0 0 0 0 75.971437607296025 -9.499600975618705 0 -9.499600975618705 -111.11069126491566 0 0 0 0 -81.191918733385819 -42.675985826557735 0 -42.675985826557735 -119.85230557209525 0 0 0 0 -50.905102290431387 -50.626662741775363 0 -50.626662741775363 -222.37626946626733 0 0 0 0 75.141880619401505 38.684298749181153 0 38.684298749181153 -159.54508021552829 0 0 0 0 0.81466874034260517 0.64581851151712044 0 0.64581851151712044 0.22530233229114316 0 0 0 0 42.147996100224645 166.58082848547019 0 166.58082848547019 97.665631295367348 0 0 0 0 63.276380162012401 9.5251606208366866 0 9.5251606208366866 -252.92412180735846 0 0 0 0 -16.5331200703489 37.637182894228317 0 37.637182894228317 -228.12212255727172 0 0 0 0 45.901427679637834 32.611056279200966 0 32.611056279200966 -270.14965550882698 0 0 0 0 21.621708953093957 10.441415890432836 0 10.441415890432836 -190.57728398835752 0 0 0 0 16.107195897394831 39.851985438421252 0 39.851985438421252 -216.38838974322698 0 0 0 0 -1.7852127266318307 -2.2944302607121188 0 -2.2944302607121188 -1.9206072106322978 0 0 0 0 19.352537937056752 19.295235188691549 0 19.295235188691549 -218.75796916326362 0 0 0 0 10.865247430861473 39.109482825984742 0 39.109482825984742 -188.53252448144713 0 0 0 0 -8.828386939387201 28.621426723279001 0 28.621426723279001 -65.18004189550993 0 0 0 0 49.083187911737696 6.1448782821025816 0 6.1448782821025816 -253.62385071912104 0 0 0 0 14.782797455594846 -50.258916009301174 0 -50.258916009301174 -184.29478261267286 0 0 0 0 -4.7717821423370879 4.0756389874550223 0 4.0756389874550223 -216.0530857178419 0 0 0 0 -52.788907115701591 -171.44025290105492 0 -171.44025290105492 77.000403290708164 0 0 0 0 -52.878271599872818 -215.97128348535171 0 -215.97128348535171 -270.04294949133327 0 0 0 0 42.867411586194635 -68.672724145315442 0 -68.672724145315442 -165.0991729868947 0 0 0 0 -48.97545764874576 65.611803028146824 0 65.611803028146824 25.107850881361628 0 0 0 0 -0.93939060388301776 -0.86395101338156621 0 -0.86395101338156621 -0.93724143371792934 0 0 0 0 -17.037378024976825 57.330777877995303 0 57.330777877995303 -517.99461097201856 0 0 0 0 -150.11907162294165 -130.43242911119523 0 -130.43242911119523 -290.99557381032355 0 0 0 0 -143.7064251084567 -15.26678478091435 0 -15.26678478091435 -252.77547643006983 0 0 0 0 -38.070624240786913 -109.01008036042185 0 -109.01008036042185 -420.91712386282961 0 0 0 0 -52.079572847716008 -15.842901880005229 0 -15.842901880005229 -218.48315931701291 0 0 0 0 -64.907577938938175 -11.597989882135153 0 -11.597989882135153 -125.13683966268945 0 0 0 0 -78.358619873586633 -34.080908409217955 0 -34.080908409217955 -162.21386714986875 0 0 0 0 -118.63734728633682 -46.249811571384271 0 -46.249811571384271 -141.2134340859011 0 0 0 0 -40.071589217748226 8.1866302754151548 0 8.1866302754151548 -154.80818697730865 0 0 0 0 18.236980355820378 22.18039260196565 0 22.18039260196565 -163.85187219795625 0 0 0 0 -46.645954073561029 -3.2098263742500421 0 -3.2098263742500421 -171.63390450998486 0 0 0 0 -21.056202895882052 -10.021643517557095 0 -10.021643517557095 -79.369605226738713 0 0 0 0 -6.5604724858221743 -138.79094438316679 0 -138.79094438316679 -312.56299963103265 0 0 0 0 0.62073465139786954 0.30536774534883904 0 0.30536774534883904 -1.758093421486052 0 0 0 0 19.644665859913857 37.927395039867406 0 37.927395039867406 4.630230840164586 0 0 0 0 -16.846088767303854 -28.319580455077812 0 -28.319580455077812 -29.14841474422974 0 0 0 0 21.630963506292574 15.081078076134872 0 15.081078076134872 -12.925171506001789 0 0 0 0 18.917885522176448 -23.12480574406618 0 -23.12480574406618 -45.346213550603352 0 0 0 0 3.6610127695457209 -30.59126213563286 0 -30.59126213563286 -50.734369045690983 0 0 0 0 -2.4751679818524694 1.0106265435820063 0 1.0106265435820063 -0.37127453665583943 0 0 0 0 -169.8965260354704 42.539929755814228 0 42.539929755814228 119.12606121365206 0 0 0 0 -3.6208312797514282 0.80372166472693607 0 0.80372166472693607 -0.10179671046137884 0 0 0 0 0.027475304727772709 -97.303257045194187 0 -97.303257045194187 -67.821030502957001 0 0 0 0 -264.90621530851024 -274.41649212828088 0 -274.41649212828088 -171.39173397096238 0 0 0 0 -1.8099611108289335 0.3153917287891872 0 0.3153917287891872 -0.23148057403314937 0 0 0 0 -76.877870898056045 46.697157356323487 0 46.697157356323487 13.49092378302521 0 0 0 0 -19.791647270590019 -26.261355835964878 0 -26.261355835964878 4.8884368137769343 0 0 0 0 -41.113083919370467 -67.173679287385312 0 -67.173679287385312 -49.609803043998909 0 0 0 0 -335.99427705422829 -126.32269906240981 0 -126.32269906240981 -98.573808032100715 0 0 0 0 -422.0637019682942 -190.77760513939575 0 -190.77760513939575 -45.587888071597263 0 0 0 0 -235.12832501283856 -32.980390491200524 0 -32.980390491200524 -112.48652411120565 0 0 0 0 -183.84286549735657 -89.775634872661612 0 -89.775634872661612 -73.017109288586653 0 0 0 0 -83.009279869599936 27.897421909918194 0 27.897421909918194 -54.222208442857664 0 0 0 0 -10.428924330591144 -28.503756615009479 0 -28.503756615009479 -55.344489878859349 0 0 0 0 0.29268265343908562 -3.0538354147490026 0 -3.0538354147490026 -29.376183794190382 0 0 0 0 57.172779934101754 71.249125846774405 0 71.249125846774405 16.613063063552545 0 0 0 0 191.70084168072185 42.018653040575373 0 42.018653040575373 -77.98725657909381 0 0 0 0 271.16610908674465 14.936125569956857 0 14.936125569956857 -139.44354038651363 0 0 0 0 0.58219399624121293 -3.9729103546039859 0 -3.9729103546039859 -25.7510919495829 0 0 0 0 89.380121926106995 -77.642943219621884 0 -77.642943219621884 -16.774499994164216 0 0 0 0 -36.317730633861856 43.311329361709795 0 43.311329361709795 -75.807239106383349 0 0 0 0 -111.95827259667089 -97.13589746197249 0 -97.13589746197249 -104.49395302610174 0 0 0 0 -125.81456157086544 -205.3988796809449 0 -205.3988796809449 -430.78119960647018 0 0 0 0 -161.6747361097041 -126.58468750807151 0 -126.58468750807151 -21.399101482180413 0 0 0 0 12.111629286545849 -105.25727878494217 0 -105.25727878494217 -180.53966327718808 0 0 0 0 50.343615726852477 64.988507213829052 0 64.988507213829052 58.283591710038309 0 0 0 0 -51.142997678015945 -137.36182112989263 0 -137.36182112989263 37.634513476516531 0 0 0 0 0.36854880071613239 -4.1339974417903367 0 -4.1339974417903367 -18.623888814406314 0 0 0 0 -0.88631349465640596 -176.40656315300657 0 -176.40656315300657 -160.0987910846452 0 0 0 0 13.267804102880746 -172.39116489551452 0 -172.39116489551452 -230.857202320738 0 0 0 0 -60.29007368775865 -80.302154737037199 0 -80.302154737037199 -179.12857356021414 0 0 0 0 0.59177873232612554 -0.062241819762625994 0 -0.062241819762625994 -4.9743768116215108 0 0 0 0 -462.55169695460677 -437.46520574580609 0 -437.46520574580609 -198.59232045509088 0 0 0 0 -241.76435722869323 -2.8033956335275434 0 -2.8033956335275434 -153.85917678484475 0 0 0 0 -308.59791376779663 -158.41714080016391 0 -158.41714080016391 -161.31469239727085 0 0 0 0 -39.889471222000893 20.209707370680007 0 20.209707370680007 -231.54784963179918 0 0 0 0 6.0931547560994872 102.63264951331439 0 102.63264951331439 -112.74049139877752 0 0 0 0 -70.109515171807786 -37.028734723680827 0 -37.028734723680827 -88.930743453246578 0 0 0 0 -59.070040588648354 9.1976883117768011 0 9.1976883117768011 52.95632614105125 0 0 0 0 15.381805604515861 137.51442689914347 0 137.51442689914347 -26.306308468338102 0 0 0 0 56.02966531191646 -70.081164015355171 0 -70.081164015355171 -127.97844166245341 0 0 0 0 -103.58449059668544 -81.902124999160151 0 -81.902124999160151 -153.3227449769247 0 0 0 0 -101.3787039987786 3.5434356286314141 0 3.5434356286314141 -140.85735126762302 0 0 0 0 -35.762082405634018 -74.537562602010439 0 -74.537562602010439 -276.96347145603067 0 0 0 0 -37.543955639454794 -119.51562187049058 0 -119.51562187049058 -245.98466718557393 0 0 0 0 -47.941489956372038 -56.81049657751646 0 -56.81049657751646 -113.18867295237578 0 0 0 0 -19.95552811035941 -134.63244994292108 0 -134.63244994292108 -252.42851411080846 0 0 0 0 -44.967246518789629 -87.357137779854384 0 -87.357137779854384 -289.5427700911132 0 0 0 0 52.87846685483828 -122.38072461362572 0 -122.38072461362572 -368.27551411509921 0 0 0 0 44.338431032499443 -98.416207619928173 0 -98.416207619928173 -387.87748842415749 0 0 0 0 -1.8285870385487755 -46.498992509972595 0 -46.498992509972595 -386.87326081324136 0 0 0 0 -284.27825817611796 -76.845977979895906 0 -76.845977979895906 -292.25161404484243 0 0 0 0 14.273472942115561 -11.396597455030133 0 -11.396597455030133 -433.19415042457786 0 0 0 0 -48.904708051830085 -387.05273587321062 0 -387.05273587321062 -288.38108652772121 0 0 0 0 -36.76789790754097 -136.6119412503358 0 -136.6119412503358 -277.88865179069398 0 0 0 0 304.80870839985255 487.94485140296456 0 487.94485140296456 -421.79372999006227 0 0 0 0 0.349506330515305 1.2357750520100623 0 1.2357750520100623 -6.4844119537526126 0 0 0 0 -157.45471371728081 -343.36634128719152 0 -343.36634128719152 -486.99048292857333 0 0 0 0 53.713148457460875 -164.68082951111501 0 -164.68082951111501 -785.17405704438715 0 0 0 0 -124.10760184041123 -236.22508619267319 0 -236.22508619267319 -230.69710576099533 0 0 0 0 3.587856808460856 -143.87349112860466 0 -143.87349112860466 -443.72164686175529 0 0 0 0 55.075400967433751 -126.05199883604928 0 -126.05199883604928 -438.63916034973954 0 0 0 0 -47.187613625155223 -43.725037022642937 0 -43.725037022642937 -36.440706629509805 0 0 0 0 -256.80109132282928 292.85280278407663 0 292.85280278407663 16.950764734836412 0 0 0 0 -853.85622012747501 -441.37069813875314 0 -441.37069813875314 -28.883612166519015 0 0 0 0 -149.02806799892494 -667.90620993392804 0 -667.90620993392804 -377.24662198241276 0 0 0 0 -0.20161799965885757 -2.053013738690399 0 -2.053013738690399 -6.950375333119581 0 0 0 0 168.11786104191015 -169.16960906234272 0 -169.16960906234272 -317.56601652960671 0 0 0 0 115.12111317596131 52.332619533676734 0 52.332619533676734 -105.84489614206541 0 0 0 0 1.2190428963749957 1.3458837009021423 0 1.3458837009021423 -11.358267472595543 0 0 0 0 -237.36550546629655 -257.26909745696685 0 -257.26909745696685 -158.44452678832022 0 0 0 0 -279.98640844869487 -189.39677118235704 0 -189.39677118235704 -69.846125021518674 0 0 0 0 32.096830050869869 -33.343293982772593 0 -33.343293982772593 93.553158265385719 0 0 0 0 60.653700972650313 -7.6983013544049754 0 -7.6983013544049754 -132.79382089125829 0 0 0 0 -34.431963731301551 -17.210760656307684 0 -17.210760656307684 -128.58539461479086 0 0 0 0 -4.0177611545450418 116.34005310876455 0 116.34005310876455 -271.90968615541715 0 0 0 0 409.24673665039847 35.321928244869923 0 35.321928244869923 -288.1617775356026 0 0 0 0 76.585040154015019 -222.61009879010817 0 -222.61009879010817 -476.00787971251702 0 0 0 0 -403.22996812137865 -286.19104664680344 0 -286.19104664680344 -440.71370302915238 0 0 0 0 -509.89600004899387 -214.04810072220607 0 -214.04810072220607 -384.39987239827315 0 0 0 0 4.4970765010259015 -63.202563632601596 0 -63.202563632601596 -490.11498714759364 0 0 0 0 -137.77237058118754 78.542792859752808 0 78.542792859752808 -626.96197392687463 0 0 0 0 -107.96369828481477 -324.73483566732466 0 -324.73483566732466 -672.09203392324935 0 0 0 0 163.92166484223776 64.609328475122311 0 64.609328475122311 -669.12935806017049 0 0 0 0 39.071253370651732 -72.603458143315947 0 -72.603458143315947 -338.41730942158392 0 0 0 0 39.317323655588851 -81.427479905774817 0 -81.427479905774817 -493.841818864792 0 0 0 0 14.103446289471908 9.7008760176292981 0 9.7008760176292981 -336.37347628580028 0 0 0 0 0.078846586668761084 -49.432247822593126 0 -49.432247822593126 -345.88382112312684 0 0 0 0 1.2586979055516423 21.171726917060369 0 21.171726917060369 -224.03287922978416 0 0 0 0 26.394120001056507 -8.1154797283343214 0 -8.1154797283343214 -319.62750104131192 0 0 0 0 -0.020736138516556084 -48.513292806399477 0 -48.513292806399477 -143.27922132205822 0 0 0 0 -8.1289926675018336 -0.69559168743580813 0 -0.69559168743580813 -76.320196789080001 0 0 0 0 -6.7908562622430315 -54.780224939764025 0 -54.780224939764025 5.0223562178725842 0 0 0 0 -0.027492610778159735 -54.332602973758185 0 -54.332602973758185 0.74921102850930765 0 0 0 0 37.313310423951975 -40.165632527579874 0 -40.165632527579874 17.319810115492146 0 0 0 0 259.91200880985025 -16.324085475454581 0 -16.324085475454581 -41.333886416068708 0 0 0 0 161.07691963446848 -99.453271850670717 0 -99.453271850670717 -20.494614474060654 0 0 0 0 136.97096498663129 -44.935228146786585 0 -44.935228146786585 -38.142151444844785 0 0 0 0 95.049809661352356 -55.10017189096834 0 -55.10017189096834 -2.9905232248456741 0 0 0 0 108.74429821375722 -58.407079788008559 0 -58.407079788008559 -44.080090862247744 0 0 0 0 51.263140682807091 -10.547358237170556 0 -10.547358237170556 -74.975373978199059 0 0 0 0 30.121884588311104 -46.866896797680965 0 -46.866896797680965 -14.027482351875506 0 0 0 0 37.646970919773878 -45.73981721974269 0 -45.73981721974269 -14.114642959895718 0 0 0 0 50.289191778455177 -43.048542742821155 0 -43.048542742821155 31.765941771080179 0 0 0 0 127.53042873495278 -41.124161582347369 0 -41.124161582347369 -1.2438057533145184 0 0 0 0 92.848607501574236 -80.118126593086345 0 -80.118126593086345 48.699585827685951 0 0 0 0 0.16603868584874792 -0.21136835760461281 0 -0.21136835760461281 -0.19830535214063616 0 0 0 0 57.164373058963477 -11.498997094683659 0 -11.498997094683659 -29.243861671420746 0 0 0 0 77.978614826235372 -0.023702163478446892 0 -0.023702163478446892 -23.20568410281885 0 0 0 0 34.731882493529824 -15.52310582298378 0 -15.52310582298378 -15.516828013503982 0 0 0 0 11.769029016752199 -8.9659713883811492 0 -8.9659713883811492 -19.959986405243399 0 0 0 0 25.16259951474531 -27.169793098230912 0 -27.169793098230912 1.4801363421647693 0 0 0 0 11.441033490455878 -13.442247513784423 0 -13.442247513784423 -78.933368198748212 0 0 0 0 0.074109263213197302 -0.20367590017740156 0 -0.20367590017740156 -0.19576011552479144 0 0 0 0 17.919443219319682 -29.30337024841765 0 -29.30337024841765 19.812493059704138 0 0 0 0 0.032816352426552876 -41.900538184108882 0 -41.900538184108882 59.123389837590366 0 0 0 0 0.16294001290274107 -0.3616857500326347 0 -0.3616857500326347 -0.33819248170767935 0 0 0 0 10.87390708188002 -51.758974433030744 0 -51.758974433030744 26.321584574292501 0 0 0 0 -0.84638174615936634 17.166499618819216 0 17.166499618819216 -63.756781402606975 0 0 0 0 -0.045419792797646574 9.838820452420137 0 9.838820452420137 0.90775933532749065 0 0 0 0 -4.8928856767802493 38.717761501628047 0 38.717761501628047 -110.85959856062982 0 0 0 0 0.90327895979120687 2.0677104820002228 0 2.0677104820002228 -3.2607084204168046 0 0 0 0 -16.281040831763825 -10.877788383109873 0 -10.877788383109873 -25.495653812591627 0 0 0 0 0.060724371082803118 0.35582990997301067 0 0.35582990997301067 -5.4377777786576864 0 0 0 0 -0.58014203951922105 -2.1546814607800115 0 -2.1546814607800115 -15.977073366600962 0 0 0 0 -0.00044271287173550415 -3.0272889140305779 0 -3.0272889140305779 -15.05432279480965 0 0 0 0 79.878258519629043 38.351546034024068 0 38.351546034024068 -21.668790045276182 0 0 0 0 -0.45010479940733639 -5.1605839222719254 0 -5.1605839222719254 -16.68891156164284 0 0 0 0 -6.1550009852297762 75.751686862343377 0 75.751686862343377 65.41080015089392 0 0 0 0 -4.32147021801606 9.2734759502718731 0 9.2734759502718731 2.8622219767333945 0 0 0 0 -72.866541329138215 -0.8458535893860244 0 -0.8458535893860244 52.017321551531495 0 0 0 0 -23.559604409501162 18.715353889136168 0 18.715353889136168 20.661028318729223 0 0 0 0 11.726788993303884 2.4553965574250469 0 2.4553965574250469 -49.160475690023304 0 0 0 0 0.13845412041988148 17.23556634714987 0 17.23556634714987 -64.687070208048681 0 0 0 0 -0.97781279219491424 12.56767110178771 0 12.56767110178771 -51.386764432274504 0 0 0 0 1.4995607360654901 -2.2029914779450337 0 -2.2029914779450337 -47.235225743893352 0 0 0 0 5.2417825159092288 0.35512874097548774 0 0.35512874097548774 -65.247270057305286 0 0 0 0 5.8882181284580071 3.0694756426401 0 3.0694756426401 -42.220176927974535 0 0 0 0 5.8865571512538368 -0.64972705484948623 0 -0.64972705484948623 -23.08951066496229 0 0 0 0 -4.0273684899190014 -11.745360064330498 0 -11.745360064330498 -16.695458732603583 0 0 0 0 -11.557521287601062 -14.372437154303043 0 -14.372437154303043 -46.991636255395861 0 0 0 0 -3.2302991504219278 -1.9661141397664323 0 -1.9661141397664323 -33.787607086309436 0 0 0 0 -1.7374099536670116 2.6918664487311617 0 2.6918664487311617 -56.208066497854816 0 0 0 0 0.0046084008107768948 10.018164469480325 0 10.018164469480325 -121.9825793126729 0 0 0 0 -6.2882619520945298 -11.998397953240783 0 -11.998397953240783 -88.603732124065573 0 0 0 0 -18.945458578832326 -12.254286104407583 0 -12.254286104407583 -61.455386968598759 0 0 0 0 -12.246032538830988 -8.2597595851386814 0 -8.2597595851386814 -59.621848374503315 0 0 0 0 -0.055884267143740132 -24.294043490974218 0 -24.294043490974218 -43.983318041693565 0 0 0 0 -24.38506405034731 -43.807694200078799 0 -43.807694200078799 -58.505706555843062 0 0 0 0 -17.580480199133873 -2.1901208940907964 0 -2.1901208940907964 28.6378051280617 0 0 0 0 -26.027650163736979 -25.979920540925377 0 -25.979920540925377 -5.2612903040208039 0 0 0 0 -38.164063873056676 -58.973831529759991 0 -58.973831529759991 -96.167057017890329 0 0 0 0 -66.084754633495493 -62.894155337207849 0 -62.894155337207849 -39.192690160311031 0 0 0 0 0.083945240067131832 0.0076960514755626264 0 0.0076960514755626264 0.23589112450760297 0 0 0 0 -43.539371792241262 -72.549005811368261 0 -72.549005811368261 -48.576018645984732 0 0 0 0 -0.057265297280129683 -65.746578964721266 0 -65.746578964721266 -153.48436396972102 0 0 0 0 -24.891890101227389 -129.07429552412941 0 -129.07429552412941 -208.12350141997922 0 0 0 0 -79.160918936666206 -133.21281027494842 0 -133.21281027494842 -135.59713103967442 0 0 0 0 -32.533437306960323 -171.97127926186931 0 -171.97127926186931 -324.77247276365961 0 0 0 0 -24.471619933006963 -107.33318513747327 0 -107.33318513747327 -233.93794093722681 0 0 0 0 0.032106294718846531 -85.122446706259083 0 -85.122446706259083 -332.43995082529727 0 0 0 0 -155.42193419704006 -8.6896027255897934 0 -8.6896027255897934 37.436254468124389 0 0 0 0 -0.69456750865472128 -1.7576476898782474 0 -1.7576476898782474 -4.737313332001662 0 0 0 0 -321.49790477286547 -220.20677986952614 0 -220.20677986952614 -133.64188783516875 0 0 0 0 256.12025618789482 81.355435088144077 0 81.355435088144077 -688.27560194310354 0 0 0 0 -43.794296265869299 -146.66101561084997 0 -146.66101561084997 -278.89895092500956 0 0 0 0 -166.41921495459849 -207.17499571293592 0 -207.17499571293592 -199.52872822324207 0 0 0 0 -78.199342487444184 -76.633041405289987 0 -76.633041405289987 -69.561683131847531 0 0 0 0 -16.650784153992547 -73.609281232780631 0 -73.609281232780631 -84.076094698470115 0 0 0 0 44.994895555142108 3.2909212937556731 0 3.2909212937556731 -42.455536971208858 0 0 0 0 0.79494017939488271 -0.85605657898368293 0 -0.85605657898368293 -1.8707431609405027 0 0 0 0 -1.1787730795314815 -9.0309870970841075 0 -9.0309870970841075 1.5355489102330466 0 0 0 0 -30.272347462191171 23.491023290171711 0 23.491023290171711 9.8831643176126818 0 0 0 0 6.296930124181003 -5.7744902394115343 0 -5.7744902394115343 -14.4356067144181 0 0 0 0 -0.9595907737763234 -2.813174721594514 0 -2.813174721594514 -6.3573348948782495 0 0 0 0 3.3906975038205758 -9.8233100524375914 0 -9.8233100524375914 -7.7302636887593508 0 0 0 0 -8.9980611358267311 -4.6909554951416794 0 -4.6909554951416794 -4.2335368134881719 0 0 0 0 -1.0395332590806245 -0.72401230977276043 0 -0.72401230977276043 -1.87006377315954 0 0 0 0 -3.4464179684089231 -6.6304729929161113 0 -6.6304729929161113 -12.431407076335745 0 0 0 0 95.730647702656995 -154.59017480366583 0 -154.59017480366583 27.200749655828986 0 0 0 0 -1.7070154577430707 -4.4630868195114175 0 -4.4630868195114175 -8.6664844044469191 0 0 0 0 -101.35810967707334 -0.93101155493422993 0 -0.93101155493422993 151.78033343877723 0 0 0 0 24.856811173096389 4.3344209256570139 0 4.3344209256570139 -40.270949399062374 0 0 0 0 -82.327684481127562 49.737975739939429 0 49.737975739939429 -35.06617740274578 0 0 0 0 -46.039530323270355 138.53731165273712 0 138.53731165273712 -192.803252363512 0 0 0 0 28.614620909321957 137.31219818901081 0 137.31219818901081 -418.90958369940199 0 0 0 0 22.759560766613959 13.036144864461676 0 13.036144864461676 -214.83753772803175 0 0 0 0 84.889243592835555 -44.474384347344312 0 -44.474384347344312 -544.21507080677111 0 0 0 0 -429.66747856550751 137.32664217787169 0 137.32664217787169 194.7397447749845 0 0 0 0 -48.997158328892056 195.98051661053159 0 195.98051661053159 -681.66591514513129 0 0 0 0 -105.6844473531113 271.19548303847841 0 271.19548303847841 -251.89944598684224 0 0 0 0 -0.24905844559224774 -0.62863091053943698 0 -0.62863091053943698 -3.4484718528209726 0 0 0 0 -40.423260920075307 27.242152513756992 0 27.242152513756992 -53.807988140499219 0 0 0 0 0.40223511858175698 -25.930878574950839 0 -25.930878574950839 -127.02650981250918 0 0 0 0 7.4130455546405187 35.593220677612408 0 35.593220677612408 -75.725788312497571 0 0 0 0 -26.917864509061374 -42.00168749527802 0 -42.00168749527802 -67.31841049338982 0 0 0 0 -9.4564060067461195 -142.29061112163345 0 -142.29061112163345 -250.620448928923 0 0 0 0 38.288127410092585 -64.13882841647137 0 -64.13882841647137 -429.98080792472456 0 0 0 0 27.892878000985775 -66.855330847894948 0 -66.855330847894948 -266.31051941937767 0 0 0 0 45.809349884785902 -116.23596011704831 0 -116.23596011704831 -340.10463351207727 0 0 0 0 69.887943003118949 -65.681004240796028 0 -65.681004240796028 -364.78359604037541 0 0 0 0 57.687038768495484 -61.665634071756358 0 -61.665634071756358 -297.39327406174561 0 0 0 0 -2.5205552211052122 -2.8842247205611784 0 -2.8842247205611784 -91.242583134837332 0 0 0 0 28.006802858166971 50.10596098425367 0 50.10596098425367 -287.51798274929752 0 0 0 0 9.861304307829414 12.800971830671187 0 12.800971830671187 -157.86310358240735 0 0 0 0 16.110019134312012 -78.242532919532096 0 -78.242532919532096 -259.12708783683411 0 0 0 0 -1.1317619963167544 -4.6191917212781846 0 -4.6191917212781846 51.704549248795956 0 0 0 0 -42.021479986568949 55.870504805036035 0 55.870504805036035 135.29581403153861 0 0 0 0 -3.9616048145756508 -26.49730863698187 0 -26.49730863698187 -80.263060996250715 0 0 0 0 15.252967717838487 29.256489697763755 0 29.256489697763755 -53.294905671729794 0 0 0 0 10.355168100861647 -6.1108138107447303 0 -6.1108138107447303 -90.440650273885694 0 0 0 0 3.1964152979641227 107.63095359551016 0 107.63095359551016 23.729730856714013 0 0 0 0 6.1335163441936515 11.193223977064918 0 11.193223977064918 63.340738593251444 0 0 0 0 10.760151839684113 -5.2373101455068536 0 -5.2373101455068536 -20.866987266112119 0 0 0 0 0.57103961996309838 -1.3002362925909345 0 -1.3002362925909345 -10.347568939333115 0 0 0 0 48.486765548222706 36.874356918706326 0 36.874356918706326 64.189411848852615 0 0 0 0 -30.237647660260563 -89.863895396119915 0 -89.863895396119915 -65.864207120263018 0 0 0 0 23.232482785701393 9.5456880364181416 0 9.5456880364181416 2.6948331452731509 0 0 0 0 -9.211503315820309 18.259394570231962 0 18.259394570231962 -36.450744513349491 0 0 0 0 0.010889890930838961 -0.51763900950002562 0 -0.51763900950002562 0.62548379870577264 0 0 0 0 -0.48519818041017837 0.17652114991466306 0 0.17652114991466306 0.3578080039206526 0 0 0 0 28.489905136572219 17.50340172455617 0 17.50340172455617 -60.558201384286804 0 0 0 0 8.1506858689928947 -0.30363440680412168 0 -0.30363440680412168 -5.8299918496850296 0 0 0 0 0.24872593215588881 -0.27458916879029305 0 -0.27458916879029305 -4.5771951492272649 0 0 0 0 2.496311470660828 -0.7524756660368439 0 -0.7524756660368439 -8.7585104700301599 0 0 0 0 1.989478366096588 3.9536927605729772 0 3.9536927605729772 -0.084631719467722633 0 0 0 0 -82.044046113734339 6.4019704694910615 0 6.4019704694910615 54.039427034673281 0 0 0 0 -0.48477053922583446 0.56137175283222973 0 0.56137175283222973 0.1484224169833297 0 0 0 0 -11.06310352701388 -10.361450262451399 0 -10.361450262451399 -16.860862434550654 0 0 0 0 -20.967985852106764 -33.859622383813985 0 -33.859622383813985 -40.816538409590976 0 0 0 0 -20.4778327386515 -10.587733011401724 0 -10.587733011401724 0.75721726922347443 0 0 0 0 0.21199070263135317 -0.27753412580421077 0 -0.27753412580421077 -1.1376347682925143 0 0 0 0 2.7189903960223845 12.088253082125448 0 12.088253082125448 2.1200842271355214 0 0 0 0 -7.7432568023297534 -7.800292174993956 0 -7.800292174993956 2.3550360032968456 0 0 0 0 12.865988859076484 -17.661770016377318 0 -17.661770016377318 -7.9688324786984595 0 0 0 0 26.42241623427228 16.522622565641541 0 16.522622565641541 -45.066805109541747 0 0 0 0 -0.045521643478213927 -0.70141893894393181 0 -0.70141893894393181 -8.6338985500334218 0 0 0 0 44.966794263259892 -2.8672098654906222 0 -2.8672098654906222 -48.728690960946551 0 0 0 0 0.39519684140841832 -0.28180075685808137 0 -0.28180075685808137 -12.045529909744289 0 0 0 0 11.888877086550732 -10.381281244585807 0 -10.381281244585807 -7.9684892276200117 0 0 0 0 -8.2671306948050685 -22.076833517061459 0 -22.076833517061459 -18.034636023301573 0 0 0 0 -46.725441831329078 1.1956253817206743 0 1.1956253817206743 -2.8319426401649253 0 0 0 0 -7.2309940150319605 -10.514394083336811 0 -10.514394083336811 -2.1282942109864962 0 0 0 0 -16.425003678320337 -9.5545310846218854 0 -9.5545310846218854 -0.00088314960885327309 0 0 0 0 -13.636920588555554 -5.3581060846227047 0 -5.3581060846227047 0.3563907909858699 0 0 0 0 -0.73150645812228732 -1.6671743252568447 0 -1.6671743252568447 -4.0256388172484492 0 0 0 0 -18.927448678344717 -6.2251735429890687 0 -6.2251735429890687 -4.2184478998194095 0 0 0 0 0.51832698018563406 3.7442535652080551 0 3.7442535652080551 -10.753639000594376 0 0 0 0 8.2180944995735956 -1.9002353632040467 0 -1.9002353632040467 -19.138226781513367 0 0 0 0 5.4436032041472799 16.018135164369596 0 16.018135164369596 -54.245489237018774 0 0 0 0 -0.42278502651844008 9.625663147796331 0 9.625663147796331 -10.310233006530325 0 0 0 0 -84.555198659224004 -5.6081344960039132 0 -5.6081344960039132 5.744770542383776 0 0 0 0 -32.399252829374859 59.57496872523916 0 59.57496872523916 -102.29112412828545 0 0 0 0 -28.77447470659871 43.819930060377374 0 43.819930060377374 -51.408867319718411 0 0 0 0 -0.38325722287704211 -0.62281742770432302 0 -0.62281742770432302 -1.3312876203589781 0 0 0 0 15.558233820056103 -15.942485755091184 0 -15.942485755091184 -191.4440624605777 0 0 0 0 5.7312281195843298 -3.8855105670445482 0 -3.8855105670445482 -90.770257237862097 0 0 0 0 4.0112460791143292 5.0768112462537829 0 5.0768112462537829 -96.570317243254976 0 0 0 0 -56.529502740730379 -87.102149748992815 0 -87.102149748992815 -2.1990769493168045 0 0 0 0 -40.700339861521798 -105.65149311554705 0 -105.65149311554705 -79.915438083247864 0 0 0 0 15.59863178139156 22.532134516382939 0 22.532134516382939 -27.613422764414281 0 0 0 0 23.487890442471183 8.5414119088309235 0 8.5414119088309235 -58.36792130214053 0 0 0 0 28.572912612639698 -13.126914313485031 0 -13.126914313485031 -22.374779412366479 0 0 0 0 -7.8478441535959469 8.747054461563522 0 8.747054461563522 0.62088700638697603 0 0 0 0 -0.0075911449225092298 0.52638384874431665 0 0.52638384874431665 1.9288803986568439 0 0 0 0 -118.64455995478511 8.6146029019582784 0 8.6146029019582784 38.108777027937322 0 0 0 0 -18.539593962925665 -12.673194656041233 0 -12.673194656041233 37.240854475305241 0 0 0 0 -11.82953668854816 9.7444268970357371 0 9.7444268970357371 -99.119334245753635 0 0 0 0 -53.102120618318736 -41.836966963935993 0 -41.836966963935993 36.517655557294347 0 0 0 0 17.627593503076241 9.35150932790566 0 9.35150932790566 -127.27355837556547 0 0 0 0 3.2765708716042354 22.797873375155177 0 22.797873375155177 27.426120199500474 0 0 0 0 87.109935936387174 -6.2278684367556707 0 -6.2278684367556707 -117.1377766862206 0 0 0 0 16.773743609701341 6.8217004984471714 0 6.8217004984471714 -70.947498679139244 0 0 0 0 -4.4798554050741286 8.4682096530112716 0 8.4682096530112716 -6.4761822028092197 0 0 0 0 52.003326782370095 -0.19305736205569701 0 -0.19305736205569701 -126.6528469723562 0 0 0 0 45.437210363137638 41.984697522995702 0 41.984697522995702 -131.81795669336861 0 0 0 0 26.684713947997352 43.862455830021645 0 43.862455830021645 46.281100807042094 0 0 0 0 0.058703610258671546 0.63508540254096602 0 0.63508540254096602 -2.7740978096824129 0 0 0 0 -35.673442793874074 5.8996361504396191 0 5.8996361504396191 29.916290610781289 0 0 0 0 41.810327381460411 -15.450778149905091 0 -15.450778149905091 -36.003588627223508 0 0 0 0 89.790851155441715 31.970650251263578 0 31.970650251263578 -107.13602349234861 0 0 0 0 4.8889870868695198 47.532172974057175 0 47.532172974057175 -143.13504939446284 0 0 0 0 -74.125506123561905 45.046968316927632 0 45.046968316927632 16.336880382550589 0 0 0 0 -0.76843822829369535 2.0511386164100016 0 2.0511386164100016 -2.7876999444231103 0 0 0 0 -73.995609076985829 62.010247649046505 0 62.010247649046505 -50.002576045080787 0 0 0 0 -17.121846652107308 -36.915343028424104 0 -36.915343028424104 -146.24634560351114 0 0 0 0 -71.536437629352804 57.5511130203231 0 57.5511130203231 -31.192510717795813 0 0 0 0 -84.235327296870224 96.757005005098335 0 96.757005005098335 -157.39214916246419 0 0 0 0 -71.718987917439563 35.420700510097959 0 35.420700510097959 32.861453129291476 0 0 0 0 -17.815247553155899 -19.489075895689894 0 -19.489075895689894 -85.303247881834977 0 0 0 0 0.25973331223065838 12.889511115340346 0 12.889511115340346 -13.857687072711599 0 0 0 0 0.71301415955096381 -0.24763077196388394 0 -0.24763077196388394 -3.7277253904883096 0 0 0 0 -17.479054216912552 27.996613241248269 0 27.996613241248269 21.712566116513699 0 0 0 0 -11.261128160948804 86.762742567811529 0 86.762742567811529 -180.83359102557006 0 0 0 0 -64.722340221810683 -38.522238811663556 0 -38.522238811663556 -12.801200101908762 0 0 0 0 -18.938569803911264 -41.211612920687912 0 -41.211612920687912 -31.264724232547451 0 0 0 0 -0.37130802367968152 2.0776453504071881 0 2.0776453504071881 -2.289392615977377 0 0 0 0 -0.35112996309988542 0.78473876510422258 0 0.78473876510422258 -1.9247856912967691 0 0 0 0 -56.661019252642177 3.9269704886974068 0 3.9269704886974068 53.896854171216546 0 0 0 0 -0.91390161711109885 3.9484531085944852 0 3.9484531085944852 -4.0625278915242902 0 0 0 0 -1.6895751954041671 -4.3139196377132976 0 -4.3139196377132976 -23.980132920514734 0 0 0 0 0.060773892836179538 0.025353228513537829 0 0.025353228513537829 -3.9352936731442796 0 0 0 0 -1.8983952863754396 -0.21912111314668437 0 -0.21912111314668437 -11.279131280558431 0 0 0 0 -42.010129334667226 -37.593374632466293 0 -37.593374632466293 -9.8151824126434803 0 0 0 0 -17.460778820603139 9.1549866462446516 0 9.1549866462446516 -14.96674666407489 0 0 0 0 -27.736051683382698 -59.098192128189112 0 -59.098192128189112 -104.90887105913498 0 0 0 0 -42.276995079033384 -13.997704190816876 0 -13.997704190816876 -75.163436323971837 0 0 0 0 -1.8279182350284842 -44.402524035688657 0 -44.402524035688657 -62.531477499273024 0 0 0 0 -30.56643429336566 -52.813898594184138 0 -52.813898594184138 -47.892059661113308 0 0 0 0 -17.7213542425593 -25.050138408962084 0 -25.050138408962084 -42.572468603199013 0 0 0 0 -11.123180202593403 -51.012012200528261 0 -51.012012200528261 -57.465386723539268 0 0 0 0 34.949649359345358 -26.023323990742938 0 -26.023323990742938 -39.169056965001801 0 0 0 0 1.5994292386847064 -35.909741007788398 0 -35.909741007788398 -53.988594198381179 0 0 0 0 -8.0083339208100028 -7.7607535323741104 0 -7.7607535323741104 -43.23316597451776 0 0 0 0 -50.092120220740867 -49.882168863048719 0 -49.882168863048719 -53.135659828843927 0 0 0 0 7.3487836078832061 -42.204232907202822 0 -42.204232907202822 -50.508296302308736 0 0 0 0 -7.8047787021018848 -16.835384866342793 0 -16.835384866342793 -91.469749852200039 0 0 0 0 -70.175904123826058 -31.630007421728806 0 -31.630007421728806 -52.870718060317813 0 0 0 0 1.1525521355040382 -60.281591670016496 0 -60.281591670016496 -83.606546951144082 0 0 0 0 -1.2071619367725361 -3.6906329121557064 0 -3.6906329121557064 -13.127895679936046 0 0 0 0 -10.776247315823866 -1.2787417583931528 0 -1.2787417583931528 -9.9269881619766238 0 0 0 0 -41.818975009470336 -72.045787032329827 0 -72.045787032329827 -71.848392512154533 0 0 0 0 0.28361971185628421 0.28871450779855934 0 0.28871450779855934 -1.213637760702909 0 0 0 0 13.180820934935809 -17.228685968428181 0 -17.228685968428181 -106.3955410115268 0 0 0 0 5.9435771021319397 -10.919524989891215 0 -10.919524989891215 6.124118686420843 0 0 0 0 0.14354308048382519 -2.8279272546990484 0 -2.8279272546990484 -7.5782724438893894 0 0 0 0 5.7553919953181412 -14.760090300724073 0 -14.760090300724073 -1.0756084029126214 0 0 0 0 4.0609928850018377 8.0498981026066758 0 8.0498981026066758 4.9575388636440039 0 0 0 0 1.3784576985516424 -11.425974548543309 0 -11.425974548543309 22.04189695995592 0 0 0 0 -0.028963986974317235 -0.46119369181384684 0 -0.46119369181384684 -2.0692964506175855 0 0 0 0 0.72305305237367423 1.3662313808067239 0 1.3662313808067239 -8.2932910023778987 0 0 0 0 -0.27713389249583997 -12.534783265989972 0 -12.534783265989972 29.147634458407992 0 0 0 0 -0.084632424980828347 -0.45162165175975133 0 -0.45162165175975133 -0.81516008665841255 0 0 0 0 6.7973716943372438 -19.096563781284203 0 -19.096563781284203 6.8235921331579448 0 0 0 0 8.7851033127567462 -16.030001463655935 0 -16.030001463655935 -16.787136207683943 0 0 0 0 -2.3875595108418111 -22.928022745596536 0 -22.928022745596536 28.386358658692643 0 0 0 0 -1.2992182113036961 -36.375310321753204 0 -36.375310321753204 -22.050128391332692 0 0 0 0 8.016897533829507 -4.1715825498929462 0 -4.1715825498929462 -38.974391252690111 0 0 0 0 8.6134000448994357 -12.748995903188188 0 -12.748995903188188 -13.723652956221486 0 0 0 0 9.048044652608155 -0.70381821563569247 0 -0.70381821563569247 -32.774017623727559 0 0 0 0 4.9790509367387585 2.393100414366927 0 2.393100414366927 -28.405000533362909 0 0 0 0 3.9553482510851126 11.385474235391939 0 11.385474235391939 -45.731673562419019 0 0 0 0 1.5869398966369772 -5.1541013579389983 0 -5.1541013579389983 0.80410898798436392 0 0 0 0 4.4699205004100122 -6.2389289523707703 0 -6.2389289523707703 -12.518223601924547 0 0 0 0 10.634970792128115 -15.322405096441798 0 -15.322405096441798 -14.133592831349233 0 0 0 0 7.0437531105084759 -6.570654737039149 0 -6.570654737039149 -19.274910107909818 0 0 0 0 0.28258273946831414 -2.6009947413994396 0 -2.6009947413994396 -6.4714506958307538 0 0 0 0 12.093699534598692 -8.5664207814006659 0 -8.5664207814006659 -12.118334362523456 0 0 0 0 3.9121869404965679 -15.748616543052776 0 -15.748616543052776 -6.7916426325618886 0 0 0 0 2.658592366787019 -0.25408305585733615 0 -0.25408305585733615 -12.827345530171442 0 0 0 0 -1.366040242936247 6.5989126230524562 0 6.5989126230524562 -12.807731892040465 0 0 0 0 -3.5473959853524484 2.4446042410381779 0 2.4446042410381779 -6.8835531484764942 0 0 0 0 -12.309018888480878 16.697824562174901 0 16.697824562174901 -28.489530427912541 0 0 0 0 -29.526461166330151 -10.674639165048575 0 -10.674639165048575 15.755029305662902 0 0 0 0 -15.816069260921083 -6.3838176443496195 0 -6.3838176443496195 -6.6244872493844014 0 0 0 0 5.794446096769871 -5.5889087523792114 0 -5.5889087523792114 -16.860406171232171 0 0 0 0 0.042412054646124582 0.18377901559335541 0 0.18377901559335541 -0.42415132226878427 0 0 0 0 -2.4480586280092744 -15.291255445546994 0 -15.291255445546994 -27.446665345601332 0 0 0 0 0.87806694997339174 -1.234058368865405 0 -1.234058368865405 -6.9675198643917469 0 0 0 0 -6.878799105374906 2.9119719625341531 0 2.9119719625341531 2.7503228149216739 0 0 0 0 0.98175287105609144 -5.120461472959505 0 -5.120461472959505 3.9950163806279306 0 0 0 0 1.6025465512597066 -6.0767963836478884 0 -6.0767963836478884 -9.2521103763319843 0 0 0 0 -6.1185242661529742 11.754765708566993 0 11.754765708566993 -17.476322358226753 0 0 0 0 4.2926816424668459 9.2154767978390737 0 9.2154767978390737 -29.98392964926461 0 0 0 0 -8.4045963544795654 10.82201767962033 0 10.82201767962033 -27.799752794864617 0 0 0 0 -5.1252155905024779 20.503564228226878 0 20.503564228226878 -45.066852522584668 0 0 0 0 3.0613281042438416 -7.9615537635254441 0 -7.9615537635254441 -10.384386640842422 0 0 0 0 -12.81734155806862 16.492623814752733 0 16.492623814752733 -19.072235884403199 0 0 0 0 -11.724448191154451 22.957422404024328 0 22.957422404024328 -40.973441324051237 0 0 0 0 -18.544460409985618 13.710160590882879 0 13.710160590882879 -45.868774490386386 0 0 0 0 -10.561004962031689 12.930578441664693 0 12.930578441664693 -46.024658000344061 0 0 0 0 -23.213238542232716 29.415957351287943 0 29.415957351287943 -51.059066268924653 0 0 0 0 -6.4175493257729386 22.083226445894979 0 22.083226445894979 -48.435687681339914 0 0 0 0 -3.277935229876789 13.82676184464799 0 13.82676184464799 -37.657441591029055 0 0 0 0 -3.3412586812605043 20.481232499729259 0 20.481232499729259 -45.981447883852525 0 0 0 0 -8.214249534631243 24.185190929591045 0 24.185190929591045 -44.824936843899195 0 0 0 0 -18.917508335283173 16.371699684983469 0 16.371699684983469 -45.342400543337135 0 0 0 0 0.44404775368991523 24.722983839572407 0 24.722983839572407 -65.532102184195537 0 0 0 0 2.1381125993270302 32.070094086309837 0 32.070094086309837 -48.899904920173867 0 0 0 0 -0.80801982799343364 26.254250311867509 0 26.254250311867509 -55.327638865550398 0 0 0 0 -4.0796928265087331 24.938325376100693 0 24.938325376100693 -42.414197382386192 0 0 0 0 95.911481995584381 -2.4385924560374406 0 -2.4385924560374406 -114.24954625788087 0 0 0 0 5.5504801437966806 1.3755421307435753 0 1.3755421307435753 0.26924336819684669 0 0 0 0 -3.3712481858808729 21.958654090332857 0 21.958654090332857 -53.889972951032178 0 0 0 0 2.0188890344291033 0.55647244442448596 0 0.55647244442448596 -0.063048409939923999 0 0 0 0 -17.010564563512673 36.85076883759757 0 36.85076883759757 -77.031828893497732 0 0 0 0 -3.7850234459673402 24.738949659024001 0 24.738949659024001 -68.196119534572063 0 0 0 0 -0.97011615773663706 -1.8843186118984789 0 -1.8843186118984789 -6.1445076379131862 0 0 0 0 52.210221274644937 -12.14004808507525 0 -12.14004808507525 -82.345313801972225 0 0 0 0 8.347482795934269 1.6155092890558365 0 1.6155092890558365 -1.7042990713187081 0 0 0 0 -0.019580520209501628 -41.494694576711481 0 -41.494694576711481 -34.753532476774126 0 0 0 0 -5.1810927179603823 -5.415019498381298 0 -5.415019498381298 -20.525174652197165 0 0 0 0 -32.065596500977335 -37.611252328006231 0 -37.611252328006231 53.686889462420368 0 0 0 0 -2.2099470826037759 18.407240193584585 0 18.407240193584585 2.5884109282160352 0 0 0 0 10.173291933370365 10.382170732726081 0 10.382170732726081 -90.804099180881167 0 0 0 0 0.073017558521832893 0.47384093853331422 0 0.47384093853331422 -1.2038611101833112 0 0 0 0 -3.401918395503003 29.338087495532818 0 29.338087495532818 -77.681893925921031 0 0 0 0 4.3445174037501602 5.1604681242024526 0 5.1604681242024526 -80.37116279660404 0 0 0 0 -0.023688939296960143 1.3315011149597922 0 1.3315011149597922 -53.13406635998399 0 0 0 0 5.3105398208165884 7.0713880526700592 0 7.0713880526700592 -12.432895313467522 0 0 0 0 -0.030609489586311156 1.6970020110506994 0 1.6970020110506994 -41.465284615318524 0 0 0 0 1.1345652590401869 13.948248417635114 0 13.948248417635114 -44.095154070106219 0 0 0 0 1.0579884403312008 16.296468365035253 0 16.296468365035253 -57.72397733436992 0 0 0 0 -3.4881306677547741 20.016257384478195 0 20.016257384478195 -44.531349033510196 0 0 0 0 -1.6870202896382125 15.418800184394058 0 15.418800184394058 -41.135348693802371 0 0 0 0 -1.2784795929828761 16.650907480139722 0 16.650907480139722 -45.356949130225985 0 0 0 0 -1.8423646313160589 18.107539263921353 0 18.107539263921353 -41.407175817912503 0 0 0 0 -3.6920481180478646 17.009660505489592 0 17.009660505489592 -48.557178707451385 0 0 0 0 -1.3736123818103181 14.638590619638308 0 14.638590619638308 -47.532955703100015 0 0 0 0 -3.9848289242809756 19.668682864848961 0 19.668682864848961 -38.764398827188415 0 0 0 0 -2.9174761428740794 4.6885764332764666 0 4.6885764332764666 -33.390729549784737 0 0 0 0 -3.4188047643351638 11.480030897248071 0 11.480030897248071 -30.045771860830428 0 0 0 0 4.2208094120774149 6.3975376742964727 0 6.3975376742964727 -32.313250556326238 0 0 0 0 -2.551855200192108 8.4914842700309237 0 8.4914842700309237 -17.997102756310596 0 0 0 0 -3.1491633288949288 17.537324816184992 0 17.537324816184992 -39.141198303783312 0 0 0 0 -1.205928546502264 17.347860211833904 0 17.347860211833904 -38.562406755590928 0 0 0 0 -0.1349597396815625 11.969909705811006 0 11.969909705811006 -35.406340699264547 0 0 0 0 1.5003967492280026 12.956664796269251 0 12.956664796269251 -34.842688948549039 0 0 0 0 1.1725385417257712 15.459620827526123 0 15.459620827526123 -40.760320710309315 0 0 0 0 -3.99378155769773 16.443302504885651 0 16.443302504885651 -40.982605291108484 0 0 0 0 -2.4473657785633804 17.799244016256125 0 17.799244016256125 -41.4365821313786 0 0 0 0 -8.9981471904857244 21.933776179183042 0 21.933776179183042 -46.997693682948011 0 0 0 0 -17.254984297474948 18.70811188623702 0 18.70811188623702 -37.306663048788323 0 0 0 0 -4.1630076283486233 11.681511981900258 0 11.681511981900258 -37.131397647914127 0 0 0 0 -10.608061201618057 14.578872755620978 0 14.578872755620978 -34.806397734719212 0 0 0 0 -5.6191159637762667 18.359125710710941 0 18.359125710710941 -40.279314441897441 0 0 0 0 -3.2552209777581993 17.173454859606863 0 17.173454859606863 -40.378112983133178 0 0 0 0 -6.8882388581781697 -7.4232237584783434 0 -7.4232237584783434 -0.63012574276217492 0 0 0 0 -13.583983815335614 9.3250324793261825 0 9.3250324793261825 -32.334329499168234 0 0 0 0 -1.0635765924541829 -0.060993887287622783 0 -0.060993887287622783 -30.393389807126368 0 0 0 0 -14.422713940887888 8.6076296616738546 0 8.6076296616738546 -32.892510412311822 0 0 0 0 0.77497161674341442 9.8810098688481958 0 9.8810098688481958 -31.094003256737778 0 0 0 0 3.4688120081048055 -6.6397366956498445 0 -6.6397366956498445 -33.905902410042472 0 0 0 0 3.19526223050525 -4.2912548886579316 0 -4.2912548886579316 -52.225308683788171 0 0 0 0 -6.7095401096148635 8.5366004551797232 0 8.5366004551797232 -38.724844497919548 0 0 0 0 1.063349535069392 6.3735251409816556 0 6.3735251409816556 -38.207106779394962 0 0 0 0 6.5106313838009555 16.128467327554972 0 16.128467327554972 -39.845152297169989 0 0 0 0 -3.5001516320594419 12.614279601762973 0 12.614279601762973 -39.717647717894579 0 0 0 0 -1.7109999348190286 15.900118855919573 0 15.900118855919573 -41.326331392087013 0 0 0 0 -0.81685284280700898 11.380491706599969 0 11.380491706599969 -41.795218626124552 0 0 0 0 2.0569706292785668 8.1355626085933181 0 8.1355626085933181 -39.088611918239621 0 0 0 0 1.0614215275807055 11.803036195953609 0 11.803036195953609 -48.634795318357646 0 0 0 0 0.026840044274194952 4.4081352818939195 0 4.4081352818939195 -34.415076628181851 0 0 0 0 4.1834042625326182 -6.8592442415750696 0 -6.8592442415750696 -12.826101479442549 0 0 0 0 4.7047866684430444 -2.2895951160908723 0 -2.2895951160908723 -9.2954144475781106 0 0 0 0 1.6571228791726753 7.6044816316425567 0 7.6044816316425567 -29.723992515195278 0 0 0 0 4.0915515243509617 4.9548524659294344 0 4.9548524659294344 -42.414725182745315 0 0 0 0 2.1695632487044918 1.703827644842022 0 1.703827644842022 -31.400822482813965 0 0 0 0 7.124346664941914 -7.5706516664374917 0 -7.5706516664374917 -8.4117436783361939 0 0 0 0 -4.4090609786903769 14.778580243262695 0 14.778580243262695 -47.732792081689695 0 0 0 0 1.2902320550441306 -0.98195603018822197 0 -0.98195603018822197 -4.1812095627417776 0 0 0 0 -1.5190619621257611 -0.49070083858532598 0 -0.49070083858532598 -42.386594658835747 0 0 0 0 4.1901989051300461 3.11803364057414 0 3.11803364057414 -51.89827167383919 0 0 0 0 2.0624405346811385 10.82722146033592 0 10.82722146033592 -7.9225591260600616 0 0 0 0 -37.414318968441421 15.86228366981959 0 15.86228366981959 59.179177382728085 0 0 0 0 27.768060785070475 -5.3162250255154504 0 -5.3162250255154504 -85.978681945669678 0 0 0 0 7.9960188609559282 -0.42771796895613079 0 -0.42771796895613079 -53.061769129822096 0 0 0 0 6.8425525471540869 10.753584641511267 0 10.753584641511267 -4.9930726602002267 0 0 0 0 4.9502993758578668 2.210667834526248 0 2.210667834526248 -48.75744131934789 0 0 0 0 3.8199143523034031 11.142253383261966 0 11.142253383261966 -5.3384999439062497 0 0 0 0 -0.89275102873057222 4.7306005092077612 0 4.7306005092077612 -32.380703201579308 0 0 0 0 3.5201026436745906 0.41154523613840865 0 0.41154523613840865 -29.259367995324283 0 0 0 0 4.8682896239453823 -0.88686017840695541 0 -0.88686017840695541 -5.9117720294352445 0 0 0 0 1.8987176227544396 5.7522615994839725 0 5.7522615994839725 -39.267482149916759 0 0 0 0 -0.20040841250811003 5.1477012082857243 0 5.1477012082857243 -34.916738323350629 0 0 0 0 -2.2768321383614776 2.969670545146073 0 2.969670545146073 -48.027623469998616 0 0 0 0 0.98132831775146712 7.7487885677729196 0 7.7487885677729196 -23.741564180902884 0 0 0 0 7.0077424687478924 -3.2571954131599341 0 -3.2571954131599341 -12.76048502309277 0 0 0 0 -1.8499144961533602 -0.19606708834908204 0 -0.19606708834908204 -85.002476255700458 0 0 0 0 -9.2279537359700043 30.659348578032223 0 30.659348578032223 -66.818479405366816 0 0 0 0 -0.12397596274695211 1.1646776474244191 0 1.1646776474244191 -4.7454331496759465 0 0 0 0 6.5078482103523694 -5.0124368172106273 0 -5.0124368172106273 -15.194169044123988 0 0 0 0 0.53744552339981055 6.2842947729332082 0 6.2842947729332082 -36.492205881542759 0 0 0 0 10.478656223801863 23.416221749772376 0 23.416221749772376 -92.973729979217751 0 0 0 0 -1.3316233250950518 -16.982437429654965 0 -16.982437429654965 -31.579933760571294 0 0 0 0 1.8690314005643813 -19.95578358246712 0 -19.95578358246712 -58.406100797772524 0 0 0 0 -6.2582023589261553 -10.256106517481385 0 -10.256106517481385 -21.235792462037352 0 0 0 0 16.510525116063491 -2.2363470418349607 0 -2.2363470418349607 -21.827526293242499 0 0 0 0 -0.87688624418129457 0.31155611727348287 0 0.31155611727348287 -4.8249554299770239 0 0 0 0 13.149228788193398 8.5973241536112255 0 8.5973241536112255 -14.705653728095058 0 0 0 0 -1.8830100414055551 8.7338987475741305 0 8.7338987475741305 -35.189338888994826 0 0 0 0 1.6115736830505023 -5.2191258579102069 0 -5.2191258579102069 -18.288101313029699 0 0 0 0 -6.9390284722392153 -23.184950633411063 0 -23.184950633411063 -71.476918386710167 0 0 0 0 6.2581749793131394 -2.2225301800699526 0 -2.2225301800699526 -45.829275646079623 0 0 0 0 1.6637318480540508 -7.1075972489313131 0 -7.1075972489313131 -19.189550936969134 0 0 0 0 3.5126493064119586 24.846369260238134 0 24.846369260238134 -29.505088809979497 0 0 0 0 8.8169443480053928 8.2005017682358812 0 8.2005017682358812 -49.295679571259825 0 0 0 0 5.8529440864165281 1.0002859544256353 0 1.0002859544256353 -43.460073105896299 0 0 0 0 7.0812161643711988 4.4116251752111566 0 4.4116251752111566 -29.420779375009943 0 0 0 0 -7.4757362751820438 0.90024524860928068 0 0.90024524860928068 -29.147675159951177 0 0 0 0 -0.0065166404539063194 9.9373934731226825 0 9.9373934731226825 -29.084779638872277 0 0 0 0 -0.35508733104076334 3.7139142649269847 0 3.7139142649269847 -0.40712484902812207 0 0 0 0 68.602963847419005 8.7454092434054473 0 8.7454092434054473 -42.008786209080426 0 0 0 0 -14.418158507639191 51.163774083488534 0 51.163774083488534 -10.725535365176256 0 0 0 0 1.7518652177883141 5.1719526481019145 0 5.1719526481019145 -7.3350020853870319 0 0 0 0 99.245062215581129 -56.636633912989055 0 -56.636633912989055 -65.719098224679328 0 0 0 0 58.066537182616685 58.075602632969094 0 58.075602632969094 -80.676574692268332 0 0 0 0 1.0817954688463942 40.843744707708538 0 40.843744707708538 -60.621205593954073 0 0 0 0 18.359490022344289 5.0356180455710273 0 5.0356180455710273 -71.775765450727476 0 0 0 0 -8.8840908742785416 -98.281459661953249 0 -98.281459661953249 -154.89057437078736 0 0 0 0 3.5315357763257467 27.352106236861943 0 27.352106236861943 -52.47166580602061 0 0 0 0 -3.0733392807069322 66.05387540643278 0 66.05387540643278 -75.492732890310435 0 0 0 0 23.343835234688413 18.750759560112783 0 18.750759560112783 -50.850538238191803 0 0 0 0 -0.84120684326088035 0.42208073118218437 0 0.42208073118218437 -0.19749247040913076 0 0 0 0 -22.110709071962219 33.332585772426683 0 33.332585772426683 -1.4811605631600742 0 0 0 0 -22.808892416748904 45.028117542326072 0 45.028117542326072 -43.822730575273454 0 0 0 0 1.0105715441929988 21.509845208558545 0 21.509845208558545 -119.33011731965235 0 0 0 0 -1.4108603342378956 11.326298653249978 0 11.326298653249978 -40.952812850281589 0 0 0 0 -2.0803256637332197 14.150301106921688 0 14.150301106921688 -50.293462353327413 0 0 0 0 0.02344162127974414 15.322946509350004 0 15.322946509350004 -52.563683700755064 0 0 0 0 -5.703899407643803 -40.895125025195739 0 -40.895125025195739 -105.01270617310638 0 0 0 0 5.6033184834941494 -2.1692804211124894 0 -2.1692804211124894 -78.849264248849067 0 0 0 0 5.8369970063160963 -5.587517926171131 0 -5.587517926171131 -39.678502846723859 0 0 0 0 -2.7228809461324772 -30.501269431983019 0 -30.501269431983019 -44.673321478665457 0 0 0 0 -5.2387239702638908 -33.866189888223744 0 -33.866189888223744 -48.624335205466195 0 0 0 0 -13.630786553874714 -27.405653006582725 0 -27.405653006582725 -36.336340249406931 0 0 0 0 2.7154376979497101 -46.727857654957916 0 -46.727857654957916 -39.029128269758075 0 0 0 0 -47.838041939591676 57.722674179694877 0 57.722674179694877 -53.605409051153401 0 0 0 0 -80.350084282548778 -28.543429632154584 0 -28.543429632154584 -41.983545645212871 0 0 0 0 9.686570980468332 -20.148630970026716 0 -20.148630970026716 -43.805920852194504 0 0 0 0 32.691612267189612 37.126291026936087 0 37.126291026936087 -61.393408770768474 0 0 0 0 -14.675362138405035 -13.709489246233716 0 -13.709489246233716 -28.346080652758246 0 0 0 0 20.368745274696494 -12.667697255694293 0 -12.667697255694293 -30.749454814038472 0 0 0 0 32.977150249367014 12.984783218649682 0 12.984783218649682 -22.070227365048595 0 0 0 0 21.584889234278307 14.784349665389527 0 14.784349665389527 17.145629468257539 0 0 0 0 45.451119250770262 14.68795373940884 0 14.68795373940884 -11.337456551973446 0 0 0 0 -0.93854559920427505 -50.648865484773069 0 -50.648865484773069 -42.941015120857628 0 0 0 0 25.542258746572998 -33.511998889716779 0 -33.511998889716779 -68.450300519292796 0 0 0 0 27.095785964739889 -17.652947618553299 0 -17.652947618553299 -42.289358783187708 0 0 0 0 16.51676924807532 -23.254877820274487 0 -23.254877820274487 -32.790351451629249 0 0 0 0 41.934033547363015 3.9650251919665607 0 3.9650251919665607 14.269880939813447 0 0 0 0 43.843578673462162 16.280627459298557 0 16.280627459298557 -12.049992762025795 0 0 0 0 40.931133068094596 -14.569554356592562 0 -14.569554356592562 -47.547905409639498 0 0 0 0 -0.75682651855344796 2.0290643564287976 0 2.0290643564287976 -7.3109984039908511 0 0 0 0 64.506355658847738 38.708217176985499 0 38.708217176985499 -10.938345052854856 0 0 0 0 68.032050708674433 7.6337215067287616 0 7.6337215067287616 -16.318248797470005 0 0 0 0 35.849586149472771 21.669030014661985 0 21.669030014661985 -36.924293629970634 0 0 0 0 0.7965568848106841 -4.2897183493132616 0 -4.2897183493132616 -5.3570658200769685 0 0 0 0 -0.22167875615409632 1.4441958447432652 0 1.4441958447432652 -14.080091495252461 0 0 0 0 -41.765480174072195 39.797781336739718 0 39.797781336739718 -27.963647900225624 0 0 0 0 -2.2165457477977135 0.10867290407735553 0 0.10867290407735553 -7.6448551800589541 0 0 0 0 -6.9344874092253121 26.497431500998573 0 26.497431500998573 -19.151118900223082 0 0 0 0 1.700287459102924 7.2002078928944684 0 7.2002078928944684 -24.769949579345848 0 0 0 0 -1.203143018454663 6.418832425856202 0 6.418832425856202 -22.871675792120342 0 0 0 0 -12.035313011729642 -41.324775554739972 0 -41.324775554739972 -25.373830101851127 0 0 0 0 -10.041429093134354 10.221634867899411 0 10.221634867899411 -1.8145744250141433 0 0 0 0 -9.9171527477378874 4.8629739423058709 0 4.8629739423058709 -45.501513857288955 0 0 0 0 23.646209926365959 -11.16700751201763 0 -11.16700751201763 -27.575440216605784 0 0 0 0 0.048590301846996524 -0.89655948886911063 0 -0.89655948886911063 -9.5842380072330826 0 0 0 0 34.978467040038709 -25.036789160711123 0 -25.036789160711123 -66.328140511948732 0 0 0 0 -7.875303918115037 0.42295609537359269 0 0.42295609537359269 -24.117816241370747 0 0 0 0 -9.6293350360392651 -2.5241599073706311 0 -2.5241599073706311 -4.7803881594563791 0 0 0 0 106.05381886540137 -6.1702749885520234 0 -6.1702749885520234 -31.736545017578464 0 0 0 0 -0.90133850521983305 2.5481321618910471 0 2.5481321618910471 -4.6727502346724918 0 0 0 0 110.53950737269463 71.933091546206924 0 71.933091546206924 14.185304978162318 0 0 0 0 -16.411840835514113 -20.594808823905623 0 -20.594808823905623 -17.600752087131696 0 0 0 0 -39.663440612535169 26.623690040461952 0 26.623690040461952 -38.047080862123039 0 0 0 0 13.678273323337578 60.836467114132574 0 60.836467114132574 -294.28719983963674 0 0 0 0 10.234455096474619 -33.573789317912087 0 -33.573789317912087 -272.80004942985397 0 0 0 0 16.29358315002014 12.081372711061704 0 12.081372711061704 -69.996381161039608 0 0 0 0 51.371571027999231 -45.466851321679655 0 -45.466851321679655 -25.314791283097293 0 0 0 0 39.190953159796095 24.817639496512129 0 24.817639496512129 -90.50578129299538 0 0 0 0 4.5147518806721223 68.891192837455492 0 68.891192837455492 2.3137101318061468 0 0 0 0 45.940666905229818 80.579192976874765 0 80.579192976874765 -264.37841352009286 0 0 0 0 44.175673451924013 2.147234247506276 0 2.147234247506276 -319.25115763109989 0 0 0 0 -132.55433866069336 -106.89740471337086 0 -106.89740471337086 -93.967656569300743 0 0 0 0 -186.87729326962176 160.96238759098924 0 160.96238759098924 -121.9587590145602 0 0 0 0 -76.677526008427549 96.153499781898063 0 96.153499781898063 -74.312232823452177 0 0 0 0 -0.12463433597559467 -0.31255359663916105 0 -0.31255359663916105 -3.5599484737634839 0 0 0 0 -120.79425333117968 -152.26353072190864 0 -152.26353072190864 -122.3149349463929 0 0 0 0 53.944158817762798 -47.405514387948642 0 -47.405514387948642 -301.47397093047402 0 0 0 0 66.324223530392629 3.2888673764156238 0 3.2888673764156238 -24.773284524988412 0 0 0 0 53.708475077197832 172.67333003191948 0 172.67333003191948 -39.378136727103993 0 0 0 0 -104.53980137556391 88.921239152252383 0 88.921239152252383 77.519396387375309 0 0 0 0 1.8903470784342506 16.138034764036476 0 16.138034764036476 -30.435764781931525 0 0 0 0 14.632004381463958 97.933106911375944 0 97.933106911375944 66.712313863514282 0 0 0 0 -301.22209698027115 -155.623841220651 0 -155.623841220651 -114.52218851169346 0 0 0 0 -333.39864916124924 -258.05450932285021 0 -258.05450932285021 -225.12783378973836 0 0 0 0 -53.811149884785998 -133.60474335083927 0 -133.60474335083927 -1001.0337066514621 0 0 0 0 -35.699661868967354 -0.065271296198943674 0 -0.065271296198943674 -127.888029317357 0 0 0 0 -129.94775124984955 -264.64373822959169 0 -264.64373822959169 -1046.8490142408336 0 0 0 0 -659.99815823455333 -245.50190646540796 0 -245.50190646540796 -93.667873272188444 0 0 0 0 -2.7389682332155667 0.42282778322152126 0 0.42282778322152126 -9.3973126541337493 0 0 0 0 -10.242108632669442 64.780605424019086 0 64.780605424019086 -151.82940268865786 0 0 0 0 -2.547050543553099 8.6941980085251984 0 8.6941980085251984 -17.043536326438669 0 0 0 0 -113.84934314424021 -426.30112293161619 0 -426.30112293161619 -911.41766883420496 0 0 0 0 -45.016838061975839 -478.83093609490606 0 -478.83093609490606 -1501.0789484221823 0 0 0 0 -158.77490599774859 -303.02021443921149 0 -303.02021443921149 -1093.4592427661264 0 0 0 0 -210.54612724461205 -395.16910340005961 0 -395.16910340005961 -953.61556809558897 0 0 0 0 -402.18103118303571 -63.164128191404416 0 -63.164128191404416 -677.86993651814555 0 0 0 0 105.76011194528387 228.81551316963305 0 228.81551316963305 -1494.8032086263302 0 0 0 0 -379.41276291964368 -838.56843180609758 0 -838.56843180609758 -1498.4160153243295 0 0 0 0 -669.80017397927327 -136.46161088767985 0 -136.46161088767985 102.71207226689876 0 0 0 0 -4.7399057064767858 3.2035010425729027 0 3.2035010425729027 -5.6424448653634087 0 0 0 0 -235.36497750826859 -536.97736936781803 0 -536.97736936781803 -867.52953354146666 0 0 0 0 -9.1245756779557841 11.796571370251826 0 11.796571370251826 -12.37455405082045 0 0 0 0 -25.250287797935016 122.85179576245719 0 122.85179576245719 -35.896498928021174 0 0 0 0 -116.07461159317782 -202.73152255045898 0 -202.73152255045898 -801.19854266550783 0 0 0 0 6.7434458421543404 4.9264145104082928 0 4.9264145104082928 -12.537628911867301 0 0 0 0 -1.5782543447872399 9.8085154234140646 0 9.8085154234140646 -21.288873550602148 0 0 0 0 112.04482112900496 -57.869358093335904 0 -57.869358093335904 8.7414839855719038 0 0 0 0 54.273126112464524 76.318989621522633 0 76.318989621522633 -183.29394244123159 0 0 0 0 -61.684418384406513 223.3837488811314 0 223.3837488811314 -134.2742182483853 0 0 0 0 1.3999151150386431 1.5443235400069355 0 1.5443235400069355 -1.4801735147946999 0 0 0 0 3.1511117032798071 2.4880556458398573 0 2.4880556458398573 0.090249398360505495 0 0 0 0 5.7214138271071988 11.2732607504513 0 11.2732607504513 -17.852727208082797 0 0 0 0 -231.03103559879787 41.921896864409064 0 41.921896864409064 -14.368772578838616 0 0 0 0 20.415167112852004 -60.452608383312509 0 -60.452608383312509 31.029135850752937 0 0 0 0 -0.16408377234132843 -3.9652068016482644 0 -3.9652068016482644 60.474269282109162 0 0 0 0 1.4880832689532015 10.347449152085247 0 10.347449152085247 -4.5590078617081247 0 0 0 0 7.2059339000791169 4.4208659231917409 0 4.4208659231917409 45.447742468837532 0 0 0 0 -36.637908190242968 -34.74915854482424 0 -34.74915854482424 40.835701465897728 0 0 0 0 -12.277594772373959 2.9481552405341063 0 2.9481552405341063 -36.945918311175774 0 0 0 0 -42.641026455452902 -36.239317427474816 0 -36.239317427474816 15.263644808255776 0 0 0 0 55.538559763116154 17.161321399107692 0 17.161321399107692 -98.396789143862406 0 0 0 0 0.1654000300219951 -0.5090867531441603 0 -0.5090867531441603 -1.0350003941166221 0 0 0 0 143.98768682301295 632.17582200538163 0 632.17582200538163 -1497.7898271372633 0 0 0 0 2.0824672960631005 -13.346890364409774 0 -13.346890364409774 -4.0576892907611182 0 0 0 0 -133.82963835950974 137.15503416506908 0 137.15503416506908 -162.86100872022325 0 0 0 0 -22.61095271477808 -4.226736375465407 0 -4.226736375465407 -14.255900402375119 0 0 0 0 0.91987345630977391 0.081575316855236224 0 0.081575316855236224 -0.17982372913963474 0 0 0 0 -97.671329156632055 284.29872410633288 0 284.29872410633288 -411.89176791705904 0 0 0 0 -223.91296784529663 354.06145695383384 0 354.06145695383384 -251.65045903722967 0 0 0 0 23.60813471444493 173.0675281154945 0 173.0675281154945 -457.86348376815295 0 0 0 0 -437.10095582419882 845.8728149742019 0 845.8728149742019 -780.75843470791733 0 0 0 0 -877.45985343858217 435.83850587949883 0 435.83850587949883 28.943682135268318 0 0 0 0 181.987629895678 308.6489729999912 0 308.6489729999912 -977.85078640526535 0 0 0 0 -151.82563933565461 336.23111133120801 0 336.23111133120801 -394.79713704004826 0 0 0 0 -3.237032157520332 431.81499188317321 0 431.81499188317321 -845.52200103692849 0 0 0 0 -45.483938215969133 204.48588710621698 0 204.48588710621698 -444.90815374087924 0 0 0 0 -101.54458667809718 181.07682637800099 0 181.07682637800099 -245.61897723291986 0 0 0 0 82.069258820958197 178.04975357989338 0 178.04975357989338 -639.14425470824062 0 0 0 0 84.336089655863475 160.59405449533551 0 160.59405449533551 -532.46125822111571 0 0 0 0 37.801184241807007 -60.0096473498661 0 -60.0096473498661 -75.641713301462005 0 0 0 0 0.49700987348090675 -0.14190720919722821 0 -0.14190720919722821 -0.59337589251990153 0 0 0 0 28.81913115810994 -71.887668303505052 0 -71.887668303505052 22.762691360112512 0 0 0 0 30.302811065719496 2.8160115213111112 0 2.8160115213111112 -19.541069996615988 0 0 0 0 25.265640747544992 33.052847151285732 0 33.052847151285732 -96.903047144827724 0 0 0 0 -38.353882342638542 37.952198408664117 0 37.952198408664117 -42.41521219207516 0 0 0 0 -36.356486653584341 41.85661687693937 0 41.85661687693937 -125.28044063519496 0 0 0 0 -24.892400219772597 30.10276321953279 0 30.10276321953279 -113.42618201585719 0 0 0 0 -64.496338725748046 20.589339184720302 0 20.589339184720302 -115.16220917199098 0 0 0 0 9.8093400782307754 17.788915483979508 0 17.788915483979508 -255.08547582007827 0 0 0 0 -10.96578948153774 -61.177610443020967 0 -61.177610443020967 -27.907248007022645 0 0 0 0 -64.443492558488828 17.740001317026326 0 17.740001317026326 -20.421607179778221 0 0 0 0 11.633346552550847 26.348610997269134 0 26.348610997269134 4.5074286792150815 0 0 0 0 0.37621404093382926 -0.31172421468886569 0 -0.31172421468886569 -1.3736116992583476 0 0 0 0 39.919995261631243 214.6242171957274 0 214.6242171957274 -378.57522429125675 0 0 0 0 47.855382771173367 118.91217585451523 0 118.91217585451523 -288.65141661207599 0 0 0 0 -0.54423566981995242 1.0703018172349843 0 1.0703018172349843 -1.9752905548851203 0 0 0 0 37.516695390812941 -99.946181047812388 0 -99.946181047812388 -411.42104754710454 0 0 0 0 -57.905082468704364 -31.03363433614868 0 -31.03363433614868 -392.90760190344736 0 0 0 0 -35.053997986879125 118.07636034782627 0 118.07636034782627 -175.44507766229435 0 0 0 0 -13.858965650788235 24.616722738655881 0 24.616722738655881 -254.35177010412735 0 0 0 0 -9.258853817748161 -49.194998233931983 0 -49.194998233931983 -132.59676114203103 0 0 0 0 -59.99112679159424 110.06314906017633 0 110.06314906017633 -55.061858690329245 0 0 0 0 -12.013206300628497 21.499020390590886 0 21.499020390590886 -88.705025436940559 0 0 0 0 56.381076387602889 174.9083077060277 0 174.9083077060277 -12.319413664306921 0 0 0 0 14.04612600960013 -9.017838687846961 0 -9.017838687846961 64.327941891840965 0 0 0 0 -10.407973183804103 39.651077276006617 0 39.651077276006617 -14.031998496626329 0 0 0 0 7.2403646499130616 -36.958841970325011 0 -36.958841970325011 -49.37799837624334 0 0 0 0 27.504945539245909 13.500121125889564 0 13.500121125889564 -6.4329114741703961 0 0 0 0 -31.797536499796749 43.692398227589365 0 43.692398227589365 -99.559592607532977 0 0 0 0 -17.841678649058537 -35.221284313740398 0 -35.221284313740398 -78.653884653082059 0 0 0 0 -81.351530201236983 73.027889582514035 0 73.027889582514035 -181.70725120892894 0 0 0 0 -14.678300085984347 -25.891867684278623 0 -25.891867684278623 -161.24061611622892 0 0 0 0 -45.941184530078544 4.5482060355025169 0 4.5482060355025169 -152.00409965210201 0 0 0 0 5.9507689262098893 -0.79324860949964204 0 -0.79324860949964204 -299.97846392349311 0 0 0 0 -31.141366992528901 104.44253327808838 0 104.44253327808838 -322.79438476920041 0 0 0 0 -12.475588868761065 94.170983612080818 0 94.170983612080818 -324.64284794918785 0 0 0 0 -22.635811317273806 67.700376023914941 0 67.700376023914941 44.52982324218101 0 0 0 0 -3.8535340372493465 -4.7273198930124636 0 -4.7273198930124636 -321.49077021908306 0 0 0 0 -0.94174237753978174 0.07342034952047527 0 0.07342034952047527 -0.8541610978562062 0 0 0 0 -41.015549612316306 115.81238058706367 0 115.81238058706367 -59.145025202382385 0 0 0 0 -39.159365324233704 120.99403250146861 0 120.99403250146861 -119.40080648709568 0 0 0 0 -24.641879822833118 28.454232096055421 0 28.454232096055421 -164.89225726941368 0 0 0 0 -32.376395650509807 109.56089454637549 0 109.56089454637549 -152.4245130123636 0 0 0 0 -27.113022968257155 4.5722855698986677 0 4.5722855698986677 -69.025669741735328 0 0 0 0 28.888183257282378 -24.734918325400031 0 -24.734918325400031 -230.71362458991644 0 0 0 0 29.278312286101482 -27.685726021147275 0 -27.685726021147275 -215.75037063621858 0 0 0 0 42.512817525086291 8.9543592696568339 0 8.9543592696568339 -222.58945576970291 0 0 0 0 44.120596818923332 -1.0765243507412379 0 -1.0765243507412379 -227.4359910410094 0 0 0 0 20.083228085790324 -9.0886109792409115 0 -9.0886109792409115 -170.61392088248249 0 0 0 0 5.9563074424459046 19.138339940796868 0 19.138339940796868 -209.8008488793057 0 0 0 0 3.5538482886295242 16.453237036894279 0 16.453237036894279 -164.79760101751071 0 0 0 0 -23.199726952323317 -86.277023409529647 0 -86.277023409529647 -143.45628870370638 0 0 0 0 -0.66120436201929023 -0.61453284064168656 0 -0.61453284064168656 0.29264173472336097 0 0 0 0 -150.87926244022879 -47.11432378966856 0 -47.11432378966856 -222.00514199532518 0 0 0 0 6.2501447418792395 -32.468911968637258 0 -32.468911968637258 -222.03852554660261 0 0 0 0 29.390674618682624 -24.649853042981704 0 -24.649853042981704 -230.70017451344393 0 0 0 0 11.03710466008215 -70.47065342640235 0 -70.47065342640235 -342.37080851441715 0 0 0 0 32.312845622953773 4.6073252786409284 0 4.6073252786409284 -253.30472402957821 0 0 0 0 31.162607221504913 44.413244348521403 0 44.413244348521403 -354.57154687196817 0 0 0 0 3.2891676654226103 85.274518033151253 0 85.274518033151253 -254.98125069915841 0 0 0 0 37.4196987874775 17.022281783465587 0 17.022281783465587 -153.90553523901326 0 0 0 0 35.556883583624938 44.094023985506965 0 44.094023985506965 -176.52295898458397 0 0 0 0 39.88636215702536 -19.447570903004817 0 -19.447570903004817 -253.57829186075833 0 0 0 0 57.880426848352727 16.666956228684285 0 16.666956228684285 -258.71397367550526 0 0 0 0 45.265523382665833 16.14234256497366 0 16.14234256497366 -228.45469288384629 0 0 0 0 50.04721447783686 10.019220642796427 0 10.019220642796427 -229.14547325787134 0 0 0 0 50.441174034598035 20.07749879004723 0 20.07749879004723 -226.3320738790062 0 0 0 0 61.239125259925999 24.973893114130078 0 24.973893114130078 -225.12541130931641 0 0 0 0 60.194523954914075 13.126603496828466 0 13.126603496828466 -230.5698241727805 0 0 0 0 33.389758417962184 9.1932310663323733 0 9.1932310663323733 -185.33749408413132 0 0 0 0 26.230919046678537 14.777948987604759 0 14.777948987604759 -127.12206209173405 0 0 0 0 20.438749895023193 -22.52661520075344 0 -22.52661520075344 -232.33556781348307 0 0 0 0 -2.8279291552735231 -37.659381213539746 0 -37.659381213539746 -112.93791128826888 0 0 0 0 -32.463724444734225 44.082547638776305 0 44.082547638776305 -192.19320895425335 0 0 0 0 35.386261656433817 41.132485354828532 0 41.132485354828532 -258.36070277314866 0 0 0 0 -66.784652546282814 12.408442195719545 0 12.408442195719545 -273.47739084815839 0 0 0 0 -4.9364850788622281 -3.1126559299442675 0 -3.1126559299442675 -2.8177111333227174 0 0 0 0 -2.6745819324410336 2.1930097735979288 0 2.1930097735979288 -1.63837885637043 0 0 0 0 5.1255762335922554 -184.99915134715411 0 -184.99915134715411 58.249199443203906 0 0 0 0 20.846650799064037 220.17293302801045 0 220.17293302801045 -663.80707547879865 0 0 0 0 299.8547128643404 -775.67836635360436 0 -775.67836635360436 -793.74024295112758 0 0 0 0 44.4864713501388 -39.303821359906578 0 -39.303821359906578 -359.04932382253901 0 0 0 0 -115.80161414994245 171.11370878640082 0 171.11370878640082 -322.58625879442616 0 0 0 0 6.7086144979020901 -51.269064531628828 0 -51.269064531628828 101.09845238540584 0 0 0 0 92.270243771281457 -8.5631870673096273 0 -8.5631870673096273 -12.703484527060937 0 0 0 0 -14.248983068761845 -93.773612036486156 0 -93.773612036486156 19.250396887820898 0 0 0 0 31.256361346195263 -88.525605765207729 0 -88.525605765207729 19.830164951141342 0 0 0 0 -9.2411007478113074 -12.336847942814792 0 -12.336847942814792 -8.8038966404095333 0 0 0 0 -1.0363539766349277 15.482657228261814 0 15.482657228261814 -175.82390203130672 0 0 0 0 2.3217495513476933 12.554127149953274 0 12.554127149953274 -176.82244933149559 0 0 0 0 8.2575938999871141 -58.893559388045105 0 -58.893559388045105 13.095306536735734 0 0 0 0 96.810741856740606 -19.122386379258387 0 -19.122386379258387 -55.406822521734284 0 0 0 0 103.62137877116402 -31.958512086966948 0 -31.958512086966948 -69.113552961178357 0 0 0 0 28.151101843911647 58.885990498742103 0 58.885990498742103 -44.079607522784499 0 0 0 0 -1.0115009051183508 -6.01012927961591 0 -6.01012927961591 1.9358249935012388 0 0 0 0 31.040390831289809 -5.7295485447738912 0 -5.7295485447738912 -11.188298012511709 0 0 0 0 -46.8231628688618 -44.315680165018421 0 -44.315680165018421 -65.435721268149791 0 0 0 0 -16.975991228576731 70.473284668771157 0 70.473284668771157 -59.145576367285685 0 0 0 0 7.1070674596497465 -0.28784975214031761 0 -0.28784975214031761 -0.71411956644043073 0 0 0 0 7.8160905295641214 30.2108249773446 0 30.2108249773446 -18.576748315223085 0 0 0 0 15.964569093440495 -2.7846326295468486 0 -2.7846326295468486 -0.4339181661967757 0 0 0 0 92.231466003113383 -24.262109861192585 0 -24.262109861192585 -66.619578769708824 0 0 0 0 103.74129187794324 -50.517318450736639 0 -50.517318450736639 -142.03560344512516 0 0 0 0 73.940855088863827 -66.189187655232672 0 -66.189187655232672 -110.59051055143937 0 0 0 0 79.555890235506013 -10.825507619432756 0 -10.825507619432756 -80.260568652225629 0 0 0 0 80.49438209062464 -40.670640243974049 0 -40.670640243974049 -36.525493789093161 0 0 0 0 167.48880766890488 194.08168376829053 0 194.08168376829053 9.5843756543727068 0 0 0 0 -10.928553472487238 1.8873195619453327 0 1.8873195619453327 -115.33714502854855 0 0 0 0 70.964361099446023 -33.056426896706398 0 -33.056426896706398 -124.45644566661213 0 0 0 0 139.16716921246461 14.666644512850326 0 14.666644512850326 -161.26491118867125 0 0 0 0 82.463458293545045 18.499576671369141 0 18.499576671369141 -145.14178133546511 0 0 0 0 137.10458167561325 -30.127946634556793 0 -30.127946634556793 -233.34472806399572 0 0 0 0 220.02017779558491 99.137810673721106 0 99.137810673721106 -125.18243290723498 0 0 0 0 -6.3853589279477028 9.4010357112860916 0 9.4010357112860916 -12.298274667965103 0 0 0 0 87.686552825714443 -31.134945547099051 0 -31.134945547099051 -73.052000956386109 0 0 0 0 76.391079519622281 14.09826586717827 0 14.09826586717827 45.121290562958166 0 0 0 0 -6.2024696244964028 12.597207372432493 0 12.597207372432493 -17.331176600650409 0 0 0 0 -34.580555587907327 61.257791273739713 0 61.257791273739713 -208.59820933972514 0 0 0 0 -33.491877082357959 -45.19251406894854 0 -45.19251406894854 -154.75298850894615 0 0 0 0 2.2648172490859224 -4.806558551339549 0 -4.806558551339549 -15.359632180559856 0 0 0 0 0.22494136106000706 -4.0771242849252758 0 -4.0771242849252758 -3.2931980909617309 0 0 0 0 55.999020459397798 16.424083341655205 0 16.424083341655205 -22.160046385979513 0 0 0 0 -131.39206213270154 -148.1672551552183 0 -148.1672551552183 76.927126414731902 0 0 0 0 13.106022707554793 -3.9602886024402935 0 -3.9602886024402935 -14.910467516807728 0 0 0 0 146.34615364365163 140.53696776909055 0 140.53696776909055 92.153481967747211 0 0 0 0 40.321705492001911 1.4790820391208399 0 1.4790820391208399 -19.659569148334413 0 0 0 0 39.535236248827687 4.9454020593802852 0 4.9454020593802852 -15.704069555496972 0 0 0 0 0.99896017858649166 2.6111653400623283 0 2.6111653400623283 -7.9219447201624575 0 0 0 0 39.764660012746845 -0.16314282753955922 0 -0.16314282753955922 -16.010452262946501 0 0 0 0 1.0541118107306278 2.0986577626051357 0 2.0986577626051357 -4.9580162364064222 0 0 0 0 39.715057780828602 -1.8067498494201573 0 -1.8067498494201573 -25.450324410332541 0 0 0 0 23.896410449379232 63.503606093179769 0 63.503606093179769 -536.0340866923143 0 0 0 0 9.8213685952604237 131.42386264435117 0 131.42386264435117 -433.57044735298041 0 0 0 0 69.015842297945312 -10.217066931838417 0 -10.217066931838417 -598.99022514283752 0 0 0 0 85.554172629047017 47.023216130168294 0 47.023216130168294 -794.84117320348014 0 0 0 0 151.48882550209362 83.574208804502632 0 83.574208804502632 -999.80808823851476 0 0 0 0 235.85428855634754 279.00459568115184 0 279.00459568115184 -1408.705379848041 0 0 0 0 184.98649562552285 296.63590756044869 0 296.63590756044869 -929.76900763789808 0 0 0 0 -31.202113294824827 328.46347849301219 0 328.46347849301219 -1419.8715013585461 0 0 0 0 101.49307472092308 165.83911495997927 0 165.83911495997927 -1500.6878803971267 0 0 0 0 -12.849910972738556 -261.1907734037577 0 -261.1907734037577 -2022.4611057630573 0 0 0 0 -11.826223427084951 -47.448843259691785 0 -47.448843259691785 -794.03019327450966 0 0 0 0 61.938782959615708 -107.01062232820186 0 -107.01062232820186 -959.81092919069852 0 0 0 0 -5.397937200196453 -128.75942352303218 0 -128.75942352303218 -835.6379693903873 0 0 0 0 -15.498590432126775 -149.47029768629727 0 -149.47029768629727 -401.27719918672847 0 0 0 0 -2.7322047747300879 3.4920616001644618 0 3.4920616001644618 -5.3825238012121304 0 0 0 0 -318.98667654901141 549.68519049605857 0 549.68519049605857 -611.35328949730319 0 0 0 0 -286.20935329405393 235.72573451112112 0 235.72573451112112 177.41106607456095 0 0 0 0 -0.0051984533887944467 38.069485229206293 0 38.069485229206293 -1135.0497539917014 0 0 0 0 39.412084625096703 94.045612253276886 0 94.045612253276886 -1498.683878575762 0 0 0 0 125.98117558385215 446.27036842649613 0 446.27036842649613 -1288.4664333000037 0 0 0 0 -282.89477573396448 2.4514279847244325 0 2.4514279847244325 -1373.4909497491826 0 0 0 0 -11.464295777827644 168.09084211687514 0 168.09084211687514 -773.21027997125566 0 0 0 0 -17.554864965363763 279.86390892812051 0 279.86390892812051 -702.18477371397603 0 0 0 0 33.656204427093499 153.65857035994122 0 153.65857035994122 -714.20454038215757 0 0 0 0 -0.5040517222138754 47.007170495053025 0 47.007170495053025 -506.38446513567033 0 0 0 0 -0.22426789494947225 0.77760477436079611 0 0.77760477436079611 -0.98153344887990812 0 0 0 0 40.3014743987803 -87.058529351317702 0 -87.058529351317702 -679.05622497616605 0 0 0 0 -86.272054492548108 -10.984224718397854 0 -10.984224718397854 -145.54508301769602 0 0 0 0 1.4395630580741563 0.15300414904123727 0 0.15300414904123727 -0.44080998704301422 0 0 0 0 -12.876785445675296 74.110899298320874 0 74.110899298320874 -418.41504410951893 0 0 0 0 -85.987640905750681 137.85675127081413 0 137.85675127081413 -364.7957560718969 0 0 0 0 -70.570154566424463 104.16385685668502 0 104.16385685668502 -292.27575478604558 0 0 0 0 -66.575471432904521 55.839345713776773 0 55.839345713776773 -202.11682561202906 0 0 0 0 -66.160622579548289 383.78711303727687 0 383.78711303727687 -567.19544810867956 0 0 0 0 29.898839961465683 8.5247549985433579 0 8.5247549985433579 -349.76949872236946 0 0 0 0 1.7643019943393408 -1.0074233026583954 0 -1.0074233026583954 0.30462510304195689 0 0 0 0 2.8893125269549387 70.149424268660368 0 70.149424268660368 2.2301774861189188 0 0 0 0 -117.98653307882114 -2.6130982668728393 0 -2.6130982668728393 -241.38693390733533 0 0 0 0 -35.016404353782946 -106.25367785379376 0 -106.25367785379376 -122.66178183068405 0 0 0 0 7.6398970345262569 1.0053094371753417 0 1.0053094371753417 -0.43652810518678464 0 0 0 0 -127.1067206904147 2.9182556755913538 0 2.9182556755913538 -57.740984439667955 0 0 0 0 28.91667830049537 -39.040320696670278 0 -39.040320696670278 -16.9577419520283 0 0 0 0 -358.46722696982943 295.96515743776399 0 295.96515743776399 -319.06195160307107 0 0 0 0 -50.067833442295068 -316.95379829432932 0 -316.95379829432932 -202.88751869214684 0 0 0 0 81.363637579399608 -5.8061401388185914 0 -5.8061401388185914 -211.37484803977713 0 0 0 0 15.028157237919913 -165.18029490562185 0 -165.18029490562185 -156.80204410951046 0 0 0 0 183.68703487054086 -211.1871102202349 0 -211.1871102202349 -469.51061219067924 0 0 0 0 94.26411698909078 -61.906335242121713 0 -61.906335242121713 -422.76937471247948 0 0 0 0 -167.40758932430299 247.68661772261839 0 247.68661772261839 -701.47531991809774 0 0 0 0 322.1259750214075 -19.809939663944533 0 -19.809939663944533 -710.83856809232384 0 0 0 0 -1.370545554199184 -0.43012443863975136 0 -0.43012443863975136 -1.6723175650753177 0 0 0 0 114.60703715013182 114.08318955947288 0 114.08318955947288 -234.80876084921329 0 0 0 0 -1.6168232717052486 2.4670623670085092 0 2.4670623670085092 -2.8391104465314498 0 0 0 0 -268.42431322292782 -145.64961634225619 0 -145.64961634225619 -88.147963069481193 0 0 0 0 4.8247084091649413 -194.34298741631756 0 -194.34298741631756 64.943014969481737 0 0 0 0 -49.393662147931536 -66.304978044208838 0 -66.304978044208838 129.9019181623953 0 0 0 0 1.1860878856919244 1.04882670812637 0 1.04882670812637 -3.3487173793008225 0 0 0 0 -10.671088811964182 11.24320318145692 0 11.24320318145692 432.94440382734501 0 0 0 0 -10.464216524778749 -29.928818857508304 0 -29.928818857508304 -46.273918842285639 0 0 0 0 8.4017319234445722 -117.00373121060989 0 -117.00373121060989 -235.15613283200946 0 0 0 0 -24.770785161396816 -71.004227356690535 0 -71.004227356690535 19.779144769767299 0 0 0 0 5.7653923410216521 -84.096070348801732 0 -84.096070348801732 24.612081868559471 0 0 0 0 -1.6733242641304757 1.8504935846858857 0 1.8504935846858857 -1.4719507149240059 0 0 0 0 -57.975954028317801 -67.772928756443434 0 -67.772928756443434 -59.66077196184051 0 0 0 0 219.05345403040246 -203.14748929782218 0 -203.14748929782218 -491.65770778950537 0 0 0 0 -88.565456734822433 270.26987499035022 0 270.26987499035022 -671.19983260928711 0 0 0 0 26.17117243876055 -237.42714331206662 0 -237.42714331206662 -248.45176071274818 0 0 0 0 6.6815611801584964 -212.71588997446088 0 -212.71588997446088 -152.06484917098715 0 0 0 0 -198.54654934762902 3.4919997639754001 0 3.4919997639754001 128.61543148979399 0 0 0 0 11.28588193258512 -296.78954937727804 0 -296.78954937727804 -242.87406167780864 0 0 0 0 -0.29209093316602996 -3.6515890999082927 0 -3.6515890999082927 -11.260898070147135 0 0 0 0 -1.9993736534643589 -2.5972400956525235 0 -2.5972400956525235 -15.803344721003668 0 0 0 0 -0.002970280340963697 -1.064822319558516 0 -1.064822319558516 -14.977023349462797 0 0 0 0 -3.0945704404017587 -0.15531130292947637 0 -0.15531130292947637 -14.126793201282453 0 0 0 0 -3.7937900218287268 -15.607229749056728 0 -15.607229749056728 -10.909623597728569 0 0 0 0 5.424264981504507 -10.077098769153508 0 -10.077098769153508 -11.201603661012996 0 0 0 0 -0.16331354737829162 -6.1346597363952284 0 -6.1346597363952284 -18.323487707165562 0 0 0 0 12.322973475831191 -16.50079657797869 0 -16.50079657797869 -13.216463666188019 0 0 0 0 7.485075664261899 -14.681312960231025 0 -14.681312960231025 -3.3182486578698445 0 0 0 0 0.040202892728018469 -10.811525738633065 0 -10.811525738633065 -12.65798043488212 0 0 0 0 -0.19297147411438687 -8.0714957138380328 0 -8.0714957138380328 -20.956869940806428 0 0 0 0 -8.7553516347994673 -8.6112086632128921 0 -8.6112086632128921 -11.45317679416894 0 0 0 0 4.4808478115795518 2.3165170043722156 0 2.3165170043722156 -6.5325274326670382 0 0 0 0 -8.0508505259252843 -11.091180553694812 0 -11.091180553694812 -20.15012347114498 0 0 0 0 -6.148455952886934 -5.6148709429799055 0 -5.6148709429799055 -14.308281568057282 0 0 0 0 -6.7201990855354552 -5.9272510564896947 0 -5.9272510564896947 -14.50163738723586 0 0 0 0 -7.6862227269979542 -3.1412431143046433 0 -3.1412431143046433 -8.4112272430902522 0 0 0 0 -7.2896752404535974 -3.6224738829475882 0 -3.6224738829475882 -16.230849709891118 0 0 0 0 -5.5253148772250711 -2.2314526865757216 0 -2.2314526865757216 -10.814651111976218 0 0 0 0 -18.346414388468133 0.078650497394846752 0 0.078650497394846752 -9.1764994750974438 0 0 0 0 -5.9901986487987529 4.809555380547863 0 4.809555380547863 -8.5835497694433798 0 0 0 0 -21.334805627979556 -23.494251700903874 0 -23.494251700903874 -10.53915490739746 0 0 0 0 7.2817588902944408 -13.008472221102238 0 -13.008472221102238 -11.965105189963651 0 0 0 0 7.0504310069587959 -15.076836778859644 0 -15.076836778859644 -12.998435490684642 0 0 0 0 26.831376559999967 -16.06987333093457 0 -16.06987333093457 -21.264298094918104 0 0 0 0 2.0013246343547273 -2.2918409240570998 0 -2.2918409240570998 -13.703559884191723 0 0 0 0 17.272370186634362 -0.35359055673234252 0 -0.35359055673234252 -12.898406163798654 0 0 0 0 6.8705385231081202 -6.3310951000134992 0 -6.3310951000134992 -12.906229284070832 0 0 0 0 7.2235700414751705 -19.909962303492279 0 -19.909962303492279 -16.964871248091185 0 0 0 0 2.9837981382059562 -3.7453521069893529 0 -3.7453521069893529 1.2775905570311519 0 0 0 0 46.887815795917959 -2.9561409336902216 0 -2.9561409336902216 -12.255368382203415 0 0 0 0 1.5189374934470523 -4.2509916497402056 0 -4.2509916497402056 -10.211918877826605 0 0 0 0 28.793713770228749 2.94775208201645 0 2.94775208201645 -10.843142866154722 0 0 0 0 1.57224680200808 -0.9987892729447676 0 -0.9987892729447676 -2.9178275803427205 0 0 0 0 28.456744288541984 2.6862823109358942 0 2.6862823109358942 -9.8684337706799852 0 0 0 0 26.740740061426322 -0.087465484210042632 0 -0.087465484210042632 -7.8200176282653047 0 0 0 0 8.0179813486092648 -15.391100957807339 0 -15.391100957807339 -16.027768976315201 0 0 0 0 23.146560484103645 -16.809045023049293 0 -16.809045023049293 -25.517146456229966 0 0 0 0 25.991229727001951 -0.80875932377057325 0 -0.80875932377057325 18.352661088807508 0 0 0 0 4.0176710244754759 6.0574689948778087 0 6.0574689948778087 -10.602978775737938 0 0 0 0 -23.750748642355802 -14.924175905232914 0 -14.924175905232914 -12.569688486624727 0 0 0 0 8.487153918475201 -7.8976759768447664 0 -7.8976759768447664 -4.9184166632585402 0 0 0 0 -1.2047499370059995 3.7690823298148644 0 3.7690823298148644 -18.695483212292856 0 0 0 0 11.835254542275136 -8.0061709756523669 0 -8.0061709756523669 -3.9653073945564756 0 0 0 0 -0.69967967783599117 -4.0840815944673885 0 -4.0840815944673885 -8.6516886926132663 0 0 0 0 29.533549730462141 -6.2974911739370327 0 -6.2974911739370327 -24.908674844218694 0 0 0 0 23.273736068069265 -7.4733536468987865 0 -7.4733536468987865 -13.553854836773098 0 0 0 0 9.3000055496324876 -9.5744575969683865 0 -9.5744575969683865 -4.9348156770370224 0 0 0 0 13.587777169098786 2.2973965845053499 0 2.2973965845053499 -12.337888744532847 0 0 0 0 -0.69663105924776469 -3.9283276364609057 0 -3.9283276364609057 -6.685479564276342 0 0 0 0 -1.7263902255081121 5.1674143389004712 0 5.1674143389004712 -5.5157826002768502 0 0 0 0 1.2179439708411899 -4.3802972561126676 0 -4.3802972561126676 -15.923687796317338 0 0 0 0 17.181041152505713 -16.96862162583966 0 -16.96862162583966 -13.716442344764801 0 0 0 0 6.6175407472101142 -5.5743305481760217 0 -5.5743305481760217 -11.153099002505769 0 0 0 0 11.806511245052288 -8.9780638380457276 0 -8.9780638380457276 -11.118730045356642 0 0 0 0 7.6573468369605697 -9.5250778207882831 0 -9.5250778207882831 -9.5391064849409304 0 0 0 0 8.9579233024376208 -11.223982480266841 0 -11.223982480266841 -5.4087268716775725 0 0 0 0 9.8253183159772135 -11.656955315690425 0 -11.656955315690425 0.04629962218041328 0 0 0 0 10.751343830975614 -10.069794133308278 0 -10.069794133308278 -4.6769601476498792 0 0 0 0 8.3391484565111398 -9.2611084310851766 0 -9.2611084310851766 -5.0767483502495452 0 0 0 0 9.3155506771931869 -11.074728883815624 0 -11.074728883815624 -5.0011606817300844 0 0 0 0 7.2322172039379211 -12.660011007871162 0 -12.660011007871162 -13.050301565111567 0 0 0 0 8.99973652416665 -6.4721271883322515 0 -6.4721271883322515 3.0483464230078425 0 0 0 0 1.9677725535012627 -10.007822244073736 0 -10.007822244073736 1.2822140106818551 0 0 0 0 9.0352815121102594 -10.414098700478462 0 -10.414098700478462 -1.2544995458283665 0 0 0 0 -2.4858181593784652 -2.1677876237014662 0 -2.1677876237014662 -1.8307968087968263 0 0 0 0 11.769600053676328 -14.422182440721826 0 -14.422182440721826 0.7897119444087366 0 0 0 0 14.462405188540117 -11.21825472285218 0 -11.21825472285218 -1.5412016109173692 0 0 0 0 -0.075032324564844544 -0.27522017952466893 0 -0.27522017952466893 -0.4621130361207193 0 0 0 0 -33.358854832968234 -15.119893721381004 0 -15.119893721381004 -0.53841994805270588 0 0 0 0 3.7666692732052525 -15.030292112794996 0 -15.030292112794996 -196.00593330970651 0 0 0 0 -18.760544381427621 -26.242483007224564 0 -26.242483007224564 21.024623798939956 0 0 0 0 -1.2140509585330377 -0.47857049956570474 0 -0.47857049956570474 -0.22888468930102057 0 0 0 0 9.2504448871029012 -4.9048903553519381 0 -4.9048903553519381 -36.000204726780794 0 0 0 0 1.9896261834138138 0.66690794761719019 0 0.66690794761719019 -0.56492517224818073 0 0 0 0 -2.4213921930743254 4.7241207312763436 0 4.7241207312763436 -99.756656211478003 0 0 0 0 -7.23434629655344 37.458584984473418 0 37.458584984473418 -51.859518031292737 0 0 0 0 -0.37752886360757942 -0.49446170801198841 0 -0.49446170801198841 -0.13906170206669088 0 0 0 0 -15.791553215951581 -17.841390800862428 0 -17.841390800862428 -83.816307878787939 0 0 0 0 -1.124789695937352 5.0361524245795408 0 5.0361524245795408 -46.095091370333648 0 0 0 0 52.537753596811399 60.571617138437432 0 60.571617138437432 -91.525270647190382 0 0 0 0 -20.317054195954142 19.370796133727254 0 19.370796133727254 -56.592604787980235 0 0 0 0 0.034360721879219902 -0.55783801398546995 0 -0.55783801398546995 -0.81309131709455507 0 0 0 0 11.402660608529459 3.8554199782665819 0 3.8554199782665819 -46.301999217330376 0 0 0 0 15.443184092902356 7.969977683819252 0 7.969977683819252 -61.002915757680057 0 0 0 0 16.010126184266824 4.4091590689063196 0 4.4091590689063196 -49.097811218690367 0 0 0 0 21.731372515020894 13.100754880111708 0 13.100754880111708 -45.734454738796558 0 0 0 0 20.741667306154085 -9.6487809080319948 0 -9.6487809080319948 -51.821253389899539 0 0 0 0 20.932515697172249 -8.1974943859471239 0 -8.1974943859471239 -49.812738472908677 0 0 0 0 21.88212045438577 -1.1727727551392491 0 -1.1727727551392491 -68.116685976239751 0 0 0 0 13.422445531227822 1.4374874373497732 0 1.4374874373497732 -59.985455793412939 0 0 0 0 16.227636577890053 -7.5942532170693084 0 -7.5942532170693084 -58.242603131534452 0 0 0 0 16.850336407810346 -0.75694208803088259 0 -0.75694208803088259 -71.322568505787785 0 0 0 0 6.9495922708711078 -6.5489910240339668 0 -6.5489910240339668 -74.27193390940829 0 0 0 0 12.546547004479962 9.3400698980559014 0 9.3400698980559014 -83.103277859127047 0 0 0 0 -24.875693269598315 45.95675234616931 0 45.95675234616931 -91.625500073501826 0 0 0 0 -1.42739887590119 4.4353999743550503 0 4.4353999743550503 -70.389004913929966 0 0 0 0 -3.8439952612345678 -16.483839253558017 0 -16.483839253558017 -48.320257747404867 0 0 0 0 8.1431630552502554 -6.1465826042151548 0 -6.1465826042151548 -75.333947551660458 0 0 0 0 5.1457684600287052 -7.8053823345430828 0 -7.8053823345430828 -41.25016488071924 0 0 0 0 7.9872793962600781 -18.86844577527404 0 -18.86844577527404 -34.867786781303948 0 0 0 0 11.978153485538996 -4.9957086396125305 0 -4.9957086396125305 -48.342613484350295 0 0 0 0 6.9519980431178396 -9.7028364828397571 0 -9.7028364828397571 -51.788645402857583 0 0 0 0 15.733821248480808 -10.918634587606448 0 -10.918634587606448 -26.709448484397399 0 0 0 0 24.204809567490656 -20.57667049005272 0 -20.57667049005272 -26.505385572554587 0 0 0 0 30.238477971907059 -2.0506167465246108 0 -2.0506167465246108 -56.06666991046859 0 0 0 0 12.77364030791739 -8.4777465299957839 0 -8.4777465299957839 -33.177871180067086 0 0 0 0 45.517396650241608 -6.4691998850612435 0 -6.4691998850612435 -33.114843786106576 0 0 0 0 6.4568058978517202 -2.1063357888868692 0 -2.1063357888868692 -11.815415973550181 0 0 0 0 -67.585268860311658 -5.4768321932256185 0 -5.4768321932256185 -36.953628490199662 0 0 0 0 -7.5851268738401671 21.06700145312783 0 21.06700145312783 -20.069627170436434 0 0 0 0 -6.6978674137824328 5.9624473056519491 0 5.9624473056519491 -75.668195340641887 0 0 0 0 -60.594433514554069 -45.841613276352348 0 -45.841613276352348 -62.238126909220227 0 0 0 0 -70.84937764824582 20.588646312713763 0 20.588646312713763 -46.174098058225354 0 0 0 0 1.5228461775789128 49.579850529186842 0 49.579850529186842 -154.31557182385677 0 0 0 0 5.8186556499920243 -4.4686885969367722 0 -4.4686885969367722 -120.62492601855502 0 0 0 0 -13.074165886121932 -6.1833221387441881 0 -6.1833221387441881 -62.899216296519626 0 0 0 0 -9.5027210785967782 -34.629952782826422 0 -34.629952782826422 -151.71852467717019 0 0 0 0 4.89753664104569 -15.8719367617025 0 -15.8719367617025 -45.553566185719319 0 0 0 0 -2.5904492518145616 1.2040934754177215 0 1.2040934754177215 -58.392945429911833 0 0 0 0 8.1872555849581659 -9.1360425338398272 0 -9.1360425338398272 -40.488109037834874 0 0 0 0 -25.769501302917945 12.732090931294238 0 12.732090931294238 2.9516439225553768 0 0 0 0 10.248076937061342 4.4072497777756325 0 4.4072497777756325 -14.542041147487453 0 0 0 0 11.973946255161891 13.626048810015561 0 13.626048810015561 -52.069208932080073 0 0 0 0 0.75226980283309297 2.1217291713721718 0 2.1217291713721718 -5.0041400045988116 0 0 0 0 -3.8618466156152635 12.340921670147623 0 12.340921670147623 -40.229914022740559 0 0 0 0 -16.55132158942817 48.163287381291639 0 48.163287381291639 -86.836053583624562 0 0 0 0 13.405009894460136 4.5101793880261312 0 4.5101793880261312 -120.64033190423379 0 0 0 0 0.19275561688837062 0.33234004075053569 0 0.33234004075053569 -4.9590906441231937 0 0 0 0 4.119049308817381 3.6700366016455064 0 3.6700366016455064 -35.491843380777937 0 0 0 0 -21.078881348029881 -8.584814276353427 0 -8.584814276353427 -19.792653329015593 0 0 0 0 144.92190235323119 26.343657247245574 0 26.343657247245574 -67.161400522374606 0 0 0 0 28.429821785028707 -410.84506700364614 0 -410.84506700364614 15.199301240507339 0 0 0 0 56.070524648791206 -0.57157062845362816 0 -0.57157062845362816 -50.139481284697467 0 0 0 0 104.14589877376579 -2.5524542032908357 0 -2.5524542032908357 -106.58923994754059 0 0 0 0 0.36013955830094346 39.402074545814685 0 39.402074545814685 -4.4250656583917589 0 0 0 0 48.62287765388055 71.235625376240932 0 71.235625376240932 -21.654636996699992 0 0 0 0 43.732438395791633 32.197352142891759 0 32.197352142891759 -50.909684835150983 0 0 0 0 11.497044395060584 -2.1972455512404849 0 -2.1972455512404849 -55.525153788636317 0 0 0 0 -197.60871560713721 64.166118521192857 0 64.166118521192857 -104.49564651707374 0 0 0 0 48.461645374804903 59.606172690482254 0 59.606172690482254 -175.14477739171889 0 0 0 0 86.297574606830864 58.628421051157147 0 58.628421051157147 -70.731005932279913 0 0 0 0 -27.446653103271501 -60.802979656650677 0 -60.802979656650677 -35.07260247733393 0 0 0 0 39.479041006583884 -45.340271723207479 0 -45.340271723207479 -157.30648305398245 0 0 0 0 42.063136749570525 -4.3942384321915426 0 -4.3942384321915426 -7.7049927245298022 0 0 0 0 1.7885526104917797 -4.8105954710281411 0 -4.8105954710281411 -5.7046547872094973 0 0 0 0 14.094986458584771 -47.304907814431317 0 -47.304907814431317 -98.821804502571695 0 0 0 0 16.904770449533601 -64.121752082621413 0 -64.121752082621413 -43.375695310709489 0 0 0 0 0.032563566158690715 -13.060551052479951 0 -13.060551052479951 -34.139727996411835 0 0 0 0 0.054465143164419416 -7.4783557400485003 0 -7.4783557400485003 -21.795594681897324 0 0 0 0 3.3795635224525995 -16.667391392278773 0 -16.667391392278773 -21.588219904297148 0 0 0 0 3.9774700484227878 -19.512542772908091 0 -19.512542772908091 -14.539769808397978 0 0 0 0 13.282508921873386 -22.223020990195891 0 -22.223020990195891 -2.5997095851262202 0 0 0 0 -0.1997387843074705 -16.802609146365967 0 -16.802609146365967 -3.9002476508358086 0 0 0 0 19.325970486229153 -35.024290114446558 0 -35.024290114446558 -16.27479076660984 0 0 0 0 10.55282922409549 -14.067447652101691 0 -14.067447652101691 -45.812160801549908 0 0 0 0 4.2376956212666528 11.22178428857751 0 11.22178428857751 -25.441938955091246 0 0 0 0 7.4676932555935309 -9.9034199404413812 0 -9.9034199404413812 -40.150852408314677 0 0 0 0 4.659766246139041 -1.3256627976171771 0 -1.3256627976171771 -12.61564406222665 0 0 0 0 8.8558156444225915 -14.312639327530405 0 -14.312639327530405 -40.261970654875768 0 0 0 0 -0.93117808709507699 -7.9417510229432082 0 -7.9417510229432082 -39.466831656893191 0 0 0 0 3.5892530227483803 -14.502548495816882 0 -14.502548495816882 -40.240223662451399 0 0 0 0 3.5841016944896182 -12.958713767739937 0 -12.958713767739937 -35.269370830759726 0 0 0 0 9.2586088562736677 -20.36228134664907 0 -20.36228134664907 -37.861336916226719 0 0 0 0 -2.0710231503108796 -4.34597460810323 0 -4.34597460810323 -1.2458238697129662 0 0 0 0 2.5020929801963234 -19.953046431968005 0 -19.953046431968005 -37.371773824337652 0 0 0 0 32.12125318492474 -3.9775174645137668 0 -3.9775174645137668 -54.468853973967271 0 0 0 0 -1.506390942516191 -14.264907542337824 0 -14.264907542337824 -35.132077717536959 0 0 0 0 -0.40787010948750435 -10.71641699604506 0 -10.71641699604506 -32.91214423633037 0 0 0 0 -1.4251296366085171 1.8796601190788351 0 1.8796601190788351 -19.550757077861817 0 0 0 0 -16.260767196269398 46.737170353955662 0 46.737170353955662 -64.161506290773104 0 0 0 0 1.8304862354880527 8.3660970119048876 0 8.3660970119048876 -14.732646097748837 0 0 0 0 42.156132626259932 -29.211269947232722 0 -29.211269947232722 -48.831692954885511 0 0 0 0 -28.647392987000615 -14.435089418094321 0 -14.435089418094321 -16.222360382086663 0 0 0 0 -0.86124573401378668 0.87197933541581563 0 0.87197933541581563 -1.8232034866871487 0 0 0 0 -4.5816546017280757 -24.078444191345625 0 -24.078444191345625 -54.073352094024244 0 0 0 0 -7.874447244939347 -17.009148606313829 0 -17.009148606313829 -33.472927537052783 0 0 0 0 -5.4309298586564196 -2.4664684020217287 0 -2.4664684020217287 3.4916193882299495 0 0 0 0 -1.7349399393559395 -16.511249140656219 0 -16.511249140656219 -34.147269578919804 0 0 0 0 -3.8677095403211297 -10.493182546125354 0 -10.493182546125354 -33.426084771004753 0 0 0 0 -3.9848581651321524 -9.5017484675913693 0 -9.5017484675913693 -38.503460231346253 0 0 0 0 -5.2889596515788071 -11.883192554030529 0 -11.883192554030529 -30.511874873176566 0 0 0 0 -8.3664043534573693 -11.739993146552479 0 -11.739993146552479 -31.775824700510384 0 0 0 0 131.61680537048073 -60.679192726855035 0 -60.679192726855035 -359.6563985075918 0 0 0 0 23.755337212283621 43.937555437376432 0 43.937555437376432 13.66960170229504 0 0 0 0 -5.7796278708186026 -2.4479972585481704 0 -2.4479972585481704 -1.6742732112003011 0 0 0 0 -5.8785622287589376 -10.776379885973256 0 -10.776379885973256 -31.512294125857807 0 0 0 0 -6.6766302005675726 26.889289780681565 0 26.889289780681565 -128.21281675358478 0 0 0 0 -54.768444746450655 -52.47917482153025 0 -52.47917482153025 -39.861102313762785 0 0 0 0 -2.1188922047001717 0.20259992359356005 0 0.20259992359356005 -1.8121491633547251 0 0 0 0 -20.969702161174155 -82.278919412146934 0 -82.278919412146934 -66.905816861008134 0 0 0 0 -0.5090920219360564 -1.2420165387700592 0 -1.2420165387700592 -2.6663788994452347 0 0 0 0 -20.320931853579623 41.17024445527295 0 41.17024445527295 -80.534381915766062 0 0 0 0 -49.250278232627011 -95.297381858037625 0 -95.297381858037625 -59.327564063360114 0 0 0 0 -16.959175534711449 30.837012501032405 0 30.837012501032405 -53.188487980812738 0 0 0 0 18.162698218260687 -20.812613184621966 0 -20.812613184621966 -80.129715416638646 0 0 0 0 18.246650558467309 -18.574645620982665 0 -18.574645620982665 -43.173606589209157 0 0 0 0 11.867852374598442 -8.6420509397667047 0 -8.6420509397667047 -57.195821396630208 0 0 0 0 -74.684586156643491 -24.48356046772642 0 -24.48356046772642 61.022013859013896 0 0 0 0 -235.36963642608157 -289.4227764716934 0 -289.4227764716934 -122.93681724442649 0 0 0 0 9.5787867813478442 14.123026604142069 0 14.123026604142069 -154.50906820657474 0 0 0 0 6.7776813876459983 11.06860351553587 0 11.06860351553587 -28.240429225386833 0 0 0 0 6.9001705096303816 6.1761329941936864 0 6.1761329941936864 -15.918220990586732 0 0 0 0 2.315103004868547 -2.6449864529486149 0 -2.6449864529486149 -30.406797238680156 0 0 0 0 9.8337969300060877 0.48082741333382728 0 0.48082741333382728 -48.488726476949523 0 0 0 0 6.0271759798327942 2.0092170737535966 0 2.0092170737535966 -21.756747839673849 0 0 0 0 10.168489448365108 0.11166998628686997 0 0.11166998628686997 -49.802930387952074 0 0 0 0 -0.98406636126446756 -1.1001340446709946 0 -1.1001340446709946 -23.982485914908466 0 0 0 0 -0.40777925649429392 -9.8401577117786019 0 -9.8401577117786019 -20.806985436352988 0 0 0 0 -1.983625369415813 -9.232436701249231 0 -9.232436701249231 -30.538252826758864 0 0 0 0 -1.0186402643069528 -6.8841642048946596 0 -6.8841642048946596 -29.715594693457206 0 0 0 0 -3.5184216173083769 -6.1921557392961404 0 -6.1921557392961404 -45.328238681211587 0 0 0 0 -4.2527087422251952 -6.3786541376703099 0 -6.3786541376703099 -30.836708687711507 0 0 0 0 -3.4207643381297679 -9.5876630841258699 0 -9.5876630841258699 -25.752215726094668 0 0 0 0 -1.8348420151841651 -30.060249685961026 0 -30.060249685961026 -42.315333298127371 0 0 0 0 -2.8118213434047235 8.5226379167600754 0 8.5226379167600754 -9.0470331383920204 0 0 0 0 -7.1745837636480161 -2.2351226287064492 0 -2.2351226287064492 -25.560536010321812 0 0 0 0 -119.81307806747873 5.4373647231550422 0 5.4373647231550422 -52.629746645638079 0 0 0 0 -2.4964688933302455 7.0416715773890246 0 7.0416715773890246 -53.342762171891081 0 0 0 0 -9.4063281231253484 7.585580197494437 0 7.585580197494437 -20.912585082513033 0 0 0 0 123.56471411349202 -6.3942944302889373 0 -6.3942944302889373 -161.80777797400697 0 0 0 0 2.0198847397427642 -2.7616537457925006 0 -2.7616537457925006 -42.404329089877137 0 0 0 0 -0.67198772107866644 -0.0854622864789647 0 -0.0854622864789647 0.40387536646313293 0 0 0 0 -9.1055730085009827 -0.98352747552326036 0 -0.98352747552326036 -12.431711785655352 0 0 0 0 -14.019548442586881 -8.3656572853451507 0 -8.3656572853451507 -20.674492131728584 0 0 0 0 -2.5940049473553586 -7.3898700715888026 0 -7.3898700715888026 -29.38096080311152 0 0 0 0 -10.549353019431464 17.402149874113093 0 17.402149874113093 -64.727874149579293 0 0 0 0 0.014203949922331871 8.472890528635503 0 8.472890528635503 -6.6153981011260363 0 0 0 0 -36.064921584780052 29.33359911223306 0 29.33359911223306 -63.883852626338921 0 0 0 0 15.347916525790396 -15.010980419845509 0 -15.010980419845509 -57.837978518633463 0 0 0 0 -11.920779869450371 -2.856071031727879 0 -2.856071031727879 -57.202853743496235 0 0 0 0 -2.0523326663779642 -2.2756720230390783 0 -2.2756720230390783 -48.782600037287921 0 0 0 0 -3.5973586334011998 8.544107633009844 0 8.544107633009844 -34.097392062889412 0 0 0 0 1.9004184022296315 -2.5292941045019397 0 -2.5292941045019397 -4.4673182433262895 0 0 0 0 1.9852212708492516 3.844328097635298 0 3.844328097635298 -30.380336138659914 0 0 0 0 8.2814379725525669 -6.1079064059485972 0 -6.1079064059485972 -13.495917759923032 0 0 0 0 1.6568899509681354 0.0071795824255218577 0 0.0071795824255218577 -16.13604990445932 0 0 0 0 2.0646713960409215 3.535379779044888 0 3.535379779044888 -31.667257913941285 0 0 0 0 1.2652274644018024 6.5014259085878194 0 6.5014259085878194 -24.491423429163341 0 0 0 0 -5.9563885994883385 0.98759454226092203 0 0.98759454226092203 -14.35156728723814 0 0 0 0 -1.2436270031115291 7.6012201214308632 0 7.6012201214308632 -17.040580304806383 0 0 0 0 -1.3725502924446289 -2.567605229502707 0 -2.567605229502707 -26.880352858820203 0 0 0 0 -2.7034021458315394 -7.288947579332671 0 -7.288947579332671 -62.397790373135649 0 0 0 0 6.6687588715026607 4.1135466959294718 0 4.1135466959294718 -74.667550586580546 0 0 0 0 -2.2627104636031774 2.6427528006170178 0 2.6427528006170178 -52.06164851590438 0 0 0 0 -1.2204276563045331 -1.0634099995091617 0 -1.0634099995091617 -6.2089512828845272 0 0 0 0 9.6837028887260885 12.289349943934212 0 12.289349943934212 -27.568742450736863 0 0 0 0 -3.475945009352472 12.237436692423216 0 12.237436692423216 -28.583953863875649 0 0 0 0 -4.9788006774972047 12.279631264915224 0 12.279631264915224 -27.22747620910377 0 0 0 0 -1.288300204367431 10.167366213733658 0 10.167366213733658 -30.70393420039909 0 0 0 0 -8.3657184241302893 1.9219109967343684 0 1.9219109967343684 -35.134829980852373 0 0 0 0 0.56335338609454766 5.9660946260737546 0 5.9660946260737546 -47.194312928695581 0 0 0 0 0.2590502260059635 10.724224451076083 0 10.724224451076083 -33.589426840272267 0 0 0 0 -10.376699030539612 -2.524262270770123 0 -2.524262270770123 -53.819128464185269 0 0 0 0 -0.15820195490828093 -0.66272816356462982 0 -0.66272816356462982 -2.7331516153121669 0 0 0 0 -9.3170236585562236 7.6015019043466054 0 7.6015019043466054 -23.814835023447813 0 0 0 0 -5.2586424696394047 -10.144706332281523 0 -10.144706332281523 -12.311714690568031 0 0 0 0 0.74094151852915502 25.806063256006837 0 25.806063256006837 -11.540229044516309 0 0 0 0 -7.6495764658931478 11.458821017143464 0 11.458821017143464 -12.76908380054374 0 0 0 0 -0.65665578729517327 0.85656328645294266 0 0.85656328645294266 -4.2359518435218035 0 0 0 0 -32.980957962516641 27.334541989671379 0 27.334541989671379 -72.049275104692242 0 0 0 0 70.042901832516037 77.719802509716828 0 77.719802509716828 -57.382556473028671 0 0 0 0 39.596348259592332 35.264232914512831 0 35.264232914512831 -32.844601043030707 0 0 0 0 -8.4080771237642402 -12.950024965808396 0 -12.950024965808396 -11.254779808678251 0 0 0 0 26.655093090036644 -40.73582720801096 0 -40.73582720801096 -130.4762266804828 0 0 0 0 -118.14591868090264 -98.356773711720962 0 -98.356773711720962 -45.806239681970169 0 0 0 0 49.980154144906919 -12.035805337991405 0 -12.035805337991405 -115.27576500923169 0 0 0 0 -13.427049373643214 -4.6873490986454271 0 -4.6873490986454271 -23.167140855087382 0 0 0 0 -23.102844214548114 -22.357306578380303 0 -22.357306578380303 -42.542331374466997 0 0 0 0 26.147098199354559 -51.311414779538609 0 -51.311414779538609 -60.333657230471545 0 0 0 0 37.978699147312113 -37.611462892826239 0 -37.611462892826239 -75.383765080785452 0 0 0 0 19.668990144004198 -22.50411898310449 0 -22.50411898310449 -86.030197882573702 0 0 0 0 7.5639052124444106 -38.953838723482477 0 -38.953838723482477 -63.109321981501125 0 0 0 0 -501.67090848955559 -227.03587609369424 0 -227.03587609369424 -125.37513343991304 0 0 0 0 273.64401000548105 484.71312704472439 0 484.71312704472439 -45.660584970536775 0 0 0 0 -70.491745597626959 -93.323487171142915 0 -93.323487171142915 -92.649117666691382 0 0 0 0 -38.174596362880493 4.8608318611386494 0 4.8608318611386494 -4.380521677332581 0 0 0 0 -2.432864828169123 -2.3193149177298764 0 -2.3193149177298764 -0.28424907213745598 0 0 0 0 -110.96922366662784 -26.325392882547476 0 -26.325392882547476 -13.031070108194399 0 0 0 0 -55.191388960054724 -29.94551805581159 0 -29.94551805581159 -30.354796277330024 0 0 0 0 -29.095053405633735 -34.316338531089059 0 -34.316338531089059 -41.452074670693037 0 0 0 0 -29.322019878309675 -35.067752923994703 0 -35.067752923994703 -19.6377451248336 0 0 0 0 -21.804012014152022 -36.22731299058978 0 -36.22731299058978 -39.674348424956406 0 0 0 0 -34.947492305459264 -44.93820736078851 0 -44.93820736078851 -44.94402709507267 0 0 0 0 9.1041883387812277 6.1272078358124418 0 6.1272078358124418 -56.412599867775498 0 0 0 0 -14.337492016082692 -14.972157724115277 0 -14.972157724115277 -27.721238560974598 0 0 0 0 -28.863774468133215 -27.012804690239136 0 -27.012804690239136 -34.856233705986597 0 0 0 0 -3.2133958682754127 10.437978278532682 0 10.437978278532682 -0.0530686022611917 0 0 0 0 19.786538861602793 -17.714530143277443 0 -17.714530143277443 -16.581431675949261 0 0 0 0 -2.3139333352538012 -2.2684064126341283 0 -2.2684064126341283 -1.2299599976308144 0 0 0 0 4.3607010639069443 12.951631357045926 0 12.951631357045926 -21.013187597927754 0 0 0 0 0.56125837898799946 -0.77380132364174337 0 -0.77380132364174337 -8.4354631337063637 0 0 0 0 41.864384175224245 15.36680760924537 0 15.36680760924537 -27.139280653318565 0 0 0 0 -2.5915349806450081 2.2984804802149483 0 2.2984804802149483 -8.1117916800794774 0 0 0 0 -5.8768093814821896 -7.3059370258561103 0 -7.3059370258561103 -20.138356447925617 0 0 0 0 3.8588137278018868 1.2279506249180869 0 1.2279506249180869 -9.9626990394885837 0 0 0 0 2.4726444839984651 2.9516430385283456 0 2.9516430385283456 -6.1338373783974021 0 0 0 0 -2.107326471430838 0.089280300480368169 0 0.089280300480368169 -7.6865554938030982 0 0 0 0 -65.474132418689578 53.370192507769389 0 53.370192507769389 2.7539438965104637 0 0 0 0 2.1521644082247349 56.774045808055234 0 56.774045808055234 -56.073960760925388 0 0 0 0 -108.44613596701186 -57.462861153105223 0 -57.462861153105223 -7.401193849666015 0 0 0 0 22.32128687928622 -7.6845370307892154 0 -7.6845370307892154 -35.141618020876194 0 0 0 0 -16.806116854871789 -63.687464737380651 0 -63.687464737380651 -108.87791888330912 0 0 0 0 -37.125252222539302 -27.059664106936907 0 -27.059664106936907 37.753302006774902 0 0 0 0 -9.6166949670526947 1.4901032126726932 0 1.4901032126726932 26.671046765621213 0 0 0 0 -7.8542717981931736 -12.458481283722794 0 -12.458481283722794 -12.779802469456648 0 0 0 0 -2.0264197544333591 -4.1165950873574753 0 -4.1165950873574753 -0.81454447921927908 0 0 0 0 -22.969103661781332 -2.4229587759255082 0 -2.4229587759255082 -2.7729671554952802 0 0 0 0 -4.6832798733848904 16.330440765312233 0 16.330440765312233 16.425959547796083 0 0 0 0 -3.3502893290128668 0.23963865165569587 0 0.23963865165569587 -12.475886865744542 0 0 0 0 -3.0742632086439698 4.6362688966855785 0 4.6362688966855785 -16.822221901922603 0 0 0 0 -3.4595399094790968 0.4493186993764553 0 0.4493186993764553 -9.7095437814589971 0 0 0 0 -106.88364180717645 -39.723113519907201 0 -39.723113519907201 -10.695457245845319 0 0 0 0 23.495803984564645 47.472607246285406 0 47.472607246285406 -80.049015780893569 0 0 0 0 -37.836380441316578 37.486696013947949 0 37.486696013947949 -6.5242827295442112 0 0 0 0 -0.97367221688000427 0.47710921957514074 0 0.47710921957514074 -55.345753492983931 0 0 0 0 -1.8474181953684354 0.18673625570235686 0 0.18673625570235686 -14.107087397121859 0 0 0 0 -0.050545645882992929 4.4256903180415144 0 4.4256903180415144 -36.869487214752681 0 0 0 0 -1.8579907404336349 1.9312581969595568 0 1.9312581969595568 -19.952844690236475 0 0 0 0 -2.0364477410671498 7.4386602634876908 0 7.4386602634876908 -30.268725441501374 0 0 0 0 -2.2859819634555194 3.87994527473586 0 3.87994527473586 -14.111284212545229 0 0 0 0 -1.6479512960320335 3.3568099542342225 0 3.3568099542342225 -31.842540608296986 0 0 0 0 -0.07402666713883832 0.10874942239875907 0 0.10874942239875907 -5.9989867651958768 0 0 0 0 -2.3800309649737414 8.7239888299462791 0 8.7239888299462791 -23.271537307715334 0 0 0 0 1.7783500888035064 1.0830943048968038 0 1.0830943048968038 -10.663793522260676 0 0 0 0 -3.117829172786287 4.4979574365900135 0 4.4979574365900135 -7.6842541026489926 0 0 0 0 -0.27341493290813723 2.4724879462615128 0 2.4724879462615128 -9.9476669717747086 0 0 0 0 0.2101220902133846 -0.82448119028870526 0 -0.82448119028870526 -11.471725783518124 0 0 0 0 -5.7385837981700334 -0.64338110333210352 0 -0.64338110333210352 -11.845027760976336 0 0 0 0 -2.4386932164567412 -1.3859074696001699 0 -1.3859074696001699 -19.004952542273827 0 0 0 0 -2.2057219254456939 -1.5082509516897993 0 -1.5082509516897993 -2.1543425187305694 0 0 0 0 -0.64537561318506964 -0.50047916194363129 0 -0.50047916194363129 -5.7556504530242805 0 0 0 0 -23.918144425075297 27.464209431670724 0 27.464209431670724 -39.020122730376897 0 0 0 0 0.2440276611127814 8.1060231222479615 0 8.1060231222479615 10.447626321742064 0 0 0 0 0.30836203784600502 0.49763862162672634 0 0.49763862162672634 -2.5529847880224494 0 0 0 0 -12.214115766517615 -88.101321643874599 0 -88.101321643874599 -146.91703894585953 0 0 0 0 -39.298686909957723 148.72512062540477 0 148.72512062540477 -365.80104106928775 0 0 0 0 -5.2321135097247407 -21.911617749014113 0 -21.911617749014113 -4.6398669642071582 0 0 0 0 -4.7793605586341528 -20.30495501909536 0 -20.30495501909536 -59.716581428246627 0 0 0 0 8.8341167637795479 19.368553572416204 0 19.368553572416204 -37.045328966181842 0 0 0 0 -11.862677606593024 13.052556549249857 0 13.052556549249857 -25.169701937226819 0 0 0 0 6.4793282139003168 43.945269176236252 0 43.945269176236252 15.747047618417128 0 0 0 0 15.819529772726582 3.9618295732188926 0 3.9618295732188926 -31.825838835314926 0 0 0 0 1.5422747734753033 3.6661617852210195 0 3.6661617852210195 -9.0476435270787761 0 0 0 0 0.63472343108303342 20.123055626474489 0 20.123055626474489 -37.447876731683735 0 0 0 0 -12.739662554525125 81.389334683055836 0 81.389334683055836 151.35167014040417 0 0 0 0 -0.60515638937202998 6.2731107901452381 0 6.2731107901452381 5.4908111589217086 0 0 0 0 -183.32483595890517 -21.788998898355203 0 -21.788998898355203 157.01669179061355 0 0 0 0 109.55202467098297 -38.060504966042572 0 -38.060504966042572 -305.92343157248979 0 0 0 0 5.6723868452850184 -143.86018149279334 0 -143.86018149279334 -401.87336358826724 0 0 0 0 0.26216246049378222 -0.93298958990723957 0 -0.93298958990723957 0.65656618207469108 0 0 0 0 -147.59238323530644 61.562910350148741 0 61.562910350148741 32.213110159136704 0 0 0 0 -32.675676984921665 -12.623094082448006 0 -12.623094082448006 -354.70029798415271 0 0 0 0 -58.635347306958465 87.34683940457785 0 87.34683940457785 -383.7116596058404 0 0 0 0 0.041903465136873486 -0.36417030495603342 0 -0.36417030495603342 -0.92855353203523094 0 0 0 0 -50.4532349521578 21.127611490121126 0 21.127611490121126 20.906020402225295 0 0 0 0 15.086739718894933 -112.42674579955019 0 -112.42674579955019 -296.92294382336695 0 0 0 0 98.372278917063994 9.4998217344115687 0 9.4998217344115687 -458.09653569035072 0 0 0 0 107.12660032424719 -33.478277840729788 0 -33.478277840729788 -471.23552774445852 0 0 0 0 93.618224504814407 -30.725299428644576 0 -30.725299428644576 -450.56333213856487 0 0 0 0 99.790635395031131 53.131050058907931 0 53.131050058907931 -495.43016818533579 0 0 0 0 87.616608194898618 12.360078984840584 0 12.360078984840584 -348.04130368848564 0 0 0 0 96.027628751965153 46.66301757541919 0 46.66301757541919 -327.65759413887281 0 0 0 0 83.585918728139632 -16.409334705366746 0 -16.409334705366746 -427.77228115938669 0 0 0 0 -309.91746995441576 -401.48307705902334 0 -401.48307705902334 -572.95446509978501 0 0 0 0 -469.00499309381757 186.14427370896419 0 186.14427370896419 -433.92954080222262 0 0 0 0 116.99491026609121 -49.855916993499704 0 -49.855916993499704 -515.89146487254038 0 0 0 0 145.92130898568757 -69.123145861103694 0 -69.123145861103694 -592.32385832389264 0 0 0 0 146.02392354617405 -35.953085653312883 0 -35.953085653312883 -887.37400343380068 0 0 0 0 66.148372828397441 134.47271101576735 0 134.47271101576735 -563.15774524677522 0 0 0 0 78.219485436837658 69.052304602625554 0 69.052304602625554 -351.94248476611756 0 0 0 0 69.476213623994227 146.81952385255317 0 146.81952385255317 -702.90661351964991 0 0 0 0 -85.343440938734602 0.70083323550079513 0 0.70083323550079513 76.934833837918632 0 0 0 0 -82.956427078275283 155.0183084938576 0 155.0183084938576 -266.41702762746354 0 0 0 0 -159.83092426538678 -186.78525092613381 0 -186.78525092613381 -291.89650189040185 0 0 0 0 0.11038865602205183 -1.0105981964743034 0 -1.0105981964743034 -7.9820771307805458 0 0 0 0 -51.631754847669072 131.59282755139429 0 131.59282755139429 -213.21161783907155 0 0 0 0 -46.239944988777097 107.26495192046787 0 107.26495192046787 -145.95266857463139 0 0 0 0 32.450439170863319 93.802554993748345 0 93.802554993748345 -359.19855389133591 0 0 0 0 -65.260046265919414 66.431683145472334 0 66.431683145472334 -6.2344384104981145 0 0 0 0 109.1527903367305 30.330138064231505 0 30.330138064231505 -324.48433816398392 0 0 0 0 83.146659058390469 13.649460416154398 0 13.649460416154398 -188.88622499539269 0 0 0 0 74.441387609351295 72.4317212970127 0 72.4317212970127 -319.6941321788272 0 0 0 0 56.458876788226917 36.873061779107957 0 36.873061779107957 -237.64037165158516 0 0 0 0 47.620978591003222 39.373632268428992 0 39.373632268428992 -174.42109430632445 0 0 0 0 39.565298725628054 -34.024334922745766 0 -34.024334922745766 -43.812378183012697 0 0 0 0 131.69258597413227 33.751457954031139 0 33.751457954031139 -199.45689311187016 0 0 0 0 72.286335232749252 -27.599538613407276 0 -27.599538613407276 -55.133494826724927 0 0 0 0 82.222895894225076 10.934553334564043 0 10.934553334564043 -209.56672444058404 0 0 0 0 97.807039729762494 66.376845923702376 0 66.376845923702376 -257.0101962130866 0 0 0 0 76.221589302296479 11.474315610892518 0 11.474315610892518 -323.3736653415217 0 0 0 0 82.462580187949243 -9.0379928528409437 0 -9.0379928528409437 -154.76530396376347 0 0 0 0 -32.32260664328669 113.31322326829059 0 113.31322326829059 -190.83782982526645 0 0 0 0 93.620219140201243 59.496900087599897 0 59.496900087599897 -239.7512934847764 0 0 0 0 23.931067411033837 90.397486834835945 0 90.397486834835945 -247.89893216820383 0 0 0 0 -90.491374709973144 4.7503667411958475 0 4.7503667411958475 -308.64436703924912 0 0 0 0 62.723753587736155 40.311002958109384 0 40.311002958109384 -402.70353266803841 0 0 0 0 49.789726266815251 54.68349355970031 0 54.68349355970031 -347.54416783653869 0 0 0 0 -13.928875664060691 -60.689980803715457 0 -60.689980803715457 -91.871617462820723 0 0 0 0 -6.9349837272850436 -81.918483396817464 0 -81.918483396817464 -139.43841186423117 0 0 0 0 -38.034585353541956 60.017973477804844 0 60.017973477804844 -130.9345785611913 0 0 0 0 -1.1546668521058894 -0.82409015692850218 0 -0.82409015692850218 -0.32099189021080576 0 0 0 0 -61.642693040749009 -45.729503110838778 0 -45.729503110838778 3.75324916779266 0 0 0 0 -51.059168934490742 -79.830023986051856 0 -79.830023986051856 -77.749304682351067 0 0 0 0 -79.226370152135416 -25.988037404855277 0 -25.988037404855277 -43.54638024543965 0 0 0 0 15.537541759221085 20.055560924940437 0 20.055560924940437 -182.95482250636087 0 0 0 0 56.659853963599744 170.01771792694149 0 170.01771792694149 -171.9438785237453 0 0 0 0 -0.55902069052027059 23.088441774824453 0 23.088441774824453 -41.45828888485125 0 0 0 0 11.642099340014283 32.325565772804111 0 32.325565772804111 -51.305066656912459 0 0 0 0 -0.72712832211618661 1.6679352026367269 0 1.6679352026367269 -54.89596368637558 0 0 0 0 -3.3434779695667203 -12.08128326141923 0 -12.08128326141923 -96.420985689426743 0 0 0 0 131.43249689196318 57.599109841843983 0 57.599109841843983 -476.40488332098175 0 0 0 0 -27.797347370498755 -105.93001629948594 0 -105.93001629948594 -59.760488095544133 0 0 0 0 109.25324683563122 -16.911695176236208 0 -16.911695176236208 -409.83755556505639 0 0 0 0 108.24814458865089 3.5244910395522311 0 3.5244910395522311 -573.36146604939495 0 0 0 0 35.472295265171965 125.93474159412881 0 125.93474159412881 -524.94019086097614 0 0 0 0 29.588488190396674 169.76225442983741 0 169.76225442983741 -851.33899526772075 0 0 0 0 58.060207681375687 -112.39382881899292 0 -112.39382881899292 -556.18164010404143 0 0 0 0 54.550564313780342 -83.369042041524153 0 -83.369042041524153 -773.85924861960575 0 0 0 0 -150.61148692158167 -118.34843639184692 0 -118.34843639184692 1.6333710880371655 0 0 0 0 -4.095641518025813 -3.7594233183010708 0 -3.7594233183010708 -5.3645681834222003 0 0 0 0 -3.0531114725705066 -1.1262599337876829 0 -1.1262599337876829 -0.31962559421367942 0 0 0 0 -41.662131543360374 -244.14380423741659 0 -244.14380423741659 143.6591068185935 0 0 0 0 -171.10280451210474 -313.35906870266808 0 -313.35906870266808 -192.44256092746036 0 0 0 0 -117.24614161296904 -612.50396125199404 0 -612.50396125199404 -527.24253917200258 0 0 0 0 151.44978562568485 -79.587626705098955 0 -79.587626705098955 -949.67538780324685 0 0 0 0 0.097313764637473099 21.663327131140221 0 21.663327131140221 -40.916691956481586 0 0 0 0 41.74958538127737 56.879493540291151 0 56.879493540291151 -13.442931603891338 0 0 0 0 -11.394729206246666 -143.90581433886098 0 -143.90581433886098 -501.38353041640585 0 0 0 0 -31.62199713608171 -300.30116930118896 0 -300.30116930118896 -314.70801325475986 0 0 0 0 39.416445109975015 -9.7447449148378382 0 -9.7447449148378382 -30.728577822323132 0 0 0 0 43.187111895820181 -47.369734808858993 0 -47.369734808858993 -108.30004483182711 0 0 0 0 -74.136924917499755 -188.98341458783307 0 -188.98341458783307 -259.61083824377602 0 0 0 0 32.175842543975932 -172.96638899335449 0 -172.96638899335449 -412.5650456100193 0 0 0 0 -271.81524184360171 -304.11798983526023 0 -304.11798983526023 -232.68023540411377 0 0 0 0 1.1771752938329256 18.581539920124676 0 18.581539920124676 -36.354692692501416 0 0 0 0 -55.108251559726568 -62.83909103170663 0 -62.83909103170663 -212.32138147887235 0 0 0 0 -19.07929943150998 -52.287780849594355 0 -52.287780849594355 -127.20797090046108 0 0 0 0 0.023814998770376405 -232.27372908739926 0 -232.27372908739926 -249.43672563758082 0 0 0 0 153.78633009518808 -114.57943631958551 0 -114.57943631958551 -250.22325420435359 0 0 0 0 186.02475606709459 77.17693544165013 0 77.17693544165013 -120.50704438837931 0 0 0 0 147.42285304927054 41.58276139481859 0 41.58276139481859 -71.680218837659595 0 0 0 0 80.313570232679467 -7.0992248297134211 0 -7.0992248297134211 -60.967106548258016 0 0 0 0 102.9097948834833 6.2446056742201108 0 6.2446056742201108 -155.66800539845644 0 0 0 0 103.40833063684977 -22.175043600640493 0 -22.175043600640493 -94.561767666891683 0 0 0 0 19.876181766685932 -119.03354970857981 0 -119.03354970857981 -172.35577280281359 0 0 0 0 70.777433902635494 -15.301503801508261 0 -15.301503801508261 -44.534797022533894 0 0 0 0 121.17086546874407 -46.347068773540741 0 -46.347068773540741 -82.216887863076408 0 0 0 0 108.65599680674927 -63.609711905336553 0 -63.609711905336553 16.205528077272902 0 0 0 0 115.46561394915898 20.829168134659994 0 20.829168134659994 -81.759807265574395 0 0 0 0 112.89255245726713 81.922385581194703 0 81.922385581194703 15.401326204733778 0 0 0 0 95.790069062293242 14.953691812763282 0 14.953691812763282 -15.914304139969317 0 0 0 0 21.883540011930052 -9.0839335369073524 0 -9.0839335369073524 -12.488828428607576 0 0 0 0 -297.93564057662945 124.90622189355145 0 124.90622189355145 47.554295780775647 0 0 0 0 13.999526016904149 -0.61038255820042764 0 -0.61038255820042764 -9.3101789662991123 0 0 0 0 4.7300946094527641 1.4666228343710079 0 1.4666228343710079 -15.081306244415131 0 0 0 0 -0.070907434205094461 -0.67138452365704149 0 -0.67138452365704149 -6.4925624680780629 0 0 0 0 -127.81769863431933 486.23181161163052 0 486.23181161163052 -852.66733423261758 0 0 0 0 -204.04028280345798 -351.53034655678402 0 -351.53034655678402 -2364.1849046739917 0 0 0 0 54.582818561749747 225.60281064784976 0 225.60281064784976 -1095.5593997412507 0 0 0 0 74.579413165565768 -136.94724948092517 0 -136.94724948092517 -945.89844582078149 0 0 0 0 272.47069547425571 12.689745282768854 0 12.689745282768854 -1500.0749886406047 0 0 0 0 121.94703567908338 33.439339598028937 0 33.439339598028937 -886.85693141155753 0 0 0 0 21.121093420584295 -318.14001430963071 0 -318.14001430963071 -952.51003256878357 0 0 0 0 94.046356030328297 33.425367251242278 0 33.425367251242278 30.019079394369328 0 0 0 0 7.6636286298151779 4.0005494467367413 0 4.0005494467367413 -6.9130580309459972 0 0 0 0 316.26571125482133 280.02154546800011 0 280.02154546800011 107.21189312821207 0 0 0 0 295.56639132671546 -55.821015053207475 0 -55.821015053207475 -148.96347010872341 0 0 0 0 -88.436455179027703 -582.9491458718885 0 -582.9491458718885 -1499.0374922397095 0 0 0 0 326.32801734564623 862.6368507038078 0 862.6368507038078 137.34919110767123 0 0 0 0 2.502567848713471 2.1109336440053532 0 2.1109336440053532 -4.1882191104779238 0 0 0 0 11.700279129558112 -81.312502611057425 0 -81.312502611057425 -6.3008754996644711 0 0 0 0 19.384586945743763 -87.213220790030391 0 -87.213220790030391 -119.56427082503069 0 0 0 0 4.9935377708341928 -2.5315451722537503 0 -2.5315451722537503 -5.8308641766999898 0 0 0 0 -17.221377686954838 -146.73696575168651 0 -146.73696575168651 -387.10462311431093 0 0 0 0 126.32457812019493 -115.34574386875283 0 -115.34574386875283 96.826825122558148 0 0 0 0 180.40837977997091 -1.5989706134655535 0 -1.5989706134655535 -121.31285997044688 0 0 0 0 79.802525500298628 37.260286380970683 0 37.260286380970683 -41.553218124724481 0 0 0 0 97.838496493963362 -39.957279112471952 0 -39.957279112471952 -137.88889882540752 0 0 0 0 120.72758849635943 -137.31501683943043 0 -137.31501683943043 56.887174945721199 0 0 0 0 66.280007103330718 25.661617660367483 0 25.661617660367483 -53.298863271716982 0 0 0 0 141.77084049874247 57.25251392372229 0 57.25251392372229 -40.8464833078624 0 0 0 0 166.73942029696991 -80.369333629518223 0 -80.369333629518223 -65.949256710531699 0 0 0 0 2.4590518439029179 0.55878011424699636 0 0.55878011424699636 -3.9574700029851151 0 0 0 0 31.363465998412266 -25.069851795496561 0 -25.069851795496561 152.93996646343658 0 0 0 0 5.1719374398079614 -5.4071096396267819 0 -5.4071096396267819 -11.194434844509182 0 0 0 0 8.5287927507317818 -5.4868467495225559 0 -5.4868467495225559 -14.908890844915732 0 0 0 0 3.9872843100788584 -6.9056723705902883 0 -6.9056723705902883 -15.381885607966922 0 0 0 0 7.017782409158599 -84.362753945459872 0 -84.362753945459872 66.894395695329877 0 0 0 0 7.8418388545662552 -1.1592991043197642 0 -1.1592991043197642 -9.0260717051816286 0 0 0 0 -87.328901812013299 77.16647186821865 0 77.16647186821865 21.688600647952626 0 0 0 0 35.359726597076403 45.685837689015443 0 45.685837689015443 -300.98119723643686 0 0 0 0 62.067302419557137 -187.99205303216331 0 -187.99205303216331 -965.96334461334664 0 0 0 0 -151.92696480879854 -316.81978345890002 0 -316.81978345890002 -424.81516802504484 0 0 0 0 -59.040153309219079 -78.843909918485224 0 -78.843909918485224 -303.26905589089802 0 0 0 0 85.440479184196363 -162.71762393540916 0 -162.71762393540916 -256.25324312795783 0 0 0 0 -631.54174982108805 -884.09603903505956 0 -884.09603903505956 -693.84282720359988 0 0 0 0 -685.41986030717294 -209.16467089366688 0 -209.16467089366688 -1500.1025216287417 0 0 0 0 179.84675604958565 -430.27455388964518 0 -430.27455388964518 -1607.5157279264331 0 0 0 0 174.48995805992732 -263.47639695079988 0 -263.47639695079988 -970.18303965255109 0 0 0 0 282.88556029100818 -142.35011812416724 0 -142.35011812416724 -1499.6879933260025 0 0 0 0 115.04540799579549 71.106724577730802 0 71.106724577730802 -999.32277630736735 0 0 0 0 141.53003193201619 121.01986715804389 0 121.01986715804389 -1528.8154497193818 0 0 0 0 -19.401851452379276 -34.620289113238869 0 -34.620289113238869 -444.42776334521614 0 0 0 0 1.2963551634800374 -1.6244051541651281 0 -1.6244051541651281 -3.2511732797729884 0 0 0 0 178.38254084747496 88.557425224427789 0 88.557425224427789 -1500.2994609499735 0 0 0 0 145.6652469553031 231.81309049257698 0 231.81309049257698 -808.34389683790687 0 0 0 0 63.069991890760718 -178.87808884737615 0 -178.87808884737615 -298.10682940085371 0 0 0 0 -117.96229378989815 180.02565796452427 0 180.02565796452427 -809.94803260366882 0 0 0 0 78.234902495239027 -331.03260417906586 0 -331.03260417906586 147.36132409126822 0 0 0 0 -1.218561624351131 2.6626484586818542 0 2.6626484586818542 -4.6852713905748118 0 0 0 0 -407.24765940399374 739.46192138655647 0 739.46192138655647 -265.74073272257101 0 0 0 0 482.32000548915022 -188.25449089395818 0 -188.25449089395818 -1498.101774819419 0 0 0 0 84.122368337924712 606.33285382089525 0 606.33285382089525 -1496.8632504810043 0 0 0 0 -176.27905082796411 68.166559171321751 0 68.166559171321751 -147.06451837112036 0 0 0 0 79.001389984705384 -68.053756896631967 0 -68.053756896631967 -160.35345011034008 0 0 0 0 297.9746639934196 183.65007021314159 0 183.65007021314159 -129.89308925236946 0 0 0 0 1.5156893448069582 -2.5592326209081193 0 -2.5592326209081193 -71.213242362779056 0 0 0 0 33.277870771568359 -96.684791429620873 0 -96.684791429620873 -213.08854617798556 0 0 0 0 -200.33395097994071 94.042198766359007 0 94.042198766359007 -367.84001115682804 0 0 0 0 -202.10972492109155 55.520628919485688 0 55.520628919485688 -229.53687034526411 0 0 0 0 2.9939671232115757 -11.434331572028896 0 -11.434331572028896 -348.06645149620363 0 0 0 0 -10.001906634345403 0.021968849716358818 0 0.021968849716358818 -56.597701001803216 0 0 0 0 38.194131356467572 134.61994421058262 0 134.61994421058262 -256.20777445560725 0 0 0 0 -87.214477963315744 177.16866721177422 0 177.16866721177422 -270.38720341793851 0 0 0 0 26.099182530577934 41.783066970420805 0 41.783066970420805 -366.778964521116 0 0 0 0 -3.908927135028371 205.17417470784403 0 205.17417470784403 -373.61476117457903 0 0 0 0 -96.480772164632185 239.53602785363796 0 239.53602785363796 -39.917275735600924 0 0 0 0 78.972545332702055 4.7806179603541068 0 4.7806179603541068 -381.30776381226678 0 0 0 0 66.551892919034486 -66.578936007687389 0 -66.578936007687389 -541.1528198984156 0 0 0 0 -52.731634307500372 -36.551268378560053 0 -36.551268378560053 -2.1528664834974052 0 0 0 0 -1.2417982500147209 1.7467352626700396 0 1.7467352626700396 -2.5316045945975674 0 0 0 0 97.526721776283125 23.734025694273896 0 23.734025694273896 -147.8527879036883 0 0 0 0 89.842490569543116 87.471836804559757 0 87.471836804559757 16.517780625335945 0 0 0 0 -2.3211176659078929 3.8762789754750582 0 3.8762789754750582 -5.4714674894287363 0 0 0 0 10.713691218523536 -21.987835526964773 0 -21.987835526964773 -23.432283243903839 0 0 0 0 10.897713137608207 -26.184445743684591 0 -26.184445743684591 -11.736763822113971 0 0 0 0 -74.359378329465954 -59.306233145968918 0 -59.306233145968918 -17.220177957578926 0 0 0 0 -0.77573706710507595 -0.78747478212392252 0 -0.78747478212392252 -0.51897964865818835 0 0 0 0 -51.517345809881284 11.494052452159281 0 11.494052452159281 -7.3827965305281396 0 0 0 0 -26.380454005164495 36.409793040756995 0 36.409793040756995 -7.8870168866551467 0 0 0 0 -43.405875390622668 7.4296114548324113 0 7.4296114548324113 -130.20590323219403 0 0 0 0 -17.258570501463538 -58.05280792152189 0 -58.05280792152189 -106.24659868525578 0 0 0 0 0.22350067990322486 -14.069677203389801 0 -14.069677203389801 -34.425294400618441 0 0 0 0 0.53994196825745955 -1.7869677944252871 0 -1.7869677944252871 0.11244579098011087 0 0 0 0 -14.48185565163908 -15.794905734640452 0 -15.794905734640452 -7.1509867148997728 0 0 0 0 -0.9228940702598436 -5.2258839643711186 0 -5.2258839643711186 -6.972485596345571 0 0 0 0 -32.066040916420206 -19.346212591343829 0 -19.346212591343829 7.0975514306146579 0 0 0 0 -79.843355545627219 -72.430349511099394 0 -72.430349511099394 -14.92163785086268 0 0 0 0 -16.004410334687236 -21.013803731611461 0 -21.013803731611461 -16.099857382636401 0 0 0 0 -22.79033885807803 -21.188093590086282 0 -21.188093590086282 -3.0063500939704682 0 0 0 0 -9.8343660477041794 -16.119991481196848 0 -16.119991481196848 -12.494452011784233 0 0 0 0 -15.693704102593983 -34.658594935679503 0 -34.658594935679503 -14.01097539892362 0 0 0 0 13.793913521448985 -56.735408920919781 0 -56.735408920919781 -16.966575523914798 0 0 0 0 36.577149194893764 -30.181320368391198 0 -30.181320368391198 -13.821903462227056 0 0 0 0 1.3503165082229316 -10.582391199627182 0 -10.582391199627182 1.1501204489723023 0 0 0 0 2.8273966804864865 0.60999285335178932 0 0.60999285335178932 -4.9192540606233699 0 0 0 0 11.087278775147297 1.3030377144132217 0 1.3030377144132217 -7.0707159654857605 0 0 0 0 2.6135333024937641 -0.2752405994317364 0 -0.2752405994317364 -0.011977251970161973 0 0 0 0 17.867542046127255 1.6932109730078082 0 1.6932109730078082 -11.423120606512384 0 0 0 0 6.8991625806632673 -6.6549300561774611 0 -6.6549300561774611 -8.5793532590012731 0 0 0 0 -1.4178635907584138 3.6385804069733005 0 3.6385804069733005 -7.483356794228385 0 0 0 0 0.4067305000048691 0.18391708769922843 0 0.18391708769922843 -4.0952376974310027 0 0 0 0 -0.25488764562108202 2.8230883994968963 0 2.8230883994968963 -2.1494698111528123 0 0 0 0 54.553303895419958 16.381625064206673 0 16.381625064206673 -20.540481014226771 0 0 0 0 54.366866667058275 -15.612136180736343 0 -15.612136180736343 -54.372671867484314 0 0 0 0 -16.964650403990504 -2.4013341189038329 0 -2.4013341189038329 0.67633850705624354 0 0 0 0 -3.6477951393109151 -2.3625019935097953 0 -2.3625019935097953 -3.8032600415044726 0 0 0 0 -3.3235130446370249 0.71095168591818947 0 0.71095168591818947 -1.0136083881011473 0 0 0 0 -13.16816895390685 -35.96082428626039 0 -35.96082428626039 -120.6135505059774 0 0 0 0 -0.22192362522437481 -0.16692809099299843 0 -0.16692809099299843 0.79893175114237636 0 0 0 0 -5.626728916062973 26.884900810223826 0 26.884900810223826 -45.143271937434292 0 0 0 0 -159.3900750854138 159.4068145260112 0 159.4068145260112 -356.14551309991839 0 0 0 0 -112.95937803794232 26.308014691849166 0 26.308014691849166 -40.251862436075953 0 0 0 0 -213.96300839655873 -76.018998289324372 0 -76.018998289324372 -122.82646493744471 0 0 0 0 -112.35339955569609 -172.81535368074742 0 -172.81535368074742 -196.40218492762324 0 0 0 0 24.82126645169501 -159.4117160956439 0 -159.4117160956439 -151.5973754497536 0 0 0 0 -28.710993681455648 -96.671752837653457 0 -96.671752837653457 -165.13596725123534 0 0 0 0 -7.8213369606605738 -2.4779215668959296 0 -2.4779215668959296 -36.420880977306638 0 0 0 0 -19.924031451350913 -88.758942914586669 0 -88.758942914586669 -169.92319336650871 0 0 0 0 18.839907291295049 31.049426440356456 0 31.049426440356456 -309.15288924529887 0 0 0 0 -304.95373000524751 -37.285953280313151 0 -37.285953280313151 8.1672119572756401 0 0 0 0 -156.66570681491839 -282.59013008634474 0 -282.59013008634474 -79.939254804550728 0 0 0 0 -1.4471555419888373 -1.6917502769099411 0 -1.6917502769099411 -2.2216143949907554 0 0 0 0 -87.002890472222361 -91.585296728128924 0 -91.585296728128924 41.668501700804882 0 0 0 0 51.602806348041895 -154.06864722157479 0 -154.06864722157479 -296.00298461912331 0 0 0 0 -4.5173758097823677 11.535916038291511 0 11.535916038291511 -23.820690594504491 0 0 0 0 266.3583076120201 237.86340655546974 0 237.86340655546974 64.103847290216436 0 0 0 0 134.0181696384609 -27.81788390911106 0 -27.81788390911106 -91.689101329697223 0 0 0 0 46.059525669956884 33.293088627796351 0 33.293088627796351 -87.609557212055279 0 0 0 0 3.1331656646364081 152.63767499305527 0 152.63767499305527 14.971025758657106 0 0 0 0 47.0663451995797 268.96445537530508 0 268.96445537530508 104.9476750844758 0 0 0 0 -4.0630572080958665 9.1041071088965051 0 9.1041071088965051 -19.028645332129127 0 0 0 0 -18.891398555080656 -28.423950270723132 0 -28.423950270723132 -80.04944773377494 0 0 0 0 195.23304986101067 -90.444490119753937 0 -90.444490119753937 -596.40540960367548 0 0 0 0 32.329064796412922 142.60600695640323 0 142.60600695640323 -606.96399649032446 0 0 0 0 29.710270111596436 -50.458437587736228 0 -50.458437587736228 -443.87392468726921 0 0 0 0 -196.846616874407 370.5265098265304 0 370.5265098265304 -219.05216438564116 0 0 0 0 -1.4797559747937434 2.5218515816134666 0 2.5218515816134666 -3.5849619854180723 0 0 0 0 -310.45961448603316 340.63685274643626 0 340.63685274643626 214.11440448803751 0 0 0 0 355.81398646333446 435.81631304063399 0 435.81631304063399 -261.3324001817673 0 0 0 0 -2.1112987136731087 5.0896677869661771 0 5.0896677869661771 -8.538608977629206 0 0 0 0 -282.99281872693433 137.9837154418874 0 137.9837154418874 208.37703949038695 0 0 0 0 -240.12903812496535 101.0400217611882 0 101.0400217611882 74.622497675029081 0 0 0 0 -813.80969539163493 437.45926246418321 0 437.45926246418321 4.2357479773390878 0 0 0 0 90.45447985008019 565.00649952853882 0 565.00649952853882 -1497.0031556659492 0 0 0 0 254.39336776477882 83.964005056777296 0 83.964005056777296 -241.88828564655967 0 0 0 0 33.050020887318482 87.52962273098899 0 87.52962273098899 -376.91440874617263 0 0 0 0 -2.6402003481702874 3.3217490539360184 0 3.3217490539360184 -7.8853017113229669 0 0 0 0 -112.97406772557824 -611.57831824811137 0 -611.57831824811137 -1496.7166456866285 0 0 0 0 81.536549378555634 -205.13567345660994 0 -205.13567345660994 -937.2406312666144 0 0 0 0 35.832816324616871 -181.87229867669302 0 -181.87229867669302 -362.87897680856412 0 0 0 0 244.90263550451715 123.27992061240866 0 123.27992061240866 -1500.785736078212 0 0 0 0 206.77448841498881 125.69485042424014 0 125.69485042424014 -897.32430917348415 0 0 0 0 -41.84774834621345 155.23319594695511 0 155.23319594695511 -471.09357226026486 0 0 0 0 -88.022097716210681 70.23464052805916 0 70.23464052805916 -71.384065225412513 0 0 0 0 -0.24502393199471073 -2.5277815040053202 0 -2.5277815040053202 -17.475665262094715 0 0 0 0 -24.157544586784752 -88.922014104943884 0 -88.922014104943884 -248.69257961729559 0 0 0 0 -0.36748612768061106 -1.0901213915664281 0 -1.0901213915664281 -1.8698871989544386 0 0 0 0 70.424171470623179 476.34101276467004 0 476.34101276467004 -1497.2640161485456 0 0 0 0 -297.04304415478259 715.00884813852383 0 715.00884813852383 -978.34996523593327 0 0 0 0 -258.68712619826908 523.84141665619416 0 523.84141665619416 -575.50581474316266 0 0 0 0 -574.81016737046241 -593.9991837831019 0 -593.9991837831019 -263.09450408837165 0 0 0 0 -1.2037742960516002 -1.6379351347261804 0 -1.6379351347261804 -7.3950809511415105 0 0 0 0 161.62379822239907 -230.09576313827642 0 -230.09576313827642 -656.09435866825879 0 0 0 0 62.985936567926437 -570.86838330767296 0 -570.86838330767296 -1496.6724665522891 0 0 0 0 -45.32572241758298 -153.59139665660859 0 -153.59139665660859 -669.47376414212522 0 0 0 0 -240.19868546057842 -140.01696078745817 0 -140.01696078745817 -132.66160765937184 0 0 0 0 -52.74711422697851 55.933846632126915 0 55.933846632126915 -143.84753785938904 0 0 0 0 171.98662538971632 -60.313086822875448 0 -60.313086822875448 -136.97231077947708 0 0 0 0 -45.433014573328535 35.525950611091048 0 35.525950611091048 -9.0777799215129562 0 0 0 0 -124.6519986454223 18.049103314880085 0 18.049103314880085 -25.102316166105084 0 0 0 0 2.8821757392528937 12.222484978144394 0 12.222484978144394 -201.29073546800737 0 0 0 0 -28.992879253172646 -2.8237602128463095 0 -2.8237602128463095 -23.527261658829048 0 0 0 0 -58.520691261071548 40.690824641066001 0 40.690824641066001 42.382275034701706 0 0 0 0 97.09906105594473 72.637120173470294 0 72.637120173470294 -46.688544635437211 0 0 0 0 0.33008180473077531 1.2396893109164042 0 1.2396893109164042 -3.5248566223306304 0 0 0 0 -13.433269676824239 8.4892584783944756 0 8.4892584783944756 -5.8241007746229592 0 0 0 0 1.044834195557371 17.269686499245267 0 17.269686499245267 -7.4203704828806565 0 0 0 0 0.098146561513330455 3.5492018631773155 0 3.5492018631773155 -17.907711942131115 0 0 0 0 9.458921535620135 -35.237956334015934 0 -35.237956334015934 10.689097830860064 0 0 0 0 -30.223509716056043 -16.466887944024435 0 -16.466887944024435 8.092350422213002 0 0 0 0 -4.0558153030864972 27.564791549733354 0 27.564791549733354 27.152907581235304 0 0 0 0 -99.481027029540925 26.242754726287302 0 26.242754726287302 34.08484116262575 0 0 0 0 -54.529609783025073 -56.89876071387252 0 -56.89876071387252 5.2832992977320146 0 0 0 0 100.62044783960596 12.287016884075001 0 12.287016884075001 -128.79652817292481 0 0 0 0 -32.364845925739928 -84.959353511142126 0 -84.959353511142126 -182.15487835306692 0 0 0 0 -1.4446720937730086 2.4435368285679786 0 2.4435368285679786 -6.6880971664760196 0 0 0 0 -524.49314823826319 -943.22000595736245 0 -943.22000595736245 -1498.7709239855349 0 0 0 0 -355.36677054688715 422.13727735454404 0 422.13727735454404 -57.697524467013864 0 0 0 0 62.647121214959391 514.88151464441466 0 514.88151464441466 -1496.2288073337158 0 0 0 0 -213.66259173874784 59.267614738298334 0 59.267614738298334 -157.98720506993141 0 0 0 0 -27.933357153213663 156.37216646913203 0 156.37216646913203 -619.46369520525514 0 0 0 0 123.32706835229341 132.47069251582843 0 132.47069251582843 -654.95999452539695 0 0 0 0 121.64820880485765 112.24667732389796 0 112.24667732389796 -752.59372070420886 0 0 0 0 219.45017027622683 -158.54173843852323 0 -158.54173843852323 -1501.0041736169724 0 0 0 0 11.76312782263409 -80.547686846773558 0 -80.547686846773558 -627.91267704455367 0 0 0 0 -73.832413986811801 -56.508750941397693 0 -56.508750941397693 -230.73911423396385 0 0 0 0 -46.348988087063759 -42.511681798725022 0 -42.511681798725022 -239.42973065406045 0 0 0 0 27.400092114597129 -64.852816774024632 0 -64.852816774024632 8.8858728999955474 0 0 0 0 -103.05359629053768 -8.3874897010784935 0 -8.3874897010784935 19.451440594529231 0 0 0 0 -4.2031084643287633 -1.0185713231973637 0 -1.0185713231973637 2.8350982060570757 0 0 0 0 -44.741774227499434 -7.5818476065096547 0 -7.5818476065096547 48.073723356849769 0 0 0 0 -57.802781272740106 -16.710055933393051 0 -16.710055933393051 42.324364633824189 0 0 0 0 -21.593790275223341 -11.04219445162289 0 -11.04219445162289 21.713919054128382 0 0 0 0 -74.694737498512595 -84.788887844142891 0 -84.788887844142891 -23.134222005022821 0 0 0 0 32.092595388824009 18.014902998877915 0 18.014902998877915 -231.51435107379075 0 0 0 0 -21.731068691614936 3.7582479041857368 0 3.7582479041857368 -234.92134784260816 0 0 0 0 -13.820183622741837 -78.049973296164353 0 -78.049973296164353 -198.16644841767743 0 0 0 0 -45.916850462884895 -50.959249136921699 0 -50.959249136921699 -53.920625247817952 0 0 0 0 -14.223084437954867 -5.4899341485975128 0 -5.4899341485975128 24.099628851450689 0 0 0 0 3.5879035694771493 -5.1090556780611864 0 -5.1090556780611864 -8.0722522265428793 0 0 0 0 -1.2115369486434702 -32.611958296703961 0 -32.611958296703961 76.415007034542214 0 0 0 0 -16.153876722375173 -93.240373987464196 0 -93.240373987464196 -42.405263239184933 0 0 0 0 -15.380400556262133 -30.428096637049606 0 -30.428096637049606 -14.160270828154422 0 0 0 0 -45.039663169072128 -93.336233427033221 0 -93.336233427033221 -7.6714230271818451 0 0 0 0 -33.848131862253922 -119.54990198997444 0 -119.54990198997444 -142.07593155054747 0 0 0 0 28.54427325337349 -43.285095884111342 0 -43.285095884111342 -49.381462498796282 0 0 0 0 -14.303323902763623 -20.13733613641034 0 -20.13733613641034 -53.258306447361974 0 0 0 0 7.8054487057638653 31.998626027061619 0 31.998626027061619 -27.985705288247118 0 0 0 0 2.9302136686758136 0.3475746956586061 0 0.3475746956586061 -26.673187491071495 0 0 0 0 -4.6613334808362197 -12.47700133321996 0 -12.47700133321996 -20.768253085672995 0 0 0 0 7.7177628327513048 -17.401918536108496 0 -17.401918536108496 -41.746015590146271 0 0 0 0 -62.563105398943662 59.941113322896854 0 59.941113322896854 -44.114548617346372 0 0 0 0 4.3644935177635489 -44.773646687033761 0 -44.773646687033761 -163.5280879685597 0 0 0 0 -23.991121651273488 -5.7497423932341007 0 -5.7497423932341007 45.59150256563953 0 0 0 0 -8.5343798189589108 -42.780764610972028 0 -42.780764610972028 17.893505410712351 0 0 0 0 -11.188973653043032 -16.536109512530309 0 -16.536109512530309 -18.842599975132138 0 0 0 0 -10.709439250717528 1.2913820728044101 0 1.2913820728044101 -3.7673213442447331 0 0 0 0 0.46900346971551699 1.886592955183005 0 1.886592955183005 -37.994531293149294 0 0 0 0 -55.697020059791157 -33.986926151176704 0 -33.986926151176704 61.039408794621522 0 0 0 0 -1.3337461481339119 -251.46090083267836 0 -251.46090083267836 -93.582346059272822 0 0 0 0 -4.3365419978415503 9.7480069948519485 0 9.7480069948519485 -42.577203367067341 0 0 0 0 -2.4142365197113533 -9.2093651300094521 0 -9.2093651300094521 -32.440816344152324 0 0 0 0 -60.466689414902248 -119.761013957464 0 -119.761013957464 -53.975765838680672 0 0 0 0 -1.0337818503985137 -1.7432562830644258 0 -1.7432562830644258 -1.5781083229390021 0 0 0 0 60.089649420302067 212.73116894303712 0 212.73116894303712 -132.60072462141522 0 0 0 0 -23.55770267109358 -88.560953875975656 0 -88.560953875975656 30.090581621843739 0 0 0 0 1.1854101872594947 -6.9328409526556314 0 -6.9328409526556314 -35.274057537656695 0 0 0 0 -21.26916434013765 -42.649187247352529 0 -42.649187247352529 78.394147380535287 0 0 0 0 -38.469592914609166 -73.411882754739054 0 -73.411882754739054 23.385675531557354 0 0 0 0 95.3932635780684 0.65248152039202978 0 0.65248152039202978 -1.2460384380683536 0 0 0 0 28.450063476392643 3.3781235775040841 0 3.3781235775040841 74.47157061193866 0 0 0 0 67.600816260904139 -26.650905596849043 0 -26.650905596849043 -19.143801956357493 0 0 0 0 -0.66566790079014027 -45.586752598068415 0 -45.586752598068415 -23.37476826416605 0 0 0 0 -23.560239049058509 -45.732449671289942 0 -45.732449671289942 32.778723888146487 0 0 0 0 -30.389496761873716 -28.085735638619099 0 -28.085735638619099 45.702468822466471 0 0 0 0 -45.480336426508984 -50.988592245124892 0 -50.988592245124892 11.004861910602017 0 0 0 0 -41.115560807209476 -22.036556974486302 0 -22.036556974486302 12.507496728038404 0 0 0 0 -77.453859149712116 -18.594634434040927 0 -18.594634434040927 -6.047607427082089 0 0 0 0 -51.357542833766274 -39.526529358055996 0 -39.526529358055996 -6.0456012771683163 0 0 0 0 -55.427443514152174 -36.468438103651806 0 -36.468438103651806 9.6839747210360656 0 0 0 0 -45.54703764531223 -63.936146266500145 0 -63.936146266500145 4.4905074784510361 0 0 0 0 -46.118360320421743 -63.122912561791964 0 -63.122912561791964 9.9840086326148594 0 0 0 0 -25.054091333735414 -98.77731197027515 0 -98.77731197027515 -38.942295689827006 0 0 0 0 1.5102360494147433 -17.87311720019261 0 -17.87311720019261 -32.358962052656352 0 0 0 0 -37.07916188490799 -53.266279938166917 0 -53.266279938166917 -51.21286661077329 0 0 0 0 -12.192779083583446 -18.421255835673037 0 -18.421255835673037 -11.022443894613389 0 0 0 0 -22.204784670009758 -12.118072607569047 0 -12.118072607569047 -21.231432186241364 0 0 0 0 -72.690280815000733 -2.2108541706875258 0 -2.2108541706875258 -23.173763522443551 0 0 0 0 -59.10610884666346 -23.64482722876437 0 -23.64482722876437 -11.206757557272795 0 0 0 0 -32.676419674374642 -0.72223766203660489 0 -0.72223766203660489 -10.809592872827125 0 0 0 0 4.7181894614346174 4.942432601138627 0 4.942432601138627 -24.237502953552308 0 0 0 0 17.067038338976772 22.317540294966648 0 22.317540294966648 -11.190286171386106 0 0 0 0 -6.0157977882303868 -7.8515019912455211 0 -7.8515019912455211 -13.516985609346607 0 0 0 0 -10.747226288909925 -89.944168319264506 0 -89.944168319264506 4.4474309646563768 0 0 0 0 -7.7068244654324189 5.1016321968563716 0 5.1016321968563716 -50.892449846457112 0 0 0 0 258.76197563293772 280.30351896627826 0 280.30351896627826 -94.375933125611922 0 0 0 0 347.42685030256325 145.27299468844012 0 145.27299468844012 12.527550828605399 0 0 0 0 340.95681596993199 229.95239430237507 0 229.95239430237507 -69.586737716770585 0 0 0 0 254.06604531088192 157.71193983593412 0 157.71193983593412 -460.39270102161163 0 0 0 0 202.62800570488844 -223.39226101031818 0 -223.39226101031818 -107.04910137574853 0 0 0 0 1.195154645945804 -0.3617185648967034 0 -0.3617185648967034 -7.936918746686068 0 0 0 0 12.676642188501319 -127.41170342277883 0 -127.41170342277883 -73.390210500836474 0 0 0 0 -4.172236257961969 8.8781365463548436 0 8.8781365463548436 -27.526860053725304 0 0 0 0 -60.700492775499143 -11.171070058539417 0 -11.171070058539417 19.317199440124941 0 0 0 0 -20.51590956946572 58.336791949466033 0 58.336791949466033 -129.83186159743303 0 0 0 0 -43.102907466825428 45.126784752342743 0 45.126784752342743 -47.923122394801396 0 0 0 0 11.02550924921411 13.710487376932008 0 13.710487376932008 -89.545795761125518 0 0 0 0 -0.10898681817227165 -0.21515794034612246 0 -0.21515794034612246 -0.82240774037576125 0 0 0 0 -1.8748664296997308 6.430325356181287 0 6.430325356181287 -19.364231487151979 0 0 0 0 21.722791500468247 -12.918278242167133 0 -12.918278242167133 -27.236699193093628 0 0 0 0 16.522647545982892 65.020638220338697 0 65.020638220338697 28.024769831421281 0 0 0 0 19.511147110054026 11.089940575186397 0 11.089940575186397 -47.128424009349615 0 0 0 0 -35.700785815842089 32.590346545790453 0 32.590346545790453 21.690157165432083 0 0 0 0 -30.154918153863946 17.658211688039046 0 17.658211688039046 -31.403010526501021 0 0 0 0 -16.19787910689314 10.768439969608153 0 10.768439969608153 46.040785488923575 0 0 0 0 -8.8705428614066744 2.1040510923050757 0 2.1040510923050757 -3.1522939947140118 0 0 0 0 -4.4429981466309982 5.7450644204454875 0 5.7450644204454875 -68.347088084726238 0 0 0 0 -7.0184661056719051 -8.5198334621040885 0 -8.5198334621040885 -90.467286030992909 0 0 0 0 -2.0014869723228434 -1.5897543859761476 0 -1.5897543859761476 -1.3466392444465924 0 0 0 0 -2.8461383841249699 -1.8033222590256628 0 -1.8033222590256628 -45.331660386201747 0 0 0 0 -19.702827044447986 17.143098617106261 0 17.143098617106261 -66.866071639382426 0 0 0 0 -39.276784546562794 -2.4576977542399163 0 -2.4576977542399163 -42.098745961620807 0 0 0 0 -16.04818841746328 -15.061279590397135 0 -15.061279590397135 -32.176220258162857 0 0 0 0 -9.2957360928412527 -2.0106438445554886 0 -2.0106438445554886 -52.853942525549883 0 0 0 0 -5.7629930793132615 -8.3386422900477264 0 -8.3386422900477264 -7.4934854474122776 0 0 0 0 -10.357119771205362 2.8714073572650705 0 2.8714073572650705 -45.763952491918644 0 0 0 0 -6.4535363528966627 6.143435608542859 0 6.143435608542859 -59.080648283470509 0 0 0 0 -9.1278194143461633 4.2317656752230732 0 4.2317656752230732 -36.011395681191971 0 0 0 0 -4.3136708097454175 -4.8592725729440644 0 -4.8592725729440644 -39.518634681383027 0 0 0 0 5.4448121334185089 -18.150191436121986 0 -18.150191436121986 -40.889858774446566 0 0 0 0 -5.281724025517974 -2.5175500670765132 0 -2.5175500670765132 -26.521396193135843 0 0 0 0 -23.67948253780105 2.6066960537327759 0 2.6066960537327759 -39.413480448186419 0 0 0 0 21.830446113698372 103.43994249587649 0 103.43994249587649 -72.829949205136018 0 0 0 0 4.2454760177938624 -8.9618166147192824 0 -8.9618166147192824 -33.719059686992296 0 0 0 0 -0.35206663243347691 -7.5608627328265747 0 -7.5608627328265747 -30.639069686500662 0 0 0 0 -1.9037906920435015 -1.2119395088319074 0 -1.2119395088319074 -12.055025210044974 0 0 0 0 97.742902985212893 -72.145212591035943 0 -72.145212591035943 -35.606974390819232 0 0 0 0 3.9888607004469714 4.9922028815393267 0 4.9922028815393267 -32.699798792835566 0 0 0 0 3.2534904416447716 -1.8899903943170102 0 -1.8899903943170102 -33.381171376386646 0 0 0 0 -27.092703235392491 -25.173757366205791 0 -25.173757366205791 -23.825703994940341 0 0 0 0 1.4066040642463888 9.012104041992723 0 9.012104041992723 -37.606244275264174 0 0 0 0 -6.9126931219752805 1.9822651838608181 0 1.9822651838608181 -48.271662510954229 0 0 0 0 102.63675072483329 -24.20028378619827 0 -24.20028378619827 -84.686513702832599 0 0 0 0 95.080111354533074 -36.504963221555499 0 -36.504963221555499 -59.529936111846837 0 0 0 0 21.975291208927956 -131.75568520524757 0 -131.75568520524757 -73.481162265476968 0 0 0 0 24.372879381641951 -35.455910087719076 0 -35.455910087719076 -58.424800607451402 0 0 0 0 29.33063454899343 -50.709919936924052 0 -50.709919936924052 -26.478443508473902 0 0 0 0 29.907505178014617 -46.484194385831188 0 -46.484194385831188 -32.648339560300883 0 0 0 0 28.340433386289533 -52.680445041837856 0 -52.680445041837856 -14.460497725326604 0 0 0 0 58.223802626665474 -29.822791903498455 0 -29.822791903498455 -29.963908377720941 0 0 0 0 2.8687905376950766 -68.26733036805831 0 -68.26733036805831 -67.451317494205796 0 0 0 0 217.25982277646835 -60.409764593174259 0 -60.409764593174259 -195.31884692302083 0 0 0 0 -130.13179817774812 -91.338745739879414 0 -91.338745739879414 -62.858590108751287 0 0 0 0 1.5802640009697155 -0.87324035095868346 0 -0.87324035095868346 0.44452333254912446 0 0 0 0 -16.539880495543969 -52.12035302320308 0 -52.12035302320308 -43.944719388537123 0 0 0 0 160.17047055278795 118.56491685718311 0 118.56491685718311 -80.359536688847584 0 0 0 0 48.693520743919748 12.954923933092459 0 12.954923933092459 27.126308154583967 0 0 0 0 56.568929364834275 -28.046956101707565 0 -28.046956101707565 -66.485473841977182 0 0 0 0 39.230527392207478 11.759047496710082 0 11.759047496710082 -16.549752560084926 0 0 0 0 -6.9732373934693896 -6.7657864912937384 0 -6.7657864912937384 -23.859261300369326 0 0 0 0 102.17003024642736 -13.380616069817734 0 -13.380616069817734 -62.413710272796379 0 0 0 0 171.63342952066174 -3.6515467450044525 0 -3.6515467450044525 -260.58163796056033 0 0 0 0 -183.6103070923084 198.21215561727695 0 198.21215561727695 -181.58500415894039 0 0 0 0 34.343580890962244 -50.283838471458466 0 -50.283838471458466 83.962310153423459 0 0 0 0 10.099613640304142 117.73781853971946 0 117.73781853971946 38.751449689882065 0 0 0 0 103.18466128049897 15.337379476557317 0 15.337379476557317 18.414521841448732 0 0 0 0 2.2747895274534558 -5.14071393132458 0 -5.14071393132458 -31.598491712897705 0 0 0 0 -52.177114171906148 110.71443905117951 0 110.71443905117951 43.964533991614189 0 0 0 0 -32.059946945007141 109.22258969498853 0 109.22258969498853 3.8245291398088739 0 0 0 0 -54.834157269879171 7.748455925622352 0 7.748455925622352 18.777105505971122 0 0 0 0 65.873400381881311 -24.682241294535288 0 -24.682241294535288 -73.60705003915912 0 0 0 0 0.28916499940748475 0.33615478082045414 0 0.33615478082045414 0.297419104947517 0 0 0 0 -10.998061877917166 64.42067289042231 0 64.42067289042231 -72.413094074959645 0 0 0 0 3.6394279378884562 12.500080491356471 0 12.500080491356471 -15.121559807105768 0 0 0 0 8.9015405664254104 4.9411104051170014 0 4.9411104051170014 -31.922310938966348 0 0 0 0 3.9197610130726162 -1.9276192441707281 0 -1.9276192441707281 -34.49679505276913 0 0 0 0 -2.1233607595872854 3.555956747727123 0 3.555956747727123 -33.723775850899528 0 0 0 0 117.58626878833866 31.856724700482118 0 31.856724700482118 -80.480324975182157 0 0 0 0 6.867081877625397 -1.9080341499655074 0 -1.9080341499655074 -40.138223240740103 0 0 0 0 10.338125282114106 3.2505905461989641 0 3.2505905461989641 -33.058461490642571 0 0 0 0 -38.669323281095785 -55.428942823229818 0 -55.428942823229818 -211.61483325876179 0 0 0 0 -158.22707808217376 3.305753197017566 0 3.305753197017566 -24.464482808738467 0 0 0 0 -30.014985654125667 38.764000442824909 0 38.764000442824909 -10.051471932871209 0 0 0 0 0.0012522323941386304 2.6368204099752406 0 2.6368204099752406 -7.6383039143128748 0 0 0 0 2.8119733991244367 -1.1949686967204984 0 -1.1949686967204984 -33.708687120787282 0 0 0 0 -102.29497170966189 3.0162507573932089 0 3.0162507573932089 -35.891056115324318 0 0 0 0 -30.54399810722267 -31.151332228341857 0 -31.151332228341857 -28.993901635914881 0 0 0 0 3.1645968021173445 -6.7200301731152976 0 -6.7200301731152976 -37.135471251442141 0 0 0 0 35.109115208409094 -3.846657892926487 0 -3.846657892926487 -23.215914157357474 0 0 0 0 12.455134554561621 -19.505614013107852 0 -19.505614013107852 -57.137494556866123 0 0 0 0 61.927136014447569 -33.704490407690173 0 -33.704490407690173 -24.104619212448597 0 0 0 0 8.3473209722770214 -3.8175440425302281 0 -3.8175440425302281 -44.74029340367219 0 0 0 0 85.400566731000254 -18.392615309276152 0 -18.392615309276152 -68.74801328224703 0 0 0 0 10.080562047275865 13.711965686469268 0 13.711965686469268 -33.347628284595217 0 0 0 0 61.823445428213745 -65.186722856709821 0 -65.186722856709821 -19.975372697746934 0 0 0 0 67.335874931213311 -65.731281109325209 0 -65.731281109325209 -66.688819231578236 0 0 0 0 63.49867202871701 -28.104634413411304 0 -28.104634413411304 -66.862328310806333 0 0 0 0 6.0440753399188907 -33.960833035479482 0 -33.960833035479482 -47.675091037323 0 0 0 0 -87.030362586784122 -2.8009745709996423 0 -2.8009745709996423 -63.072105575332671 0 0 0 0 -71.957312509965959 -53.184900073809331 0 -53.184900073809331 -18.138601939277578 0 0 0 0 -16.798387417893537 -51.900540903061483 0 -51.900540903061483 -61.752307167666004 0 0 0 0 -95.550802224629479 -0.26368356207967736 0 -0.26368356207967736 -49.526926844526315 0 0 0 0 -106.20240576689866 -169.85303986914005 0 -169.85303986914005 -277.41380688099434 0 0 0 0 -57.837055659012094 13.678532567022557 0 13.678532567022557 -193.39406641523965 0 0 0 0 -41.106219127247641 -58.135030608193119 0 -58.135030608193119 -301.24240218687009 0 0 0 0 -19.647050132281038 -76.146327751115678 0 -76.146327751115678 -89.975242734401036 0 0 0 0 108.16487362753816 -18.621475638673132 0 -18.621475638673132 -177.47552333615567 0 0 0 0 -28.980638233624159 17.950192320045332 0 17.950192320045332 -22.978525896871361 0 0 0 0 -28.505810373172348 -20.82137024808884 0 -20.82137024808884 -66.110578685289511 0 0 0 0 -62.680255614801354 3.4711034853899037 0 3.4711034853899037 -80.187677709320269 0 0 0 0 -58.533244923506572 -23.358827193118486 0 -23.358827193118486 -49.352691938991484 0 0 0 0 -58.766357387754397 -17.68066261833701 0 -17.68066261833701 -145.6212583905035 0 0 0 0 -77.242221464115119 -39.977559104168904 0 -39.977559104168904 -136.65808593267866 0 0 0 0 -87.510011836407102 -101.06002338734834 0 -101.06002338734834 -162.05899304784862 0 0 0 0 -53.16176180213597 -27.542199438978969 0 -27.542199438978969 -169.40352065041589 0 0 0 0 -56.248669450889793 -47.633653572076582 0 -47.633653572076582 -119.70761918791686 0 0 0 0 -29.553858979486222 -7.0570062260994746 0 -7.0570062260994746 -93.804387467880588 0 0 0 0 -52.219321815716285 -73.400131078066806 0 -73.400131078066806 -159.14758114451251 0 0 0 0 -58.617578867977045 -75.326098483516034 0 -75.326098483516034 -121.86987179053676 0 0 0 0 -98.707790132456466 -94.829390258400963 0 -94.829390258400963 -119.32761633313203 0 0 0 0 -99.59668874835279 -92.02340934080712 0 -92.02340934080712 -165.59966859778069 0 0 0 0 -134.00426615126526 -149.84764413829907 0 -149.84764413829907 -194.68254274620995 0 0 0 0 -0.92303377119538688 0.47648830052153279 0 0.47648830052153279 0.98986391711526522 0 0 0 0 -0.34570662681794229 1.4377349588287878 0 1.4377349588287878 -3.0920057834949404 0 0 0 0 -0.77360439056336361 1.5261013275168729 0 1.5261013275168729 -3.2227636753041224 0 0 0 0 45.798231637028948 33.249271494483764 0 33.249271494483764 7.4031912172831653 0 0 0 0 -82.990050119477019 -111.04873173072883 0 -111.04873173072883 -120.22981707371082 0 0 0 0 -5.4671912003695979 -3.3347945841451292 0 -3.3347945841451292 4.735168122293544 0 0 0 0 17.365434284005914 98.629189177921035 0 98.629189177921035 -16.588201863112772 0 0 0 0 -153.95545564271015 -181.5274179208136 0 -181.5274179208136 -224.82800548143859 0 0 0 0 23.115360172758756 49.81671984327204 0 49.81671984327204 22.754200223338557 0 0 0 0 -0.55449426522500467 0.91731807025141165 0 0.91731807025141165 -1.9358631641238375 0 0 0 0 41.706648632675751 29.327064047426575 0 29.327064047426575 23.863425137667775 0 0 0 0 40.376705577918756 35.963093853977625 0 35.963093853977625 5.3781680683878221 0 0 0 0 83.174138841147396 69.699304938831119 0 69.699304938831119 -5.0899680506299774 0 0 0 0 8.3850953517607874 2.7533758697816166 0 2.7533758697816166 -32.846093622735182 0 0 0 0 12.683077824265069 5.0773391768889269 0 5.0773391768889269 -32.431211486443317 0 0 0 0 9.0318895840991296 0.79691160313764353 0 0.79691160313764353 -31.575799165449492 0 0 0 0 47.500048414044386 31.306444684024427 0 31.306444684024427 7.0031409549901582 0 0 0 0 8.0776318691969209 -1.4177382174484592 0 -1.4177382174484592 -28.913873306671803 0 0 0 0 8.5135586851972107 -0.9992216834023111 0 -0.9992216834023111 -35.778477151005063 0 0 0 0 0.96699742417399648 10.79386639595009 0 10.79386639595009 -14.878506425064188 0 0 0 0 38.908356192996052 24.70659119751781 0 24.70659119751781 10.500683769419538 0 0 0 0 47.388282201134189 25.834129301747453 0 25.834129301747453 -15.171213122293921 0 0 0 0 41.943496132814289 17.3270414465469 0 17.3270414465469 -11.471561134134845 0 0 0 0 38.924594472735407 20.840446352313393 0 20.840446352313393 -8.4567781764017127 0 0 0 0 -1.4433206477091307 3.1562166831293972 0 3.1562166831293972 -5.8658041937274703 0 0 0 0 37.785586790444086 19.676977064899347 0 19.676977064899347 -7.9696600412862608 0 0 0 0 42.347019048411312 15.63060531105657 0 15.63060531105657 -18.637507163148257 0 0 0 0 10.144198801982771 -1.4301327967108346 0 -1.4301327967108346 -26.881507188469271 0 0 0 0 9.4110613236938434 -4.089938634617738 0 -4.089938634617738 -31.925339169941253 0 0 0 0 49.221266069919693 17.088599668308234 0 17.088599668308234 -18.949491895487427 0 0 0 0 44.284504203439155 6.1181788170169966 0 6.1181788170169966 -22.114178214760614 0 0 0 0 12.652626567990978 1.0640067735171215 0 1.0640067735171215 -32.332207524655132 0 0 0 0 9.4814397228288563 -0.22195283465296711 0 -0.22195283465296711 -29.06745056733925 0 0 0 0 8.9048519654932079 -3.9187158665795323 0 -3.9187158665795323 -30.079375355107004 0 0 0 0 8.6837342147052823 -2.0427213129887605 0 -2.0427213129887605 -37.465992464236933 0 0 0 0 2.976334132496163 -1.9268412132028061 0 -1.9268412132028061 -39.082198269714581 0 0 0 0 3.2882398353897884 -3.431432770214542 0 -3.431432770214542 -31.825627792074101 0 0 0 0 -2.7964511191771173 -4.6424041836082992 0 -4.6424041836082992 -36.487443794429964 0 0 0 0 -1.294966490534307 -4.4816713923601128 0 -4.4816713923601128 -37.09025770302037 0 0 0 0 -9.2962449089204711 0.71503171594895321 0 0.71503171594895321 -39.177340182847843 0 0 0 0 2.5584580426540189 -5.7621543122706465 0 -5.7621543122706465 -36.442648560611246 0 0 0 0 -2.8422261118577126 -3.0128353254376634 0 -3.0128353254376634 -37.853396242962845 0 0 0 0 -8.0128939968499253 2.5554951218982751 0 2.5554951218982751 -37.260948132143511 0 0 0 0 2.3607000728508281 -5.0406257083290988 0 -5.0406257083290988 -33.836955135950738 0 0 0 0 -11.989136154967298 14.87832827785212 0 14.87832827785212 -21.618305145104841 0 0 0 0 10.780162138413061 0.11157050442670879 0 0.11157050442670879 -51.511503427194384 0 0 0 0 -0.0074408021023941728 27.534253037958933 0 27.534253037958933 -9.219416367323447 0 0 0 0 0.062567761299061608 -0.2322012595927605 0 -0.2322012595927605 -0.38898458516090706 0 0 0 0 -39.244567737550369 -84.811670798946579 0 -84.811670798946579 -43.754863674285843 0 0 0 0 -4.4871286937365653 -3.3605147255416341 0 -3.3605147255416341 -34.330511520535765 0 0 0 0 9.6509382001453332 -0.11040247776998058 0 -0.11040247776998058 -34.699583945381164 0 0 0 0 1.598937047288814 0.017386488953434309 0 0.017386488953434309 -31.690304595069392 0 0 0 0 1.3493438219102245 1.2433917459559325 0 1.2433917459559325 -33.88226086413033 0 0 0 0 -11.430984618936236 -9.0104110066731664 0 -9.0104110066731664 -26.631633511791733 0 0 0 0 -11.378220347257667 -10.623260343399636 0 -10.623260343399636 -1.2686181377575849 0 0 0 0 -17.012188187984975 -0.22953496864647605 0 -0.22953496864647605 4.7970111757313134 0 0 0 0 -56.023761727677083 -17.794267759170907 0 -17.794267759170907 40.159857448987168 0 0 0 0 6.560659953214345 5.1502609366332877 0 5.1502609366332877 -31.074996247761078 0 0 0 0 -49.748836221112242 -47.599500886868555 0 -47.599500886868555 -67.618930023718349 0 0 0 0 11.133688295012917 -17.762453865598673 0 -17.762453865598673 -36.571073219151003 0 0 0 0 17.276237357232276 -42.972389338337962 0 -42.972389338337962 9.5931836187392037 0 0 0 0 16.277465505548207 -13.75830174589646 0 -13.75830174589646 -43.59337143574885 0 0 0 0 0.67011819283197838 3.860614749164597 0 3.860614749164597 -23.544551173195892 0 0 0 0 -2.7150969580795028 -2.4117723245335583 0 -2.4117723245335583 -6.1764603550716695 0 0 0 0 0.0066753218281974114 -5.8612604549743992 0 -5.8612604549743992 -17.174586402406305 0 0 0 0 0.99904744255305733 -1.2344945569460393 0 -1.2344945569460393 -2.0087725825786329 0 0 0 0 -2.7815034621157793 1.0368697378489742 0 1.0368697378489742 -16.436957563734829 0 0 0 0 -0.53154119846802828 -2.4835243574362025 0 -2.4835243574362025 -4.624406563718594 0 0 0 0 -0.68357707597999351 2.7080405116012116 0 2.7080405116012116 -14.802556743794412 0 0 0 0 5.6690462773360046 0.55099951853662787 0 0.55099951853662787 -15.251968432359718 0 0 0 0 -0.41035672445233001 0.43838944391843171 0 0.43838944391843171 -2.7856501562310503 0 0 0 0 -3.909346003986343 2.5841665550324251 0 2.5841665550324251 -5.2120107156661106 0 0 0 0 -5.1910840963643068 1.3122653363207064 0 1.3122653363207064 -4.5666506218858558 0 0 0 0 -3.0078340129217165 0.29713447057799414 0 0.29713447057799414 0.033870956699949772 0 0 0 0 -0.35847937702212596 -0.5743445022809226 0 -0.5743445022809226 -2.506380676009698 0 0 0 0 28.244891431505948 7.9545580120593513 0 7.9545580120593513 -123.97237256725202 0 0 0 0 -3.3667941924321667 15.306581952467241 0 15.306581952467241 -68.375124064856209 0 0 0 0 -10.263123033494196 2.2201303942774757 0 2.2201303942774757 -51.010203928519331 0 0 0 0 8.4903737394619156 -8.4162007369232015 0 -8.4162007369232015 -53.362011883027662 0 0 0 0 0.97960821120216224 1.6683525790140266 0 1.6683525790140266 -57.916697415999806 0 0 0 0 -3.4437617134971106 15.168445253770187 0 15.168445253770187 53.546144370762704 0 0 0 0 0.63218790394455482 -8.9728189912639209 0 -8.9728189912639209 -57.041284776350949 0 0 0 0 4.5431195698893907 7.281639959212967 0 7.281639959212967 -33.435548531811889 0 0 0 0 -35.086029248024516 -4.7360370981114102 0 -4.7360370981114102 -53.31379695871874 0 0 0 0 -42.008949667962781 -18.561924544799695 0 -18.561924544799695 -45.205713891184132 0 0 0 0 -62.274676979961725 -7.6053830246055441 0 -7.6053830246055441 -41.283358400549332 0 0 0 0 -63.611029275543558 -29.242796642025496 0 -29.242796642025496 -49.361607681754322 0 0 0 0 -33.434236195415451 114.43188357610052 0 114.43188357610052 -301.34043605252918 0 0 0 0 5.3630002523059943 6.5557276408181977 0 6.5557276408181977 -33.302365134716894 0 0 0 0 -4.7341041499839775 127.31990987534664 0 127.31990987534664 -526.19971167427138 0 0 0 0 -17.176149008831089 87.150210375992174 0 87.150210375992174 -162.04408739790961 0 0 0 0 89.902551679341286 -219.37569114173675 0 -219.37569114173675 -160.83447150536085 0 0 0 0 -72.637977907076078 -36.680631114542848 0 -36.680631114542848 -40.311653649157961 0 0 0 0 -50.078144106182634 24.348187735201009 0 24.348187735201009 -6.308157973588095 0 0 0 0 -0.77188378008144909 0.96071192385095117 0 0.96071192385095117 -0.2036021724749304 0 0 0 0 -19.43989988418798 -9.3876583645014762 0 -9.3876583645014762 -9.8735684497150942 0 0 0 0 -1.2708382472734607 -0.37100122085254128 0 -0.37100122085254128 -0.35290192137244958 0 0 0 0 -54.349535931018067 -47.378458777057858 0 -47.378458777057858 -53.441013607800414 0 0 0 0 -55.942737350922016 -40.759848095840425 0 -40.759848095840425 -71.573062286403001 0 0 0 0 -72.89671105513618 -35.752915960980545 0 -35.752915960980545 -32.361036499612965 0 0 0 0 -78.255638689743819 -32.035730156276259 0 -32.035730156276259 -34.831241269985185 0 0 0 0 -76.366901133922738 -41.211433486398164 0 -41.211433486398164 0.44479741569375619 0 0 0 0 -71.955871494667406 -24.387609619665454 0 -24.387609619665454 -26.224374518569675 0 0 0 0 -80.023118227240957 -1.6651288872762962 0 -1.6651288872762962 -25.002325133824343 0 0 0 0 -67.082997408741221 -10.860412989684846 0 -10.860412989684846 -28.677038833334336 0 0 0 0 -105.70622332148309 -9.9044755578943295 0 -9.9044755578943295 -7.7513855061661161 0 0 0 0 -98.665529280221449 -34.872348178260836 0 -34.872348178260836 79.688834018961643 0 0 0 0 -66.662567352148926 -61.117787866664003 0 -61.117787866664003 16.264485392563984 0 0 0 0 -82.438077996930815 -57.103782229150966 0 -57.103782229150966 15.365718031318465 0 0 0 0 -74.002559924568345 -89.217539696076528 0 -89.217539696076528 54.091369502690213 0 0 0 0 -24.47505797232543 -111.30684146986096 0 -111.30684146986096 63.075957362769259 0 0 0 0 -17.035689011602926 -6.3044520885105158 0 -6.3044520885105158 0.67088509583481937 0 0 0 0 166.98958318768678 -71.302130040872726 0 -71.302130040872726 10.362891317299727 0 0 0 0 9.855751586867882 -99.258003371978702 0 -99.258003371978702 -1.1154859333473723 0 0 0 0 26.586971742480273 -26.551901735414503 0 -26.551901735414503 -22.198547466818127 0 0 0 0 -37.635493660031898 -34.463196245804284 0 -34.463196245804284 -53.085538705010549 0 0 0 0 -28.379583656346256 -77.046517900398158 0 -77.046517900398158 -40.229573696502484 0 0 0 0 -29.682206403388591 -50.815431234295829 0 -50.815431234295829 -32.21376791095463 0 0 0 0 1.4141354655293457 -0.24326537551081984 0 -0.24326537551081984 -2.2681871810485532 0 0 0 0 -118.06027508503951 -54.155650129180231 0 -54.155650129180231 -57.365357759663311 0 0 0 0 -63.04247022227446 -43.879329655086622 0 -43.879329655086622 -75.856837220275338 0 0 0 0 -87.654052745783702 -76.431959420231578 0 -76.431959420231578 -93.77763609359954 0 0 0 0 -107.6055902139974 -98.857096189864023 0 -98.857096189864023 -91.739879684479092 0 0 0 0 -49.959435912520803 -53.569258347011782 0 -53.569258347011782 -62.694506899904809 0 0 0 0 -41.552738183590918 -55.973283239618468 0 -55.973283239618468 -63.66725000115548 0 0 0 0 -49.106934547489345 -56.01285919610018 0 -56.01285919610018 -76.062873810871679 0 0 0 0 -47.139672218273063 -55.660823495665682 0 -55.660823495665682 -56.656742902341648 0 0 0 0 -50.170614230597948 -53.704078111204581 0 -53.704078111204581 -55.05405283233813 0 0 0 0 -53.474826897923322 -57.616952046137158 0 -57.616952046137158 -34.545476667295588 0 0 0 0 -71.981718887447414 -45.1316081906607 0 -45.1316081906607 -28.295527749694884 0 0 0 0 -49.725164906576083 -64.51168520248757 0 -64.51168520248757 -20.959440725091554 0 0 0 0 -47.614169577980647 -66.891633661711239 0 -66.891633661711239 -31.205066231355886 0 0 0 0 -46.333787509559897 -67.428785373627761 0 -67.428785373627761 -31.179113457925268 0 0 0 0 23.08373416592849 3.0983032128106061 0 3.0983032128106061 -24.323536269490887 0 0 0 0 -38.175053524195619 -14.547848600552697 0 -14.547848600552697 -2.1450922617041215 0 0 0 0 -0.016300462747817379 0.027611879208693679 0 0.027611879208693679 -7.3698739117762528 0 0 0 0 -1.0756427430288769 3.8080899600783944 0 3.8080899600783944 -10.948867969617922 0 0 0 0 -6.668553189672366 5.6779826685178705 0 5.6779826685178705 -14.811505969446443 0 0 0 0 1.1131329035323461 -2.5994785827067517 0 -2.5994785827067517 -8.3984453443954408 0 0 0 0 24.550974847211364 11.935909596019883 0 11.935909596019883 -10.999342963739764 0 0 0 0 0.26802800494806434 10.566111012965848 0 10.566111012965848 -11.757179801092661 0 0 0 0 -5.8795378922914097 -3.4649743413192482 0 -3.4649743413192482 1.6633100043291051 0 0 0 0 -0.82981405337851655 2.5866149496548907 0 2.5866149496548907 -5.1251531210353747 0 0 0 0 -72.262453603099857 -79.306602124290293 0 -79.306602124290293 -90.847869523258851 0 0 0 0 -71.915284713951394 -60.25088243324268 0 -60.25088243324268 -78.601053750200663 0 0 0 0 -57.276475341150444 -65.533632470234807 0 -65.533632470234807 -81.113120915506443 0 0 0 0 -57.250170261242147 -61.318723535176105 0 -61.318723535176105 -91.653557493595315 0 0 0 0 -81.312328670416946 -93.255359805389162 0 -93.255359805389162 -100.51440201464175 0 0 0 0 -0.79945608410412383 2.2022833122678804 0 2.2022833122678804 -3.7486090825812823 0 0 0 0 -50.055252456644553 -46.196382399206414 0 -46.196382399206414 -74.008579383462347 0 0 0 0 -45.246525541687504 -45.836819795355041 0 -45.836819795355041 -74.850393338798312 0 0 0 0 -46.604774084656128 -46.575095060397871 0 -46.575095060397871 -76.675949615146237 0 0 0 0 -45.668711318681233 -43.710939133502961 0 -43.710939133502961 -81.173219411437458 0 0 0 0 -49.798870552872813 -42.001986200117244 0 -42.001986200117244 -77.90896971346956 0 0 0 0 -47.569512427573386 -47.751145981356103 0 -47.751145981356103 -67.97483830096462 0 0 0 0 -47.248086750685616 -50.639785684323215 0 -50.639785684323215 -68.766782020153187 0 0 0 0 -41.219710614300539 -52.18208186524862 0 -52.18208186524862 -73.077411034770194 0 0 0 0 -48.192574943559521 -49.646533162351261 0 -49.646533162351261 -71.074363118550536 0 0 0 0 -43.41370053035007 -48.12551667725711 0 -48.12551667725711 -75.500246065403189 0 0 0 0 -44.74440815801745 -45.734140473654406 0 -45.734140473654406 -76.316329919485725 0 0 0 0 -57.997468414574087 -44.866011366157181 0 -44.866011366157181 -77.269039590290504 0 0 0 0 -48.339669681031978 -50.795032035543954 0 -50.795032035543954 -79.130252995302726 0 0 0 0 -77.334811305669064 -67.160079662091448 0 -67.160079662091448 -86.366279261928867 0 0 0 0 -81.499657110766748 -49.796321505957167 0 -49.796321505957167 -72.775729935593517 0 0 0 0 -95.691631540698154 -57.741894743034209 0 -57.741894743034209 -74.071412960824091 0 0 0 0 -61.802981589488809 -55.157940330049314 0 -55.157940330049314 -77.137008565980068 0 0 0 0 -73.913401294563528 -58.272246622362218 0 -58.272246622362218 -77.089645761123393 0 0 0 0 -53.1683431894362 -56.882632054770511 0 -56.882632054770511 -86.049894861618668 0 0 0 0 -54.62422854533088 -47.392929648845893 0 -47.392929648845893 -79.130690075195162 0 0 0 0 -46.742043582858514 -45.647647565292573 0 -45.647647565292573 -81.269257852196461 0 0 0 0 -41.899407681786954 -49.121069256562805 0 -49.121069256562805 -81.620755372699932 0 0 0 0 -47.611607773606011 -49.596432961125174 0 -49.596432961125174 -82.266935485859904 0 0 0 0 -49.928553294163748 -48.685341430056724 0 -48.685341430056724 -76.934184481864577 0 0 0 0 -37.833982697610963 -16.690141114542712 0 -16.690141114542712 -44.782775258406787 0 0 0 0 -22.755582885493595 -29.251913788983074 0 -29.251913788983074 -75.842124070254272 0 0 0 0 -40.666181812799095 -42.414555227034725 0 -42.414555227034725 -80.853908571134525 0 0 0 0 -47.657910275364429 -42.277525125769898 0 -42.277525125769898 -75.650751530010893 0 0 0 0 -43.063303625244998 -40.961862713371374 0 -40.961862713371374 -78.602115492496523 0 0 0 0 -46.08783023066735 -43.834265448938822 0 -43.834265448938822 -80.265524906644714 0 0 0 0 -48.518447283327873 -43.433880049359686 0 -43.433880049359686 -82.49072367385088 0 0 0 0 -0.019256760440519827 -3.1953197121300931 0 -3.1953197121300931 -8.4718907092817481 0 0 0 0 -50.878531689565534 -45.406880226757494 0 -45.406880226757494 -77.650039373700565 0 0 0 0 -50.005009994853026 -49.57482464012719 0 -49.57482464012719 -93.99016772791947 0 0 0 0 3.615768035099904 4.0833571297353117 0 4.0833571297353117 -26.895925723185336 0 0 0 0 -45.892150049142629 -52.41730525591538 0 -52.41730525591538 -62.943786871628618 0 0 0 0 4.89073791475289 -15.680241828906219 0 -15.680241828906219 -67.01533535651356 0 0 0 0 2.3175148319357959 6.8164391947502736 0 6.8164391947502736 -23.321707427956426 0 0 0 0 -23.929416985855369 -47.455427535806848 0 -47.455427535806848 -82.203162606358092 0 0 0 0 4.380699954881198 5.352882263490919 0 5.352882263490919 -26.34190346294583 0 0 0 0 5.5522150494953166 9.5646502362237698 0 9.5646502362237698 -21.700494497821637 0 0 0 0 -0.2982864866376076 6.7836635214989656 0 6.7836635214989656 -23.194923967454088 0 0 0 0 4.3938757006215496 6.1160949779073235 0 6.1160949779073235 -26.506652521216893 0 0 0 0 -83.319837723827249 -80.866070534477501 0 -80.866070534477501 -95.707849829128463 0 0 0 0 -40.385527353517773 -73.91352438488866 0 -73.91352438488866 -105.1591201501667 0 0 0 0 -44.922970803101634 -42.713128053976106 0 -42.713128053976106 -84.584321722122013 0 0 0 0 -26.911694866034416 -28.625611770509096 0 -28.625611770509096 -52.118306702883274 0 0 0 0 -38.961981278047347 -37.731796718785063 0 -37.731796718785063 -69.325900051731878 0 0 0 0 -25.309709233476497 -57.830598618478689 0 -57.830598618478689 -102.73845862416283 0 0 0 0 14.513209550119655 -22.466615102965989 0 -22.466615102965989 -85.266236557650245 0 0 0 0 26.437692553142739 28.225408734946086 0 28.225408734946086 -35.427959990302043 0 0 0 0 0.10419573039052565 0.62928993646407605 0 0.62928993646407605 -0.1132544986431494 0 0 0 0 8.2506154962663913 12.961339957557357 0 12.961339957557357 -11.122613409730548 0 0 0 0 12.263250201616529 13.787515793450439 0 13.787515793450439 -11.040303202895302 0 0 0 0 4.3165309920898736 5.2908822254342454 0 5.2908822254342454 -26.491194489089423 0 0 0 0 -23.164734119980494 -27.707493636416984 0 -27.707493636416984 -51.417751393704748 0 0 0 0 3.0716353683833404 4.3718409053399228 0 4.3718409053399228 -23.561051721338117 0 0 0 0 0.12394439319599648 0.78580473340181101 0 0.78580473340181101 -0.15337564455295372 0 0 0 0 2.7968007494461062 5.273633374248675 0 5.273633374248675 -26.225815049088851 0 0 0 0 -1.5693355346036242 5.757425164903907 0 5.757425164903907 -34.974828937342636 0 0 0 0 0.016364749793578603 0.8198735354885045 0 0.8198735354885045 -0.14427870531213216 0 0 0 0 -3.3367054387062467 2.7361953837353212 0 2.7361953837353212 -36.022609980384004 0 0 0 0 -0.20825398991200927 4.4725299860083396 0 4.4725299860083396 -23.574719111758895 0 0 0 0 0.044201926817322601 3.7477877695837378 0 3.7477877695837378 -32.617889774519426 0 0 0 0 -0.70262084034220607 5.8106807815674983 0 5.8106807815674983 -21.438082562570344 0 0 0 0 -4.1502156082076453 8.8751402603356837 0 8.8751402603356837 -24.146797597410114 0 0 0 0 -4.5643713770656404 5.9243818569893847 0 5.9243818569893847 -23.77569458988728 0 0 0 0 -2.4814127031869901 1.5758017794626653 0 1.5758017794626653 -15.599025995426928 0 0 0 0 -2.6500784221318412 4.6908728590469195 0 4.6908728590469195 -22.064496345370571 0 0 0 0 1.399343225749476 -5.2753342819351019 0 -5.2753342819351019 -12.584680210038641 0 0 0 0 0.98558268249613301 -3.2723395252560081 0 -3.2723395252560081 -11.17937227106745 0 0 0 0 -7.0706465119094446 7.5354471993687184 0 7.5354471993687184 -19.939021572290585 0 0 0 0 -4.7080791638290975 2.4593035827419953 0 2.4593035827419953 -20.647453485569713 0 0 0 0 -0.94590091169855128 -8.1021552165034336 0 -8.1021552165034336 -11.91583326170803 0 0 0 0 -6.4997141917228873 3.1047767960044439 0 3.1047767960044439 -12.633029422322871 0 0 0 0 -18.777943045035556 2.432796494390459 0 2.432796494390459 -12.725245415618701 0 0 0 0 -13.188425497565447 12.496764300853101 0 12.496764300853101 -34.054817512937007 0 0 0 0 -3.3129109073638574 2.9486781038867775 0 2.9486781038867775 -16.915727751351369 0 0 0 0 -11.355657775769032 5.0372963517475 0 5.0372963517475 -18.457613662869335 0 0 0 0 -8.4496049731269522 12.890234731741657 0 12.890234731741657 -33.931135207451007 0 0 0 0 -18.207524717375236 16.556934535674372 0 16.556934535674372 -29.310524113985593 0 0 0 0 -0.0054484247234154459 0.64128683422089239 0 0.64128683422089239 -0.10793201036699518 0 0 0 0 -1.7979656027279134 6.4333796165828971 0 6.4333796165828971 -53.326893093966646 0 0 0 0 -3.7522684911855322 21.463305802248215 0 21.463305802248215 -69.632866140713304 0 0 0 0 -21.89037026476035 14.497897716399166 0 14.497897716399166 4.4134605653102881 0 0 0 0 -5.5147388434501181 8.0183776515004865 0 8.0183776515004865 -31.530628126827651 0 0 0 0 -27.082795076409184 26.643954528495669 0 26.643954528495669 -27.24742688608967 0 0 0 0 -20.396734669057253 16.758195527754651 0 16.758195527754651 -29.73841215093853 0 0 0 0 -6.2811182086088593 32.490931100994203 0 32.490931100994203 -32.434533787240071 0 0 0 0 -3.9187944818206049 24.226661720488664 0 24.226661720488664 -93.910030114031542 0 0 0 0 -10.911889813004791 3.1545032228223135 0 3.1545032228223135 -39.059963194438751 0 0 0 0 -29.921694950142381 10.852300893640404 0 10.852300893640404 -44.035339457273949 0 0 0 0 -0.096598779284113645 0.58793003138360689 0 0.58793003138360689 -0.0092702053859889944 0 0 0 0 2.7749969467029132 33.836724300843343 0 33.836724300843343 -115.02059926655056 0 0 0 0 -0.5628557679979167 39.829860191050102 0 39.829860191050102 -106.23665335286569 0 0 0 0 3.9484279045337871 16.207223092446384 0 16.207223092446384 -60.419388933034497 0 0 0 0 -0.02289121730513255 0.7648393735777006 0 0.7648393735777006 -0.01360627023807659 0 0 0 0 9.2546126364984502 -7.2510193051239185 0 -7.2510193051239185 -35.22846028150343 0 0 0 0 -6.142357480722012 12.215038195228772 0 12.215038195228772 -30.799802903403361 0 0 0 0 1.4341080998042344 9.3894914400698326 0 9.3894914400698326 -45.48732252224363 0 0 0 0 -0.0075692720183475615 0.64041392255154506 0 0.64041392255154506 0.0087709170789365132 0 0 0 0 13.223276965124569 1.2887065828217601 0 1.2887065828217601 -83.149638678080009 0 0 0 0 17.229427398580356 4.5596160992117802 0 4.5596160992117802 -95.56923422296677 0 0 0 0 12.084349600711448 0.47247074194820016 0 0.47247074194820016 -83.715252901551139 0 0 0 0 22.943907460891978 -9.2643898288829405 0 -9.2643898288829405 -80.93027400416031 0 0 0 0 -1.2416052428936837 7.9843748811981641 0 7.9843748811981641 -85.159731455922156 0 0 0 0 3.7842747246108956 19.205533879279756 0 19.205533879279756 -75.75747015583238 0 0 0 0 22.441691852738359 -0.18474074677396857 0 -0.18474074677396857 -97.802246830058721 0 0 0 0 27.851456060850239 -22.265515296500098 0 -22.265515296500098 -77.799485317005747 0 0 0 0 30.874410229016121 -6.5742156668529788 0 -6.5742156668529788 -93.573357772696909 0 0 0 0 51.332705606734635 -30.780186777090421 0 -30.780186777090421 -99.856749645154196 0 0 0 0 29.857969482135104 -35.338457503616155 0 -35.338457503616155 -130.03660150265137 0 0 0 0 -54.201863347657934 5.9469015643480816 0 5.9469015643480816 -119.86860253963278 0 0 0 0 -2.9126563544720057 -3.5912139621013921 0 -3.5912139621013921 -156.81370426448848 0 0 0 0 23.253827980710554 1.6862916246113855 0 1.6862916246113855 -104.65118395007084 0 0 0 0 2.8020496424321664 21.94125303040164 0 21.94125303040164 -120.35128758309247 0 0 0 0 -4.0677074358200116 -8.9656055361392646 0 -8.9656055361392646 -34.355950652661093 0 0 0 0 -1.9625445869351097 -10.334757408266341 0 -10.334757408266341 -43.779976753394294 0 0 0 0 31.256428411321394 26.773672708156482 0 26.773672708156482 -31.877513172932595 0 0 0 0 11.385364081379066 8.3291666512313896 0 8.3291666512313896 -36.641622239720164 0 0 0 0 4.4251012569361379 4.9875158068866998 0 4.9875158068866998 -26.023034760029923 0 0 0 0 8.2188437891513786 9.4368735777479742 0 9.4368735777479742 -34.232214137504343 0 0 0 0 3.857967911756532 -4.1601833933746093 0 -4.1601833933746093 -57.33850122613876 0 0 0 0 7.1252580792829576 -0.44684390822294517 0 -0.44684390822294517 -53.217802614071843 0 0 0 0 0.1594031963454654 -12.709345153501999 0 -12.709345153501999 -49.554001206817702 0 0 0 0 -0.59772235821765207 -6.5665174910864152 0 -6.5665174910864152 -40.602521621778578 0 0 0 0 7.207582088242134 -12.425326679125646 0 -12.425326679125646 -54.137622129986994 0 0 0 0 -0.78927125155365729 -8.6016992882580325 0 -8.6016992882580325 -55.243373282115499 0 0 0 0 -1.026703483978963 -4.3554767880850704 0 -4.3554767880850704 -51.094560114615888 0 0 0 0 -0.37457773695797414 -0.74253385060501387 0 -0.74253385060501387 -52.579139760167891 0 0 0 0 11.548281998809216 2.986220470875196 0 2.986220470875196 -56.151633098474804 0 0 0 0 8.9700683781316002 -10.913797011186034 0 -10.913797011186034 -71.159410524169289 0 0 0 0 12.133259813485893 2.3753956091750297 0 2.3753956091750297 -56.284058535327858 0 0 0 0 15.374404112138109 -13.034244467913595 0 -13.034244467913595 -81.234315102083201 0 0 0 0 37.882013393871603 -36.106611715284089 0 -36.106611715284089 -70.712343849563695 0 0 0 0 16.317139785956442 -40.667583003011714 0 -40.667583003011714 -76.592912607324251 0 0 0 0 25.60873060952099 -22.728909817575186 0 -22.728909817575186 -77.503554143477231 0 0 0 0 -0.32452097471233188 -0.2946529351518663 0 -0.2946529351518663 -0.14081582678588944 0 0 0 0 -20.786024794683726 -33.905912390988306 0 -33.905912390988306 -54.360029627987387 0 0 0 0 -4.8362336464715554 -28.389492785683615 0 -28.389492785683615 -64.501078566278011 0 0 0 0 -29.37041976967248 -64.484922978295799 0 -64.484922978295799 -82.786920542813277 0 0 0 0 -6.3948913847871154 -25.380103069457618 0 -25.380103069457618 -59.122993223121739 0 0 0 0 -0.15642428275759812 -21.073458342951199 0 -21.073458342951199 -62.587633834700682 0 0 0 0 -2.051447005101636 -13.890388337913464 0 -13.890388337913464 -47.957934259262402 0 0 0 0 -4.1839161159832656 -19.986584933521954 0 -19.986584933521954 -55.439449174735273 0 0 0 0 -6.8181715164056413 -23.160643435518523 0 -23.160643435518523 -52.889388428993698 0 0 0 0 -13.841877160826698 -18.147567469895876 0 -18.147567469895876 -46.947363082541415 0 0 0 0 -7.5814443586568814 -23.273337136831287 0 -23.273337136831287 -52.684368703854489 0 0 0 0 -6.1205126081958952 -12.081642855280734 0 -12.081642855280734 -42.83817114552221 0 0 0 0 18.343540546350368 -17.149435152464889 0 -17.149435152464889 -60.997595014486251 0 0 0 0 -9.0499247542294867 -27.447656168320673 0 -27.447656168320673 -16.958567396634656 0 0 0 0 -12.412857359772261 -28.764563563376214 0 -28.764563563376214 -48.169716586866343 0 0 0 0 22.08569055654732 -16.578281415698711 0 -16.578281415698711 -72.23274646482605 0 0 0 0 -31.080896778256601 -46.184119026612279 0 -46.184119026612279 -520.21790096196946 0 0 0 0 -5.6787972203211812 8.009218900777622 0 8.009218900777622 -25.873740861637145 0 0 0 0 -12.054072886860874 -12.235111232779079 0 -12.235111232779079 -10.167463178613485 0 0 0 0 -98.69515167408457 -156.60140179408972 0 -156.60140179408972 -524.43520005419032 0 0 0 0 -13.24799934197722 -30.884683933573797 0 -30.884683933573797 -53.185363384967786 0 0 0 0 -0.81358614277730013 -6.078112936011479 0 -6.078112936011479 -11.454496635018231 0 0 0 0 3.2007173561523814 -29.929418370170424 0 -29.929418370170424 -24.740752130259352 0 0 0 0 54.009446473240132 -12.258691972929228 0 -12.258691972929228 -38.076068278031016 0 0 0 0 25.766535531905447 -24.459391235728617 0 -24.459391235728617 -39.488038930255243 0 0 0 0 94.343072127658104 106.1715673948338 0 106.1715673948338 -1043.9649242591204 0 0 0 0 177.95981928756066 -181.19931690817111 0 -181.19931690817111 -1146.0385574905213 0 0 0 0 198.03500746602126 -291.13849807862516 0 -291.13849807862516 -1499.515933419734 0 0 0 0 -156.18330650834741 -487.34858106111915 0 -487.34858106111915 -803.66997904872187 0 0 0 0 24.7555187289299 -569.50327736086774 0 -569.50327736086774 -1500.0709253709902 0 0 0 0 152.93067696320844 -293.07909288205246 0 -293.07909288205246 -1047.8434129747275 0 0 0 0 -310.83905305744202 -586.18858701316458 0 -586.18858701316458 -922.52620942541057 0 0 0 0 106.37861588669705 74.252216477206815 0 74.252216477206815 -47.833349852884567 0 0 0 0 -3.0272108285806336 8.4699921564938059 0 8.4699921564938059 -14.173359651161853 0 0 0 0 -129.21091813213067 -417.28303174159009 0 -417.28303174159009 -895.86497323683398 0 0 0 0 -164.82782266967737 -213.41665380883205 0 -213.41665380883205 -67.978675576470778 0 0 0 0 -88.267520259990945 -66.852900925497579 0 -66.852900925497579 208.37950841843121 0 0 0 0 4.9840245190948735 7.993922529001793 0 7.993922529001793 -181.53537303293888 0 0 0 0 27.515597875191247 -26.365659721475367 0 -26.365659721475367 -72.779400760122371 0 0 0 0 26.364797610308358 -36.312806918046647 0 -36.312806918046647 -43.820986698126944 0 0 0 0 34.62193699599834 -40.661447055812459 0 -40.661447055812459 -44.878892565702699 0 0 0 0 -8.3623858022587552 -9.8101372998923821 0 -9.8101372998923821 -5.2297821898654 0 0 0 0 21.821287175116595 -93.35301798733235 0 -93.35301798733235 62.391455466691696 0 0 0 0 56.098357330048657 -93.438171473369948 0 -93.438171473369948 -94.726658115409919 0 0 0 0 -10.518924286226095 201.14844397088473 0 201.14844397088473 -1331.6068080180266 0 0 0 0 30.297235092736514 14.62287857175852 0 14.62287857175852 -1097.0177643181714 0 0 0 0 158.86194803891578 -47.342205387873946 0 -47.342205387873946 -1499.9746056634322 0 0 0 0 -85.580042858034133 -15.658769427396692 0 -15.658769427396692 -1500.2235548368662 0 0 0 0 56.283512524056007 -116.12800579819123 0 -116.12800579819123 -1457.4622977986451 0 0 0 0 -163.62140157825201 -145.82666681881255 0 -145.82666681881255 -1696.8484166320286 0 0 0 0 -3.1778821559024006 -3.427645415080292 0 -3.427645415080292 -3.1308132273744711 0 0 0 0 -6.3622764044595428 141.69319616494954 0 141.69319616494954 -1972.4570885751309 0 0 0 0 111.22680391997501 88.30654054063416 0 88.30654054063416 -1508.2251576858296 0 0 0 0 -330.36089730860601 -118.97295337269134 0 -118.97295337269134 -1134.6403325895953 0 0 0 0 -60.766741838504572 269.83645693793187 0 269.83645693793187 -784.57090116382824 0 0 0 0 83.602416723601721 323.36929311441418 0 323.36929311441418 -899.68962314239252 0 0 0 0 1.3826073896003035 0.96335192906129663 0 0.96335192906129663 -2.0291435930795894 0 0 0 0 25.386865544310126 211.69772406104312 0 211.69772406104312 -1002.0291347914972 0 0 0 0 -36.857706901160107 -148.80013779911678 0 -148.80013779911678 -1515.8606232343445 0 0 0 0 -240.79047350933763 -74.156507584493738 0 -74.156507584493738 -1104.0314851951262 0 0 0 0 -257.21895269404354 53.018847759271011 0 53.018847759271011 -952.90800184750697 0 0 0 0 -140.21988581881851 174.59184286641539 0 174.59184286641539 -853.43278269358416 0 0 0 0 -74.358339440514669 211.31835073931143 0 211.31835073931143 -785.35011032021066 0 0 0 0 27.742923867661148 236.59635457546574 0 236.59635457546574 -890.09960211616544 0 0 0 0 -71.453189826693915 275.78607689350611 0 275.78607689350611 -942.40204410839397 0 0 0 0 -70.107205069133556 132.34280071739093 0 132.34280071739093 -1153.940544541736 0 0 0 0 -32.576107429008175 -76.503844027631203 0 -76.503844027631203 -452.51836740399813 0 0 0 0 -52.61183927693277 62.88627510654851 0 62.88627510654851 -551.79545936476643 0 0 0 0 -67.211620185588998 200.97888594021856 0 200.97888594021856 -793.03169072509991 0 0 0 0 -39.276012215003277 148.79584851264372 0 148.79584851264372 -888.32084942332585 0 0 0 0 -33.229207313669463 0.73008022794238059 0 0.73008022794238059 -946.62429350648608 0 0 0 0 -129.58042766056033 -287.47511090445369 0 -287.47511090445369 -494.03233822042239 0 0 0 0 -124.31470124874494 -53.238969190901116 0 -53.238969190901116 -364.20195215675085 0 0 0 0 -6.1337421615932044 -228.49619821379929 0 -228.49619821379929 -295.20777957775499 0 0 0 0 -123.3378250205913 -263.63194759435464 0 -263.63194759435464 -226.77706389767991 0 0 0 0 -169.34347826145012 -145.36878114682895 0 -145.36878114682895 -158.78512931184014 0 0 0 0 0.34641669390952967 0.30787686054893193 0 0.30787686054893193 -7.2283511224254795 0 0 0 0 105.50639397887119 -423.52172818268446 0 -423.52172818268446 -406.10453441642858 0 0 0 0 -50.015575083814952 -254.91201675539196 0 -254.91201675539196 -23.731888188069206 0 0 0 0 237.62377833036953 5.6476801157077716 0 5.6476801157077716 -80.028278948546358 0 0 0 0 -65.588285078642684 -196.21461293321954 0 -196.21461293321954 -89.801577862090198 0 0 0 0 1.1753481620071646 0.77795434162255273 0 0.77795434162255273 -16.339849730029215 0 0 0 0 727.70363844276199 -174.497240174338 0 -174.497240174338 -231.60144849341668 0 0 0 0 726.88685706193507 148.34289247348102 0 148.34289247348102 -278.39258592073747 0 0 0 0 103.81019695054226 -170.35256928398667 0 -170.35256928398667 91.351728584850207 0 0 0 0 42.725671273740204 467.17666130028738 0 467.17666130028738 -208.03372580341056 0 0 0 0 -86.545336404047475 177.98297602230377 0 177.98297602230377 -307.3802661308091 0 0 0 0 68.623272010181452 62.188540655573888 0 62.188540655573888 -1173.4553828255848 0 0 0 0 517.56115979963533 286.90640088599685 0 286.90640088599685 -1977.2551962373327 0 0 0 0 1.3425913778553584 0.60034591001286941 0 0.60034591001286941 -2.381122536537438 0 0 0 0 726.22119464198931 894.01343765428464 0 894.01343765428464 -1495.5332617546264 0 0 0 0 135.47532163173832 325.14515655453397 0 325.14515655453397 -1432.6548390741154 0 0 0 0 -43.406678878949378 332.88410478637525 0 332.88410478637525 -773.48885990032795 0 0 0 0 25.467219069873181 -125.94419184793878 0 -125.94419184793878 -1407.3607356667126 0 0 0 0 232.26700468983475 -641.16269908182676 0 -641.16269908182676 -856.49216038540908 0 0 0 0 0.54918492845438382 0.63152178383695778 0 0.63152178383695778 -9.1029898564991925 0 0 0 0 265.9957509250292 770.0387347924825 0 770.0387347924825 -1064.8255514389712 0 0 0 0 233.88447184287017 829.0781802151796 0 829.0781802151796 -1012.2309495598165 0 0 0 0 438.56505603232176 -283.73522126573516 0 -283.73522126573516 -908.93014326387856 0 0 0 0 438.8861034746933 -289.99126124600116 0 -289.99126124600116 -931.2709715107012 0 0 0 0 519.79377713993006 -485.98118546212208 0 -485.98118546212208 -1496.9328249469427 0 0 0 0 358.94699444770959 58.009664528022768 0 58.009664528022768 -1500.0148325369773 0 0 0 0 130.97912883384447 100.82813908793287 0 100.82813908793287 -863.08959353318551 0 0 0 0 130.12012708369684 99.845793262713414 0 99.845793262713414 -663.52007176163715 0 0 0 0 143.31903010253774 -515.5355618300764 0 -515.5355618300764 -292.31577627262959 0 0 0 0 186.81781576422151 -83.795807663913365 0 -83.795807663913365 -383.15307079392005 0 0 0 0 256.39891403352141 156.17178711933957 0 156.17178711933957 4.0206437232900498 0 0 0 0 -57.869057730199529 443.01458604393156 0 443.01458604393156 -750.81999376727617 0 0 0 0 182.99011270501546 358.00951786527366 0 358.00951786527366 -1510.0780169692732 0 0 0 0 307.68297957278975 47.532923650482644 0 47.532923650482644 -847.79043409927181 0 0 0 0 -134.59138832698301 302.41919481280456 0 302.41919481280456 -415.18383340167202 0 0 0 0 -135.25578674135869 324.73755059126029 0 324.73755059126029 -728.65053671988426 0 0 0 0 -362.89707022539397 395.25961789076609 0 395.25961789076609 -286.95174689008491 0 0 0 0 -192.09822183660759 253.35637382527057 0 253.35637382527057 -243.37288318496576 0 0 0 0 -7.5858065786662792 15.406819474113945 0 15.406819474113945 -23.085262780536141 0 0 0 0 -180.86225063376639 190.09781240360144 0 190.09781240360144 -226.9481252910482 0 0 0 0 3.4966339793649142 -5.6471998691113185 0 -5.6471998691113185 -18.174512202220797 0 0 0 0 -0.64963780020332251 304.0757181146073 0 304.0757181146073 -180.48631149808352 0 0 0 0 -29.477685000440545 218.56755327063729 0 218.56755327063729 -364.19942253819136 0 0 0 0 142.65198870593224 464.06115983618838 0 464.06115983618838 -314.93195831164667 0 0 0 0 181.44994071783208 90.482257245008441 0 90.482257245008441 -25.092592560133198 0 0 0 0 115.05360610386191 94.047985110011268 0 94.047985110011268 -730.26418418220055 0 0 0 0 87.431587821205483 129.70717727144802 0 129.70717727144802 -295.07141292173765 0 0 0 0 -102.79724256209101 -200.17972166748405 0 -200.17972166748405 -280.79060102530275 0 0 0 0 -10.619933764674727 -4.9045847072002289 0 -4.9045847072002289 -19.204270372007159 0 0 0 0 2.3630600129797186 -8.0621310196927709 0 -8.0621310196927709 -22.895274483071773 0 0 0 0 52.357705139179814 175.54863075180492 0 175.54863075180492 -218.83642821263129 0 0 0 0 -12.864796076552182 -3.5486325980655238 0 -3.5486325980655238 -5.122100370030239 0 0 0 0 -13.17690695356751 21.10264673569236 0 21.10264673569236 -30.286852427314443 0 0 0 0 -23.246285718547938 -0.72567264132703713 0 -0.72567264132703713 -22.158613478401094 0 0 0 0 -31.42811375906399 6.7421978172387753 0 6.7421978172387753 -6.6788139020577546 0 0 0 0 -17.168326661335186 -21.327890020187624 0 -21.327890020187624 -126.01378253123767 0 0 0 0 -46.585384748138836 35.152253477400791 0 35.152253477400791 -55.722741980061983 0 0 0 0 8.8190707368039511 -13.306649136924534 0 -13.306649136924534 -44.270088309420316 0 0 0 0 10.36161745074125 -17.704477179334162 0 -17.704477179334162 -89.402606074556388 0 0 0 0 0.69169164191640098 -10.570345228139622 0 -10.570345228139622 -25.060811149968202 0 0 0 0 -2.6828819109427968 -144.62612566889857 0 -144.62612566889857 -70.440325469650816 0 0 0 0 15.925369223434046 -48.471410778680365 0 -48.471410778680365 -21.352268620739778 0 0 0 0 -63.00250414886537 -38.885017467864827 0 -38.885017467864827 -13.74569416009399 0 0 0 0 -7.1503748971795176 -69.740232602289325 0 -69.740232602289325 34.097604122498751 0 0 0 0 -0.77334676612334274 -2.7315339172336826 0 -2.7315339172336826 5.4250491497240461 0 0 0 0 -0.43375361330180828 -10.521878407644206 0 -10.521878407644206 -26.793166959496403 0 0 0 0 -4.3999667858018938 -13.203777637638268 0 -13.203777637638268 35.545277122002517 0 0 0 0 0.1242219549501522 0.58572212781515276 0 0.58572212781515276 1.4073146159219334 0 0 0 0 -11.283587942290183 -4.5583088486273482 0 -4.5583088486273482 32.80985137166499 0 0 0 0 30.185150851188382 -87.727694033726948 0 -87.727694033726948 -122.45206570822484 0 0 0 0 -99.279160009624889 18.431609731187564 0 18.431609731187564 50.168004761861084 0 0 0 0 77.03761163837396 -40.965048763144296 0 -40.965048763144296 -75.779578928701085 0 0 0 0 0.14089432808195257 0.25346034530498329 0 0.25346034530498329 -1.2291449087466191 0 0 0 0 -43.240723536547307 -35.868741879657136 0 -35.868741879657136 -200.09840862071724 0 0 0 0 -67.192736687480192 -52.747575520945247 0 -52.747575520945247 -7.9457864449286717 0 0 0 0 0.20083991482364083 -0.96141104736102179 0 -0.96141104736102179 -3.5131208136002527 0 0 0 0 39.654612368684411 -34.255016898616304 0 -34.255016898616304 -77.962338382752932 0 0 0 0 -2.0104333069057247 -17.44144730734115 0 -17.44144730734115 -35.42025705431908 0 0 0 0 -29.916883183439694 4.040372364635914 0 4.040372364635914 -64.214622089570184 0 0 0 0 -44.792034467586348 -3.3677779738682148 0 -3.3677779738682148 -35.592139402599713 0 0 0 0 -44.79909327560506 -23.48255367733509 0 -23.48255367733509 48.639497902899166 0 0 0 0 -35.805718245952377 33.591401088042403 0 33.591401088042403 -48.247636731185594 0 0 0 0 -43.321786975199771 4.0790422883801511 0 4.0790422883801511 -37.448789414529529 0 0 0 0 -13.832804634309696 14.841723532284959 0 14.841723532284959 -40.722920903706836 0 0 0 0 -50.367093891741433 67.272010770688212 0 67.272010770688212 -46.121575303773625 0 0 0 0 -52.812834100652253 57.42703791513668 0 57.42703791513668 -8.9100709586691664 0 0 0 0 -58.160270080561077 -97.363253404626448 0 -97.363253404626448 -223.4671370963988 0 0 0 0 -3.215055299686469 43.918604164685348 0 43.918604164685348 -207.56358540986548 0 0 0 0 -68.97091128392583 -87.897177253885729 0 -87.897177253885729 -194.93959774162431 0 0 0 0 -12.594951992770291 -133.8894748899329 0 -133.8894748899329 -290.05683581880214 0 0 0 0 130.37964630515364 -91.752048244805337 0 -91.752048244805337 -506.94893234176561 0 0 0 0 137.16852180317983 -64.343480457622718 0 -64.343480457622718 -863.40275383023254 0 0 0 0 -173.13842861804827 282.19496531249911 0 282.19496531249911 -488.48732870597087 0 0 0 0 -54.899330747925205 16.65607718706633 0 16.65607718706633 -111.13864034190556 0 0 0 0 -39.387696146018243 124.64823852082372 0 124.64823852082372 -401.25296657210311 0 0 0 0 1.2629635530959193 -1.6955492628221691 0 -1.6955492628221691 3.263526434054711 0 0 0 0 3.4039916542309507 11.56785877077823 0 11.56785877077823 3.4749227626380161 0 0 0 0 -0.0042073761073312295 3.2741678850525204 0 3.2741678850525204 -5.0285442913518636 0 0 0 0 0.6191308817542146 -27.317216133596958 0 -27.317216133596958 -1500.0104472692219 0 0 0 0 -2.6784756910512506 -8.1460517190098471 0 -8.1460517190098471 -13.638803504605676 0 0 0 0 -0.0066542428246828527 1.8189202105294646 0 1.8189202105294646 -28.757922586075438 0 0 0 0 4.6378901235333316 -6.7190420336155512 0 -6.7190420336155512 -50.305908379456582 0 0 0 0 -0.025507922171115856 -2.1128896758097113 0 -2.1128896758097113 -1.5091440343939437 0 0 0 0 0.0052988281654328291 0.596327997741261 0 0.596327997741261 -1496.4483397697913 0 0 0 0 -7.8155219425235511 -6.391081056679468 0 -6.391081056679468 -22.595918890063331 0 0 0 0 2.0894983955394837 2.1115951255155778 0 2.1115951255155778 -21.654658471787116 0 0 0 0 -0.18943671664244877 -6.0884090401609683 0 -6.0884090401609683 -1.2082335318115192 0 0 0 0 6.7285963260732693 -3.528829967591264 0 -3.528829967591264 -51.102639651271602 0 0 0 0 2.6216369213761124 -7.5835904142295476 0 -7.5835904142295476 -1503.4716767753571 0 0 0 0 -7.7378566941295333 -12.120841778527392 0 -12.120841778527392 -13.328622345299664 0 0 0 0 5.6454286038538761 11.005754440777764 0 11.005754440777764 -10.345189093241061 0 0 0 0 -25.312433188151445 -52.716212563340378 0 -52.716212563340378 -49.139368666513747 0 0 0 0 0.10085684487078969 0.88987896408360712 0 0.88987896408360712 -0.84330220746429063 0 0 0 0 -1.3888863945464713 -6.3351746732569154 0 -6.3351746732569154 -0.85622074485945632 0 0 0 0 -48.70719985137228 -50.570573629152932 0 -50.570573629152932 -43.905204335002054 0 0 0 0 0.3156936786495077 0.26698466225284534 0 0.26698466225284534 -1.1227105970829427 0 0 0 0 -25.655778389292838 -22.956224712655967 0 -22.956224712655967 -43.957254911632845 0 0 0 0 -11.284421006046543 -35.952693406938124 0 -35.952693406938124 -33.563224004137737 0 0 0 0 -1.4292694660991287 -12.998344458988868 0 -12.998344458988868 -23.174078627511335 0 0 0 0 10.300221764650132 -22.781900821981253 0 -22.781900821981253 -22.660585885532782 0 0 0 0 26.011085361738253 -6.5812716839136556 0 -6.5812716839136556 -6.1220824984338833 0 0 0 0 33.305431657057255 5.3391570054336626 0 5.3391570054336626 9.6632790836010827 0 0 0 0 36.326641671134496 1.9887595663003594 0 1.9887595663003594 -14.303345624066424 0 0 0 0 36.933621456268042 -15.460343616912724 0 -15.460343616912724 -23.887367668019579 0 0 0 0 33.775906448971284 -10.871697570200922 0 -10.871697570200922 -10.15530911530368 0 0 0 0 27.488146119058115 -6.3794791680484195 0 -6.3794791680484195 -23.644224803676479 0 0 0 0 22.487713910572722 -5.9721528136396955 0 -5.9721528136396955 -29.430264168586291 0 0 0 0 24.715740674966582 -15.007799916496197 0 -15.007799916496197 -36.065803720863187 0 0 0 0 10.577419986726426 -23.60125316284757 0 -23.60125316284757 -39.793970067268674 0 0 0 0 -32.159500545966722 -29.609435847421992 0 -29.609435847421992 -29.525873288263028 0 0 0 0 7.293230096058096 -23.0397609867141 0 -23.0397609867141 -21.265706034567302 0 0 0 0 3.6583078704179703 2.684843186645594 0 2.684843186645594 -1499.7060329210399 0 0 0 0 2.497505130229456 -16.232957086082024 0 -16.232957086082024 -43.041204289183952 0 0 0 0 -2.1115811209257345 -30.45012957149811 0 -30.45012957149811 -45.416944949254685 0 0 0 0 0.21279852531920396 -1.0291521899221863 0 -1.0291521899221863 -6.4709434138906943 0 0 0 0 -4.6866470764432826 -87.529894115781644 0 -87.529894115781644 -1490.390493866762 0 0 0 0 -0.63197712083516022 -10.067690993304225 0 -10.067690993304225 -3.3329189839273052 0 0 0 0 6.3831270011089956 -0.1825860041371925 0 -0.1825860041371925 -41.626048555339366 0 0 0 0 -4.0360288244880183 45.591249088638506 0 45.591249088638506 -1495.7413911814656 0 0 0 0 -0.36184694491897851 -5.3683011398871514 0 -5.3683011398871514 -17.406877947794072 0 0 0 0 1.797789708279538 -13.963895390101243 0 -13.963895390101243 -33.513239970125142 0 0 0 0 -1.3497528199959314 -12.109881979619161 0 -12.109881979619161 -23.818519447300403 0 0 0 0 -1.7260053871248655 -1.3185872967296746 0 -1.3185872967296746 -1495.2648960665254 0 0 0 0 -1.6817095060012006 -11.46306638846103 0 -11.46306638846103 20.69452891104244 0 0 0 0 -4.1925587303526015 -22.826827677450638 0 -22.826827677450638 -35.316328961882391 0 0 0 0 2.0052899708489917 -17.556280164415512 0 -17.556280164415512 -29.927153443673888 0 0 0 0 14.402028257856507 -15.79526720520289 0 -15.79526720520289 -37.828141759746359 0 0 0 0 2.5101845023723497 -4.019731969913245 0 -4.019731969913245 -27.020913516737863 0 0 0 0 12.564802730054083 -7.6492344690068421 0 -7.6492344690068421 -25.754861537760007 0 0 0 0 14.279579991176206 -9.6979568249444128 0 -9.6979568249444128 -33.621528859470118 0 0 0 0 -1.2660408186776249 -2.4448495269896071 0 -2.4448495269896071 -5.899192970290704 0 0 0 0 0.33877538898943271 0.30480588950922538 0 0.30480588950922538 -11.910481742481352 0 0 0 0 -0.24949708998664383 0.99909602813757559 0 0.99909602813757559 -13.585874695497012 0 0 0 0 -179.33417611070504 751.2343202666525 0 751.2343202666525 -1517.5626324320128 0 0 0 0 -1108.3633863344298 755.71274983220019 0 755.71274983220019 -348.27544673946977 0 0 0 0 -286.54703521923659 167.42356439786454 0 167.42356439786454 -317.78585281057315 0 0 0 0 5.6404459553833028 -0.8136309187183528 0 -0.8136309187183528 -17.044067954490018 0 0 0 0 -0.52349262849805611 -1.0275105793247867 0 -1.0275105793247867 -12.452839899173682 0 0 0 0 40.088227280055719 -1.8932282119130832 0 -1.8932282119130832 -29.599460583085602 0 0 0 0 4.9239177314564131 14.191012638766551 0 14.191012638766551 -18.268646952761628 0 0 0 0 0.49684550245836501 -1.5526230156643486 0 -1.5526230156643486 -15.057715073327941 0 0 0 0 28.619915384058572 7.1449691678972158 0 7.1449691678972158 -34.762623478998648 0 0 0 0 26.496433776822975 4.7419459168534104 0 4.7419459168534104 -25.542856702188146 0 0 0 0 -3.5606385890154186 -2.8659648712659873 0 -2.8659648712659873 -12.812570757931098 0 0 0 0 -3.8984896919856737 -1.5326907111866603 0 -1.5326907111866603 -11.583339002474531 0 0 0 0 2.6344779666294471 6.9456061126929853 0 6.9456061126929853 -15.122571931675338 0 0 0 0 -16.128462483192848 -3.7954656991514639 0 -3.7954656991514639 -7.6090723146298842 0 0 0 0 40.183886403141855 -0.71606372881797142 0 -0.71606372881797142 -25.259820879120525 0 0 0 0 11.378087585306368 -26.983699434035316 0 -26.983699434035316 -36.009966148281819 0 0 0 0 0.18360390166100565 -3.3921549337518018 0 -3.3921549337518018 -19.896244167662303 0 0 0 0 16.441117942860842 -1.3195573475823039 0 -1.3195573475823039 -19.481207385777452 0 0 0 0 0.32245424216890067 -2.5180447462880156 0 -2.5180447462880156 -25.919440744928494 0 0 0 0 54.422352968334394 -10.732746925110405 0 -10.732746925110405 -35.051260425425085 0 0 0 0 70.85134923485171 -57.836336846274207 0 -57.836336846274207 -74.891664553717419 0 0 0 0 0.27049399041940586 -2.8250735195778303 0 -2.8250735195778303 -23.846314895448742 0 0 0 0 43.896526999243633 14.552827479303232 0 14.552827479303232 -32.997109848249238 0 0 0 0 0.087167290074766979 -0.19219696095530026 0 -0.19219696095530026 -1.4827927793180606 0 0 0 0 -163.43504909801419 -49.545357980670815 0 -49.545357980670815 59.085895965621603 0 0 0 0 145.29815659758077 -29.739254116228039 0 -29.739254116228039 -155.39194512393442 0 0 0 0 22.894724571628139 -7.048613590601235 0 -7.048613590601235 -79.924231051674724 0 0 0 0 47.257005117797348 -10.855118314728315 0 -10.855118314728315 -3.3193473040792014 0 0 0 0 60.964073678156204 40.214956294768399 0 40.214956294768399 -21.247233972608228 0 0 0 0 14.375754326859282 8.7359536147364452 0 8.7359536147364452 -1.9324937769270036 0 0 0 0 47.175827114620859 -6.9949519783112919 0 -6.9949519783112919 -20.546991281811643 0 0 0 0 -72.335915433442693 -10.96153849818802 0 -10.96153849818802 30.711212491856713 0 0 0 0 0.3270561153207529 -0.26787163181990969 0 -0.26787163181990969 -4.7530717466854355 0 0 0 0 90.517270273791127 16.080207992063151 0 16.080207992063151 -21.850406774836301 0 0 0 0 48.517983531248717 17.521769717342977 0 17.521769717342977 6.7574394002804183 0 0 0 0 0.35087119714386783 0.49764295121034152 0 0.49764295121034152 -8.173110258684062 0 0 0 0 62.625789120644271 2.1189844255241042 0 2.1189844255241042 -20.393059099567836 0 0 0 0 67.090493452147484 18.479901244696521 0 18.479901244696521 -13.309849110773939 0 0 0 0 37.574368055270526 -7.720334400790307 0 -7.720334400790307 1.1200857909061597 0 0 0 0 35.669315380402622 0.39056210928902146 0 0.39056210928902146 -22.580652897672238 0 0 0 0 8.5583645109077722 -7.360038309497213 0 -7.360038309497213 -1.4725403666961938 0 0 0 0 8.269680814946593 -16.861198881162011 0 -16.861198881162011 -31.473112956649857 0 0 0 0 -29.35789577538398 -16.952817572833737 0 -16.952817572833737 -19.381771260927053 0 0 0 0 -32.274164810974042 -22.432632450116216 0 -22.432632450116216 -39.274134368733939 0 0 0 0 -20.287735215711759 -31.42854195100881 0 -31.42854195100881 -51.188303834904218 0 0 0 0 -19.48972548956948 -21.188635525749305 0 -21.188635525749305 -44.626009556457575 0 0 0 0 -12.534938146885171 5.9221646565692936 0 5.9221646565692936 -39.867895093793777 0 0 0 0 -11.741493039774639 -5.582128570509667 0 -5.582128570509667 -13.971410393569386 0 0 0 0 14.105721532634668 11.746691115827389 0 11.746691115827389 -24.287599596864311 0 0 0 0 -3.7546898074999717 -2.9713790189234714 0 -2.9713790189234714 -32.245860603667097 0 0 0 0 -4.5012128998049263 17.322838856554881 0 17.322838856554881 -24.226097642313107 0 0 0 0 12.669809394745258 17.9512429872957 0 17.9512429872957 -36.066913536727952 0 0 0 0 -10.559980445394309 8.3306769187074678 0 8.3306769187074678 -28.695712210243983 0 0 0 0 -1.2757475793132471 8.9153015619813232 0 8.9153015619813232 -28.96267607459049 0 0 0 0 -0.050524516437976369 0.05630942101004166 0 0.05630942101004166 -0.090439871047443887 0 0 0 0 -7.050809284513802 3.3524191873530071 0 3.3524191873530071 -23.480631511069078 0 0 0 0 -6.582276599186641 -22.222149310233362 0 -22.222149310233362 -63.940209284461162 0 0 0 0 -14.503647752209115 1.6037895387999015 0 1.6037895387999015 -45.629568393778754 0 0 0 0 3.2385441655397251 0.41428667415675591 0 0.41428667415675591 -34.058626699919841 0 0 0 0 -0.059308611633199115 0.040289002909588589 0 0.040289002909588589 -0.11432444357533456 0 0 0 0 3.2963000184245494 0.55216125649349124 0 0.55216125649349124 -59.989929324707191 0 0 0 0 -8.2960295669447177 -10.693494470779115 0 -10.693494470779115 -25.498093534482905 0 0 0 0 -0.045453429088476514 -11.776376755221493 0 -11.776376755221493 -56.708533864672063 0 0 0 0 1.7419825727343543 -13.356548104820831 0 -13.356548104820831 -75.930356108721753 0 0 0 0 -17.406701238134715 -17.112233726025806 0 -17.112233726025806 -58.112657235105871 0 0 0 0 -39.080308212932167 -59.291815343205599 0 -59.291815343205599 -88.086825138943823 0 0 0 0 8.3425942655222496 6.7685444745366112 0 6.7685444745366112 5.0847641595296409 0 0 0 0 0.064228044192245481 0.065507924178234589 0 0.065507924178234589 -0.32874915169877283 0 0 0 0 0.044331184511698908 -38.510634313048286 0 -38.510634313048286 -67.510384173481725 0 0 0 0 -0.0041944643791171164 8.2824816486845521 0 8.2824816486845521 -22.642456026442233 0 0 0 0 -1.7521584065176832 4.0854036335376804 0 4.0854036335376804 -21.137211411787575 0 0 0 0 -0.50127812923761084 0.97471689064605016 0 0.97471689064605016 -30.982486300810706 0 0 0 0 2.5798758565032358 4.8608435171790916 0 4.8608435171790916 -42.472554719115578 0 0 0 0 0.0052053884610253984 8.0482374833645736 0 8.0482374833645736 -36.860269067137779 0 0 0 0 -0.0066991152534266307 9.4836117289930986 0 9.4836117289930986 -46.170356907663518 0 0 0 0 2.8946275496650911 9.0959220619456573 0 9.0959220619456573 -47.078915732970927 0 0 0 0 1.1074967743509561 6.1365886253552162 0 6.1365886253552162 -44.205031648278236 0 0 0 0 -1.6755405517200259 8.5762363868198008 0 8.5762363868198008 -44.514584947530238 0 0 0 0 -1.9787446749661008 0.94002444030053312 0 0.94002444030053312 -47.539490919116361 0 0 0 0 3.8935415928505286 7.9358076682583487 0 7.9358076682583487 -45.610629307091585 0 0 0 0 -23.749585524942027 6.9861011251487071 0 6.9861011251487071 -39.138008485620958 0 0 0 0 3.5551821259820642 7.1354487446096755 0 7.1354487446096755 -52.581650947860908 0 0 0 0 1.4742425595727049 -2.1642592771968339 0 -2.1642592771968339 -36.016221076324655 0 0 0 0 -0.16566489526915618 5.5169576438311196 0 5.5169576438311196 -21.155310932137695 0 0 0 0 7.3101029837600038 5.7070752502368123 0 5.7070752502368123 -9.8037608621671097 0 0 0 0 10.922757298650019 -13.373057534236068 0 -13.373057534236068 -7.8000525122479303 0 0 0 0 -0.099957774562879145 -0.45536770724385178 0 -0.45536770724385178 -0.97314459515015983 0 0 0 0 2.2618551655782682 -5.9947177206977358 0 -5.9947177206977358 1.442384986752586 0 0 0 0 -17.09440118153308 45.609794670501287 0 45.609794670501287 -34.68495517170777 0 0 0 0 75.972692907077445 23.550960312955795 0 23.550960312955795 -51.882810889910616 0 0 0 0 28.012746978517438 40.15821793025134 0 40.15821793025134 -21.483505664014956 0 0 0 0 1.3769816729110669 -6.6290683622559072 0 -6.6290683622559072 -11.409077156953572 0 0 0 0 -0.46965102036061523 13.076250055451965 0 13.076250055451965 -64.261180533160768 0 0 0 0 -23.22549101552022 11.904651994806045 0 11.904651994806045 -17.790832635264451 0 0 0 0 -64.497721998208021 62.281947082674378 0 62.281947082674378 -45.019515288200637 0 0 0 0 0.05432355985582768 -0.029225474455735423 0 -0.029225474455735423 -0.46685564171383476 0 0 0 0 -22.435284032628068 -10.630147871727672 0 -10.630147871727672 -16.897864284801472 0 0 0 0 -29.580706400257803 -32.792408464887558 0 -32.792408464887558 -45.119668022181941 0 0 0 0 -41.177783347181624 20.498128644775079 0 20.498128644775079 14.228183120510948 0 0 0 0 102.34288428439908 23.811205736847114 0 23.811205736847114 -30.434074350167066 0 0 0 0 51.28343440823528 -12.224723166342301 0 -12.224723166342301 -37.954514508786815 0 0 0 0 0.26547236497329574 -2.2189888717396657 0 -2.2189888717396657 -25.626085187461939 0 0 0 0 19.859324019308133 -23.677099831718806 0 -23.677099831718806 -26.730774413338622 0 0 0 0 22.479019862486098 9.8366261790615681 0 9.8366261790615681 -34.017576664962689 0 0 0 0 -2.9256444053257837 -11.515326974602431 0 -11.515326974602431 -21.431047329126159 0 0 0 0 -2.5800384542877737 -26.507815651031706 0 -26.507815651031706 -26.531681573513197 0 0 0 0 13.584149993800452 -5.821562363812518 0 -5.821562363812518 -19.473762379639084 0 0 0 0 0.29051127885017086 -1.9722890106730646 0 -1.9722890106730646 -23.829451429301201 0 0 0 0 16.541811652740989 -12.860412460404405 0 -12.860412460404405 -25.241834218897566 0 0 0 0 -4.5042891128859992 -8.3942010851114901 0 -8.3942010851114901 -19.781278277998354 0 0 0 0 -5.6023113122492987 -10.011868767185661 0 -10.011868767185661 -20.233212329297203 0 0 0 0 -6.0109153605085908 -9.1368900266097626 0 -9.1368900266097626 -21.882838658755645 0 0 0 0 0.43101062226076436 -9.0500494535477856 0 -9.0500494535477856 -25.979824468653533 0 0 0 0 -0.64511687089170866 -2.319303214323829 0 -2.319303214323829 -21.301310025282987 0 0 0 0 -4.6603579508361861 -5.2886821476458863 0 -5.2886821476458863 -24.326374081931135 0 0 0 0 -4.6485192516118348 -2.1371031833377003 0 -2.1371031833377003 -3.9515756717740871 0 0 0 0 -6.119818063797676 0.70105228378349693 0 0.70105228378349693 -19.833524123641837 0 0 0 0 -1.0249465490550951 -3.6096614883856688 0 -3.6096614883856688 -22.892554230625052 0 0 0 0 1.7733962012399331 -2.2128257906688305 0 -2.2128257906688305 -4.4142661735531874 0 0 0 0 -4.7677862745565864 -2.0384161996886503 0 -2.0384161996886503 -9.9904622352024717 0 0 0 0 -2.3994849400925817 -1.157235274789997 0 -1.157235274789997 -10.394290100287932 0 0 0 0 -6.0051722310952869 -6.5914664288047788 0 -6.5914664288047788 -20.040796493784001 0 0 0 0 -3.993329274695125 -2.4744342452486947 0 -2.4744342452486947 -2.4512363736658891 0 0 0 0 -11.320330254975261 -11.1286326813497 0 -11.1286326813497 -15.466629989910871 0 0 0 0 -6.4292587838238546 -4.8528205680968313 0 -4.8528205680968313 -19.028247011683561 0 0 0 0 -5.5302888035106506 -4.0359639907371587 0 -4.0359639907371587 -4.0287942652253328 0 0 0 0 2.2350768733706445 -10.898268831582755 0 -10.898268831582755 -36.88764301277115 0 0 0 0 -68.116606108385781 -12.59491217905088 0 -12.59491217905088 8.5260918686835794 0 0 0 0 4.2202905246107889 0.0049432870034067378 0 0.0049432870034067378 -6.1162185104418256 0 0 0 0 24.644500842236994 -99.82087323423184 0 -99.82087323423184 -5.6961682628025301 0 0 0 0 17.51690538762432 -114.33189823032444 0 -114.33189823032444 -19.131330289965263 0 0 0 0 66.766014231792724 -74.834018288966035 0 -74.834018288966035 -83.394733696542971 0 0 0 0 -0.60185820111675703 -4.511336719433471 0 -4.511336719433471 -1.8099531867376584 0 0 0 0 112.80670402321607 -10.538086246262537 0 -10.538086246262537 6.0789197872072691 0 0 0 0 -3.0030711315706173 -2.9256281094846059 0 -2.9256281094846059 -4.2495717353719442 0 0 0 0 -82.605363968218171 74.817719758746534 0 74.817719758746534 151.73291006839281 0 0 0 0 -91.080231845174694 -186.92332219937816 0 -186.92332219937816 44.908674999292998 0 0 0 0 57.848399583534956 -34.058352832769742 0 -34.058352832769742 -191.88502692354086 0 0 0 0 -2.7914287586207163 0.74140532353755351 0 0.74140532353755351 1.2845802989397441 0 0 0 0 29.417257897317796 28.060842294713666 0 28.060842294713666 17.995755278825527 0 0 0 0 -6.4856562038216188 -1.7337985984312354 0 -1.7337985984312354 -5.4348040819315351 0 0 0 0 -5.7632715221020874 -5.4652241471703746 0 -5.4652241471703746 -20.6218523540565 0 0 0 0 -5.7043909093770679 -0.73189216263267554 0 -0.73189216263267554 -3.3653823223139625 0 0 0 0 -4.7676387297617904 -2.9971005008160105 0 -2.9971005008160105 -8.640954011880325 0 0 0 0 -4.3115726815231863 -1.2169229137040003 0 -1.2169229137040003 -8.2001139314965883 0 0 0 0 -1.1443055642190529 1.0812967983874842 0 1.0812967983874842 -25.812073673288978 0 0 0 0 -6.2374910538956776 4.8118895369617576 0 4.8118895369617576 -2.2433377239589198 0 0 0 0 -6.1395960863974324 -1.3077154171696748 0 -1.3077154171696748 -19.18486602732446 0 0 0 0 -5.4370728315811974 -1.1906843347001086 0 -1.1906843347001086 -19.841198404930765 0 0 0 0 -5.2016284642709252 2.2498775718559045 0 2.2498775718559045 -16.908842257744254 0 0 0 0 10.669796439669341 -19.840698952540038 0 -19.840698952540038 36.952699286055577 0 0 0 0 -91.056806037565138 59.382814258940925 0 59.382814258940925 -17.214417245617369 0 0 0 0 -40.15830928055766 291.65278628479427 0 291.65278628479427 -61.361606636359284 0 0 0 0 -66.696169117672071 108.45819605697034 0 108.45819605697034 -269.6093459511103 0 0 0 0 -5.5873542160152283 148.66210881439838 0 148.66210881439838 -271.65416874307994 0 0 0 0 46.028085380207813 13.730809797049005 0 13.730809797049005 -209.70328833582607 0 0 0 0 -0.67275847576145642 -4.5783915932916983 0 -4.5783915932916983 -40.322305630237679 0 0 0 0 -0.55558176431168249 3.8525203107419657 0 3.8525203107419657 -22.619831040159625 0 0 0 0 0.60367163778087374 4.9447061021273839 0 4.9447061021273839 -3.7356590410345234 0 0 0 0 -0.40442090694781996 4.7726409458082344 0 4.7726409458082344 -6.1448528761156922 0 0 0 0 -1.4566077022184345 0.35210773474682355 0 0.35210773474682355 -8.4250319320854032 0 0 0 0 -2.6814951943859131 0.47692069746098298 0 0.47692069746098298 -3.1967408572845528 0 0 0 0 0.9416132634749772 0.50312495503749233 0 0.50312495503749233 -13.40193060240199 0 0 0 0 -0.39277924560958277 0.54222835643176381 0 0.54222835643176381 -3.6590764958855004 0 0 0 0 -13.02378303277726 10.822184591565019 0 10.822184591565019 -5.0626990224664041 0 0 0 0 -2.8481193094439732 -3.7335867649817374 0 -3.7335867649817374 -27.030244636909629 0 0 0 0 0.56442276670395586 3.5696634580235695 0 3.5696634580235695 -11.192163839998102 0 0 0 0 -8.370150454310533 -6.2332001212053001 0 -6.2332001212053001 -13.939198067091638 0 0 0 0 15.820508405492587 18.407721291273333 0 18.407721291273333 -32.72239079818246 0 0 0 0 11.032517016922299 -1.4412942667295283 0 -1.4412942667295283 -6.2260707004243159 0 0 0 0 4.4601838564734528 6.4862015417302246 0 6.4862015417302246 -8.2275515432047541 0 0 0 0 3.4623317391798025 1.8576485618868901 0 1.8576485618868901 -3.9624904909942416 0 0 0 0 1.6490484243260681 6.567285491128132 0 6.567285491128132 -6.6853700619612937 0 0 0 0 -1.6490422509972547 2.2578571615440524 0 2.2578571615440524 -9.8105139167455491 0 0 0 0 -5.2866254439983962 7.5547128046282523 0 7.5547128046282523 -2.5322871441676398 0 0 0 0 2.9727083299550401 6.9584987155394629 0 6.9584987155394629 -9.2001227032533279 0 0 0 0 3.8980544624133131 1.1348793418255809 0 1.1348793418255809 0.29569760282538482 0 0 0 0 5.5987822334638224 6.0299024454943719 0 6.0299024454943719 -4.899918234850702 0 0 0 0 1.8576816408903269 7.1838885867873614 0 7.1838885867873614 -1.7737109854570008 0 0 0 0 2.1167687136508846 5.9384973109772545 0 5.9384973109772545 -4.902265557058854 0 0 0 0 2.7564961692154526 7.0661973287424189 0 7.0661973287424189 -7.4140665984341467 0 0 0 0 -0.26120692235230081 18.449846306477411 0 18.449846306477411 -19.844174910798756 0 0 0 0 -1.3672804766405244 0.76408041354822842 0 0.76408041354822842 -0.061029677107136138 0 0 0 0 20.045299854843051 59.779859651718652 0 59.779859651718652 -290.68031026409881 0 0 0 0 24.293882207215574 29.919675926703349 0 29.919675926703349 -328.51908853480199 0 0 0 0 -4.2966580776003056 4.6344800323154658 0 4.6344800323154658 -1.6354763845485785 0 0 0 0 -2.1034218926164154 3.1379884550921702 0 3.1379884550921702 -1.5024177094651563 0 0 0 0 -26.800035288399528 45.880885088488867 0 45.880885088488867 -1.9110977072159585 0 0 0 0 29.800293519472689 -34.634319967626652 0 -34.634319967626652 -499.96577347216862 0 0 0 0 8.4976068181517945 -22.919047342442582 0 -22.919047342442582 -68.076941096085648 0 0 0 0 -0.39641126717518937 0.28747644120775817 0 0.28747644120775817 -0.17202760848013554 0 0 0 0 -11.342499091242615 10.681999619395356 0 10.681999619395356 16.301055582727713 0 0 0 0 -17.109052369180006 21.626706562683466 0 21.626706562683466 -4.3940580812850385 0 0 0 0 -0.061620425676323975 23.147841203819553 0 23.147841203819553 -40.640287936795175 0 0 0 0 5.6608795172804989 -23.635731068465248 0 -23.635731068465248 -31.95239961448533 0 0 0 0 -0.49912387307104633 1.1442448669362477 0 1.1442448669362477 -1.0688817087442821 0 0 0 0 -8.4421402924189124 -3.9998884218766761 0 -3.9998884218766761 31.647739352029021 0 0 0 0 65.116761843635516 -40.257929279705422 0 -40.257929279705422 -738.25337522907103 0 0 0 0 0.023856982766303221 9.1455102631947689 0 9.1455102631947689 -10.675287948550249 0 0 0 0 4.9294448652826155 8.7848871583264554 0 8.7848871583264554 -13.989915534930333 0 0 0 0 -0.0070362742878965889 11.89796283189753 0 11.89796283189753 -15.579693413837958 0 0 0 0 -3.2348432277119641 4.4964020420966335 0 4.4964020420966335 -15.722355937847169 0 0 0 0 -4.3856508846680482 10.041941599361962 0 10.041941599361962 -13.944885119493847 0 0 0 0 -5.2747678661214108 7.2014984948518759 0 7.2014984948518759 -7.0931546220963355 0 0 0 0 -26.65888709243859 16.910496118049196 0 16.910496118049196 3.6778136736829765 0 0 0 0 -5.8212252167049883 -4.5818292405456305 0 -4.5818292405456305 -106.03573434091959 0 0 0 0 4.3696464439383362 14.028383943703375 0 14.028383943703375 -82.18123323583859 0 0 0 0 -6.8014076280917379 -39.648345737414274 0 -39.648345737414274 -69.501072068072972 0 0 0 0 -46.965109611927801 -21.526446897138158 0 -21.526446897138158 5.6607207825945807 0 0 0 0 6.9573564586039538 -6.2871978278708411 0 -6.2871978278708411 -25.208331996902416 0 0 0 0 4.6492280192985618 11.85468095061151 0 11.85468095061151 4.2710511120463934 0 0 0 0 9.9540819796737878 2.496964852027304 0 2.496964852027304 -4.3691041172678524 0 0 0 0 18.876505859629219 -0.45583923793310532 0 -0.45583923793310532 -110.19229309990624 0 0 0 0 0.10346516086001567 -0.011357355414205017 0 -0.011357355414205017 -0.66096160296341111 0 0 0 0 -45.9706296651147 27.52964576033628 0 27.52964576033628 -11.797995737739257 0 0 0 0 -24.660243314278887 3.119087909522932 0 3.119087909522932 6.1717507949579158 0 0 0 0 -26.150185728125354 24.153631320660679 0 24.153631320660679 -14.449919944716385 0 0 0 0 -12.415435909716166 11.169013085520419 0 11.169013085520419 -2.786251134790291 0 0 0 0 -12.226490814851534 16.089965355206914 0 16.089965355206914 -9.2734657646360574 0 0 0 0 7.424710156458076 11.839622582851007 0 11.839622582851007 -23.973596548992646 0 0 0 0 -4.8204212120522243 23.929721066262573 0 23.929721066262573 -35.684115752097568 0 0 0 0 -8.1396580457231948 17.07222971063311 0 17.07222971063311 -23.151783872795932 0 0 0 0 6.1359292251222257 3.66869411011794 0 3.66869411011794 -14.297603264032659 0 0 0 0 2.1607739369097274 4.2965424836329476 0 4.2965424836329476 -13.83015075309595 0 0 0 0 0.42683607994482464 -3.4062714415591309 0 -3.4062714415591309 -12.965375956307568 0 0 0 0 26.351151863088532 -10.621999946208234 0 -10.621999946208234 -23.550765568865245 0 0 0 0 13.476141069574481 -0.79048264259654388 0 -0.79048264259654388 -17.377490513092198 0 0 0 0 -24.268595454431079 44.801825046886734 0 44.801825046886734 -61.784707188620814 0 0 0 0 10.342306487116275 6.5450467882765224 0 6.5450467882765224 -97.444562536340527 0 0 0 0 14.267216011442599 -8.605198996818217 0 -8.605198996818217 -43.956619401924399 0 0 0 0 -27.732124315856709 -54.786725896236021 0 -54.786725896236021 -34.582945197049412 0 0 0 0 2.1367784965575538 -10.940795135230474 0 -10.940795135230474 -2.2874557779650786 0 0 0 0 -4.4135735366811275 -4.9117966541707574 0 -4.9117966541707574 -14.081825904413563 0 0 0 0 9.1453953234355083 -31.095313739959238 0 -31.095313739959238 -8.4913361905314559 0 0 0 0 0.18772045086346764 -5.3338638239794811 0 -5.3338638239794811 -12.319487171736114 0 0 0 0 5.3681022913813337 -6.5794173880149174 0 -6.5794173880149174 -18.180729005911417 0 0 0 0 -4.5446341755521757 17.266714540010071 0 17.266714540010071 -34.487511339346383 0 0 0 0 0.094944390042734694 0.24898604333071717 0 0.24898604333071717 -1.8751294542891621 0 0 0 0 -22.549566521888423 23.00180678119068 0 23.00180678119068 -14.757305685427127 0 0 0 0 -25.922111767951677 12.843071766950743 0 12.843071766950743 -4.0488461495770025 0 0 0 0 -0.86586473099943684 -1.1934927572657763 0 -1.1934927572657763 1.0690691678747299 0 0 0 0 -21.795164814111331 -11.315441257396742 0 -11.315441257396742 4.0579043573998206 0 0 0 0 40.386055298660033 4.1868970990521746 0 4.1868970990521746 -25.463033011794323 0 0 0 0 0.067971443659425201 -7.4701615862185093 0 -7.4701615862185093 -2.3719204725065453 0 0 0 0 -3.6928160198583555 -7.3836940924156806 0 -7.3836940924156806 3.9521225045700703 0 0 0 0 1.1754890242541478 -11.944083799320651 0 -11.944083799320651 7.9150240691669751 0 0 0 0 -8.6847116354772425 -10.313824015060163 0 -10.313824015060163 4.6869343313119316 0 0 0 0 -0.70486946834199538 -0.62172236566435402 0 -0.62172236566435402 2.0079698191266147 0 0 0 0 -16.971288192943348 -26.241854192456231 0 -26.241854192456231 7.5961631939733252 0 0 0 0 -0.49609911589226074 -0.43529985386918302 0 -0.43529985386918302 -0.75999785234289163 0 0 0 0 -7.7203727219102802 7.7434333557503123 0 7.7434333557503123 -9.1327972326871532 0 0 0 0 -10.643914526952017 -8.5017778364435799 0 -8.5017778364435799 -13.48226286368299 0 0 0 0 -26.32182273898411 16.904656914650332 0 16.904656914650332 -16.159692007939157 0 0 0 0 -0.41743832236011258 6.628286193277745 0 6.628286193277745 8.7143739114253549 0 0 0 0 0.42911728831083185 -0.80283807252499884 0 -0.80283807252499884 -7.6371835645986206 0 0 0 0 -0.31075580392272562 -0.60007103926561811 0 -0.60007103926561811 -0.33104170925049914 0 0 0 0 -3.705228254724716 -4.0544600873436138 0 -4.0544600873436138 3.7938937713188352 0 0 0 0 3.6153805365610339 2.1866829919927113 0 2.1866829919927113 -47.560651371863059 0 0 0 0 1.5012470708456931 -5.9883158082520822 0 -5.9883158082520822 -3.6505646026489558 0 0 0 0 -0.62791179189303792 -9.1988122801428744 0 -9.1988122801428744 -2.0425688530329751 0 0 0 0 10.716392743713641 -7.3417139104130911 0 -7.3417139104130911 -4.979586587738595 0 0 0 0 1.3169301421400801 -6.8314736733434582 0 -6.8314736733434582 -17.17092259019239 0 0 0 0 1.1329718036229179 -9.9188109928986634 0 -9.9188109928986634 -7.7021195793114288 0 0 0 0 -0.086286139659397687 -1.3855888886286465 0 -1.3855888886286465 -8.3303302444174818 0 0 0 0 25.042986045048394 -8.9928554744456051 0 -8.9928554744456051 -42.223110860475572 0 0 0 0 -21.163485680132396 24.546460663093967 0 24.546460663093967 -17.874431495714816 0 0 0 0 20.355856604665291 10.369059410115369 0 10.369059410115369 -84.389663622330772 0 0 0 0 2.4362832580093872 5.5000863502846897 0 5.5000863502846897 -1.8625886799659161 0 0 0 0 2.1461815563363871 5.1202611285771127 0 5.1202611285771127 -13.575427846055163 0 0 0 0 4.5863900028278977 4.2598847803301396 0 4.2598847803301396 -24.205829148027988 0 0 0 0 3.3549582697517053 2.5576093587951618 0 2.5576093587951618 -22.160890794082661 0 0 0 0 0.40123591549410875 5.6776683613232208 0 5.6776683613232208 -3.6293627112148377 0 0 0 0 -31.783964523069471 -35.465711680892127 0 -35.465711680892127 -43.176768201883533 0 0 0 0 -11.485822133753572 6.1807230944505136 0 6.1807230944505136 -60.283646519594186 0 0 0 0 -35.857025524650453 -25.3661700759003 0 -25.3661700759003 -47.124575570080196 0 0 0 0 0.12098813846574374 1.2318433481740634 0 1.2318433481740634 -0.42175946499337158 0 0 0 0 -104.00972465975451 -55.351602624519728 0 -55.351602624519728 -39.220289085787954 0 0 0 0 -76.589361591186844 -63.19875222493647 0 -63.19875222493647 -80.76194637208755 0 0 0 0 1.5316787281127417 0.17633611872797417 0 0.17633611872797417 -12.941892751292571 0 0 0 0 -42.795341342025949 -17.821490627291496 0 -17.821490627291496 -14.721793551545488 0 0 0 0 -86.439287702651427 -32.139193946268279 0 -32.139193946268279 -17.449389900793904 0 0 0 0 -43.58804495137565 -19.065421262581367 0 -19.065421262581367 -15.36525525088291 0 0 0 0 -5.9911000645034846 -23.65642849216556 0 -23.65642849216556 -39.977791130106198 0 0 0 0 -15.966847449026005 -12.013938734193289 0 -12.013938734193289 -18.467212521743932 0 0 0 0 9.6899327679566341 7.5586191556731137 0 7.5586191556731137 -18.007938078775624 0 0 0 0 4.7628111307211611 -5.109603041212722 0 -5.109603041212722 -16.281152288560406 0 0 0 0 1.0687336072245113 -0.63996000932475283 0 -0.63996000932475283 -13.07343204925165 0 0 0 0 12.750992837816511 0.90496301891471376 0 0.90496301891471376 -18.878214813550585 0 0 0 0 -0.7921079024190476 -7.7014930109144188 0 -7.7014930109144188 -13.435481465270641 0 0 0 0 -5.2488545575080252 -12.017260077705942 0 -12.017260077705942 -19.335462294540775 0 0 0 0 -24.80333842567461 -16.607351335429485 0 -16.607351335429485 -15.913451520553281 0 0 0 0 2.8605423147305373 5.5221301536712417 0 5.5221301536712417 -24.75206268812326 0 0 0 0 1.0219611246030809 4.0611073841191683 0 4.0611073841191683 -22.805716663096973 0 0 0 0 1.3388982428575673 -14.423862901952816 0 -14.423862901952816 -27.31816262216671 0 0 0 0 2.1585440386675145 -1.1025695119187731 0 -1.1025695119187731 -22.446386516381608 0 0 0 0 -0.23409803264577933 0.13704077737654785 0 0.13704077737654785 0.11783475227584006 0 0 0 0 -2.3601311503732632 -13.66602148835409 0 -13.66602148835409 -41.401658657081498 0 0 0 0 5.9159886488752136 -12.539817020142436 0 -12.539817020142436 -48.488233500804199 0 0 0 0 6.1534202286229629 -6.8834434636955848 0 -6.8834434636955848 -6.3328438132921292 0 0 0 0 -5.0617009301938651 -11.300496417250542 0 -11.300496417250542 12.275207467217115 0 0 0 0 -6.0597618763081869 -16.619313320113633 0 -16.619313320113633 -14.541309893131256 0 0 0 0 -3.7505013770854134 -10.161934942998414 0 -10.161934942998414 -18.521392836082669 0 0 0 0 -3.6305877716131363 -8.9761882275852258 0 -8.9761882275852258 -7.004883580510068 0 0 0 0 0.33689553936619632 -0.072107670232071541 0 -0.072107670232071541 -13.412516860411415 0 0 0 0 0.33878105289613814 -2.4887386407754093 0 -2.4887386407754093 -22.523394774274493 0 0 0 0 0.15347416081613119 -2.3050242259414517 0 -2.3050242259414517 -19.402115745273477 0 0 0 0 6.2375824723471851 -7.1942145444809285 0 -7.1942145444809285 1.0748574226381606 0 0 0 0 -0.79449627872628525 0.96845618726820248 0 0.96845618726820248 -4.1674248403360252 0 0 0 0 0.6283973795636939 0.87417560009816953 0 0.87417560009816953 -18.516248787629593 0 0 0 0 -11.761825661500438 -10.850685111003258 0 -10.850685111003258 -19.315792851504739 0 0 0 0 1.506745664217533 -7.5295613067792146 0 -7.5295613067792146 -18.051912661481765 0 0 0 0 0.35681241143274312 -1.3227384695752313 0 -1.3227384695752313 -13.086253054128761 0 0 0 0 -6.2080334929246419 -4.6410849093736033 0 -4.6410849093736033 -16.265528693169472 0 0 0 0 0.82472665833165593 -9.0520219734189595 0 -9.0520219734189595 -22.523912336211652 0 0 0 0 3.5987035645139258 -9.6192155684466343 0 -9.6192155684466343 -18.179700014916307 0 0 0 0 -1.8573911938565288 -11.156608936897101 0 -11.156608936897101 -18.421696010896994 0 0 0 0 -2.4009762042132934 -6.7132843826038879 0 -6.7132843826038879 -16.725022407848883 0 0 0 0 -2.0360702036223302 -6.2571565515199836 0 -6.2571565515199836 -23.392721620635712 0 0 0 0 0.62423167031943194 -4.5763579654958448 0 -4.5763579654958448 -29.085334753843199 0 0 0 0 -2.2216849089500101 -5.7647101395195932 0 -5.7647101395195932 -22.903314929862972 0 0 0 0 -2.3362292806516791 -7.0835915301063324 0 -7.0835915301063324 -24.135541661686148 0 0 0 0 -5.3012441005562323 -10.638491443471139 0 -10.638491443471139 -28.18563043611357 0 0 0 0 -3.6810289535201264 -6.1738797112702741 0 -6.1738797112702741 -22.229689600615529 0 0 0 0 -5.3671489839230162 -7.1298497167117603 0 -7.1298497167117603 -22.314830829338462 0 0 0 0 -3.5341439502607273 -6.3007151500751206 0 -6.3007151500751206 -21.94853637909182 0 0 0 0 -5.3298143644531137 -7.5446787273194786 0 -7.5446787273194786 -23.310600085838814 0 0 0 0 0.63827243542914713 -2.785596150637371 0 -2.785596150637371 -16.654596799782752 0 0 0 0 -5.4780071979753302 -6.6233890167422942 0 -6.6233890167422942 -19.693005627381353 0 0 0 0 -0.5941114060769479 -1.723651692064216 0 -1.723651692064216 -3.6206570270341452 0 0 0 0 2.1779323808765207 -4.9905485342079139 0 -4.9905485342079139 -21.637270837494299 0 0 0 0 -3.8360221302141326 -11.294476837127149 0 -11.294476837127149 -23.747307637953782 0 0 0 0 -0.98561248242286137 -3.3442930244681719 0 -3.3442930244681719 -5.557118843964723 0 0 0 0 -5.9912838580557946 -7.2066630270710448 0 -7.2066630270710448 -23.20747100499284 0 0 0 0 -1.1139432994127674 -6.9927048520057724 0 -6.9927048520057724 -29.090572052642528 0 0 0 0 0.28865575591453307 -9.1104033831616107 0 -9.1104033831616107 -32.557744144764001 0 0 0 0 9.2148675375228777 -3.2829952909414715 0 -3.2829952909414715 -31.964423568926577 0 0 0 0 2.6369775231135009 -4.3293249079306406 0 -4.3293249079306406 -31.646898587379837 0 0 0 0 3.4780867063795995 -5.407309526734025 0 -5.407309526734025 -36.581232347365585 0 0 0 0 5.3223397426584143 -1.1082337545431074 0 -1.1082337545431074 -28.19875540996145 0 0 0 0 19.629456426966499 -12.102562000298349 0 -12.102562000298349 -42.389267639169702 0 0 0 0 10.550090559953446 -3.0694939537097525 0 -3.0694939537097525 -36.882483836903702 0 0 0 0 9.2079779133839565 -14.719234377638713 0 -14.719234377638713 -23.144045097840717 0 0 0 0 5.7248386177275279 -10.295266960140907 0 -10.295266960140907 -27.778340855060378 0 0 0 0 8.1411021431945301 -19.037736170317658 0 -19.037736170317658 -20.30164608278119 0 0 0 0 7.0527676194592459 -11.037761508930998 0 -11.037761508930998 -28.927648830773251 0 0 0 0 0.41615336901122646 -15.585707663722133 0 -15.585707663722133 -19.45025129361602 0 0 0 0 -3.1690637885972706 19.462542717741599 0 19.462542717741599 -11.448914264532505 0 0 0 0 1.5267958237321864 24.624188857651461 0 24.624188857651461 -37.839899191463701 0 0 0 0 2.6063325705124498 5.3161481030620052 0 5.3161481030620052 -14.418478256349772 0 0 0 0 2.6125298266788377 4.3423557965288637 0 4.3423557965288637 -27.059047841776191 0 0 0 0 4.6554664765515099 1.9030766600044444 0 1.9030766600044444 -35.177082858652284 0 0 0 0 18.042986981983859 2.5146426229475765 0 2.5146426229475765 -35.227257566195476 0 0 0 0 16.674272548249206 9.2086000013555349 0 9.2086000013555349 -64.899831938946591 0 0 0 0 4.9242080299600275 -2.8280775482999161 0 -2.8280775482999161 -75.199737717842254 0 0 0 0 -3.300116859580811 -16.480470273749233 0 -16.480470273749233 -24.634153909701126 0 0 0 0 1.4898917818917692 -19.628884607305736 0 -19.628884607305736 -49.851559353694029 0 0 0 0 0.19417394995083215 -0.109977265266199 0 -0.109977265266199 -0.96445421881819016 0 0 0 0 -21.742572888250947 -43.751086247548301 0 -43.751086247548301 -64.437764994806912 0 0 0 0 12.125834492864442 -0.71801902649258409 0 -0.71801902649258409 -5.0707466410822235 0 0 0 0 0.15204276981734777 0.25035712379507657 0 0.25035712379507657 -2.0714657247370667 0 0 0 0 -0.74041906321269835 -5.4006754319962056 0 -5.4006754319962056 -20.119670898409822 0 0 0 0 -2.0592772618686013 -3.4098443792718172 0 -3.4098443792718172 -22.038141254965922 0 0 0 0 -2.517978187698521 -5.4626954576415301 0 -5.4626954576415301 -23.690842387950397 0 0 0 0 -5.3239390768026311 -4.7387940697462909 0 -4.7387940697462909 -13.29787189948911 0 0 0 0 -9.4335852501996555 7.2798418028760352 0 7.2798418028760352 -2.677284478686488 0 0 0 0 -0.90323451634739749 0.59275600724233612 0 0.59275600724233612 0.065858351935979442 0 0 0 0 -0.050586731385279582 0.29463601377392123 0 0.29463601377392123 -1.230702227695943 0 0 0 0 6.6761061435187088 -4.2611899657563299 0 -4.2611899657563299 1.6607158137703664 0 0 0 0 -0.3998353918513402 0.28921547674717374 0 0.28921547674717374 -0.37742904317560999 0 0 0 0 -16.61756916913464 -11.059286412260917 0 -11.059286412260917 0.18060364706616383 0 0 0 0 -2.1564861848406736 6.8801827524112014 0 6.8801827524112014 -5.0563898730797519 0 0 0 0 -0.12298202067617237 0.24397851857527542 0 0.24397851857527542 0.090064836759059769 0 0 0 0 11.04403461589186 19.924609881556535 0 19.924609881556535 -32.185561203389042 0 0 0 0 -7.9522704251170353 11.513303892381373 0 11.513303892381373 -8.641984652096653 0 0 0 0 -9.4237309558443485 -9.2294214942885446 0 -9.2294214942885446 -3.6175169499852018 0 0 0 0 -8.3277143223605208 7.1502161693497328 0 7.1502161693497328 -4.4109355414766469 0 0 0 0 0.7490985438456903 2.2329729302482519 0 2.2329729302482519 -38.575134329767025 0 0 0 0 -5.3872989167206811 0.40866483950958354 0 0.40866483950958354 -14.979006548857797 0 0 0 0 1.09318744909271 -3.3404170799622079 0 -3.3404170799622079 -38.828621172051498 0 0 0 0 0.08071668436638646 1.7326065843863034 0 1.7326065843863034 -22.366696274344577 0 0 0 0 -5.6106560696236158 -0.21678608791535225 0 -0.21678608791535225 -8.3850575028154708 0 0 0 0 -1.9206267768671581 0.20942681964103826 0 0.20942681964103826 0.41239439673883282 0 0 0 0 2.4289246818620427 -0.44693699213166838 0 -0.44693699213166838 -59.324424478714718 0 0 0 0 7.1969223512999179 -7.261672384574922 0 -7.261672384574922 -54.743073995325176 0 0 0 0 4.8276645068134485 -8.928268406090865 0 -8.928268406090865 -51.109787452216551 0 0 0 0 -5.6770978892265873 -4.2831853552797838 0 -4.2831853552797838 -50.976647071693151 0 0 0 0 5.1301424464386161 -11.107180174676614 0 -11.107180174676614 -35.082453910623371 0 0 0 0 5.2068232423662595 -10.846035189319082 0 -10.846035189319082 -53.122075412538834 0 0 0 0 7.2356263318205833 -12.520248403398 0 -12.520248403398 -51.892291808122536 0 0 0 0 8.8986334813060637 -10.825937530829833 0 -10.825937530829833 -49.446878635510075 0 0 0 0 10.200367894212079 -17.09829926956445 0 -17.09829926956445 -54.270693570369986 0 0 0 0 12.793033663384904 -12.597666505540474 0 -12.597666505540474 -52.912579858413665 0 0 0 0 17.271144025628587 -12.817169665959227 0 -12.817169665959227 -50.600542600863264 0 0 0 0 9.4199678537378304 -9.2717261545731162 0 -9.2717261545731162 -52.161478361318586 0 0 0 0 29.321205329656863 0.584610908110335 0 0.584610908110335 -37.803913731935609 0 0 0 0 7.3467633487840658 -7.1498867204536509 0 -7.1498867204536509 -38.685118134540971 0 0 0 0 18.457107801298434 -14.123845524101853 0 -14.123845524101853 -40.004021189313789 0 0 0 0 8.9663247402918671 -16.1082724483731 0 -16.1082724483731 -40.172118837490416 0 0 0 0 1.9605487450049282 -16.080895865798084 0 -16.080895865798084 -25.638445665475047 0 0 0 0 80.87749641392017 -34.455852013223193 0 -34.455852013223193 -37.930279302236158 0 0 0 0 14.075334518841203 -20.389502766460282 0 -20.389502766460282 -38.230805039740517 0 0 0 0 20.199820971812443 -30.855586857649541 0 -30.855586857649541 -21.547674725523393 0 0 0 0 39.21310553842369 14.656877369184258 0 14.656877369184258 -31.660192478993849 0 0 0 0 21.138358680424744 -17.153493895593783 0 -17.153493895593783 -36.751050327911798 0 0 0 0 7.8166962317156958 24.70362417497654 0 24.70362417497654 -34.872306111697981 0 0 0 0 0.9569577060668949 3.5308301346839102 0 3.5308301346839102 -5.5014794891976067 0 0 0 0 13.157206031797443 -51.123503023198282 0 -51.123503023198282 -20.058881269513222 0 0 0 0 50.996227540353829 -4.7158102547327871 0 -4.7158102547327871 -23.769895325403922 0 0 0 0 127.47308811476331 -64.025457236690272 0 -64.025457236690272 -22.79839342030391 0 0 0 0 -177.83907324556054 334.171563266882 0 334.171563266882 -487.88777490396387 0 0 0 0 -0.83964193198289871 -1.1019237694077475 0 -1.1019237694077475 -2.0762919417287122 0 0 0 0 13.89079084781855 -79.49740802884844 0 -79.49740802884844 -173.1918159871779 0 0 0 0 -66.880845009782433 -67.195026798459367 0 -67.195026798459367 -12.553573407501972 0 0 0 0 -19.923787261600296 -22.949554715069098 0 -22.949554715069098 13.347180300315813 0 0 0 0 -52.517551696168994 -26.527498498257501 0 -26.527498498257501 42.8995273905457 0 0 0 0 -15.151679693580604 -17.189144956109885 0 -17.189144956109885 -6.8227397500886582 0 0 0 0 7.8210077258897854 -0.05344535072981671 0 -0.05344535072981671 0.75590171867224853 0 0 0 0 -25.589727540787749 -36.601184736555297 0 -36.601184736555297 -9.4330153173250437 0 0 0 0 4.8621277157195095 -12.514743252597327 0 -12.514743252597327 -39.67515912365343 0 0 0 0 -3.1931052375243212 -7.8777126878449053 0 -7.8777126878449053 -38.693677904546348 0 0 0 0 -16.04705216752825 -12.007682039784413 0 -12.007682039784413 -4.6167388021895022 0 0 0 0 -23.204830304941765 13.583893347344201 0 13.583893347344201 -32.760766922569019 0 0 0 0 -16.16002849746485 -40.969504345090172 0 -40.969504345090172 -51.445676747830476 0 0 0 0 4.2404131234105478 -11.48609944025111 0 -11.48609944025111 -11.53244419227849 0 0 0 0 14.547649238238137 -29.679133641423505 0 -29.679133641423505 -27.719930186554848 0 0 0 0 30.586805334036228 -15.773004591494555 0 -15.773004591494555 -15.000739668881579 0 0 0 0 6.9176401012574615 -46.86026124160162 0 -46.86026124160162 23.241115023593011 0 0 0 0 -7.5753558904772929 -11.527516277007706 0 -11.527516277007706 -13.903280186021746 0 0 0 0 -3.4655464732023518 -18.388135723323103 0 -18.388135723323103 -7.2758709370646102 0 0 0 0 -123.89917440260979 -202.94916029021579 0 -202.94916029021579 -166.12058264436928 0 0 0 0 16.746076836553868 -41.619105972416946 0 -41.619105972416946 4.6190611864440143 0 0 0 0 5.68183413980978 -20.040168640887714 0 -20.040168640887714 6.0561930201195082 0 0 0 0 11.320475190486036 -13.86551509210949 0 -13.86551509210949 -22.799044390463678 0 0 0 0 27.404308049089423 163.4244309723108 0 163.4244309723108 -323.78183337805967 0 0 0 0 -18.365526386859415 153.49617690513696 0 153.49617690513696 -324.82469678216694 0 0 0 0 -5.0353360005638512 -8.1093227504317298 0 -8.1093227504317298 -10.3010328486547 0 0 0 0 -103.59669846340648 228.05951271467347 0 228.05951271467347 -295.42142161523225 0 0 0 0 -0.49436435050097316 172.79843356722267 0 172.79843356722267 -283.58332225966296 0 0 0 0 14.545676078342694 200.1651186906347 0 200.1651186906347 -385.46388551251221 0 0 0 0 -19.080298987090828 125.79444839513235 0 125.79444839513235 -115.67719787346141 0 0 0 0 0.72128589288581679 104.01503746584058 0 104.01503746584058 -166.77982388767487 0 0 0 0 -49.892316565606052 189.63934212308232 0 189.63934212308232 -234.13065689592986 0 0 0 0 4.4585202403973199 147.80237885241513 0 147.80237885241513 -269.12696547657833 0 0 0 0 4.8578458997468132 166.51034579334464 0 166.51034579334464 -310.88351643896749 0 0 0 0 -12.424713708044578 89.07725334732595 0 89.07725334732595 -177.24383881476388 0 0 0 0 -18.454097425634245 177.52415113539246 0 177.52415113539246 -254.3222848686928 0 0 0 0 60.626399977341066 -25.851494791142613 0 -25.851494791142613 -84.808578843825671 0 0 0 0 13.632885093875529 72.702233547912329 0 72.702233547912329 -187.60468163457517 0 0 0 0 19.343005585243645 16.490811987594498 0 16.490811987594498 -47.948394144175836 0 0 0 0 4.675737308184182 10.146951957432293 0 10.146951957432293 -49.780400191557419 0 0 0 0 -2.2130874486511871 -4.2607108987800757 0 -4.2607108987800757 -6.3804141977498858 0 0 0 0 -134.72371237732369 319.83449721603392 0 319.83449721603392 -411.05657402709403 0 0 0 0 -167.17337288936488 182.95973914591741 0 182.95973914591741 -274.2703465351442 0 0 0 0 35.781893756899194 124.56003081325616 0 124.56003081325616 -232.5485128089349 0 0 0 0 -80.725390310423876 112.081850755716 0 112.081850755716 -222.20813387657472 0 0 0 0 -46.61649060708686 179.78175319697039 0 179.78175319697039 -388.7684027272735 0 0 0 0 -210.14173217856114 193.59801168401464 0 193.59801168401464 -194.4294752413989 0 0 0 0 -169.8824728065232 109.21186145398315 0 109.21186145398315 -44.359277299847236 0 0 0 0 214.0239134325883 -7.4226762947291718 0 -7.4226762947291718 -161.67371910248767 0 0 0 0 4.0039329539160917 236.16256519626222 0 236.16256519626222 -199.02092782061663 0 0 0 0 140.11072037833799 -23.195698342921787 0 -23.195698342921787 -30.586958031541144 0 0 0 0 204.68258350899578 -7.406049599256221 0 -7.406049599256221 -141.72845376464829 0 0 0 0 21.956772767387235 -26.602362140023615 0 -26.602362140023615 -20.00195468817401 0 0 0 0 8.630164752420896 14.172610343689485 0 14.172610343689485 -47.162366431592091 0 0 0 0 5.4530123842140652 -2.4695588546509981 0 -2.4695588546509981 -9.2636130613160503 0 0 0 0 2.4737383490960037 -0.071272319301748155 0 -0.071272319301748155 -3.05837007357625 0 0 0 0 16.56660810139573 -50.34240677035632 0 -50.34240677035632 48.481491959666442 0 0 0 0 88.45066867395326 31.147761878266465 0 31.147761878266465 -5.9914664956531141 0 0 0 0 1.34792831743428 -4.1834083370635966 0 -4.1834083370635966 -9.0812371087680503 0 0 0 0 -12.730685808284534 30.191204225820456 0 30.191204225820456 -25.104593187788851 0 0 0 0 -18.69006454178006 -0.27507869090663917 0 -0.27507869090663917 -29.505395585816586 0 0 0 0 -47.235236720444583 24.252857581046726 0 24.252857581046726 -24.632772099364956 0 0 0 0 -47.675116170193974 -7.9905965612706495 0 -7.9905965612706495 -30.693180672795279 0 0 0 0 -17.857259914970829 38.987503975913114 0 38.987503975913114 -126.2970896098268 0 0 0 0 -12.394085405040641 -50.960588536747309 0 -50.960588536747309 -94.907526853317904 0 0 0 0 -7.5214770360237821 -94.127387250950051 0 -94.127387250950051 -348.14646067352078 0 0 0 0 257.78816198264877 68.099721429208557 0 68.099721429208557 -121.92879033125064 0 0 0 0 -25.604768428102801 10.353765045638283 0 10.353765045638283 -47.733622083087539 0 0 0 0 318.19044816068805 -173.20325559760022 0 -173.20325559760022 -45.926228879601467 0 0 0 0 0.24467701713169743 -4.1110073679553025 0 -4.1110073679553025 -8.3885399741025708 0 0 0 0 -14.297541535548177 -13.874895407714462 0 -13.874895407714462 -232.68613868676766 0 0 0 0 -0.31401266334438871 -1.9695057455598786 0 -1.9695057455598786 -3.7545625033336592 0 0 0 0 126.74519196819119 -523.67684063207525 0 -523.67684063207525 117.51209288107839 0 0 0 0 -210.00328615293799 -251.20498888375187 0 -251.20498888375187 -233.96049325210151 0 0 0 0 92.737763946766165 -294.4858309003248 0 -294.4858309003248 -533.63636382642289 0 0 0 0 -2.4326141073241558 138.33595175282244 0 138.33595175282244 -585.3252046159123 0 0 0 0 -371.61620944412829 91.892869027445613 0 91.892869027445613 -632.64616186765852 0 0 0 0 -94.66457412120053 -93.926950114322608 0 -93.926950114322608 -510.62828128171532 0 0 0 0 -13.323565743658492 102.69042998504301 0 102.69042998504301 -684.47814347322401 0 0 0 0 -94.695769588672647 112.66858624261931 0 112.66858624261931 -651.61833816510625 0 0 0 0 30.448750290633825 104.95994362442798 0 104.95994362442798 -651.72974171628812 0 0 0 0 -1.2776690172113054 2.6807394449883333 0 2.6807394449883333 -4.2560843364530143 0 0 0 0 -36.932142540305449 -82.212120254405818 0 -82.212120254405818 -223.92210513752798 0 0 0 0 -102.30632626501824 48.23639841975637 0 48.23639841975637 -26.173824413783223 0 0 0 0 -15.487397237376399 -4.3131591111841772 0 -4.3131591111841772 -6.4132560205471236 0 0 0 0 -3.941950492225561 4.2959263664151948 0 4.2959263664151948 -11.796702494563277 0 0 0 0 49.984770780072736 -18.128552917463821 0 -18.128552917463821 -29.544822346331785 0 0 0 0 127.18807132048576 98.962652064163194 0 98.962652064163194 -87.49648722926122 0 0 0 0 -199.27640329966155 189.08990697662739 0 189.08990697662739 -175.04207220775777 0 0 0 0 -134.8469958202212 217.78348884301158 0 217.78348884301158 -91.722108520143593 0 0 0 0 -255.1307067594874 68.229553029366798 0 68.229553029366798 -193.70275739901626 0 0 0 0 -315.58975931004488 320.38086287748774 0 320.38086287748774 -148.91687976840331 0 0 0 0 -365.26271881131731 197.49566624668842 0 197.49566624668842 45.878888122981152 0 0 0 0 -0.15377807148145203 123.91446043644828 0 123.91446043644828 -27.683654070613557 0 0 0 0 18.211779461958372 21.164000960114208 0 21.164000960114208 109.39912196811201 0 0 0 0 66.298475846145948 126.59269188530743 0 126.59269188530743 81.29043688677757 0 0 0 0 1.3116738202758358 0.8344430114796495 0 0.8344430114796495 -1.5212481714482493 0 0 0 0 -24.240141994509941 16.08434345918522 0 16.08434345918522 65.427058233493881 0 0 0 0 -0.051476592110407671 120.65845137184988 0 120.65845137184988 -6.0180035167813912 0 0 0 0 66.656308898519427 -35.593079877482523 0 -35.593079877482523 -96.386468532276922 0 0 0 0 0.11069900198919125 0.48649886108576368 0 0.48649886108576368 -0.54410664783553386 0 0 0 0 -36.819736813088696 -57.031085239668755 0 -57.031085239668755 -164.79535668126846 0 0 0 0 -0.04856244169471876 97.568032014696087 0 97.568032014696087 -425.89426902409468 0 0 0 0 -47.907675954103865 -28.022025086271242 0 -28.022025086271242 -389.63323080323607 0 0 0 0 82.839549429002773 24.040273890514072 0 24.040273890514072 -378.27234037644666 0 0 0 0 0.33819281579677174 0.62872948473791723 0 0.62872948473791723 -0.84705293107357704 0 0 0 0 67.54691483839747 28.056650028407603 0 28.056650028407603 -7.1007033884779958 0 0 0 0 39.900883423813809 85.399843143166436 0 85.399843143166436 -293.10125831351615 0 0 0 0 16.733863079734192 56.915013316648583 0 56.915013316648583 -402.54232283352758 0 0 0 0 38.618961617943341 6.321750114329916 0 6.321750114329916 -358.62206935566792 0 0 0 0 85.817798004727592 63.723109042613942 0 63.723109042613942 -358.64866075394093 0 0 0 0 62.15964096667949 67.321167110734677 0 67.321167110734677 -348.30043918704905 0 0 0 0 98.814569861943255 -3.9661873628938338 0 -3.9661873628938338 -273.43482587210019 0 0 0 0 18.720887954031241 122.22820524572671 0 122.22820524572671 -157.72271477041068 0 0 0 0 14.32237364974344 -11.930904629793076 0 -11.930904629793076 -54.020241183061444 0 0 0 0 1.8691767089744471 1.0809246933835226 0 1.0809246933835226 -1.907683577993339 0 0 0 0 42.184567475230068 -33.225329832323496 0 -33.225329832323496 18.67925930115598 0 0 0 0 44.476601434096779 96.979425292771339 0 96.979425292771339 64.252160011216802 0 0 0 0 25.901236783516879 -28.08933987833916 0 -28.08933987833916 -52.329454359482042 0 0 0 0 75.614607458504224 46.493391414554935 0 46.493391414554935 -2.7020558116091706 0 0 0 0 43.736966137065508 -82.252444724465022 0 -82.252444724465022 -88.516217566677369 0 0 0 0 -49.150468170827025 -4.9367261750376201 0 -4.9367261750376201 -38.307724851780222 0 0 0 0 0.26856845558051301 0.11042804500844738 0 0.11042804500844738 -2.105538893942164 0 0 0 0 6.9400577444073406 -9.29702145018382 0 -9.29702145018382 -54.573867494487786 0 0 0 0 4.4085182460500789 -24.38089317723643 0 -24.38089317723643 -52.881659614220553 0 0 0 0 26.301005720941816 5.3228792563204479 0 5.3228792563204479 -46.867102257267106 0 0 0 0 7.941953915241811 5.3405555291756173 0 5.3405555291756173 -2.3405278063391961 0 0 0 0 6.1971116545036846 4.5139833621176706 0 4.5139833621176706 -2.5517180934927204 0 0 0 0 -3.9291592888262699 8.2651729776953289 0 8.2651729776953289 4.7519727316102944 0 0 0 0 0.14925802874133565 1.8392595227525064 0 1.8392595227525064 -0.44899988508682043 0 0 0 0 52.66837945355843 -66.652290039452055 0 -66.652290039452055 -56.471994086597988 0 0 0 0 0.76345886105502814 20.281229733107466 0 20.281229733107466 -13.419039656197128 0 0 0 0 -3.880694692690497 30.064863390695791 0 30.064863390695791 -20.722473003712366 0 0 0 0 3.9035384615976909 64.492417448091146 0 64.492417448091146 -103.10165819692929 0 0 0 0 -28.1433041772666 54.242276104960183 0 54.242276104960183 -18.770150892627498 0 0 0 0 -31.685345128114704 -57.701276278821751 0 -57.701276278821751 -88.063362692947521 0 0 0 0 -11.945219232292743 19.477349532221524 0 19.477349532221524 0.30383106470253551 0 0 0 0 0.065855206649121811 0.29958518306468562 0 0.29958518306468562 -0.68105734156168296 0 0 0 0 -47.262010008989819 -53.346946908030077 0 -53.346946908030077 4.8408717167167197 0 0 0 0 4.0054605374661723 0.59518097058611374 0 0.59518097058611374 -3.5597738673563413 0 0 0 0 7.347250204933971 -136.96627023907786 0 -136.96627023907786 -83.428936618649459 0 0 0 0 16.797438570585598 82.571340547769523 0 82.571340547769523 -76.241825763092493 0 0 0 0 -0.10657016043029266 0.81606764118953379 0 0.81606764118953379 -2.2345690880933518 0 0 0 0 96.939461150436571 55.108718806241427 0 55.108718806241427 -366.29708369520085 0 0 0 0 48.742844334044094 37.334088288000203 0 37.334088288000203 -372.30347501608048 0 0 0 0 62.774694700552345 37.255248102825135 0 37.255248102825135 -617.94542924971029 0 0 0 0 79.042553737809669 91.491988107753969 0 91.491988107753969 -414.8248580018917 0 0 0 0 83.000834549337696 108.48107539134799 0 108.48107539134799 -970.33973204688664 0 0 0 0 -9.8208947701550642 394.72237216350914 0 394.72237216350914 -720.8560016996089 0 0 0 0 12.328214569221927 178.74749961313137 0 178.74749961313137 -467.37044774430979 0 0 0 0 -3.8137270229426576 115.60011633748945 0 115.60011633748945 -450.58727617228942 0 0 0 0 9.9250911261642614 -167.1611866315825 0 -167.1611866315825 -909.50042174274859 0 0 0 0 38.038324176962306 -73.73221559812373 0 -73.73221559812373 -23.477185763720172 0 0 0 0 -3.345121522729448 4.0201251270562395 0 4.0201251270562395 -3.8773505705024576 0 0 0 0 -147.53610901832599 59.866936500668089 0 59.866936500668089 -0.532570577817296 0 0 0 0 -72.752409505686956 -60.516371206562326 0 -60.516371206562326 -530.77414578616663 0 0 0 0 7.9411404936846459 0.57829631099514955 0 0.57829631099514955 -10.418574479670298 0 0 0 0 -243.40540418308501 238.73148838385441 0 238.73148838385441 -91.154192336420238 0 0 0 0 -28.432586608053498 118.12770853449547 0 118.12770853449547 -149.57284234922372 0 0 0 0 -23.591324949039517 261.18840151398399 0 261.18840151398399 -644.17217194179375 0 0 0 0 -187.60223219201237 -186.95087424635676 0 -186.95087424635676 -753.73295280725142 0 0 0 0 -401.16897749204873 266.97387683505804 0 266.97387683505804 -225.35150073127988 0 0 0 0 0.086465552104700638 -0.75492418960919849 0 -0.75492418960919849 -2.7585938398134999 0 0 0 0 -8.5198031999987052 115.81876773557087 0 115.81876773557087 40.581567914192419 0 0 0 0 43.847465666837252 188.78895474464662 0 188.78895474464662 -170.53910927251491 0 0 0 0 70.251516282005014 15.439105076329724 0 15.439105076329724 -547.56397745302093 0 0 0 0 -57.321653699793387 70.715437107795879 0 70.715437107795879 -530.08345944096891 0 0 0 0 -13.894228223000482 201.63673236487284 0 201.63673236487284 -279.3185794800811 0 0 0 0 -57.8377192499579 69.933624201068596 0 69.933624201068596 -236.01711544387945 0 0 0 0 20.384610995172807 14.987801199917158 0 14.987801199917158 -92.603719756634746 0 0 0 0 -54.57573654570524 133.58317871738836 0 133.58317871738836 -150.72700373055704 0 0 0 0 19.323755803988206 -30.522319555493596 0 -30.522319555493596 -35.829599206657804 0 0 0 0 -78.56881847281727 17.579418598946631 0 17.579418598946631 -14.821173851079948 0 0 0 0 6.8801417124080499 -3.7585359410645935 0 -3.7585359410645935 -13.695535528677397 0 0 0 0 21.664219198281444 9.7400780468888115 0 9.7400780468888115 -26.848161147052451 0 0 0 0 6.3896585831625616 5.5474351616623352 0 5.5474351616623352 -3.6730219942146718 0 0 0 0 6.9895373700258006 8.4307932894662372 0 8.4307932894662372 -19.065522838037396 0 0 0 0 7.9801377292148956 5.5221249179671759 0 5.5221249179671759 -13.148089154317859 0 0 0 0 7.0998894196260052 0.33997561977197677 0 0.33997561977197677 -8.8728915425039645 0 0 0 0 7.3224742669734155 1.0908822471792519 0 1.0908822471792519 -12.736540454250644 0 0 0 0 19.675465602440909 13.04786412978865 0 13.04786412978865 -16.717817929958983 0 0 0 0 -40.742504489389034 40.453657975936949 0 40.453657975936949 -3.3640548733237665 0 0 0 0 0.68425731962775682 0.95851403042414063 0 0.95851403042414063 -4.5431434356149207 0 0 0 0 3.6001497270830214 3.4412628122481692 0 3.4412628122481692 -19.562472825619096 0 0 0 0 1.5582708483524268 0.92544682935140088 0 0.92544682935140088 -3.0390361583448482 0 0 0 0 2.3985978612871577 1.2119111769134179 0 1.2119111769134179 -12.739232439154875 0 0 0 0 1.3365545770583613 0.23719627479432859 0 0.23719627479432859 0.17487792745388941 0 0 0 0 2.8217115548542466 5.7242586506520183 0 5.7242586506520183 -13.155800795197138 0 0 0 0 1.8272866115597708 8.4706453867020173 0 8.4706453867020173 -6.4847114861768205 0 0 0 0 -12.07507497300827 11.624707892473452 0 11.624707892473452 -56.899101592392981 0 0 0 0 61.900878274340073 -3.9953647417387401 0 -3.9953647417387401 -107.02774305961793 0 0 0 0 8.1168316063125303 28.884702708393888 0 28.884702708393888 -57.625355661890069 0 0 0 0 -24.950891221390357 -1.6593937169850506 0 -1.6593937169850506 61.394860571454046 0 0 0 0 -22.668660979394247 -16.621325179436099 0 -16.621325179436099 -124.39849992247036 0 0 0 0 100.46323439337687 -15.192880753802456 0 -15.192880753802456 -76.418245275530353 0 0 0 0 70.86815567896997 13.065851741275765 0 13.065851741275765 -10.337139799576107 0 0 0 0 111.38604574975489 29.67823048738137 0 29.67823048738137 -55.182362599745829 0 0 0 0 9.2697138627358981 -40.865125767100835 0 -40.865125767100835 45.063533660308167 0 0 0 0 1.12825303272106 -0.82082932669972308 0 -0.82082932669972308 -2.8553234288655851 0 0 0 0 13.72521629519764 -10.83174332413364 0 -10.83174332413364 -26.548946982846246 0 0 0 0 -2.5297022433464731 -4.3632711911658504 0 -4.3632711911658504 -5.8053591337653359 0 0 0 0 -2.9823247458065367 12.099771499248163 0 12.099771499248163 -285.83201822607953 0 0 0 0 0.38412441368364048 0.64603396113406575 0 0.64603396113406575 -3.3920687339997393 0 0 0 0 -54.818853093600552 54.427115266851615 0 54.427115266851615 -138.01988182251171 0 0 0 0 -1.9427005713000496 -6.2008725254280535 0 -6.2008725254280535 -8.4856271156843945 0 0 0 0 -0.79967573661278379 -11.509011093748995 0 -11.509011093748995 -20.474075116737367 0 0 0 0 5.5267013135489123 -31.835630090802169 0 -31.835630090802169 -25.156331684149336 0 0 0 0 9.156555578158958 -29.135883042947171 0 -29.135883042947171 -49.218430976390664 0 0 0 0 0.54095996543379843 0.066821724661807025 0 0.066821724661807025 -0.057747809847484954 0 0 0 0 17.428038362916539 -13.503429043081269 0 -13.503429043081269 -28.514532824796333 0 0 0 0 -24.47326429515465 -10.738651097854017 0 -10.738651097854017 -26.518661267429934 0 0 0 0 2.7362933887792451 11.155001091137819 0 11.155001091137819 -13.040429237658827 0 0 0 0 -0.30378911564314137 1.3502376288247433 0 1.3502376288247433 -2.5791411614482058 0 0 0 0 27.456193366056368 26.602440018352354 0 26.602440018352354 -20.214907230445533 0 0 0 0 0.28091521871198211 20.621609849171364 0 20.621609849171364 26.903111544510466 0 0 0 0 1.1430728753459789 -25.760335975570342 0 -25.760335975570342 -17.317494635732146 0 0 0 0 3.1590696783286405 3.7560786315633194 0 3.7560786315633194 -9.9911792104874593 0 0 0 0 30.263763456209745 27.900688164909297 0 27.900688164909297 -17.064809463947313 0 0 0 0 10.782485270192353 -1.7201616176062089 0 -1.7201616176062089 -13.076102865337816 0 0 0 0 1.5758472156838956 0.60512682997904932 0 0.60512682997904932 -3.3738616062806983 0 0 0 0 -1.7239378195206863 -2.1661749801194219 0 -2.1661749801194219 -9.8276919893396553 0 0 0 0 6.8786251106633927 27.975856131884939 0 27.975856131884939 -7.6718825254210969 0 0 0 0 -1.5317855379630281 -5.3080866162721776 0 -5.3080866162721776 -8.9533168308408335 0 0 0 0 -4.0153586010007416 -12.558256597567379 0 -12.558256597567379 -6.2589397533520241 0 0 0 0 -1.3140328160022805 0.58982820345022446 0 0.58982820345022446 -12.180289468386036 0 0 0 0 -4.0384313938707521 -13.835674424535682 0 -13.835674424535682 -35.002100141116898 0 0 0 0 -16.934257356298303 39.964543025169405 0 39.964543025169405 -291.50072441165776 0 0 0 0 0.076664714850546933 1.2478042275840266 0 1.2478042275840266 -0.49265000458731123 0 0 0 0 32.423802910262403 -4.5017471970932093 0 -4.5017471970932093 -337.71061019432091 0 0 0 0 -8.0995094640961742 -3.7797056744243491 0 -3.7797056744243491 -9.7073668946468388 0 0 0 0 10.101791789780293 40.911608773745684 0 40.911608773745684 -503.71936195370381 0 0 0 0 -5.3757610087349335 -22.616440512207191 0 -22.616440512207191 -46.243739577221277 0 0 0 0 0.0080812904052207646 0.487982438534587 0 0.487982438534587 -0.51345179710180844 0 0 0 0 -8.7557950011007364 60.520130827346293 0 60.520130827346293 -372.46293819666016 0 0 0 0 -3.9058434314426278 -17.988027267228745 0 -17.988027267228745 -363.82871548349794 0 0 0 0 0.057226860473655314 29.909512485515734 0 29.909512485515734 20.852348990840255 0 0 0 0 0.063687710801577535 0.35399846345249841 0 0.35399846345249841 -0.76089270059681269 0 0 0 0 10.462861128534655 -13.36589911673218 0 -13.36589911673218 19.835111315491758 0 0 0 0 -0.09606379391158737 34.580883178969088 0 34.580883178969088 -59.261829247872811 0 0 0 0 0.11398901707211712 -0.14756266679749785 0 -0.14756266679749785 -2.7160273182474839 0 0 0 0 19.037220004083608 49.470157310272043 0 49.470157310272043 -26.401708624776802 0 0 0 0 -39.898452129098729 18.107321729024989 0 18.107321729024989 -6.6515093000161869 0 0 0 0 52.863882768732161 -15.124758416019176 0 -15.124758416019176 -4.2552969810603827 0 0 0 0 58.247573467297926 -35.160096502913802 0 -35.160096502913802 -105.13071599279647 0 0 0 0 -26.426392526716366 -69.193827886908366 0 -69.193827886908366 -105.04034199580929 0 0 0 0 0.4631247473059758 0.29775245989726784 0 0.29775245989726784 -0.49122605407787034 0 0 0 0 0.16025425818660516 116.59617514668207 0 116.59617514668207 134.43077999009893 0 0 0 0 0.055031878971683094 5.139068030513954 0 5.139068030513954 -312.0874227751392 0 0 0 0 36.29616083621471 11.23257761259606 0 11.23257761259606 -517.12704161550937 0 0 0 0 0.14368882123862625 0.027062265678537756 0 0.027062265678537756 -1.6013084027282503 0 0 0 0 -30.995739281193053 -140.26395424132352 0 -140.26395424132352 -368.72287245145708 0 0 0 0 3.4803951135175168 39.717569222604652 0 39.717569222604652 -447.28719985722637 0 0 0 0 35.59291588435245 -34.09630728411139 0 -34.09630728411139 -359.30282649192668 0 0 0 0 0.046334910364501006 28.780990685783763 0 28.780990685783763 -438.69601142280226 0 0 0 0 13.040110275132243 36.714208140578194 0 36.714208140578194 -434.40830614167135 0 0 0 0 -0.0021914282890545941 37.632404113013095 0 37.632404113013095 -430.83286604355089 0 0 0 0 -11.727359274505915 56.475233073055279 0 56.475233073055279 -437.88817230876157 0 0 0 0 -8.9598024841637045 65.230090543352162 0 65.230090543352162 -446.07300742727966 0 0 0 0 13.180162536265097 45.260012309219661 0 45.260012309219661 -461.57947580725158 0 0 0 0 -4.8244570466269749 78.835020180527863 0 78.835020180527863 -455.20832519143369 0 0 0 0 15.453430844259245 16.303957760583216 0 16.303957760583216 -428.17047790533252 0 0 0 0 -11.570682061326035 58.318202487163717 0 58.318202487163717 -416.60596318745229 0 0 0 0 -13.561111962561599 12.244723271931662 0 12.244723271931662 -457.8720048338073 0 0 0 0 54.634612989675418 -68.125326642166328 0 -68.125326642166328 -546.50615629996821 0 0 0 0 -3.5162459041334841 53.750411827597418 0 53.750411827597418 -551.04545361948476 0 0 0 0 3.0178000575642443 27.530045388062717 0 27.530045388062717 -507.07873556356208 0 0 0 0 -149.54750747922932 -178.12171718051303 0 -178.12171718051303 -134.08924425131408 0 0 0 0 -144.59976684763416 -63.796410571194428 0 -63.796410571194428 19.252138790572644 0 0 0 0 19.453455600157412 -35.588622884772121 0 -35.588622884772121 -857.89333514846658 0 0 0 0 -1.8625532533156952 -1.7605483761661418 0 -1.7605483761661418 -1.9033262339911516 0 0 0 0 32.564244706471499 35.302031259319847 0 35.302031259319847 -576.5782297229398 0 0 0 0 -164.1024873784433 -11.076421323927207 0 -11.076421323927207 -504.77797823881701 0 0 0 0 4.6327046346958127 29.80161995947492 0 29.80161995947492 -498.93309888435851 0 0 0 0 -17.494164512489462 82.38748619096441 0 82.38748619096441 -377.48438309212725 0 0 0 0 36.309613829815085 22.43532140496427 0 22.43532140496427 -515.88457818839743 0 0 0 0 -36.453704391276375 100.01544394718803 0 100.01544394718803 -302.31440687051963 0 0 0 0 16.68167619290486 -56.816069202173821 0 -56.816069202173821 -635.48463070737853 0 0 0 0 -83.382383327143714 -54.16776558307356 0 -54.16776558307356 -520.31802437989609 0 0 0 0 -59.482391390521684 -120.40637871063882 0 -120.40637871063882 -707.61792758875981 0 0 0 0 39.985393842608403 -13.163340525294188 0 -13.163340525294188 -612.5193911323986 0 0 0 0 -24.856588680158609 177.32157985319191 0 177.32157985319191 -811.97435092261367 0 0 0 0 -1.0181895917674151 -1.5684164157848315 0 -1.5684164157848315 -2.4588506202024973 0 0 0 0 -15.318573220660483 -143.93913451609478 0 -143.93913451609478 16.440557345640627 0 0 0 0 -5.0352265417019808 -228.36780898893198 0 -228.36780898893198 -442.52681509092508 0 0 0 0 -121.45165847343247 -24.509558188670781 0 -24.509558188670781 -532.8305989705259 0 0 0 0 -44.655814721692906 33.512531804816717 0 33.512531804816717 -509.50113530293311 0 0 0 0 -78.878480399069247 -31.284170889148299 0 -31.284170889148299 -543.96257679698101 0 0 0 0 3.1956124421219556 50.056176764503107 0 50.056176764503107 -477.43111632229557 0 0 0 0 -18.864398493959321 44.847634504192683 0 44.847634504192683 -301.12266429798183 0 0 0 0 -33.855075539707229 -101.68035770729512 0 -101.68035770729512 -343.14681507773821 0 0 0 0 28.682291705760406 53.040598072755529 0 53.040598072755529 -509.28749584336038 0 0 0 0 18.254628266328268 44.096360625104353 0 44.096360625104353 -94.652991554612527 0 0 0 0 -1.3074778897958552 -0.61759755750762935 0 -0.61759755750762935 -1.6876118374224518 0 0 0 0 -46.877074511978151 66.797724129099151 0 66.797724129099151 -34.033914253435796 0 0 0 0 30.465971357053604 -41.606123971258057 0 -41.606123971258057 66.071776994402171 0 0 0 0 -4.3233804455375928 -4.2066729767223094 0 -4.2066729767223094 -5.091985547703743 0 0 0 0 -56.561015013399803 -113.64907340101672 0 -113.64907340101672 -194.86548701802531 0 0 0 0 16.803272245860398 -16.972791486641654 0 -16.972791486641654 -5.7307525002779585 0 0 0 0 14.334342235650183 10.18135365552007 0 10.18135365552007 -13.765295796241844 0 0 0 0 20.62390973572542 -5.2993684054818004 0 -5.2993684054818004 -11.541503437096253 0 0 0 0 1.2516822473779654 -0.42879763337334253 0 -0.42879763337334253 -2.8280440216018832 0 0 0 0 -1.2504310898466429 -7.6711161838538828 0 -7.6711161838538828 -4.7774751000351898 0 0 0 0 58.543910820526889 39.843813231495005 0 39.843813231495005 -112.5322834844701 0 0 0 0 -5.1993486273198668 -3.3330474457603074 0 -3.3330474457603074 -3.5794458338988875 0 0 0 0 62.524702700612124 4.9558121423833654 0 4.9558121423833654 -2.0453357305013924 0 0 0 0 -18.273245373652557 -57.519790232084006 0 -57.519790232084006 -5.2540986479652929 0 0 0 0 -161.39038459425228 -108.64061281356408 0 -108.64061281356408 -21.885961341504299 0 0 0 0 7.015198572333702 88.647014488800778 0 88.647014488800778 91.901536971869064 0 0 0 0 -4.0123664338928826 -0.59110187071007658 0 -0.59110187071007658 -7.1910765823212728 0 0 0 0 -0.44004536679517514 -1.9491773189874948 0 -1.9491773189874948 -5.8971245215216186 0 0 0 0 -2.3806239277215511 -0.73807032515694715 0 -0.73807032515694715 -7.4800397473141516 0 0 0 0 -0.35809461052800773 -1.7818524326950218 0 -1.7818524326950218 -8.1773495131209302 0 0 0 0 -26.903581968434992 -55.193433379819908 0 -55.193433379819908 -64.01589025613066 0 0 0 0 -73.220594859574021 -39.9840721458404 0 -39.9840721458404 11.612194499321049 0 0 0 0 -32.28525426708552 -44.393568640320154 0 -44.393568640320154 7.6967018623108743 0 0 0 0 -32.338988527181527 -19.213216122359881 0 -19.213216122359881 -59.350925450482464 0 0 0 0 -40.983390886034385 -87.841925583321427 0 -87.841925583321427 -100.59185199887725 0 0 0 0 -4.7738503492784616 3.7875936646842092 0 3.7875936646842092 -109.62253099094232 0 0 0 0 -2.6743006861060508 17.167733995821891 0 17.167733995821891 -46.526026414401713 0 0 0 0 45.339678323405508 17.571259302063481 0 17.571259302063481 -13.597879834400374 0 0 0 0 -0.38011239014822373 2.0220292334299117 0 2.0220292334299117 -7.2844356264063492 0 0 0 0 114.87065879843431 22.166852679889416 0 22.166852679889416 -167.89090796094388 0 0 0 0 -116.85243743447563 -77.447437478080246 0 -77.447437478080246 104.17869620658894 0 0 0 0 -1.3707899293560675 3.1827365803966892 0 3.1827365803966892 -9.1207260397666801 0 0 0 0 93.528609036927094 59.140111837636141 0 59.140111837636141 -42.198504458363459 0 0 0 0 13.748261916977867 -7.8545780398762872 0 -7.8545780398762872 -21.780910410379875 0 0 0 0 -11.259129048254493 51.621816385066268 0 51.621816385066268 88.455005734394945 0 0 0 0 2.4009415934262961 2.2204953918480896 0 2.2204953918480896 -5.4756352205586154 0 0 0 0 -3.0455184640096604 -5.7283772646223952 0 -5.7283772646223952 4.6415879362757551 0 0 0 0 36.372238284516925 -12.898853220680394 0 -12.898853220680394 -35.400875822888338 0 0 0 0 5.9351608988396833 -25.017450572903726 0 -25.017450572903726 -28.039343473152258 0 0 0 0 28.186181213431382 10.247534511388949 0 10.247534511388949 -89.356779663386988 0 0 0 0 -29.761513312411807 -42.762805381578801 0 -42.762805381578801 81.734741929831216 0 0 0 0 52.525590008420295 -17.064198816347925 0 -17.064198816347925 -280.37866971301264 0 0 0 0 9.7983106015644807 -255.20940203620557 0 -255.20940203620557 -111.83527378115105 0 0 0 0 50.504800841333918 -34.505598341733275 0 -34.505598341733275 -30.143052141778753 0 0 0 0 -0.90110941521136745 1.7734454007593001 0 1.7734454007593001 -1.6300819416981938 0 0 0 0 -27.682956370674447 -5.005575488339673 0 -5.005575488339673 11.051714361007271 0 0 0 0 -17.50649343115083 19.13321110385732 0 19.13321110385732 9.0400871462043142 0 0 0 0 6.5580647919080661 -5.3943455505868769 0 -5.3943455505868769 -10.803653595983633 0 0 0 0 -19.19082574457434 -6.4506146742496639 0 -6.4506146742496639 -0.77764213041518815 0 0 0 0 -42.88694048725614 -18.197177925423603 0 -18.197177925423603 -4.4997963302594144 0 0 0 0 -41.827141839540161 2.3070065834435809 0 2.3070065834435809 -22.320139623530849 0 0 0 0 -24.318960339509431 -3.4536516629086691 0 -3.4536516629086691 -22.552383828937309 0 0 0 0 12.251833808516722 15.739895929422346 0 15.739895929422346 -28.560921471507754 0 0 0 0 17.86475881661454 2.5340004325698828 0 2.5340004325698828 -33.31460737028101 0 0 0 0 24.77881762658194 -11.910085252115095 0 -11.910085252115095 -23.631491076783277 0 0 0 0 -21.622355060076472 27.612684961615741 0 27.612684961615741 -31.166292906927993 0 0 0 0 -90.433961236425148 -43.026803580149135 0 -43.026803580149135 -31.669153541690321 0 0 0 0 -47.024722623136029 -30.092433439080196 0 -30.092433439080196 -133.19736050433875 0 0 0 0 -40.264423056795394 -86.518908911526523 0 -86.518908911526523 -35.641903648109292 0 0 0 0 53.574055027919059 99.959126168540024 0 99.959126168540024 -131.24204036698939 0 0 0 0 -43.500962681184035 -62.398460481279471 0 -62.398460481279471 -23.110599204494065 0 0 0 0 -97.167607193802226 -34.987817687397182 0 -34.987817687397182 -34.307029378920561 0 0 0 0 -65.771344552693165 -5.412446599057148 0 -5.412446599057148 -7.7709680451807799 0 0 0 0 -69.315859797716598 -49.616539412249949 0 -49.616539412249949 -11.225147338904208 0 0 0 0 -28.99436436835731 -36.86993215871189 0 -36.86993215871189 -7.3326047959417338 0 0 0 0 -34.821223005120927 -50.305345249735183 0 -50.305345249735183 -22.493210214568535 0 0 0 0 -32.489449434535686 -33.78730230149813 0 -33.78730230149813 -10.031675922102295 0 0 0 0 -14.899547470670996 -21.011987391932053 0 -21.011987391932053 -7.380915655174249 0 0 0 0 -19.556992058827063 18.509979665363062 0 18.509979665363062 -79.456902701152558 0 0 0 0 -11.837125265335629 -23.189825310026208 0 -23.189825310026208 -5.9096145000949036 0 0 0 0 -9.5743328494588695 -6.1423439317004522 0 -6.1423439317004522 -3.5611298219810124 0 0 0 0 -1.2202485018066045 2.177729138373671 0 2.177729138373671 -2.4954244600141777 0 0 0 0 -17.943318696162038 -35.355330342160414 0 -35.355330342160414 -26.436746385210427 0 0 0 0 -19.991982241479491 113.19755990818521 0 113.19755990818521 -353.33099765233055 0 0 0 0 0.93812486611807699 -31.832430421246727 0 -31.832430421246727 -52.9074642541309 0 0 0 0 4.1186978850402625 -11.429223334398557 0 -11.429223334398557 -23.930062823899789 0 0 0 0 -35.601246989751928 -59.372483021106746 0 -59.372483021106746 -39.672481735266047 0 0 0 0 -24.191401670764485 -57.32211319142516 0 -57.32211319142516 -31.588741836530971 0 0 0 0 -24.19103332301566 -56.52417716349737 0 -56.52417716349737 -23.927277686627349 0 0 0 0 -19.439321171413294 -47.732016266123992 0 -47.732016266123992 -31.655885854765074 0 0 0 0 -19.155695397371062 -39.409899788959592 0 -39.409899788959592 -19.050963414185389 0 0 0 0 -45.355704423907554 -47.282392181063187 0 -47.282392181063187 -27.103253651290288 0 0 0 0 -33.045045640481206 -48.316554136188643 0 -48.316554136188643 -29.563887628231896 0 0 0 0 2.3221089188683237 -39.460815104509493 0 -39.460815104509493 -125.4420988039783 0 0 0 0 -20.824226786658627 -24.092110371151648 0 -24.092110371151648 -28.332981085504343 0 0 0 0 -92.395931902628362 -102.51374630777173 0 -102.51374630777173 -71.872904231247958 0 0 0 0 0.097482560771128185 -49.953812940118951 0 -49.953812940118951 -114.02656149058021 0 0 0 0 0.09967115058739727 -0.059061107801479551 0 -0.059061107801479551 -1.0077863385642161 0 0 0 0 43.855378517959572 24.90612850771322 0 24.90612850771322 -4.0164153553851065 0 0 0 0 -0.089318225301902698 8.3928681003617385 0 8.3928681003617385 10.87806540965903 0 0 0 0 43.300662964368598 16.297261671257729 0 16.297261671257729 -43.595717285072169 0 0 0 0 0.2450580538568029 0.11838847456129287 0 0.11838847456129287 -2.5028059516936594 0 0 0 0 40.795116940824968 -49.546502783428878 0 -49.546502783428878 -46.278890558274725 0 0 0 0 -64.657553521475549 -85.563494618097138 0 -85.563494618097138 -23.966640387308871 0 0 0 0 63.931978156400191 -59.332392569333024 0 -59.332392569333024 -333.81654112450542 0 0 0 0 -14.327392179860794 -85.37249356229222 0 -85.37249356229222 -318.42700760203115 0 0 0 0 28.950235717521565 -113.02374153347318 0 -113.02374153347318 -335.76767384378763 0 0 0 0 -67.098322522984901 -145.01093601791763 0 -145.01093601791763 -328.53058671924373 0 0 0 0 -18.627982802013605 -70.874114669240953 0 -70.874114669240953 -240.75469638049981 0 0 0 0 -35.6285084850781 -15.629221895325827 0 -15.629221895325827 -173.60197822713144 0 0 0 0 34.72474262380365 -42.368052102168804 0 -42.368052102168804 -167.85866883936978 0 0 0 0 -95.41371111516446 -87.934189605235588 0 -87.934189605235588 -120.37880729086282 0 0 0 0 -8.9418458854880818 16.013580795065451 0 16.013580795065451 -23.138073830177348 0 0 0 0 -20.866407884333057 20.283436643044297 0 20.283436643044297 -35.594244911640999 0 0 0 0 -2.6311334953169432 1.1234078257201148 0 1.1234078257201148 -4.3869471504177326 0 0 0 0 -58.955475534782408 -102.04369689559644 0 -102.04369689559644 -393.53588206727181 0 0 0 0 -17.021346482212493 -141.00476462221377 0 -141.00476462221377 -350.12826934151963 0 0 0 0 59.132079438057872 -34.310579986804441 0 -34.310579986804441 -365.46091891955325 0 0 0 0 -90.375733076384222 -159.31750043642569 0 -159.31750043642569 -317.73595790006402 0 0 0 0 -19.809578196011273 88.207848770949568 0 88.207848770949568 -170.49089704768267 0 0 0 0 -51.502854266476902 -13.971466534821957 0 -13.971466534821957 -1089.0079909828019 0 0 0 0 -0.25257063384312683 1.7091895586640078 0 1.7091895586640078 -2.5763604817552377 0 0 0 0 -88.626852888450813 -107.38210148509643 0 -107.38210148509643 -553.90673181356397 0 0 0 0 -1.1021227675144702 3.8611817656109579 0 3.8611817656109579 -4.5680283137758408 0 0 0 0 44.349832367701367 -24.340665809951133 0 -24.340665809951133 -267.53944212272472 0 0 0 0 -52.065812466642512 -110.38933813703989 0 -110.38933813703989 -700.56011951882101 0 0 0 0 -22.791847869278286 264.56769004167654 0 264.56769004167654 -964.47301743219577 0 0 0 0 69.650554544030456 -226.54691196747444 0 -226.54691196747444 -830.52741274321306 0 0 0 0 19.967445325839947 88.594113893284884 0 88.594113893284884 -317.80900310970901 0 0 0 0 40.443544698470163 -76.801382966110396 0 -76.801382966110396 -468.76820039467566 0 0 0 0 80.548394328165386 -137.02423629501391 0 -137.02423629501391 -485.35775411778741 0 0 0 0 70.314391611322435 -166.60794645658098 0 -166.60794645658098 -418.79867687088336 0 0 0 0 -177.49216884722648 -327.42359569392829 0 -327.42359569392829 -375.19665400611848 0 0 0 0 -72.452282212739647 -45.820515828934731 0 -45.820515828934731 -268.22260153450952 0 0 0 0 83.064773781361566 -24.752163041166568 0 -24.752163041166568 -457.06961574143133 0 0 0 0 85.282838700659624 -25.78393070551283 0 -25.78393070551283 -588.37356515327701 0 0 0 0 45.152076521166009 -61.422980211224058 0 -61.422980211224058 -462.18032169340586 0 0 0 0 47.873465282600023 -48.602195559818938 0 -48.602195559818938 -401.83636369443411 0 0 0 0 40.074704262011778 -52.944067829494088 0 -52.944067829494088 -472.70454436514046 0 0 0 0 15.434856223098507 53.38843099683254 0 53.38843099683254 -651.11526254084492 0 0 0 0 67.390291271065394 85.237116199805314 0 85.237116199805314 -743.02725713368272 0 0 0 0 -28.989764584857937 101.66396742517372 0 101.66396742517372 -115.1545896540556 0 0 0 0 -13.912083540648382 166.02297381549215 0 166.02297381549215 -474.13569351170599 0 0 0 0 -66.07616219269994 33.347424215480714 0 33.347424215480714 -1003.5332940347282 0 0 0 0 -81.616295746444166 29.844492619271477 0 29.844492619271477 3.3337660446486552 0 0 0 0 -0.22461942191140261 1.2282956106565877 0 1.2282956106565877 -1.9115569024675949 0 0 0 0 -39.453481605553861 -113.20338065078613 0 -113.20338065078613 -0.36719272568734596 0 0 0 0 50.89852486013524 -27.864090177256003 0 -27.864090177256003 -529.10452185857866 0 0 0 0 40.088999451140012 -173.37463672944068 0 -173.37463672944068 -605.41744668972569 0 0 0 0 3.4719224196846312 -172.56427474802695 0 -172.56427474802695 -447.1186704228021 0 0 0 0 -1.2990887955656312 3.6676214077726499 0 3.6676214077726499 -4.3153820713189361 0 0 0 0 4.8588946154554833 -80.878082030740188 0 -80.878082030740188 -423.30766492266957 0 0 0 0 -29.746058264412909 -158.85807898160419 0 -158.85807898160419 -999.70798254438705 0 0 0 0 -0.53348958700379323 1.4521944703418939 0 1.4521944703418939 -2.2383022921774014 0 0 0 0 9.8895237583730022 -157.13207139461156 0 -157.13207139461156 -213.71877115374446 0 0 0 0 -34.166392528504531 156.2037783269443 0 156.2037783269443 -437.06080478747754 0 0 0 0 -120.61343422527278 96.604898921532367 0 96.604898921532367 -88.006603758476558 0 0 0 0 -100.62153280410661 -238.29484455016973 0 -238.29484455016973 -657.81305437769697 0 0 0 0 -72.859474239454855 52.496031239057629 0 52.496031239057629 -23.224040072866046 0 0 0 0 -15.011568877125864 -34.438643488379057 0 -34.438643488379057 -146.5027209543623 0 0 0 0 -101.39372482797553 -10.470605028456703 0 -10.470605028456703 3.8175525679980638 0 0 0 0 -49.468769440868584 -22.276955613469909 0 -22.276955613469909 -60.158490754296508 0 0 0 0 -40.771424772077239 8.7632602848134411 0 8.7632602848134411 9.0767130730673671 0 0 0 0 -40.450603029110681 4.9544559305504663 0 4.9544559305504663 16.683608987412299 0 0 0 0 -0.4820843247985801 -0.41730698663895183 0 -0.41730698663895183 0.95964524279628449 0 0 0 0 47.121692551781337 3.3926588002286735 0 3.3926588002286735 -8.4219916738147731 0 0 0 0 -39.700207878296354 8.2321105014605109 0 8.2321105014605109 13.248663356309407 0 0 0 0 -0.9758217095264623 1.2109340329094067 0 1.2109340329094067 -3.5330811551375092 0 0 0 0 20.50674581398755 1.3377964268656797 0 1.3377964268656797 -8.8514935731363948 0 0 0 0 26.754428518463101 -5.5290832237333234 0 -5.5290832237333234 -19.286219044246536 0 0 0 0 4.628488337313172 -37.308520278969809 0 -37.308520278969809 -34.791774692008403 0 0 0 0 -49.77204249620047 -16.821769949214286 0 -16.821769949214286 -5.2289445641144994 0 0 0 0 -18.043808141706791 -24.527629376749246 0 -24.527629376749246 -8.3436934242126881 0 0 0 0 -50.97475395008496 -6.3029570610560768 0 -6.3029570610560768 9.9370321631795377 0 0 0 0 -9.6532314312770211 -11.463009448256344 0 -11.463009448256344 9.0870465766056441 0 0 0 0 14.34565677141677 -7.3590108068528934 0 -7.3590108068528934 -8.5493322504189564 0 0 0 0 12.290536452425044 -16.731697312523465 0 -16.731697312523465 -19.170159477856942 0 0 0 0 -60.434882264225735 -15.155847020219881 0 -15.155847020219881 22.399209292452724 0 0 0 0 47.191256398553378 59.641491163944011 0 59.641491163944011 -63.180178353250994 0 0 0 0 -0.80334699921721997 -0.76225576834288233 0 -0.76225576834288233 -0.70074394161915166 0 0 0 0 -3.0445333799497787 -2.4439880600947745 0 -2.4439880600947745 -1.8131981093658283 0 0 0 0 -3.9234228719134308 1.4708110864412447 0 1.4708110864412447 -36.949520306268823 0 0 0 0 -11.907066943448285 -26.459057359734288 0 -26.459057359734288 12.077014918359964 0 0 0 0 0.6011345212071717 -3.7600001568134758 0 -3.7600001568134758 6.3584559897280997 0 0 0 0 -49.893430025549435 -27.837823913250759 0 -27.837823913250759 -36.49432028233997 0 0 0 0 -7.8274487936099604 -33.259529523993479 0 -33.259529523993479 5.6769755422719754 0 0 0 0 -2.4816630379453106 -2.104836907539017 0 -2.104836907539017 -1.2900843103168143 0 0 0 0 3.1907892679648739 6.1992027572523511 0 6.1992027572523511 -7.0381054435274564 0 0 0 0 24.363485913383329 -1.5963201282793307 0 -1.5963201282793307 -26.889782138554438 0 0 0 0 -41.735408477473584 14.055425614107662 0 14.055425614107662 -25.56880429485318 0 0 0 0 -12.945905730078266 17.295854958960263 0 17.295854958960263 3.7394813343726128 0 0 0 0 -6.2786101214284429 8.7479737460071192 0 8.7479737460071192 8.501950227197085 0 0 0 0 -53.026133667876309 -20.880055492230554 0 -20.880055492230554 10.542980136960978 0 0 0 0 -49.74654717841355 6.6859425415168516 0 6.6859425415168516 19.269639508725959 0 0 0 0 -32.50244266517349 22.021009662083088 0 22.021009662083088 2.0740357711911201 0 0 0 0 -51.825767109427204 11.316746570701071 0 11.316746570701071 12.718159675656352 0 0 0 0 -140.08891059813428 -145.06603410110256 0 -145.06603410110256 -62.507060142350383 0 0 0 0 -64.406672319486646 28.821056198990846 0 28.821056198990846 1.7599875855610208 0 0 0 0 79.650587911497311 104.93421883504925 0 104.93421883504925 -10.101255402667448 0 0 0 0 -0.97547536259512935 -0.74858566981767183 0 -0.74858566981767183 -0.69396290657228121 0 0 0 0 7.5166943790650294 -4.5352386102858873 0 -4.5352386102858873 -15.826590757842496 0 0 0 0 -4.0954478976128978 -1.4518825361443533 0 -1.4518825361443533 -4.2693001132115285 0 0 0 0 -91.158405629430916 5.617850542836095 0 5.617850542836095 14.295608543612616 0 0 0 0 -4.4763386454759653 6.4479620725775675 0 6.4479620725775675 -11.410989441007317 0 0 0 0 70.099787220481559 -23.228450501326734 0 -23.228450501326734 -176.25251085989294 0 0 0 0 55.00226483304553 55.658219050965045 0 55.658219050965045 -20.240258460449695 0 0 0 0 -88.714674283740905 -21.933889648798413 0 -21.933889648798413 11.284463772928575 0 0 0 0 -3.2591208722124065 3.8530692802632984 0 3.8530692802632984 -15.35181492488482 0 0 0 0 -3.880112641384585 5.1781675737911428 0 5.1781675737911428 -14.594734830829111 0 0 0 0 -1.4080289361368159 1.6777492852761497 0 1.6777492852761497 -6.8944654996448662 0 0 0 0 -3.8502091251599708 2.6256195552218244 0 2.6256195552218244 -6.0117000438731338 0 0 0 0 -5.4259188394498779 5.2075421743720653 0 5.2075421743720653 -15.927594733017031 0 0 0 0 -5.4259188394607918 5.2075421743211336 0 5.2075421743211336 -15.92759473292972 0 0 0 0 -5.4259188394535158 5.2075421743429615 0 5.2075421743429615 -15.927594733017031 0 0 0 0 -2.3414552169033866 -0.31625868470538521 0 -0.31625868470538521 -9.7675215010180523 0 0 0 0 1.9469558113096355 11.097123354062205 0 11.097123354062205 -27.481655232430057 0 0 0 0 -10.211918569092632 11.454124619873255 0 11.454124619873255 -25.595612573059043 0 0 0 0 -3.8158725459892073 4.1310157750234957 0 4.1310157750234957 -15.852689948595511 0 0 0 0 -5.9189458174819265 -1.1809009816006437 0 -1.1809009816006437 -18.54615261951767 0 0 0 0 -3.0214605089151618 5.3895000545345724 0 5.3895000545345724 -8.0135353550308324 0 0 0 0 -2.307555017845516 5.0947067543384037 0 5.0947067543384037 -21.569337567023467 0 0 0 0 -1.8004983700711676 0.12177881756905151 0 0.12177881756905151 -8.8193914460965956 0 0 0 0 -5.0633150754499638 -0.26816495740604296 0 -0.26816495740604296 -27.20280243873276 0 0 0 0 16.284861126088799 -4.5115774541845894 0 -4.5115774541845894 -27.136730876154616 0 0 0 0 27.262059723911989 11.776791274925927 0 11.776791274925927 -30.587401301820137 0 0 0 0 -3.3860918351292639 -15.199245675881684 0 -15.199245675881684 -31.6082293446525 0 0 0 0 -2.6297735653852214 -46.176664619753865 0 -46.176664619753865 -37.541551129244908 0 0 0 0 38.630041687987614 -15.141396394687035 0 -15.141396394687035 -38.348083439690527 0 0 0 0 -1.640941677706101 4.0985756886154192 0 4.0985756886154192 -1.1582572968456901 0 0 0 0 -3.7907290906423157 11.751245946217963 0 11.751245946217963 -23.276268814046375 0 0 0 0 33.526062012172957 -18.273369499565888 0 -18.273369499565888 -17.710840490694409 0 0 0 0 -9.3417981072479961 32.995431352223022 0 32.995431352223022 -13.927532623314619 0 0 0 0 -44.94987889685666 53.200593904012749 0 53.200593904012749 -61.313772034016438 0 0 0 0 -10.699934441886853 13.220878999323759 0 13.220878999323759 -15.168982411956449 0 0 0 0 -2.7316268271683808 13.107238389077132 0 13.107238389077132 -24.910261732928376 0 0 0 0 -41.32066050659796 76.255787677120679 0 76.255787677120679 -19.29105695393082 0 0 0 0 15.050532256053657 30.131713821129779 0 30.131713821129779 -39.533076203279052 0 0 0 0 2.094179029130629 -4.4279257119380873 0 -4.4279257119380873 -35.360157463815995 0 0 0 0 -2.4211012381320067 4.5386220492823455 0 4.5386220492823455 -5.0453626557593623 0 0 0 0 9.5516754529233765 78.398356299479929 0 78.398356299479929 -245.70852131496611 0 0 0 0 2.6989735683627032 -5.0323591789601778 0 -5.0323591789601778 -77.938809295446845 0 0 0 0 20.530453232394393 103.08990032750808 0 103.08990032750808 -85.586622220820573 0 0 0 0 -50.574588568593981 -9.6474159148756371 0 -9.6474159148756371 -6.0231601309133111 0 0 0 0 -12.397466831918749 23.384869860604997 0 23.384869860604997 -34.671883211431648 0 0 0 0 -20.949240543263386 63.693665864278955 0 63.693665864278955 0.98137441312064766 0 0 0 0 6.9429051918697056 5.8600001960112991 0 5.8600001960112991 -26.293308224275364 0 0 0 0 10.369988341420139 -13.166110017744359 0 -13.166110017744359 -9.6263263265136629 0 0 0 0 17.067075048389142 -4.4005158000054507 0 -4.4005158000054507 -74.54377790199942 0 0 0 0 -26.823671067802934 -34.872515004443812 0 -34.872515004443812 2.6287043939337309 0 0 0 0 51.298669076635633 -33.837631351236269 0 -33.837631351236269 -91.41076737270123 0 0 0 0 -21.834922173364674 59.478043825512913 0 59.478043825512913 -59.860657444041863 0 0 0 0 1.4610566347767522 -0.53810694188711317 0 -0.53810694188711317 -1.4759794477658659 0 0 0 0 62.595834185933199 -18.114992392107524 0 -18.114992392107524 -9.9346180876818835 0 0 0 0 2.0967107536529426 0.84773249753932944 0 0.84773249753932944 -4.1499841522853202 0 0 0 0 6.5791780339004902 -2.6795191710870938 0 -2.6795191710870938 -26.236105840069541 0 0 0 0 10.879863893689958 0.15859879037066094 0 0.15859879037066094 -44.224876543463324 0 0 0 0 -1.934256225824269 8.928827202685909 0 8.928827202685909 -19.008164275780025 0 0 0 0 -7.368154753376075 16.764922091464541 0 16.764922091464541 -42.958191599018846 0 0 0 0 76.180045090031854 -4.0647377208042599 0 -4.0647377208042599 27.608228928867902 0 0 0 0 -14.761974248770002 -5.1261678515929816 0 -5.1261678515929816 -18.797129104186752 0 0 0 0 -13.535888946536033 51.514039746114577 0 51.514039746114577 -59.416094080748735 0 0 0 0 13.03415355930963 19.546370673702313 0 19.546370673702313 -72.597685577202355 0 0 0 0 -17.805220942785127 24.244806814233016 0 24.244806814233016 -42.860733227444143 0 0 0 0 -42.618209680076234 -7.0960321166458016 0 -7.0960321166458016 -12.190021201047784 0 0 0 0 -0.91812852925222899 1.5946584197200693 0 1.5946584197200693 -2.7329256465174865 0 0 0 0 -4.748661981805526 7.4253527507516992 0 7.4253527507516992 -20.693099426393019 0 0 0 0 -2.2400071055553781 1.2554343429019355 0 1.2554343429019355 -26.341709243404694 0 0 0 0 0.5255931655854198 0.5883357972063088 0 0.5883357972063088 -15.256910741675995 0 0 0 0 0.80664090882692108 5.7394050747188885 0 5.7394050747188885 -19.310651759020402 0 0 0 0 0.24278130446016011 5.1758391403576436 0 5.1758391403576436 -18.336133214448182 0 0 0 0 7.7602273417185046 27.753913742912516 0 27.753913742912516 -39.803029960989079 0 0 0 0 6.2806904268354629 2.1429650865156873 0 2.1429650865156873 -23.835725342611113 0 0 0 0 0.59624047493426646 -0.96728625324839967 0 -0.96728625324839967 -23.156462309265628 0 0 0 0 39.954917414933334 1.8312174021866667 0 1.8312174021866667 -28.473836949753604 0 0 0 0 -92.884652108650698 -52.803947216141751 0 -52.803947216141751 -15.111312545162946 0 0 0 0 134.07372629249585 15.83727915628333 0 15.83727915628333 -86.407387695853686 0 0 0 0 42.155308184101472 -54.493023520341467 0 -54.493023520341467 -87.124960588815156 0 0 0 0 -108.20963192095212 -131.89932658578755 0 -131.89932658578755 -132.81130403567295 0 0 0 0 139.31944389187652 186.63105672907113 0 186.63105672907113 -68.418505469991032 0 0 0 0 -2.0603552559036342 0.86833261287770824 0 0.86833261287770824 2.2605783305482703 0 0 0 0 58.979470904282152 -39.931537090689744 0 -39.931537090689744 7.7973607610765612 0 0 0 0 -4.6799052958822358 84.744383975588789 0 84.744383975588789 -171.91140250578701 0 0 0 0 -59.788133831804771 104.49709855609399 0 104.49709855609399 -78.159525503258919 0 0 0 0 -12.203433552566935 -32.932356005299425 0 -32.932356005299425 -218.14514300173687 0 0 0 0 -7.291403426503166 70.440456030182759 0 70.440456030182759 -63.165408295264569 0 0 0 0 -9.2589575950896688 55.195345573298255 0 55.195345573298255 -36.317639177445017 0 0 0 0 66.866658718558028 -22.020022117165354 0 -22.020022117165354 6.5945200461355853 0 0 0 0 98.831284623052852 -70.86232926309458 0 -70.86232926309458 -28.529922996560344 0 0 0 0 39.454700059040988 53.690450624984805 0 53.690450624984805 -95.486832177710312 0 0 0 0 2.0827854143405773 3.364510497336898 0 3.364510497336898 -6.5878663157710733 0 0 0 0 8.5250969433541286 25.511203279749679 0 25.511203279749679 -55.534951713496412 0 0 0 0 -107.86689142484812 -329.00712521824971 0 -329.00712521824971 -151.53427204393984 0 0 0 0 -150.60655543808696 412.5649931005355 0 412.5649931005355 -471.41079535440804 0 0 0 0 -1.5748933791047595 2.3477209691552972 0 2.3477209691552972 -3.5760670397750687 0 0 0 0 -5.2993914306934187 -169.51784357486758 0 -169.51784357486758 -247.92568847478469 0 0 0 0 -212.73722827769075 340.75515279313549 0 340.75515279313549 -297.46495944506751 0 0 0 0 -81.567278664814808 204.69540281736772 0 204.69540281736772 -223.7555623297485 0 0 0 0 -74.593089764815772 50.574652727640569 0 50.574652727640569 -271.38702811649637 0 0 0 0 31.899403253582705 94.797118341704845 0 94.797118341704845 -384.9996301591782 0 0 0 0 42.75310207789903 142.08240612868758 0 142.08240612868758 -179.28339814402716 0 0 0 0 126.14181851246167 -39.012467033600842 0 -39.012467033600842 -276.7134979727125 0 0 0 0 141.7932592709094 127.3440322223214 0 127.3440322223214 -279.89753738004947 0 0 0 0 -158.88610839694309 120.35720704328651 0 120.35720704328651 -77.035366456049815 0 0 0 0 -62.553078465577755 59.011803819599663 0 59.011803819599663 -34.000010594914784 0 0 0 0 -3.2852753552727449 88.1682599808737 0 88.1682599808737 -128.4116101205218 0 0 0 0 -76.633955428903221 103.39674594376083 0 103.39674594376083 -131.12610234574822 0 0 0 0 -97.949180983086649 43.719697632099724 0 43.719697632099724 5.939575973439787 0 0 0 0 -1.1215543042289369 2.2278577500271499 0 2.2278577500271499 -1.786478245842801 0 0 0 0 -171.86744459664658 2.7965023403921805 0 2.7965023403921805 94.508191786437237 0 0 0 0 36.71734034716593 12.197582192965911 0 12.197582192965911 -5.0119281448278343 0 0 0 0 -0.96909100545742766 1.6195996133051409 0 1.6195996133051409 -1.3886998843591982 0 0 0 0 -22.522761344463106 87.778209558465278 0 87.778209558465278 -38.975204591166403 0 0 0 0 40.069540680957743 -17.34752134772134 0 -17.34752134772134 -7.9209995430937852 0 0 0 0 155.1481226810572 -313.52516256423041 0 -313.52516256423041 270.98947861566012 0 0 0 0 -2.5721837844802886 4.0904010671876545 0 4.0904010671876545 -11.220226669088483 0 0 0 0 -17.448864236652071 57.323209976573708 0 57.323209976573708 -84.724172101094155 0 0 0 0 31.166843940046306 6.8961807626319569 0 6.8961807626319569 -2.2835953583175979 0 0 0 0 -36.575366019101693 -85.591828900165638 0 -85.591828900165638 -28.222009922072175 0 0 0 0 94.702229500385556 -130.58163900691579 0 -130.58163900691579 -78.812895931769162 0 0 0 0 75.974336169966591 -119.57960258482126 0 -119.57960258482126 -0.15821461920859292 0 0 0 0 125.17379982069997 20.822844573951443 0 20.822844573951443 73.920153620274505 0 0 0 0 61.692567753764251 72.216824141873076 0 72.216824141873076 20.4306794157892 0 0 0 0 269.49361299621478 33.15983225540549 0 33.15983225540549 -41.184865117465961 0 0 0 0 157.67741115080025 -20.09737747725012 0 -20.09737747725012 19.642625221255003 0 0 0 0 60.186044386618804 123.7861619993368 0 123.7861619993368 -70.226696607314807 0 0 0 0 126.53520720026495 -14.802308061216763 0 -14.802308061216763 -162.12307441924349 0 0 0 0 35.610195693802211 -25.906643474096199 0 -25.906643474096199 -10.508534832668374 0 0 0 0 -13.231700282020682 11.239510611063452 0 11.239510611063452 -7.0327151863020845 0 0 0 0 -45.490900675731041 -15.904376708123891 0 -15.904376708123891 45.567970019630593 0 0 0 0 -54.724895485401305 60.625986937621292 0 60.625986937621292 -36.566667031518591 0 0 0 0 -14.093783885517496 10.859468981318059 0 10.859468981318059 -5.8836928734963294 0 0 0 0 3.1522667031931633 1.9619444178911181 0 1.9619444178911181 20.034823560592486 0 0 0 0 34.536213508235278 13.936667288120589 0 13.936667288120589 -10.849458523009162 0 0 0 0 56.670534748587329 -2.8427463617299509 0 -2.8427463617299509 -24.771950629736239 0 0 0 0 1.2044003654688347 2.0737756154023117 0 2.0737756154023117 -7.5880041720797635 0 0 0 0 -17.895237117137924 2.0799980666747615 0 2.0799980666747615 -27.901278125282261 0 0 0 0 2.7783244312656969 5.1497823319212248 0 5.1497823319212248 -5.122518551006948 0 0 0 0 31.201031783696124 7.1220916279062294 0 7.1220916279062294 -13.243447094129806 0 0 0 0 17.677005701729414 12.99274013324117 0 12.99274013324117 -19.781662231428925 0 0 0 0 -17.879209987586819 61.122636594087453 0 61.122636594087453 -76.282876556102565 0 0 0 0 11.220518268395608 70.227664609679778 0 70.227664609679778 -112.03139288954435 0 0 0 0 19.802419190011278 72.504436352070115 0 72.504436352070115 -82.773333934426773 0 0 0 0 1.4633888971593478 71.267642873890509 0 71.267642873890509 -82.423683777451515 0 0 0 0 -32.101960008060132 44.468295648472122 0 44.468295648472122 -21.261453651193733 0 0 0 0 -9.1189135863405681 43.905240673268054 0 43.905240673268054 -56.059522889498112 0 0 0 0 9.3061129653392527 7.6358355765514716 0 7.6358355765514716 -18.89328814141993 0 0 0 0 -7.6997293640558837 28.684119174102307 0 28.684119174102307 -11.988800391805853 0 0 0 0 -0.60321553487119672 13.03547507213807 0 13.03547507213807 -38.822013908336885 0 0 0 0 -0.10841088314282388 18.188690655968458 0 18.188690655968458 -120.35535103072289 0 0 0 0 -14.494124772723239 9.3477740833550342 0 9.3477740833550342 11.43888380397766 0 0 0 0 -5.0953435241181069 47.883859651718012 0 47.883859651718012 14.594278322157152 0 0 0 0 -4.5983846482630417 6.0319909387150759 0 6.0319909387150759 -7.9272177634435081 0 0 0 0 -11.062740379339289 -17.116422332733237 0 -17.116422332733237 -339.99342672163766 0 0 0 0 10.475622620132981 8.6488305662733183 0 8.6488305662733183 -12.759678220767455 0 0 0 0 11.316660624241422 7.1130369708434955 0 7.1130369708434955 -28.248001673207909 0 0 0 0 3.3527787740898649 7.0042454994099188 0 7.0042454994099188 -0.93913483918134233 0 0 0 0 11.977610096686149 8.9794020134299402 0 8.9794020134299402 2.8025240598282934 0 0 0 0 -0.6262499228237175 -7.5105740562721621 0 -7.5105740562721621 8.2581955990262941 0 0 0 0 38.361382674353308 7.1416006440722413 0 7.1416006440722413 -68.635895589919528 0 0 0 0 3.0495538113215162 4.560738805803938 0 4.560738805803938 -2.2999279650964155 0 0 0 0 -61.625588525128023 73.080092851496829 0 73.080092851496829 90.510019267865573 0 0 0 0 57.824147426209947 23.838550997792481 0 23.838550997792481 -51.925019180904201 0 0 0 0 4.9068318804134359 7.0228041895665037 0 7.0228041895665037 -51.915837008538759 0 0 0 0 29.852852464455282 57.713588001890457 0 57.713588001890457 -171.33310658689152 0 0 0 0 14.403326974876109 160.96236848886838 0 160.96236848886838 -174.20568975165349 0 0 0 0 -9.848100700820396 38.677499215897114 0 38.677499215897114 -26.061539584368802 0 0 0 0 30.858326174876197 44.369730276227756 0 44.369730276227756 -83.733330597911845 0 0 0 0 15.113350809341682 147.76659969194225 0 147.76659969194225 -77.97912839011201 0 0 0 0 117.68915115429877 298.20260263918863 0 298.20260263918863 -215.73097263219825 0 0 0 0 -175.19051150892619 216.14672246004739 0 216.14672246004739 -20.189442230228451 0 0 0 0 -2.1929095825601816 -5.6078786700434904 0 -5.6078786700434904 -19.278015675223706 0 0 0 0 254.19620286670602 -209.32643625598121 0 -209.32643625598121 55.471853135117271 0 0 0 0 31.547815519105939 -69.407240394464338 0 -69.407240394464338 68.131312696554232 0 0 0 0 41.442675336745197 194.67038242319904 0 194.67038242319904 -133.42614428561501 0 0 0 0 375.03653634521106 18.518613072632434 0 18.518613072632434 -107.29648735158389 0 0 0 0 -264.30557556887879 -98.503282987405328 0 -98.503282987405328 -325.64667305777402 0 0 0 0 -50.638119358536642 914.67015355707554 0 914.67015355707554 -2229.2788039568077 0 0 0 0 -322.39201887509398 1514.9684857056563 0 1514.9684857056563 -1012.0222730117348 0 0 0 0 -1.9566453292052755 -4.634283687644384 0 -4.634283687644384 -7.0705026408329417 0 0 0 0 -239.23091030047772 -805.71278761407302 0 -805.71278761407302 17.866389172894742 0 0 0 0 -521.39725936664081 352.16764262728611 0 352.16764262728611 -2738.4242970635023 0 0 0 0 -73.380633761267291 -247.79923615856569 0 -247.79923615856569 -915.21440400652136 0 0 0 0 -275.69662942876766 -526.53916171629317 0 -526.53916171629317 -1094.3206886006392 0 0 0 0 -9.3084270909090492 -8.3690810972552754 0 -8.3690810972552754 -895.9172107566701 0 0 0 0 -72.771523088622644 -204.94202240813684 0 -204.94202240813684 -422.28102183265946 0 0 0 0 -175.460234644704 22.005766464954437 0 22.005766464954437 15.616696105265873 0 0 0 0 -1.4100592340660629 1.9805899676282479 0 1.9805899676282479 -3.7269560348448607 0 0 0 0 54.920571440901313 660.51230094931088 0 660.51230094931088 432.2518464324603 0 0 0 0 -1.2105614704272312 5.4850538237061226 0 5.4850538237061226 -9.6101017036784526 0 0 0 0 660.50582504191948 1156.2238277014339 0 1156.2238277014339 -491.73259506964496 0 0 0 0 -74.41201102781406 -3.0785418782961642 0 -3.0785418782961642 56.569293148628276 0 0 0 0 -67.127981301976433 -135.40640099337634 0 -135.40640099337634 -284.82730424552938 0 0 0 0 1214.0332183280943 276.11500622219046 0 276.11500622219046 -290.58865454382249 0 0 0 0 0.1772129486552636 1.50505076634545 0 1.50505076634545 -28.781294898900313 0 0 0 0 0.94942910459144514 -1.5377566530924014 0 -1.5377566530924014 52.483167013938328 0 0 0 0 0.29235870022748545 -3.2128542434545757 0 -3.2128542434545757 -27.494633451178743 0 0 0 0 883.78849217200013 -205.74869135633708 0 -205.74869135633708 -483.8526814225861 0 0 0 0 -406.49420401953194 1006.1104336409499 0 1006.1104336409499 -1139.1313427522773 0 0 0 0 -353.23323574125334 -231.99054120360961 0 -231.99054120360961 -1011.092351522153 0 0 0 0 -304.84759417036366 1169.7367973275213 0 1169.7367973275213 -1370.9157223348384 0 0 0 0 -1280.2223329989629 567.87776423611285 0 567.87776423611285 -1016.8257572330222 0 0 0 0 205.52544769900533 171.83793259936647 0 171.83793259936647 -1550.3321221834949 0 0 0 0 -0.530747196044139 3.2280116531745389 0 3.2280116531745389 -7.967781680396584 0 0 0 0 -1563.6426041831094 711.56383638293164 0 711.56383638293164 -314.52655803389644 0 0 0 0 9.3589461349784813 11.836119453649339 0 11.836119453649339 -2.9412686386735345 0 0 0 0 16.622602053580295 424.7304581110302 0 424.7304581110302 -628.51836260861091 0 0 0 0 -615.65458064100403 710.64361814542644 0 710.64361814542644 -315.49455838721042 0 0 0 0 89.211381554583454 1108.5503216757497 0 1108.5503216757497 -298.46333049157602 0 0 0 0 23.382674239792408 151.53031927961547 0 151.53031927961547 -69.357774680964212 0 0 0 0 -32.992740444792432 40.92534915237411 0 40.92534915237411 -79.95753869125474 0 0 0 0 -576.7903515321118 486.11094712980412 0 486.11094712980412 -749.79197518142973 0 0 0 0 4.4858845405052605 3.101864062850801 0 3.101864062850801 1.1044375972513762 0 0 0 0 334.20185262322252 669.13194242574536 0 669.13194242574536 -748.85033458432031 0 0 0 0 42.720724646029339 57.349724068211799 0 57.349724068211799 -73.89583208007025 0 0 0 0 248.31734883311674 70.459830515166686 0 70.459830515166686 -326.45108171718675 0 0 0 0 1.3338722435735424 6.7582364636560808 0 6.7582364636560808 -51.830885548044229 0 0 0 0 33.172284435712754 42.107383292375744 0 42.107383292375744 -82.130366667544877 0 0 0 0 11.850039991025824 46.055854793326944 0 46.055854793326944 -42.629634849352442 0 0 0 0 -8.8461465825694177 17.284820016702724 0 17.284820016702724 -73.199363943366734 0 0 0 0 66.532100099512206 4.5250908514340153 0 4.5250908514340153 -80.661960838358937 0 0 0 0 29.373732787871631 -15.758253647583842 0 -15.758253647583842 -62.048883381263295 0 0 0 0 0.76863628624750435 -0.63860703214979608 0 -0.63860703214979608 -1.5413339509334563 0 0 0 0 -13.30936649520163 -53.558938810322616 0 -53.558938810322616 -92.061128567185733 0 0 0 0 289.26535047384277 217.0724280452705 0 217.0724280452705 -170.30045838476144 0 0 0 0 15.414781592995709 15.367786090614572 0 15.367786090614572 -130.92292972444193 0 0 0 0 297.81361323928945 140.96322396278811 0 140.96322396278811 -259.78861072219115 0 0 0 0 55.760149580234383 102.33214491110084 0 102.33214491110084 -220.15244543522749 0 0 0 0 229.78264983173602 168.98346915326874 0 168.98346915326874 -228.31953409071502 0 0 0 0 88.634130384260516 213.14892597107064 0 213.14892597107064 -358.3541308853537 0 0 0 0 -388.54825075052395 590.06920321793405 0 590.06920321793405 -463.05268893983157 0 0 0 0 324.63034462226437 136.76056251451519 0 136.76056251451519 -319.12931256351658 0 0 0 0 -65.218148765602848 49.888430368671834 0 49.888430368671834 21.537229782938084 0 0 0 0 495.65174194944467 734.14936309649238 0 734.14936309649238 -1014.9225934504793 0 0 0 0 188.30877170229996 332.69221026246669 0 332.69221026246669 -1495.4518238936507 0 0 0 0 -66.131330570431828 -131.42636967149247 0 -131.42636967149247 -1063.482983588412 0 0 0 0 -1020.2944192105715 897.30697433978276 0 897.30697433978276 -22.176095812197445 0 0 0 0 -0.22903502434428447 846.20182101327828 0 846.20182101327828 -1647.845076877471 0 0 0 0 20.945158881643238 504.446297100023 0 504.446297100023 -866.52842617496208 0 0 0 0 9.0849634908777261 242.16255361142066 0 242.16255361142066 -1009.1777324392024 0 0 0 0 24.218336642618851 477.90536387068278 0 477.90536387068278 -781.93177087824733 0 0 0 0 51.808838673280661 343.29004986768086 0 343.29004986768086 -655.17852475225845 0 0 0 0 -68.003306518385443 392.78860224502114 0 392.78860224502114 -525.4970532054358 0 0 0 0 -89.583698279930786 160.97038322458366 0 160.97038322458366 -428.49048148309157 0 0 0 0 8.0672285242866337 29.386332035535816 0 29.386332035535816 -368.55471726596988 0 0 0 0 -16.402538382011812 -58.407602276772877 0 -58.407602276772877 -432.4448472495751 0 0 0 0 98.068332918910528 94.219896487999904 0 94.219896487999904 -321.86680034999517 0 0 0 0 98.419796738343976 49.878189139903462 0 49.878189139903462 73.008559505840822 0 0 0 0 404.79813376545133 15.299108710994915 0 15.299108710994915 -205.12554258376235 0 0 0 0 126.66829104965495 -116.88777902135917 0 -116.88777902135917 -154.91193828234464 0 0 0 0 134.13386682839996 -152.00199949631951 0 -152.00199949631951 -47.684962722221826 0 0 0 0 297.94405546808355 -194.59844950543447 0 -194.59844950543447 -78.859891330070241 0 0 0 0 241.64228835355152 -102.16169680181883 0 -102.16169680181883 -73.205235344608809 0 0 0 0 -35.801557265396241 -72.860985413124581 0 -72.860985413124581 -83.086638299011611 0 0 0 0 4.4917057445541104 -16.334920442066505 0 -16.334920442066505 -32.312740868227593 0 0 0 0 -1.4234038003601199 16.31959510262277 0 16.31959510262277 -33.458893450766482 0 0 0 0 10.281674178509727 -6.4068551428440763 0 -6.4068551428440763 -18.785061538454059 0 0 0 0 250.35527069716619 17.450606812871229 0 17.450606812871229 -58.787628825506545 0 0 0 0 2.8779040434054628 0.5853917939607669 0 0.5853917939607669 -4.7981973847715373 0 0 0 0 309.00221283229428 -137.62075601295601 0 -137.62075601295601 73.040174487141485 0 0 0 0 100.79391748100488 112.07390825703078 0 112.07390825703078 13.367204347026927 0 0 0 0 359.29210065414276 -11.051809760311926 0 -11.051809760311926 -92.731122880635667 0 0 0 0 163.01873127983026 -21.540312959426956 0 -21.540312959426956 -82.759560783358211 0 0 0 0 -0.51859567380119342 7.6594060240553059 0 7.6594060240553059 -23.183449705858855 0 0 0 0 32.325278348418578 14.395969713634258 0 14.395969713634258 -41.002735216705332 0 0 0 0 24.063822981660586 -29.899582264162973 0 -29.899582264162973 -18.058741304992509 0 0 0 0 126.04803363862993 81.953118065450326 0 81.953118065450326 -29.567867257923353 0 0 0 0 316.24233185167509 -116.23146407586228 0 -116.23146407586228 41.014230963119189 0 0 0 0 2.0006553659183441 1.1903938555355573 0 1.1903938555355573 -5.9540292183779826 0 0 0 0 31.946792817586356 -15.058468481738601 0 -15.058468481738601 -38.177538382100465 0 0 0 0 100.27362799852119 11.071309194690002 0 11.071309194690002 -27.200444905171253 0 0 0 0 -1.1829095723466052 -3.5175535175922619 0 -3.5175535175922619 -10.464626524167116 0 0 0 0 -79.399344174793271 -117.63736857316962 0 -117.63736857316962 25.290839070403308 0 0 0 0 85.501108136824683 77.49114206788181 0 77.49114206788181 -131.66692571472959 0 0 0 0 63.62223296799057 -41.677363303261245 0 -41.677363303261245 -97.126254459857591 0 0 0 0 -172.76228828044026 114.60808349697436 0 114.60808349697436 -122.35537835927198 0 0 0 0 140.47566759800429 -76.916379463036264 0 -76.916379463036264 -66.839284021893036 0 0 0 0 87.580436427109419 -22.04145568981312 0 -22.04145568981312 -50.476750338344573 0 0 0 0 -243.3742547538009 1.0359428742031014 0 1.0359428742031014 69.111082427424662 0 0 0 0 69.135969764350875 81.880048145998444 0 81.880048145998444 -295.12749467990943 0 0 0 0 -9.3836398141342556 132.41232207385019 0 132.41232207385019 -168.22517044586129 0 0 0 0 63.878233392871849 41.609175996809029 0 41.609175996809029 -171.05627363489111 0 0 0 0 -9.6345039838194708 128.16301797475899 0 128.16301797475899 49.763361215711029 0 0 0 0 30.146971086819008 -182.30134666250524 0 -182.30134666250524 -432.91981451096581 0 0 0 0 -1.2197984480758213 1.2801362950490685 0 1.2801362950490685 -1.4789114480117576 0 0 0 0 6.0037998074784866 56.342816478920213 0 56.342816478920213 -427.84461542844656 0 0 0 0 -73.603043904292122 -90.970091406352822 0 -90.970091406352822 16.240928246214025 0 0 0 0 7.5534610722370417 -182.52387187088561 0 -182.52387187088561 -45.560706707157806 0 0 0 0 159.70556974951387 -136.89100719319958 0 -136.89100719319958 -47.063139123315523 0 0 0 0 144.60688659094069 -182.8474269279136 0 -182.8474269279136 55.481457124607914 0 0 0 0 -0.60479276468241983 -5.4607794557950875 0 -5.4607794557950875 -6.8888692679404571 0 0 0 0 59.056333769269088 -220.3374824655252 0 -220.3374824655252 215.25630907125014 0 0 0 0 79.129190115124175 -57.099518103172159 0 -57.099518103172159 14.012642039227103 0 0 0 0 61.997985648137259 -54.311635620267566 0 -54.311635620267566 -7.1805328212176391 0 0 0 0 -103.8590053482983 -131.62240534519333 0 -131.62240534519333 38.061782028551534 0 0 0 0 -26.542687730556736 -15.311222324386108 0 -15.311222324386108 -109.08959682777277 0 0 0 0 -183.11593356982462 10.137918621500148 0 10.137918621500148 -53.802756451508685 0 0 0 0 -183.32751313936052 42.009686729465329 0 42.009686729465329 76.606851582606396 0 0 0 0 -164.27284557872463 -9.1099802327107682 0 -9.1099802327107682 7.5832605275854803 0 0 0 0 -220.28502833900302 38.728375975772906 0 38.728375975772906 -16.858748850443135 0 0 0 0 -103.7064411501367 37.720586635052314 0 37.720586635052314 -66.960472850483711 0 0 0 0 -163.18344980782589 17.886780909477636 0 17.886780909477636 -73.231177315961759 0 0 0 0 -123.03439161994493 33.322515410444794 0 33.322515410444794 -113.76258684509867 0 0 0 0 -161.33274383976448 78.435401198754789 0 78.435401198754789 -92.241969572818562 0 0 0 0 -193.81705843611959 113.02756475935723 0 113.02756475935723 -192.30147086319812 0 0 0 0 -185.07489314134233 80.149488773096323 0 80.149488773096323 -312.91949068424583 0 0 0 0 -123.44773826410574 87.704904794943559 0 87.704904794943559 -471.09718137648179 0 0 0 0 -56.103419891248677 -15.823095992325307 0 -15.823095992325307 -357.74379392710216 0 0 0 0 -204.80661598547431 23.661752614928446 0 23.661752614928446 -308.01246416527829 0 0 0 0 -558.29313227807006 -86.605827924868208 0 -86.605827924868208 -367.51336801206844 0 0 0 0 -343.33596003294201 254.67724384488747 0 254.67724384488747 -693.14946723224602 0 0 0 0 -158.68674057332828 -126.44965913687929 0 -126.44965913687929 -973.65906813693437 0 0 0 0 -295.20890511960624 -88.884620447191992 0 -88.884620447191992 -103.13387930045883 0 0 0 0 -313.2798571780836 91.489376784948945 0 91.489376784948945 -58.559993796215281 0 0 0 0 -197.03020467959277 35.164071650231335 0 35.164071650231335 -326.87358829184814 0 0 0 0 208.67417514014721 45.023324132837843 0 45.023324132837843 -56.716835546812945 0 0 0 0 0.74018283054661138 3.9158822870299579 0 3.9158822870299579 -43.532294641628795 0 0 0 0 52.663826441612855 -21.183798356559009 0 -21.183798356559009 -252.11519113373788 0 0 0 0 352.0642771033252 33.844001395167425 0 33.844001395167425 -97.984526322379679 0 0 0 0 206.80331646014452 -32.99362592030775 0 -32.99362592030775 6.2690619119935036 0 0 0 0 192.49168033371416 19.853543731722311 0 19.853543731722311 -83.034243776338826 0 0 0 0 98.08816660027378 113.52787288160334 0 113.52787288160334 -27.274879909316951 0 0 0 0 207.00215243341017 15.540803732856148 0 15.540803732856148 -110.09936926744103 0 0 0 0 93.436209160642647 34.41926289229832 0 34.41926289229832 -45.133055307394898 0 0 0 0 -0.20691079164998882 55.039613318072043 0 55.039613318072043 -77.479983978344535 0 0 0 0 93.914665358066344 32.460233390388794 0 32.460233390388794 -107.50577046936814 0 0 0 0 11.602220218134789 62.680963771933421 0 62.680963771933421 -69.830483104866289 0 0 0 0 -98.0237230170967 59.221159250482742 0 59.221159250482742 -79.212022663003154 0 0 0 0 3.9265327577810467 36.550127369188431 0 36.550127369188431 -111.54261295152355 0 0 0 0 -1.4697206050714442 41.023005446861475 0 41.023005446861475 -121.68647055095244 0 0 0 0 -50.279323424471613 10.158445591081545 0 10.158445591081545 -81.499764311209219 0 0 0 0 -81.911048988164339 76.477643189270111 0 76.477643189270111 -220.25501152353354 0 0 0 0 14.650813874871346 -97.535945508324403 0 -97.535945508324403 -289.69471859416535 0 0 0 0 -54.794588883110009 -44.819145897759881 0 -44.819145897759881 -171.47011418468333 0 0 0 0 -30.012355364373889 -25.401535688843978 0 -25.401535688843978 -209.4394699403183 0 0 0 0 -7.4403094349324874 -113.44476095640039 0 -113.44476095640039 -172.03603381984249 0 0 0 0 -48.172048724577053 -42.647985865162809 0 -42.647985865162809 -74.652679835109666 0 0 0 0 17.919612204146688 69.954359900913005 0 69.954359900913005 -125.05782614542659 0 0 0 0 103.57220936246131 10.542138307614096 0 10.542138307614096 -111.58277750848993 0 0 0 0 194.52826583554253 42.292126240364269 0 42.292126240364269 -112.84566672549408 0 0 0 0 104.06847056802471 19.637769066265122 0 19.637769066265122 -77.557238054494519 0 0 0 0 332.07360960679586 -8.9456260738297715 0 -8.9456260738297715 -116.98333671911132 0 0 0 0 52.596643400885682 23.717397530396738 0 23.717397530396738 50.085313927752395 0 0 0 0 1.236737278336868 6.0262151526091827 0 6.0262151526091827 -13.535991307280147 0 0 0 0 245.1609454323997 -107.79525101455147 0 -107.79525101455147 -8.0773721014274997 0 0 0 0 237.1643480464644 -0.21207270284776314 0 -0.21207270284776314 -97.932160504874446 0 0 0 0 170.57922059222886 -49.774070534264865 0 -49.774070534264865 -39.863391345303171 0 0 0 0 -157.96901942366762 -39.960185372066917 0 -39.960185372066917 -84.061162609828898 0 0 0 0 46.412626468131492 80.833230643796469 0 80.833230643796469 11.495254190401283 0 0 0 0 176.63411559852409 124.65818059399862 0 124.65818059399862 -108.86000220024744 0 0 0 0 124.9575518335983 -272.05354489253165 0 -272.05354489253165 -148.90252397526456 0 0 0 0 -31.555737757525549 -125.71313303027728 0 -125.71313303027728 -254.91870019002045 0 0 0 0 161.43384095175043 -243.65827967390101 0 -243.65827967390101 -483.00596305269391 0 0 0 0 12.94849763215808 -252.34901318249581 0 -252.34901318249581 -402.71527684050761 0 0 0 0 -49.244325599414196 -188.91422614809971 0 -188.91422614809971 -239.10856719450749 0 0 0 0 -28.447051311638234 -208.45568701616003 0 -208.45568701616003 -421.14913812643613 0 0 0 0 -18.595151149459411 -216.31511814746443 0 -216.31511814746443 -462.74500865748905 0 0 0 0 51.421303773150839 -148.08756821990551 0 -148.08756821990551 -460.73301912053466 0 0 0 0 -48.24954384661396 -50.59697931390474 0 -50.59697931390474 -82.10515669790766 0 0 0 0 -61.093220008216349 23.538881056100308 0 23.538881056100308 -496.29886450976426 0 0 0 0 -22.789539526674503 -200.84088104189959 0 -200.84088104189959 -445.43613923346766 0 0 0 0 -109.37083094040565 -187.38368958007004 0 -187.38368958007004 -818.70306561742655 0 0 0 0 -148.02847968685842 229.55669092400876 0 229.55669092400876 -911.76714068419778 0 0 0 0 -100.60923608278819 -67.663415502204998 0 -67.663415502204998 -613.37380687462883 0 0 0 0 20.274933070013276 -268.1280984207292 0 -268.1280984207292 -572.64392976449744 0 0 0 0 -115.04167575975669 -86.25656691268432 0 -86.25656691268432 -520.36415926343034 0 0 0 0 8.567878062632758 -144.08833356843616 0 -144.08833356843616 -653.1147676405717 0 0 0 0 -344.59853064465312 38.294598800306176 0 38.294598800306176 -696.18857877806022 0 0 0 0 212.95265307158411 139.24990375785501 0 139.24990375785501 -1031.6738602987932 0 0 0 0 -23.333624964810269 208.6987307878635 0 208.6987307878635 -986.35414502701178 0 0 0 0 98.647212360910657 147.59806565228575 0 147.59806565228575 -463.22088290350348 0 0 0 0 103.73677134313547 25.031132422233895 0 25.031132422233895 -953.00573640428229 0 0 0 0 167.22293301429272 88.65695989615881 0 88.65695989615881 -911.77345739027987 0 0 0 0 40.396119890251498 -435.28514586616461 0 -435.28514586616461 -626.62470848658813 0 0 0 0 -38.141547800828903 -493.46251008880245 0 -493.46251008880245 -70.840349841893413 0 0 0 0 -303.20425587536147 627.8889646716716 0 627.8889646716716 -768.73831479910586 0 0 0 0 -0.21694574145168088 -1.5331967835798119 0 -1.5331967835798119 -8.9995914823749672 0 0 0 0 -56.535841228865934 131.896724575196 0 131.896724575196 -92.070685686594516 0 0 0 0 43.756225004531643 413.29814550025264 0 413.29814550025264 -1116.6809911301752 0 0 0 0 -43.009009400264858 -46.917910958839457 0 -46.917910958839457 -932.85748199416503 0 0 0 0 -29.926930879958036 -213.17794499064109 0 -213.17794499064109 -409.52177011225922 0 0 0 0 27.77921985234525 -233.65817778541714 0 -233.65817778541714 -485.94377342623466 0 0 0 0 -113.36808661484611 -237.2100828861694 0 -237.2100828861694 -394.66401030601446 0 0 0 0 -115.01131747104068 -253.3271905964757 0 -253.3271905964757 -253.67993378892334 0 0 0 0 8.4343400201491932 -182.61820747719594 0 -182.61820747719594 -396.49442267748555 0 0 0 0 120.8181037057625 -195.92916085917614 0 -195.92916085917614 -430.21343910697578 0 0 0 0 154.20054545733274 -318.33457801264763 0 -318.33457801264763 -10.564553028647424 0 0 0 0 -154.62270398130738 193.00586728723351 0 193.00586728723351 -243.60943776226122 0 0 0 0 0.032084863891258308 -0.45582336408407009 0 -0.45582336408407009 -1.9165038506274641 0 0 0 0 101.50988935750092 74.254844162669997 0 74.254844162669997 -42.306243628515631 0 0 0 0 58.826709525107844 3.3801794438090838 0 3.3801794438090838 -82.36394769621802 0 0 0 0 85.749703811263771 35.752328481581571 0 35.752328481581571 -44.18896521515228 0 0 0 0 -0.33350977279279892 -4.9040657171602398 0 -4.9040657171602398 -20.496103124556925 0 0 0 0 432.75969773436054 -148.86273513574861 0 -148.86273513574861 -128.95304561621197 0 0 0 0 88.310634047597887 -133.29488407673671 0 -133.29488407673671 -265.38583535252565 0 0 0 0 285.30827096695407 -9.3919346062639306 0 -9.3919346062639306 -72.706971435764899 0 0 0 0 131.11085583243192 55.142156194498057 0 55.142156194498057 -33.39891396620169 0 0 0 0 0.27283430984881907 -6.4315265146643696 0 -6.4315265146643696 -5.2123781586707842 0 0 0 0 121.80905027571248 41.92434059691368 0 41.92434059691368 32.625804655499451 0 0 0 0 221.01837744469481 52.080467173795114 0 52.080467173795114 -58.016431105264019 0 0 0 0 116.65335187921437 62.929611181567907 0 62.929611181567907 -52.042648094535252 0 0 0 0 105.4807414229424 -13.337340098001732 0 -13.337340098001732 -38.831544960316023 0 0 0 0 -51.217781399549494 101.21710573003247 0 101.21710573003247 -48.385918763666496 0 0 0 0 284.58375190958327 -41.296451689932837 0 -41.296451689932837 -110.6771498514081 0 0 0 0 0.98733021699193024 -0.059798913614975469 0 -0.059798913614975469 -4.672401711626275 0 0 0 0 28.719528460052629 79.777093996408098 0 79.777093996408098 -242.67623578360326 0 0 0 0 33.828487663237411 114.05346442582595 0 114.05346442582595 -23.991722667009299 0 0 0 0 -54.760697873593926 209.57688570871142 0 209.57688570871142 -191.57259345121929 0 0 0 0 14.327945802662498 114.51591786738959 0 114.51591786738959 -162.62036148004881 0 0 0 0 -17.127155961035442 155.83766234950917 0 155.83766234950917 -117.10740597446056 0 0 0 0 -28.753254335480278 80.532405519527174 0 80.532405519527174 -32.137946643983014 0 0 0 0 50.192727232638958 94.621792194678164 0 94.621792194678164 -151.94931077991259 0 0 0 0 -86.657661939521859 168.39096474566304 0 168.39096474566304 -152.10262565010817 0 0 0 0 -101.47943479501237 154.97475674889733 0 154.97475674889733 -189.89571171650459 0 0 0 0 -119.32734144379447 209.54555623695978 0 209.54555623695978 -184.85025832552492 0 0 0 0 -4.1457901057797244 153.35240800201564 0 153.35240800201564 -209.17664097025408 0 0 0 0 -65.607548005953504 188.58216030509448 0 188.58216030509448 -171.03217753427896 0 0 0 0 -57.445109465396854 154.83479849353262 0 154.83479849353262 -197.72788817893615 0 0 0 0 -39.448209885354117 183.76109261907914 0 183.76109261907914 -207.78720416650822 0 0 0 0 -148.42563293230842 131.61885287376754 0 131.61885287376754 -207.25734826038752 0 0 0 0 -79.486373954217925 185.24326414119241 0 185.24326414119241 -199.2263021794206 0 0 0 0 -32.490146433805421 52.666471721086054 0 52.666471721086054 -62.982921088438161 0 0 0 0 61.197683492891429 117.81014401589528 0 117.81014401589528 -86.460547080223478 0 0 0 0 -37.581289447977724 151.04090636916771 0 151.04090636916771 -226.34118444585556 0 0 0 0 -0.46440380428421513 -1.1221480513941948 0 -1.1221480513941948 -2.1088308567197735 0 0 0 0 -77.864190509883429 149.61095696536086 0 149.61095696536086 -222.89706440423288 0 0 0 0 165.88163283901213 119.36165438534408 0 119.36165438534408 -106.21331273858959 0 0 0 0 -29.098760586929984 157.28604348588124 0 157.28604348588124 -250.83465394748646 0 0 0 0 2.9457606869210551 -2.4874920195274797 0 -2.4874920195274797 -8.3898358711348706 0 0 0 0 -18.068783854289904 187.874007779973 0 187.874007779973 -233.94216791505096 0 0 0 0 -16.09871608400735 174.67630299207497 0 174.67630299207497 -266.92461187265508 0 0 0 0 -19.415828816363046 149.22015452470623 0 149.22015452470623 -278.00263955654964 0 0 0 0 -282.44485709886771 331.75798407647517 0 331.75798407647517 -250.61146824998832 0 0 0 0 0.68353850987550979 0.37547515330006531 0 0.37547515330006531 -2.1503994188667761 0 0 0 0 412.00903861394272 -157.00569870936897 0 -157.00569870936897 -169.57266097412275 0 0 0 0 316.45057495692936 89.289058774392288 0 89.289058774392288 -597.84379775856542 0 0 0 0 169.6635226253311 42.625674900554259 0 42.625674900554259 -460.11430750184445 0 0 0 0 -62.186533071771919 125.02650109637307 0 125.02650109637307 -19.878809232810454 0 0 0 0 63.455414419275485 81.53571581923984 0 81.53571581923984 -4.9150489424209809 0 0 0 0 68.54659647291146 66.627129775761887 0 66.627129775761887 23.243444374567844 0 0 0 0 1.4408560302425188 0.58909324494923698 0 0.58909324494923698 -4.7056343571656143 0 0 0 0 -8.5227458343632865 -4.8993553856286169 0 -4.8993553856286169 -1.622797397379752 0 0 0 0 164.12814493089058 -565.34045186662138 0 -565.34045186662138 -114.66464220464923 0 0 0 0 -333.68754487825618 -312.97153259796039 0 -312.97153259796039 256.7032214444954 0 0 0 0 -156.4148271346894 -11.04557822074915 0 -11.04557822074915 259.51561294691294 0 0 0 0 220.05335882136478 115.35112753024328 0 115.35112753024328 -15.317013140730978 0 0 0 0 44.167508760799933 48.279827348703407 0 48.279827348703407 -97.398779622742495 0 0 0 0 -60.599420170821986 -149.30825638542524 0 -149.30825638542524 141.96475207178628 0 0 0 0 86.20497073396939 372.68356455249864 0 372.68356455249864 -286.49857199675625 0 0 0 0 -1.8601463987741005 -2.1543713804091476 0 -2.1543713804091476 -4.252667711359603 0 0 0 0 -69.32175075798493 -68.716415574802056 0 -68.716415574802056 -12.21948001343344 0 0 0 0 -64.030383071555434 -228.54997537792747 0 -228.54997537792747 -386.40880323926831 0 0 0 0 -1.2231437626169281 101.28684125752261 0 101.28684125752261 -13.839615660800973 0 0 0 0 -10.455941706055455 -96.327363939882446 0 -96.327363939882446 121.2432706033419 0 0 0 0 -6.9645592409163424 -4.1185310026587727 0 -4.1185310026587727 -1.7438638300128126 0 0 0 0 -15.108203397411899 43.833548463424563 0 43.833548463424563 -72.612762587783436 0 0 0 0 -64.208351419931205 23.244805997880349 0 23.244805997880349 125.90861252464174 0 0 0 0 38.859275828392583 -38.441713319757071 0 -38.441713319757071 36.40766778737725 0 0 0 0 -13.609243365615839 -23.184870360904597 0 -23.184870360904597 64.155545189861186 0 0 0 0 -4.0843975608968632 -5.9636182735476435 0 -5.9636182735476435 -12.081147177355966 0 0 0 0 54.534066662951773 -21.199863935508347 0 -21.199863935508347 -75.376288396305426 0 0 0 0 -291.13959740100199 231.88910065539676 0 231.88910065539676 -208.16694734963676 0 0 0 0 1.6371567261567179 2.6935739590726371 0 2.6935739590726371 32.616795428393402 0 0 0 0 -0.93898736931847804 1.3277809491349628 0 1.3277809491349628 -3.0646893359609306 0 0 0 0 -510.18968215225073 501.87571123612133 0 501.87571123612133 -540.42121071843121 0 0 0 0 -267.69915934406026 204.40854230429022 0 204.40854230429022 -224.32354100305292 0 0 0 0 -123.10369292584639 155.83618631887214 0 155.83618631887214 -247.85055177063623 0 0 0 0 -127.42761383159041 136.03346270897327 0 136.03346270897327 -117.9532116192413 0 0 0 0 -220.60792482626675 241.57836279393177 0 241.57836279393177 -319.02005670250878 0 0 0 0 -117.95950820778472 67.835757729698116 0 67.835757729698116 -333.41630454391179 0 0 0 0 -279.92511556458749 197.73900715463606 0 197.73900715463606 -171.38764644882849 0 0 0 0 -163.46549047744293 197.28615111280305 0 197.28615111280305 -222.0403527647095 0 0 0 0 -162.73301554914997 182.77096128432458 0 182.77096128432458 -150.18953815813711 0 0 0 0 -195.77874858865198 242.99436932026583 0 242.99436932026583 -193.5230936482435 0 0 0 0 32.99804498397134 -141.14307636494277 0 -141.14307636494277 136.09069765514641 0 0 0 0 -0.06477290860402718 34.577945160267518 0 34.577945160267518 -40.106647810547656 0 0 0 0 -2.662332678519963 -6.6852663958249465 0 -6.6852663958249465 -15.959994985502473 0 0 0 0 -3.1910746865043595 -2.1303018215844629 0 -2.1303018215844629 -6.9550474278120298 0 0 0 0 -178.58283270671927 -85.664179800681268 0 -85.664179800681268 244.90559642878247 0 0 0 0 -225.6375278999767 198.90905211801601 0 198.90905211801601 -163.93847011700655 0 0 0 0 129.78899652542532 -83.856882752537558 0 -83.856882752537558 -67.063623446059864 0 0 0 0 -74.458392855150578 -37.308786661219983 0 -37.308786661219983 -41.775063318333935 0 0 0 0 -1.7756681785503972 -11.394009169960114 0 -11.394009169960114 -27.339651751066135 0 0 0 0 -95.61193900641365 -31.766332911010181 0 -31.766332911010181 7.0380226841361946 0 0 0 0 63.264685127290704 139.59401635748384 0 139.59401635748384 -415.46305703237522 0 0 0 0 19.43793350787837 -33.094337294966408 0 -33.094337294966408 -195.11735464592175 0 0 0 0 -15.359712352957104 -73.090026676896287 0 -73.090026676896287 -158.21987433121421 0 0 0 0 -11.878760201440855 -58.179054342275322 0 -58.179054342275322 -98.530654335006602 0 0 0 0 30.368258586544471 -0.71339545306773289 0 -0.71339545306773289 -137.49879457619545 0 0 0 0 -3.280703452400429 -1.1014550606679343 0 -1.1014550606679343 0.13529086932550749 0 0 0 0 24.76634437957 35.092131018018108 0 35.092131018018108 -178.34175764564498 0 0 0 0 -48.02122686828875 20.352065967363302 0 20.352065967363302 85.625046858410087 0 0 0 0 38.331786129396207 -41.252418494579217 0 -41.252418494579217 46.229025785738145 0 0 0 0 24.420196357128589 -16.601881857898491 0 -16.601881857898491 23.34714611780808 0 0 0 0 174.91511677030894 -110.66356272900589 0 -110.66356272900589 -10.853168193657439 0 0 0 0 41.401412838118631 -8.5775149360613341 0 -8.5775149360613341 -11.125188936038057 0 0 0 0 127.80220297108963 -19.615915584425693 0 -19.615915584425693 -105.39808064939858 0 0 0 0 15.780688857712221 38.549012177995223 0 38.549012177995223 -91.396194337964516 0 0 0 0 42.320535764182296 -18.857875517883144 0 -18.857875517883144 -120.80026728103303 0 0 0 0 64.20094102771418 3.1108850366215393 0 3.1108850366215393 -100.43939389293837 0 0 0 0 59.052325179653963 10.863168333508042 0 10.863168333508042 -106.96453899257494 0 0 0 0 71.627798801668405 21.864415311909625 0 21.864415311909625 -102.07064527510283 0 0 0 0 20.506313595100892 32.88263479127545 0 32.88263479127545 -98.836962185421157 0 0 0 0 21.938971284052514 40.141779169363417 0 40.141779169363417 -82.363875450237174 0 0 0 0 -21.574582372273653 54.124474067011306 0 54.124474067011306 -86.855980996171184 0 0 0 0 41.804836235827906 63.528134120969639 0 63.528134120969639 -119.26890408395138 0 0 0 0 -10.629855489964939 39.28146797744057 0 39.28146797744057 -104.04740928979993 0 0 0 0 97.260314481814021 71.894533400244427 0 71.894533400244427 -108.78851341361064 0 0 0 0 -34.111194671983881 -7.5289308130481771 0 -7.5289308130481771 -68.756232330375042 0 0 0 0 -4.5095279429019683 6.6452694414906546 0 6.6452694414906546 -1.308661320173087 0 0 0 0 7.3420299596573386 14.138530507445466 0 14.138530507445466 -20.512013061711681 0 0 0 0 -0.29745654534258392 18.347714647827615 0 18.347714647827615 -20.514117444436124 0 0 0 0 -1.4292353887699392 22.28726034013448 0 22.28726034013448 -30.937659377768796 0 0 0 0 -27.027793393490356 48.812382761249808 0 48.812382761249808 -43.051857957680113 0 0 0 0 30.483678915752989 7.3116977698152823 0 7.3116977698152823 -54.158584646220334 0 0 0 0 8.897192490910129 19.842714611149404 0 19.842714611149404 -50.604646561565687 0 0 0 0 21.140997638126464 -15.467647016449064 0 -15.467647016449064 -98.707481756984919 0 0 0 0 4.0543557892710851 6.422991337609119 0 6.422991337609119 -20.857031346179156 0 0 0 0 -0.78665142979139091 21.000215987784941 0 21.000215987784941 -4.2630712436039175 0 0 0 0 2.7464595841708537 6.1801768394967143 0 6.1801768394967143 -11.736608275545464 0 0 0 0 10.396820739183454 23.435883346789467 0 23.435883346789467 1.8944278014855627 0 0 0 0 4.1923722801830081 2.5177405832444038 0 2.5177405832444038 -27.008431577401552 0 0 0 0 6.0009480431113378 9.1774719241345455 0 9.1774719241345455 -14.556757019505149 0 0 0 0 -4.8900116271006482 -22.916924943839149 0 -22.916924943839149 -23.454102671421424 0 0 0 0 15.028573487710901 -6.6034928548833136 0 -6.6034928548833136 -45.245635798874901 0 0 0 0 7.4491202802089447 67.601403715893014 0 67.601403715893014 -12.111365885057239 0 0 0 0 30.097084832207656 6.8284111368816411 0 6.8284111368816411 -49.157346636258808 0 0 0 0 7.0128201339342793 3.0823624130475067 0 3.0823624130475067 -20.567007312620206 0 0 0 0 3.6028118286908466 5.493109530381389 0 5.493109530381389 -17.810887802948059 0 0 0 0 -4.8284642458866074 -0.72360307206736252 0 -0.72360307206736252 -14.880709421499432 0 0 0 0 7.0479265355685072 0.31949365300835098 0 0.31949365300835098 -46.675138806188443 0 0 0 0 5.3043700473501758 -3.4644302359760104 0 -3.4644302359760104 -42.436262741027349 0 0 0 0 5.0303329236709544 -3.6727498133102472 0 -3.6727498133102472 -38.413735518971407 0 0 0 0 6.5278523516119549 2.2356859232213537 0 2.2356859232213537 -40.587642317185328 0 0 0 0 -1.3081347819110078 -0.30070419053390651 0 -0.30070419053390651 -40.185778456143453 0 0 0 0 -5.1325225744238878 -5.5819014255066577 0 -5.5819014255066577 -42.103668218713665 0 0 0 0 3.3840681001768189 6.3916336766841155 0 6.3916336766841155 -22.589481767012145 0 0 0 0 -1.529975649028728 -1.1467545362772853 0 -1.1467545362772853 -36.016005462790417 0 0 0 0 3.5576027878817915 9.5370534781567997 0 9.5370534781567997 -14.375131312353092 0 0 0 0 2.703546516877168 7.9690993965340287 0 7.9690993965340287 -12.155037299843915 0 0 0 0 -2.9670399720607605 -2.0407139656608706 0 -2.0407139656608706 -36.326448389557299 0 0 0 0 2.8152795089892226 7.5160274688553024 0 7.5160274688553024 -22.11445010904054 0 0 0 0 -0.60360178512792118 2.1088388916977721 0 2.1088388916977721 -22.328811869414718 0 0 0 0 -2.8635893278252524 -1.8790551902291099 0 -1.8790551902291099 -25.120207231750101 0 0 0 0 -2.4694867193320533 -40.791820821634246 0 -40.791820821634246 -136.29190828298101 0 0 0 0 -18.101083146917063 -61.442313181254121 0 -61.442313181254121 -10.512289834175135 0 0 0 0 -16.462537229161171 -0.47833162450024247 0 -0.47833162450024247 -135.01930257947743 0 0 0 0 -71.817032851748536 7.4350353564695979 0 7.4350353564695979 -134.62943583200996 0 0 0 0 -3.9599338640216502 -21.069511638176209 0 -21.069511638176209 -481.66368631041223 0 0 0 0 -52.252014527451138 -32.164276205944589 0 -32.164276205944589 -136.28462173158093 0 0 0 0 60.103923849435347 115.03041085650636 0 115.03041085650636 -493.03796759496345 0 0 0 0 0.35915788633627699 -0.0214513224664028 0 -0.0214513224664028 -0.90558323098519011 0 0 0 0 21.292230631165182 -21.149714927080026 0 -21.149714927080026 -107.27755936087851 0 0 0 0 -20.539322681359863 268.0944827412668 0 268.0944827412668 -31.813649458737927 0 0 0 0 2.3793862475347964 -1.7362016811098067 0 -1.7362016811098067 -16.711512391158134 0 0 0 0 13.236438727550649 -133.69359273156533 0 -133.69359273156533 -112.10134844272837 0 0 0 0 -65.102690061840576 -4.374025648244924 0 -4.374025648244924 112.97037839315817 0 0 0 0 1.1673970304424772 0.64156793564243664 0 0.64156793564243664 -2.4638241085449089 0 0 0 0 6.0729398552937255 1.8271115112243024 0 1.8271115112243024 -23.341865840266564 0 0 0 0 2.8341719794512139 7.1464938958059712 0 7.1464938958059712 -7.0074812702457034 0 0 0 0 -2.3359654792936908 12.639438924483329 0 12.639438924483329 -24.340183716808497 0 0 0 0 3.5404146674727599 -2.4730830078997315 0 -2.4730830078997315 -25.162308332944576 0 0 0 0 -7.3916127001735958 26.106261699686911 0 26.106261699686911 -56.936081803932211 0 0 0 0 130.83334571999194 -48.2272749514309 0 -48.2272749514309 12.120625950546128 0 0 0 0 0.21265181031130931 1.3212196832078487 0 1.3212196832078487 -1.0275046722203385 0 0 0 0 106.19830211818316 -118.0321415426929 0 -118.0321415426929 -184.78392485688096 0 0 0 0 10.61619133573663 -3.8813074518384383 0 -3.8813074518384383 -43.232314525615948 0 0 0 0 10.860398894822538 3.7695590957137028 0 3.7695590957137028 -64.500480690835502 0 0 0 0 5.635512787566654 -6.25797407761047 0 -6.25797407761047 -36.125962086481195 0 0 0 0 24.512528513703955 -27.512363889116386 0 -27.512363889116386 -21.4538841096346 0 0 0 0 20.427230618382282 -9.9238349016723078 0 -9.9238349016723078 -50.659642138763957 0 0 0 0 1.5441876866414077 -12.224910820119931 0 -12.224910820119931 -30.468038518351932 0 0 0 0 -5.2352509137128891 -33.143897873248989 0 -33.143897873248989 -9.5645692672333098 0 0 0 0 -37.428055814163486 3.267369152692936 0 3.267369152692936 7.7373845082574917 0 0 0 0 58.87987612540519 26.91445229495821 0 26.91445229495821 -24.682738781753869 0 0 0 0 10.479510226154535 -2.5079082797285377 0 -2.5079082797285377 -24.334473989920685 0 0 0 0 11.221307413216891 4.804831798030591 0 4.804831798030591 -5.9788360236002518 0 0 0 0 35.027095293492494 19.661648198296461 0 19.661648198296461 -12.177936810312531 0 0 0 0 34.588104002029937 2.4273009473716627 0 2.4273009473716627 -26.243236877853633 0 0 0 0 4.2845764150833716 5.5363049008916487 0 5.5363049008916487 -28.233760631726454 0 0 0 0 -3.3073266769360998 12.666655830493255 0 12.666655830493255 -14.67763870777344 0 0 0 0 56.845670005959732 -137.8353564203876 0 -137.8353564203876 341.94881055816222 0 0 0 0 4.4376427747353722 -5.4153699876663879 0 -5.4153699876663879 0.89436864337574207 0 0 0 0 226.22605069424469 -155.72507241884068 0 -155.72507241884068 326.54100759019275 0 0 0 0 4.6964406105332532 8.7344617791594228 0 8.7344617791594228 -19.378223230650249 0 0 0 0 -537.10249885189864 850.07192639394361 0 850.07192639394361 -618.56613289333109 0 0 0 0 595.91115154807915 -253.28171776605359 0 -253.28171776605359 -1062.1846357594841 0 0 0 0 15.753347556280005 23.90345786945727 0 23.90345786945727 -20.088146876546261 0 0 0 0 35.778199607023453 2.8044117264039414 0 2.8044117264039414 -3.3037543091213593 0 0 0 0 42.926150876187194 77.601472147156301 0 77.601472147156301 -89.973248228076045 0 0 0 0 7.2425295699975516 15.160725022447071 0 15.160725022447071 -6.3618238141925474 0 0 0 0 49.72466358057909 27.760567723685199 0 27.760567723685199 -14.171519194404027 0 0 0 0 12.865545152190075 -4.3712133932662063 0 -4.3712133932662063 -22.051898208906731 0 0 0 0 110.5266293749637 158.23420391796935 0 158.23420391796935 -173.26404491046924 0 0 0 0 -307.61310240004173 107.07106926900269 0 107.07106926900269 406.29002424244391 0 0 0 0 -327.47187995830882 318.54144922196065 0 318.54144922196065 -3.0356587712594774 0 0 0 0 448.92227844505339 -292.30817493103859 0 -292.30817493103859 87.338262369477889 0 0 0 0 566.51280952081277 257.9248656380687 0 257.9248656380687 -897.77938413864831 0 0 0 0 -0.55968153444586732 -9.5484296789976053 0 -9.5484296789976053 -43.000152835344444 0 0 0 0 -96.598093163996964 -10.796589405778832 0 -10.796589405778832 -8.8534456825818779 0 0 0 0 5.8965534976381875 2.422740470481163 0 2.422740470481163 -9.7421017777037804 0 0 0 0 -837.03066548824063 806.06041580576039 0 806.06041580576039 -757.2146963076957 0 0 0 0 4.1247006543086639 0.74045888792719694 0 0.74045888792719694 -1.3827744139689813 0 0 0 0 -69.616254472506625 -389.8114333700214 0 -389.8114333700214 -417.11936330021672 0 0 0 0 -9.7751490055175054 -192.58834766445761 0 -192.58834766445761 67.526246344517858 0 0 0 0 -71.760289703908711 -151.98608300710839 0 -151.98608300710839 42.731278891958937 0 0 0 0 204.64025837705321 -64.384195353457471 0 -64.384195353457471 92.67672958406456 0 0 0 0 -11.977287058117554 -163.30451942247964 0 -163.30451942247964 166.68754185362195 0 0 0 0 368.28510030706298 -116.3415250361486 0 -116.3415250361486 24.933817597109737 0 0 0 0 -0.13091576952368511 -2.2076999561524886 0 -2.2076999561524886 -15.308186845163704 0 0 0 0 -3.8221607516093172 -181.62990630269633 0 -181.62990630269633 117.89378349496928 0 0 0 0 104.58284505532583 -363.00167686582245 0 -363.00167686582245 -214.3422572344025 0 0 0 0 28.562202788727689 -260.4200735290392 0 -260.4200735290392 -203.58578520147421 0 0 0 0 -30.183670457365906 -212.97946931873958 0 -212.97946931873958 26.63113268623465 0 0 0 0 75.220401932642517 -101.21628631684325 0 -101.21628631684325 -476.64712436953414 0 0 0 0 41.453867709496535 -194.29859596137976 0 -194.29859596137976 -200.53899767440237 0 0 0 0 71.504832532431919 162.69983937079087 0 162.69983937079087 -291.96280377612857 0 0 0 0 155.83524696336303 -232.79628332781976 0 -232.79628332781976 -729.66262016088513 0 0 0 0 91.944854619875741 271.02062526683585 0 271.02062526683585 -898.06629446314855 0 0 0 0 27.556555641748218 -764.50528584141284 0 -764.50528584141284 -1030.2828142062276 0 0 0 0 -565.41179476667696 727.38943209120498 0 727.38943209120498 255.12122422684479 0 0 0 0 -158.02789834286614 -118.58780077768461 0 -118.58780077768461 440.46810716981417 0 0 0 0 20.834359310538275 -206.04656248391257 0 -206.04656248391257 259.26914142604073 0 0 0 0 -92.34162335892097 67.13560416772998 0 67.13560416772998 -62.561771821838192 0 0 0 0 3.4566723037847851 108.02416981095485 0 108.02416981095485 -63.888483655096934 0 0 0 0 -217.71528439534404 -23.53480103610309 0 -23.53480103610309 295.86972262808922 0 0 0 0 -202.88225477858009 76.385850094738998 0 76.385850094738998 44.256422242539884 0 0 0 0 -59.518399566650828 24.806022772187134 0 24.806022772187134 -21.625469167428037 0 0 0 0 -57.39959061393084 14.463925691774421 0 14.463925691774421 -66.918606594103039 0 0 0 0 -41.246535065167478 -1.528810982651521 0 -1.528810982651521 -54.827708881293802 0 0 0 0 -36.793211005573227 -14.15181009637422 0 -14.15181009637422 -50.361026637954637 0 0 0 0 -44.600882493957329 -3.8436349179319222 0 -3.8436349179319222 -41.612935122404451 0 0 0 0 -38.043323405874986 -6.1466992510577256 0 -6.1466992510577256 -82.817856631500035 0 0 0 0 -27.156463510661244 -34.775833242082953 0 -34.775833242082953 -57.430454107281548 0 0 0 0 -27.149104873229259 -36.912747460739041 0 -36.912747460739041 -113.8099783075595 0 0 0 0 77.90244651865261 -69.084388334588766 0 -69.084388334588766 -160.75017140912314 0 0 0 0 -18.619861693469829 16.986784788789009 0 16.986784788789009 -216.17574023478664 0 0 0 0 -15.471857201962507 -8.5830141568640101 0 -8.5830141568640101 -85.338166564220955 0 0 0 0 0.21776344004319981 -2.3903073938499801 0 -2.3903073938499801 -27.264791166162468 0 0 0 0 -30.851121629890372 -28.477568624544801 0 -28.477568624544801 -64.024611515063953 0 0 0 0 -26.349795188788505 -19.551975059265715 0 -19.551975059265715 -52.129743791756482 0 0 0 0 10.459138368608592 8.763643070413309 0 8.763643070413309 -31.382083768814482 0 0 0 0 11.038354433817403 10.674768192255215 0 10.674768192255215 -25.509345930346171 0 0 0 0 4.7880690520409495 7.0684078270578645 0 7.0684078270578645 -32.449506819923471 0 0 0 0 3.571695790209414 5.2841383517621701 0 5.2841383517621701 -32.684709647987773 0 0 0 0 -36.286023689313424 -9.9797598755530998 0 -9.9797598755530998 -41.218674485557131 0 0 0 0 -41.016778863772743 -22.38620874636581 0 -22.38620874636581 -40.716525543566604 0 0 0 0 -42.03380613163381 -28.146714154770962 0 -28.146714154770962 -46.095254431635112 0 0 0 0 -68.226850160417413 -37.486258640071583 0 -37.486258640071583 -14.807558264845284 0 0 0 0 -72.863544977097831 -15.078244660966448 0 -15.078244660966448 -28.170762006798668 0 0 0 0 -64.471707417193855 -16.883464079018268 0 -16.883464079018268 -28.512171090944321 0 0 0 0 -38.935669132690464 -9.696037371923012 0 -9.696037371923012 -41.193675170682582 0 0 0 0 -9.1662501216781358 -10.852529930048021 0 -10.852529930048021 -20.729048657905338 0 0 0 0 -84.301543602962738 -100.21659632282717 0 -100.21659632282717 -13.857860874504695 0 0 0 0 -83.730089276535296 -124.38462589308801 0 -124.38462589308801 5.0271595515405352 0 0 0 0 -34.900938894431278 -186.75660570606851 0 -186.75660570606851 -87.281584238353389 0 0 0 0 -10.79779579028002 -97.362716780924529 0 -97.362716780924529 -163.56460129167863 0 0 0 0 -15.070315625479225 -81.996676934400966 0 -81.996676934400966 -79.341587871631418 0 0 0 0 -56.577014006549817 -75.855578174139737 0 -75.855578174139737 -52.684300945282303 0 0 0 0 -58.576753308260329 -54.225755531335381 0 -54.225755531335381 -34.586533638055698 0 0 0 0 -39.613495750522588 -40.360326915406404 0 -40.360326915406404 -59.898156538343756 0 0 0 0 -121.56467902166818 -64.232232932801708 0 -64.232232932801708 36.68694537779993 0 0 0 0 -121.02316868574231 -25.89237877112464 0 -25.89237877112464 -7.8545735276729829 0 0 0 0 -133.99289722682636 -72.331863499333849 0 -72.331863499333849 68.910749401820794 0 0 0 0 -75.94104510327881 -158.62779899783891 0 -158.62779899783891 53.573067853343673 0 0 0 0 -151.44131137969293 -102.83591941685518 0 -102.83591941685518 84.110570483770061 0 0 0 0 -201.72740912628382 -21.286304186681264 0 -21.286304186681264 55.67067040549955 0 0 0 0 -138.76668663817213 -115.54112431975591 0 -115.54112431975591 96.147606658967561 0 0 0 0 -178.80552260279569 -85.866628892058543 0 -85.866628892058543 149.10189145028562 0 0 0 0 -204.64833976476524 -5.8474202077468362 0 -5.8474202077468362 76.839452159929351 0 0 0 0 -157.95066348365094 76.662742182296824 0 76.662742182296824 -38.031019179139548 0 0 0 0 -213.57253243049047 3.2019318684415339 0 3.2019318684415339 74.409784298761224 0 0 0 0 -284.13829948013631 -23.087307561907437 0 -23.087307561907437 118.07362933545301 0 0 0 0 -467.08114407020162 55.233747835827671 0 55.233747835827671 63.876876552257272 0 0 0 0 -46.423465382894761 4.8996309890781049 0 4.8996309890781049 -22.312740092038439 0 0 0 0 -83.995973008293959 -3.9396798975376441 0 -3.9396798975376441 -2.7559120642472408 0 0 0 0 -81.158893666802214 13.686205692318254 0 13.686205692318254 -2.4055730106337307 0 0 0 0 -81.165555785801303 20.078776413438391 0 20.078776413438391 -27.663358274709935 0 0 0 0 -9.5451095582428565 -12.930771767186329 0 -12.930771767186329 -16.799360584700892 0 0 0 0 18.471254553391873 -76.433292056346545 0 -76.433292056346545 -82.744582713825366 0 0 0 0 -55.396893715985243 78.146800626123877 0 78.146800626123877 -120.05062424325024 0 0 0 0 -7.7348822646600244 -11.295241608776678 0 -11.295241608776678 -16.787449031933704 0 0 0 0 -39.633655148438152 -92.597187623033165 0 -92.597187623033165 96.631695364914776 0 0 0 0 -14.02769840664952 242.14676667256765 0 242.14676667256765 -621.21262557121372 0 0 0 0 187.04581288662484 266.80168130170568 0 266.80168130170568 -1824.7520041217467 0 0 0 0 111.57450861973985 126.03630285818235 0 126.03630285818235 -637.081705822402 0 0 0 0 128.91702605978526 83.226962243876187 0 83.226962243876187 -871.67838613968979 0 0 0 0 -394.61426471004268 23.210896300038257 0 23.210896300038257 -57.163617267455265 0 0 0 0 -702.33883529400498 -120.64410457684517 0 -120.64410457684517 -88.146482721982466 0 0 0 0 -541.04998892741787 140.92460075559939 0 140.92460075559939 -126.79789694403007 0 0 0 0 -344.94485609689548 -17.523334892059211 0 -17.523334892059211 -60.829593409405788 0 0 0 0 -254.30877400378549 283.71175071803009 0 283.71175071803009 -78.502932597570179 0 0 0 0 -25.975914166140456 48.683255778683815 0 48.683255778683815 -43.658792845131302 0 0 0 0 -204.36436427354857 -5.0526012985270654 0 -5.0526012985270654 -2867.2067915571133 0 0 0 0 -570.80190378624206 -139.92449177948765 0 -139.92449177948765 -81.479798937842133 0 0 0 0 -3.2636098705573868 -4.6251844506870867 0 -4.6251844506870867 -8.8626860326419177 0 0 0 0 -304.73697028084234 816.56426724072298 0 816.56426724072298 -547.61718740503056 0 0 0 0 -607.4089658173142 -359.68421675125364 0 -359.68421675125364 -662.08878657006426 0 0 0 0 -339.03447585578238 -143.58815772643175 0 -143.58815772643175 -2134.0365430960665 0 0 0 0 -316.0378520147417 17.536718968744026 0 17.536718968744026 -586.26342350693812 0 0 0 0 -376.96188769043533 -138.18560199664716 0 -138.18560199664716 -805.50810966320569 0 0 0 0 -540.38026544216427 9.3224899375127279 0 9.3224899375127279 -573.18918951278465 0 0 0 0 -419.67873762463614 -97.975885042389564 0 -97.975885042389564 -607.23249108471373 0 0 0 0 -467.62801258623961 -152.59513370675177 0 -152.59513370675177 -130.8092032332861 0 0 0 0 -236.06506094885981 -213.65809718292439 0 -213.65809718292439 -165.7845457051535 0 0 0 0 -436.45598756282675 -150.34795651418608 0 -150.34795651418608 80.929589420557022 0 0 0 0 126.39746497559008 -207.81983584561385 0 -207.81983584561385 40.31911772332387 0 0 0 0 -41.168446688180211 -375.71221689698723 0 -375.71221689698723 -104.87065719850398 0 0 0 0 -224.09403027615804 -157.02316682845048 0 -157.02316682845048 21.041303123703983 0 0 0 0 152.85355171370111 -173.01140607772686 0 -173.01140607772686 -275.94123713396948 0 0 0 0 144.98796530157426 82.963091347901695 0 82.963091347901695 -879.4577538014928 0 0 0 0 -335.32840226038775 -338.62353082127811 0 -338.62353082127811 -235.28125997438474 0 0 0 0 652.43544242452128 -145.57166240513288 0 -145.57166240513288 34.191388666185958 0 0 0 0 644.04232271848286 -223.64002061727297 0 -223.64002061727297 -499.48062825844681 0 0 0 0 155.62519628336352 -82.259706148660371 0 -82.259706148660371 -129.8487090372364 0 0 0 0 5.3811439979289162 -106.86565907319664 0 -106.86565907319664 58.273131079758059 0 0 0 0 900.99840015117854 -286.76738983981886 0 -286.76738983981886 -203.15538758066577 0 0 0 0 -0.71516790010663334 -12.817464452617561 0 -12.817464452617561 -58.39425066928456 0 0 0 0 514.68591375122674 -172.07146732719684 0 -172.07146732719684 117.18693651464127 0 0 0 0 132.09669164827011 -288.83675661483016 0 -288.83675661483016 -69.699379149657034 0 0 0 0 427.64887445805721 -335.39130217775164 0 -335.39130217775164 -175.28941804541319 0 0 0 0 807.01771118828901 -402.76061926082184 0 -402.76061926082184 -41.32482398580396 0 0 0 0 501.14644164993047 -455.38055130467819 0 -455.38055130467819 94.599286320139072 0 0 0 0 -2.4104263868968756 -15.788450525356746 0 -15.788450525356746 -56.507872782538314 0 0 0 0 396.05090839368063 -307.98029138820857 0 -307.98029138820857 61.433791904179088 0 0 0 0 359.86157105396285 -219.77934384197306 0 -219.77934384197306 67.448845408835041 0 0 0 0 319.89572395471635 -573.07587772871216 0 -573.07587772871216 -0.94505311770808476 0 0 0 0 7.5790360254595726 50.008860944811204 0 50.008860944811204 76.995230387560241 0 0 0 0 24.654870819672851 72.963374959383145 0 72.963374959383145 12.070299618459103 0 0 0 0 -21.456658341891398 21.127986339564359 0 21.127986339564359 -44.067101223099598 0 0 0 0 -103.55522376576505 1064.1795425557621 0 1064.1795425557621 -1057.7117387874368 0 0 0 0 -901.91086097788877 -504.05772149171241 0 -504.05772149171241 365.12244290861418 0 0 0 0 -633.91361465202999 568.70425850824722 0 568.70425850824722 -493.8585995858466 0 0 0 0 169.6543795074283 -8.1049005010347628 0 -8.1049005010347628 -1165.6520270436831 0 0 0 0 369.93435400972157 -165.72804257366079 0 -165.72804257366079 122.26852791235797 0 0 0 0 605.98136600711882 -162.34704805890397 0 -162.34704805890397 34.300017666399071 0 0 0 0 154.25904969814883 -209.61759059047836 0 -209.61759059047836 128.67329942966171 0 0 0 0 269.28432396628341 -256.1031091962559 0 -256.1031091962559 115.57002259427099 0 0 0 0 -57.085837336089526 -237.64260940202985 0 -237.64260940202985 180.61701355431433 0 0 0 0 65.890561192125915 -182.08689320278609 0 -182.08689320278609 137.81465576833216 0 0 0 0 206.72813271372502 -260.3395106775497 0 -260.3395106775497 114.46600013511488 0 0 0 0 -136.37900320056133 -169.28360127849191 0 -169.28360127849191 179.6089541130932 0 0 0 0 -73.835349898660979 -128.31202141761241 0 -128.31202141761241 118.69998547651267 0 0 0 0 -226.47371955860808 -164.83300191581884 0 -164.83300191581884 160.30638315810938 0 0 0 0 -126.83365443412242 -288.95738428128425 0 -288.95738428128425 55.755274212955555 0 0 0 0 -215.80135284048447 -95.709621796602733 0 -95.709621796602733 80.741066852831864 0 0 0 0 201.88942124969208 -356.70261741685681 0 -356.70261741685681 19.883542794641926 0 0 0 0 -12.989227684350226 -181.08112829277525 0 -181.08112829277525 124.0374499331956 0 0 0 0 93.748325848453987 -260.22733590242933 0 -260.22733590242933 109.08773699194717 0 0 0 0 
</DataArray>
<DataArray type="Float64" Name="cross_section_updated" format="ascii">
1 1 1 1 0.010075635621023229 1 1 0.010446452031798666 1 1 1 0.0090680096662128021 0.0095014842531855274 1 1 1 1 0.010392762719112512 1 1 1 0.0078510921082884603 1 1 1 1 1 0.0097588866860524471 1 1 1 0.0086490966503440531 1 1 1 1 1 1 1 0.006892669617630829 0.0073146629699384694 1 1 1 1 1 1 1 1 1 1 1 1 1 1 0.0095060850235309559 1 1 0.0064007251894812444 1 1 1 1 1 1 1 1 1 1 1 1 1 1 1 1 1 1 1 1 1 1 1 0.005547905563150041 1 0.0056722781986928324 1 1 0.0097770345291860287 0.0099550209520044945 1 1 1 0.010247330652684215 1 1 0.01083133078269659 1 1 1 1 1 1 0.0096488517519461789 1 1 1 0.0097881115083642226 1 0.0098722988128309604 1 1 1 1 1 1 1 1 1 1 1 1 1 1 1 1 1 1 1 1 1 1 1 1 1 1 1 1 1 1 0.0087367946091093038 1 1 1 0.0072566282734006574 1 1 1 1 1 1 1 1 1 1 1 1 1 1 1 1 1 1 1 1 1 1 1 1 0.0094586925251453173 1 1 1 1 1 1 1 1 1 1 1 1 1 1 1 1 1 1 1 1 1 1 1 1 1 0.0096998058390928687 1 1 1 1 0.009853717869018128 1 1 1 1 1 1 1 1 1 1 1 1 1 1 1 1 1 1 1 1 1 1 1 1 1 1 1 0.0072103165173401113 1 0.0078640011282283973 1 1 1 1 1 1 1 0.0094612272546396869 1 1 1 1 1 1 1 1 1 0.0086571685000034603 1 1 1 1 1 1 1 1 1 1 1 1 1 1 1 1 0.0099723253053158947 1 1 0.0099445787483306777 1 1 1 1 1 1 1 1 1 0.010267016782863785 1 1 0.010080054824232057 1 1 1 1 1 1 1 1 1 1 1 1 0.0091735182751796415 1 1 1 1 1 1 1 1 1 1 1 1 1 1 1 1 1 1 1 1 1 1 1 1 1 1 1 1 1 1 1 1 1 1 1 1 1 1 1 1 1 1 1 1 1 1 1 1 1 1 1 1 1 1 1 1 1 1 1 1 1 1 1 1 1 0.0099216129609167713 1 1 1 0.0088460460052750545 1 0.0099728927448803281 1 1 0.0091696743778925775 1 0.010581278183127971 0.0099770061161738085 1 1 1 1 1 1 1 1 1 1 1 1 1 0.010067002046912576 1 1 1 1 1 1 1 0.0099902878944740509 1 1 1 1 1 1 1 1 1 1 1 1 1 1 1 0.010270328983332962 1 1 1 1 1 1 0.010080597099292651 1 1 1 1 1 1 1 1 1 1 1 1 1 1 1 1 1 1 1 1 1 1 1 1 1 1 0.010709514062188657 1 0.0099597638081844707 0.010333202225126892 1 1 1 1 1 1 1 1 1 1 1 0.0099906312783308374 1 1 0.010000484656825879 1 1 1 1 1 0.0099158126955332625 1 1 0.0088738943384648362 1 1 1 1 1 0.0063464013174621067 1 1 1 1 1 1 1 1 1 0.0092999267335635901 1 1 1 1 0.0054254594562248848 1 1 0.009929613020898384 1 1 1 1 0.0073315923500786757 1 1 1 1 1 1 1 0.0080650064558097957 1 1 1 1 0.0100127378175092 1 0.010150731849259414 1 1 1 1 1 1 1 1 0.0056383476081427065 0.0097896077079543797 1 1 1 1 0.0059965464326823207 1 1 1 0.0080544229911986513 1 0.0099694825247047762 1 0.0092205865925800868 0.010000405207026249 1 0.0069590094048133985 1 1 1 1 1 1 1 0.0085911732553291022 1 1 0.0061322617812856819 1 1 1 1 0.011422795744863412 1 1 1 0.0099777289844589379 0.010894000012605775 1 1 1 1 1 0.010444034141909034 1 1 1 1 1 1 0.0090794310602472592 1 1 1 1 1 1 1 1 1 1 1 1 1 1 1 1 1 1 1 1 1 1 1 1 1 1 1 1 1 1 1 1 1 1 1 1 1 1 0.0099131831893582989 1 1 1 0.009656825529249272 1 1 1 1 1 1 1 0.0093210574320552117 1 1 1 1 1 1 1 1 1 1 1 1 1 1 1 1 1 1 1 1 1 1 1 1 1 1 1 1 1 0.0099153676630918501 1 0.010006886735826616 1 1 1 0.0056718801664749699 1 1 1 1 0.0055547675804874111 1 1 1 1 1 0.0088828443788716988 1 1 1 1 1 1 1 1 1 1 0.003480722283647153 0.0052580906507021918 1 1 1 1 1 1 1 0.0071923920609082252 1 0.0068409405088142878 1 1 1 1 1 0.0051382381134476001 1 1 1 1 1 1 1 0.010370629270274618 1 1 1 0.010051214205699393 1 0.010238317481065929 1 1 0.0099943167649898176 0.010190319719371285 1 1 0.0097586940777404201 1 0.009478382695821512 1 0.009547933626032068 0.0094311650925680592 1 1 1 1 1 0.0095238924938858341 1 1 1 0.0098063733247885088 1 1 1 1 1 1 0.0098828656586378051 1 1 1 0.0099962462807906393 1 1 0.0094001168652801097 1 1 1 1 1 1 1 1 1 1 1 1 1 0.010248900871901837 1 1 1 1 1 1 1 1 1 1 1 1 1 1 1 1 1 1 1 1 1 1 1 0.0096476549257289192 0.0090864944135141661 1 1 1 1 0.0095147799318257668 1 0.0097728552800983026 1 1 1 1 1 1 1 1 1 1 0.0097845903596239497 1 1 1 1 1 1 1 1 1 1 1 1 1 1 1 1 1 1 1 1 1 1 1 1 1 1 1 1 1 1 1 1 1 0.0096337964286127183 1 0.0099984167507742756 1 1 1 1 1 1 1 0.0099731189773361126 0.0098292947700527045 1 1 1 1 1 1 1 1 1 1 1 1 1 1 1 1 1 0.0061149784435415881 1 1 0.0057556138921438359 1 1 1 1 1 1 1 0.0098654115237525753 1 1 0.0099166899699894614 1 1 1 0.0067919895679854408 1 1 1 1 1 1 1 1 1 1 1 1 1 1 1 1 1 1 0.0099247741973057073 1 1 0.0093803939976503034 1 1 1 1 1 0.0099950473874121856 1 1 0.0099981516978795357 1 1 1 0.0097941897696273671 1 1 0.009664878541351651 1 1 1 1 1 1 1 1 1 1 1 1 1 1 0.0076279567274455534 1 1 1 1 1 1 1 1 1 0.0085008807313854771 1 1 1 1 1 1 1 0.009421402017534412 1 1 1 1 1 0.0095554964940170045 1 1 1 1 1 1 1 1 1 1 1 0.0099900047095987186 1 1 1 1 1 1 1 1 1 0.0099801564096878171 1 1 1 0.0099936865151170531 1 1 1 0.009151251464612379 1 1 1 1 1 1 1 0.0092121691179007977 1 1 0.0089691217019439995 1 1 1 0.010000798785287954 0.0095091297949896885 1 0.009933752311934111 1 1 1 1 1 1 1 1 1 0.0091574998677983639 1 1 1 1 0.0075231023846067165 0.0088214531441217908 0.0098992996035449851 0.0085128879977856946 0.008433960259302889 1 0.010558878554322639 1 1 1 0.0099904132559526307 1 1 0.0096019486696952722 0.009345552101778655 1 1 0.0093850615596167766 1 1 1 0.0093586304609037437 1 1 0.0092035998125728456 1 1 1 1 1 0.009971092656368653 1 1 1 1 1 1 1 1 1 1 1 1 1 0.010004131074305887 0.0089603127176911979 1 1 0.0093487894081397023 0.009167832304598179 1 1 0.0098266680449377673 1 1 1 0.0087087817202056526 1 1 1 1 1 0.0099441261224166091 1 1 0.0087389367765724653 1 0.0092194157252268073 1 1 1 1 1 1 1 1 0.0098266213244838536 1 0.0099166211947208423 1 1 1 0.0095748127509734157 0.0095334089183745935 1 1 1 0.009938352311644378 0.0097386123262436109 1 0.009494493355247071 1 1 1 1 1 1 0.0099991846221002788 1 1 0.0098348169540279275 1 1 1 0.0099951455546904502 0.0099814573856132488 1 0.0097285973534002798 1 0.0097480785533519704 1 0.0098971388837091993 1 1 1 1 1 0.010017445122528485 1 1 1 1 0.010082203242242072 1 1 1 1 0.0097102277147867021 1 1 1 1 1 1 0.009793267166274728 1 1 1 1 1 1 1 1 0.0097900936160358679 1 1 1 1 1 1 0.00941090232996801 1 1 1 1 1 1 1 1 1 0.0099377153487187515 1 1 1 1 0.010014896856027494 1 1 0.0095777773953777349 1 0.009904332078524784 1 1 0.010052271097722627 1 1 1 0.010115968258925412 0.010009329491419404 1 1 1 1 0.0093965457722103452 1 1 1 0.0094984834860365481 1 1 1 1 1 1 1 1 1 1 1 1 1 1 1 1 1 1 1 1 1 1 0.0099547053051270047 0.009632289923705014 1 0.0099951958528369331 1 0.009839451101283727 1 0.0090823238253489279 1 1 0.0089937122441809524 1 1 1 1 1 1 1 1 1 0.0099918142819164831 1 1 1 1 0.0090180957903336651 1 0.010002414995445732 1 1 1 1 0.0099987397855246969 0.010141321385666242 0.0094950961221749001 0.0091821623195097422 1 1 0.0095519158257163367 1 1 0.0098022850574128271 1 1 0.0095371484473459195 0.0099999517613119406 1 1 0.0095229215358282084 1 1 1 0.0098117831541929476 1 1 0.0097688626691677695 1 1 0.0099233578098548575 1 1 0.0099970330019422925 1 1 1 1 0.0098615732916291013 1 1 1 0.0098503987055231987 0.0099578620078514014 1 1 1 0.0087856858918617699 1 1 1 1 1 1 1 1 1 1 1 1 1 0.010008792360995028 0.0099026469112620426 1 1 1 1 0.010124255452040033 0.0098701104163262839 1 1 1 0.0093252902459590569 1 1 1 1 1 1 1 0.0083903970108686887 1 1 1 1 1 1 1 1 1 1 1 1 1 1 1 1 1 1 1 1 1 1 1 1 1 1 1 1 1 1 1 1 1 1 1 1 1 1 1 1 1 1 1 1 0.010013396978836953 1 1 1 1 1 1 1 1 1 1 1 1 0.010151690329726541 1 1 1 0.010802366369376981 1 1 1 1 0.010112691814209349 1 1 1 1 1 1 1 1 0.0085218135421801823 1 1 1 1 1 1 1 1 1 1 1 1 1 1 1 0.009569481673865711 1 1 0.010058564459955625 1 1 0.0097765381786694555 1 1 1 1 0.009408404046582124 1 1 1 1 1 1 1 1 1 1 1 1 1 1 0.0099776032835561003 1 1 1 1 0.0099126658678509814 1 1 1 0.010718697253542513 1 0.010303222700180201 1 1 1 1 0.0064099932273220476 0.0082929481160419344 1 1 0.010228030676195918 1 1 1 1 1 0.0099200135384106616 1 0.0090504516193918114 1 1 1 1 1 1 1 1 0.010143849154215297 1 1 0.0097763134746109981 1 1 0.0082396489797952992 0.0099954467038899132 1 1 1 1 0.0094544366195702841 1 1 1 1 1 1 1 1 1 0.010027639705010239 1 1 1 1 0.010280001658722305 1 0.010610667974753987 1 1 1 1 1 0.010093526532369383 0.0092949199485281818 1 1 0.01044958948336604 1 1 1 1 0.0073855261877450399 1 1 0.0090986514492440284 0.0091919194693571744 1 0.010688398100540961 0.0083872922087131936 0.0098035874164410473 0.011239576176690884 1 1 0.0052123753559644697 1 1 0.010005803315452866 1 1 1 1 1 1 1 1 1 1 1 1 1 1 1 1 1 0.0095217483869716128 1 0.0090724676546653886 1 0.0085927279978797629 0.0099775810352662232 1 1 1 0.0095703295572757696 1 1 1 1 1 1 1 1 1 0.0084397263596922636 1 1 1 1 1 1 1 1 1 1 1 1 1 1 1 1 1 1 1 1 1 1 1 1 1 1 1 1 0.010484024689879898 1 0.0083593935758224866 1 1 0.0089563121940710068 1 1 1 1 0.010152965281899814 1 1 1 1 1 1 1 1 1 1 1 1 1 1 1 1 1 1 1 1 0.0099771996616001696 1 1 0.0099873918949932323 1 1 1 1 1 1 1 1 0.0096270210224561267 1 1 1 1 1 1 1 1 1 1 1 1 1 1 0.0094148221290632321 1 1 1 1 1 1 1 1 1 0.0078301798133079466 1 1 1 1 1 1 0.0083342659017855304 1 1 1 1 1 1 1 0.009722505662927327 1 1 1 1 1 1 0.0098867356432514198 1 1 1 1 1 1 1 1 0.0094765743671474164 1 1 1 1 1 1 0.0093159467858350085 1 1 1 0.0079979946895188357 1 1 0.0099406870592961549 1 1 1 1 1 1 0.009992411252770202 1 1 0.010773263631241144 0.010402565760909834 1 1 0.0097295154359073096 1 1 1 0.0091108085953898726 1 1 0.0096642119124969676 1 1 1 1 1 1 1 1 1 1 1 1 1 1 1 1 1 1 1 1 1 1 1 1 1 1 0.0099924710869836401 1 1 0.0099995383594954825 1 1 1 1 0.0087265529469281213 1 1 1 1 1 1 0.0070366741020591326 1 1 1 1 1 1 1 1 1 1 1 1 1 1 1 1 1 0.010012075848150077 1 1 1 1 1 1 0.0065274195982524246 1 1 1 1 1 1 1 1 1 1 1 1 1 1 1 1 1 1 1 1 0.0068509208485677715 1 1 1 1 1 1 1 1 1 0.010033858452153382 1 0.0080375468800037569 1 1 1 0.01002114077407803 1 1 1 1 1 1 1 1 1 1 0.010021564822992376 1 1 1 1 1 1 1 1 1 1 1 1 1 1 1 1 1 1 1 1 1 1 0.010069645210792065 1 0.010127144448822735 1 1 1 1 1 1 1 1 1 1 1 0.010118916005737872 1 1 1 1 1 1 1 0.0095659177090579375 0.0095120034412178433 1 1 1 1 0.0094198957333453421 1 0.0091898602359177864 1 0.0098686232767722839 1 1 1 1 1 1 0.0099658935708468056 1 0.0097270471807303117 1 1 1 1 1 1 1 1 1 0.0099531766233585412 1 1 0.0092487370536808548 1 1 1 1 1 1 1 1 1 1 1 1 1 1 1 1 1 1 1 1 1 1 1 1 1 1 1 1 1 1 1 1 1 1 1 1 1 1 1 1 1 1 1 1 1 1 1 0.0096110689020187934 1 1 1 0.0098529611135462127 1 1 1 1 1 1 1 1 1 1 1 0.0079634779734446322 1 1 1 1 0.0092458100508031518 1 1 1 1 1 0.0099438971566697988 1 1 1 1 0.0098045428180627142 1 1 1 1 0.01025573506434683 1 0.0096570748830440666 1 0.0094213474649481634 1 1 0.010220947640368355 0.0095872534870576689 0.010322453741022102 1 1 1 0.0093202721348003247 1 1 1 1 1 0.0098498560115806589 1 1 1 1 0.0095667652702819093 1 1 1 1 1 1 1 1 1 1 1 1 0.0099664147380029208 1 1 0.0087216158688362723 1 1 0.009908892835824629 1 0.0095113429465936046 1 1 1 0.0099130000985514291 1 1 1 1 0.010159609179445948 1 1 1 1 1 0.0098443987955836934 1 1 1 1 0.0092573394670293629 1 1 1 1 1 1 1 0.0095069564961561583 1 1 1 0.0098414503478582663 1 1 1 1 1 1 1 1 1 1 1 1 1 1 1 1 1 1 1 1 1 1 1 1 1 1 1 1 1 0.010193932480549568 1 0.010191255754162246 1 1 1 1 0.010062379005211697 1 1 1 1 1 1 0.0099910235647678279 1 1 1 1 1 1 1 1 1 1 1 1 1 1 1 0.0098082596751126773 1 1 1 1 1 1 1 1 1 1 1 1 1 1 1 1 1 1 1 1 1 1 0.0099329434790795795 1 1 1 0.0073820109643502087 1 0.0094252433836893301 1 1 0.0075237995586460091 1 1 1 0.0084872145236603146 1 1 0.0096055159137484226 1 1 0.0066522910938662007 1 0.0098529771584083253 1 1 1 1 1 1 1 1 1 1 1 1 1 0.0095835120921486591 1 1 1 1 1 1 1 0.0089859319967535885 1 1 1 1 1 1 1 1 0.0094280479982361068 1 1 1 1 1 1 0.0092046410975302039 1 1 1 1 1 1 1 1 1 0.0098829293946101054 1 1 0.0068264297426403608 1 1 1 1 0.010044665114172506 1 1 1 0.0091788184364597659 0.0096443524070429342 1 1 1 0.008657699659749947 1 0.0066106828992386936 1 1 1 1 0.011012685119042891 0.0081170070325962476 1 1 1 0.0072552460754428619 1 1 0.010654904401245167 1 1 0.010351176951065822 1 1 1 1 1 1 1 1 1 1 1 1 0.0091959412453637771 1 1 1 1 1 1 1 1 1 0.0093384639959462803 1 1 1 0.010280796273755633 0.0080501526050340867 1 1 0.010028629916632878 1 1 1 1 1 1 1 1 1 1 1 1 0.0099901641508171896 1 1 1 1 1 1 1 1 1 1 1 1 1 1 1 1 1 1 1 1 1 1 1 1 1 1 1 1 1 1 1 1 1 1 1 1 1 1 1 1 1 1 1 1 1 1 1 1 1 1 1 1 1 1 1 1 1 1 1 1 1 1 1 1 1 1 1 1 1 1 1 1 1 0.0097442663115204688 0.0094873869075807957 1 1 0.0098014161542692262 1 1 1 1 1 1 1 1 1 1 0.009363008716074879 1 1 0.0091519160405358034 1 1 1 1 1 1 1 1 1 1 1 1 1 0.009740554044913332 0.0099625097895662679 1 1 1 1 1 1 0.0093190649581206819 0.010079120860353636 1 1 1 1 1 1 1 1 1 1 1 1 1 0.0094935131040021284 1 1 0.0096328680511240661 1 1 1 1 1 1 1 1 1 1 1 1 1 1 1 1 1 1 1 1 1 1 1 1 1 1 1 1 1 0.0098080801947287577 1 1 1 1 1 1 1 1 1 1 1 1 1 1 1 1 1 1 1 1 1 0.0095918333187314693 1 1 1 1 1 1 1 1 1 1 1 1 1 1 1 0.008988922589393069 1 1 1 1 1 1 1 1 1 1 0.010207438854294633 0.0073829021102448621 1 1 1 0.01003769049819723 1 1 1 1 1 1 1 1 1 1 1 1 1 0.0096765343285464007 1 1 1 1 1 1 1 1 1 1 1 1 0.0094846145232751599 1 1 1 1 1 1 1 1 1 1 1 1 1 1 1 1 1 1 1 1 1 1 1 1 1 1 1 1 1 1 1 1 1 1 1 1 1 1 1 1 1 1 1 1 1 1 1 0.0096629533768690205 1 1 1 0.0096170588903722425 1 1 1 1 1 1 1 1 1 1 1 0.0099392823898824638 1 1 0.0095233683848736025 0.0098583812081864362 1 1 1 1 1 1 1 1 0.0090645100294516022 1 0.010075529753480091 1 1 1 1 1 1 1 1 1 1 0.0096523456201843862 1 1 0.0096170840783029246 1 0.0091784744557117399 1 1 0.009955931577888712 1 1 1 1 1 1 1 0.010270363405805802 1 0.009814514198258243 1 1 1 1 0.0099997132639185801 1 1 1 1 1 1 0.0086135360528345993 1 1 1 1 1 1 1 1 1 1 1 1 1 1 1 1 1 1 1 1 1 1 1 1 1 1 1 1 1 1 1 1 1 1 1 0.0094992666842602849 1 1 0.0098842885715107812 1 0.0098410234181195988 1 1 0.0099783002477446415 1 1 1 1 1 1 1 1 1 1 1 1 1 1 1 1 1 1 1 1 0.0097339592364786131 1 1 1 0.0091981633503335908 1 1 1 1 1 1 1 1 1 1 1 1 1 1 1 1 1 1 1 1 1 1 1 1 1 1 1 1 1 1 1 1 1 1 1 1 1 1 1 1 1 1 1 1 1 1 1 1 1 1 1 1 1 1 0.0067491268762768534 1 1 1 1 1 1 1 1 1 1 1 1 1 1 1 1 1 1 1 1 1 1 1 1 1 1 1 1 1 1 1 1 1 1 1 0.0067693350702432917 0.0089876178705755577 1 1 1 1 1 1 1 1 0.0060941499765599701 1 1 1 1 0.0095761702542200809 1 1 1 1 1 1 1 1 1 1 1 1 1 1 1 1 1 1 1 1 1 1 1 1 1 1 1 1 1 1 1 1 1 1 1 1 1 1 1 1 1 1 0.0076011539234101559 1 1 0.0088630247718829852 1 1 1 1 1 1 1 1 1 1 1 1 1 1 0.0092559558999639018 1 1 1 1 1 1 1 1 1 1 1 1 1 1 1 0.009735053942034529 1 0.0097704356632015467 1 1 1 1 1 0.0096152824414116496 1 1 1 1 1 1 1 1 1 0.010089511941921361 1 1 1 1 1 1 1 1 0.010089236783713099 1 1 1 1 1 1 1 1 1 1 1 1 1 1 1 1 1 1 0.0096114334346705486 1 0.0096657506694634489 1 1 1 1 1 1 1 0.0099165506810098628 1 1 1 1 1 0.0089402423021666122 1 1 1 1 0.0075432364425489212 1 0.0098766220508887358 1 1 1 1 1 1 1 1 1 1 1 1 1 1 1 0.0096582895028874197 1 1 1 0.0094874836381210574 1 1 0.0097946593929393311 1 1 1 1 0.0076789933036168854 1 1 1 1 1 1 1 0.007520982016913807 1 1 1 1 1 1 1 1 1 1 1 1 1 1 1 1 1 1 1 1 0.0095225908527452278 1 1 0.0092296365667096595 1 1 1 1 1 1 1 1 1 1 1 1 1 1 0.0083266468223426888 1 1 1 1 1 1 1 1 1 1 1 1 1 1 0.0075526308923969179 1 1 1 1 1 1 0.008880360714271042 1 1 1 1 1 1 1 1 1 1 1 1 1 1 1 1 1 0.0082786536709211368 1 1 1 1 1 0.0094861024725718928 1 1 1 1 1 1 1 1 1 0.010397876724743588 1 1 1 0.0078211417050819011 1 1 1 1 1 1 1 1 1 1 0.0098189026981459985 1 1 1 0.0084399003538682196 1 1 1 1 0.010487302910312527 1 1 1 1 0.010392052580493593 1 1 1 0.009228203049990176 1 1 1 1 1 1 1 1 0.0096923950509436273 1 1 1 1 0.0077195454886490999 1 1 1 1 1 1 1 1 1 0.0096546120428953296 1 1 1 1 0.0098734923527976307 1 0.0099110187617453219 1 1 1 1 1 1 0.0090852894554714729 1 1 1 0.0096159946914510935 1 0.0099140417770164808 1 1 1 1 1 1 1 1 1 1 1 1 1 1 1 1 1 1 1 1 1 1 1 1 1 1 1 1 1 1 1 1 1 1 1 1 1 1 1 1 1 1 1 1 1 1 1 1 1 1 1 1 1 1 1 1 1 0.0099567214438831871 1 1 1 1 1 1 1 1 0.006721997457723305 1 1 1 1 0.0068944577487694142 1 1 1 1 1 1 1 1 1 1 0.0086638027297050307 1 1 0.0091378241808592366 1 1 1 1 1 1 1 0.0078860339037187428 1 1 1 1 1 0.0091017652852248762 1 1 1 1 1 1 0.0093628194469972253 1 1 1 1 0.01005541739438998 1 1 1 1 1 1 1 1 1 1 0.0097170775229048021 1 1 1 1 1 0.009437408208778357 1 1 0.010000787899625193 1 1 1 1 1 1 1 1 1 1 1 1 1 1 1 1 1 1 1 1 1 0.010087955712034521 1 1 1 1 1 0.010032538317644541 1 1 1 1 1 1 1 1 1 1 1 1 1 1 1 1 1 1 1 1 1 1 1 1 0.0075155102914568452 1 1 1 1 0.0083153181832119893 1 1 0.0085558297893139502 1 1 1 1 1 1 1 1 1 1 1 0.010007596161865251 1 1 1 1 1 1 1 1 1 1 1 0.010007553584100206 1 0.01026284747261823 1 1 1 0.010037629996088964 1 1 1 1 0.010090561872452882 1 1 1 1 1 1 1 1 1 1 0.0094846385854893498 1 1 1 1 0.0088468943609919387 1 1 1 1 1 0.0087871241884901162 1 1 0.0079622502473226508 1 1 1 1 1 1 1 1 1 1 1 0.0097256977214042785 1 1 1 0.0093651147824689463 1 1 0.0097313983714438293 1 1 1 1 1 1 1 1 1 0.0082898283138391413 1 1 1 1 1 1 1 1 1 1 1 1 1 0.0098701391314094319 1 1 1 1 1 1 1 1 1 0.0098745232129056042 1 1 1 1 1 0.0099612598094936354 1 1 0.0083069837049906826 0.0093250496454671938 1 1 1 0.0080409501511817926 0.010117818894389707 1 1 0.0099202254180103793 1 1 1 1 0.0060302167185665341 1 1 1 1 0.010414973351717068 1 1 1 1 1 1 1 1 1 1 1 0.010384791201445658 0.007017556943840984 0.0072608062766516199 1 0.0090329301783576964 1 0.01001120521692027 1 0.0086899625173283979 0.0099998451984968512 1 1 1 1 1 1 1 1 1 1 1 1 0.01005949680713198 1 1 1 1 1 1 1 1 1 1 1 1 1 1 1 1 1 1 1 1 1 1 0.010000541761269702 1 1 1 1 0.0099504554746687544 1 1 1 1 1 1 1 0.010087620543364659 1 1 1 1 1 0.0099599095495523579 1 1 1 1 1 1 1 1 1 1 1 1 1 1 1 1 1 1 1 1 1 1 1 1 1 1 1 1 1 1 1 1 0.0087445029011536876 1 1 1 1 1 0.0098022101140576995 0.010005021339395919 0.0080597436990509849 1 1 1 1 1 1 0.0093370557818757086 1 1 0.009234954100886825 1 0.0097001915936658755 1 1 0.01049137794460988 1 1 1 1 1 1 1 0.0097007790046423174 1 1 1 0.010180215894772356 1 1 1 1 1 1 1 1 1 1 1 1 1 1 1 1 1 1 1 1 1 1 1 1 1 1 1 1 1 1 1 1 1 1 1 1 1 1 1 1 1 1 1 1 1 1 1 1 1 1 1 1 1 1 1 1 1 1 1 1 1 1 1 1 1 1 1 1 1 1 1 1 1 1 1 1 1 1 1 1 1 1 1 1 0.0099254017311937622 1 1 1 1 1 1 1 1 1 1 1 1 1 1 1 1 1 1 1 1 1 1 1 1 1 1 1 1 0.0076569917741834709 1 1 1 1 1 1 1 1 0.0098518245419554895 1 1 1 1 1 0.0089420039138531655 1 0.0099965362438575872 0.011680526744531121 0.0088792370841555921 1 0.0099562930764608669 1 1 1 0.0099264228107617258 1 1 1 1 1 1 1 1 1 1 1 0.01030098765541039 1 1 1 1 1 1 1 1 1 1 1 1 1 0.010487169983695319 1 1 1 1 1 1 1 1 1 1 0.0091711336642474467 0.0053129028156852966 1 0.011110100903463581 1 1 1 1 1 1 1 1 1 1 0.0059106876309748275 1 0.010067164366024645 1 1 1 1 1 1 1 1 1 1 0.0078069469880157885 1 1 1 0.0083675451827780745 1 1 1 1 1 1 1 1 1 1 1 1 1 1 1 1 1 1 1 1 1 1 1 1 0.0051547493347894619 1 1 0.010563878628098941 0.0046132050558133119 1 1 0.0099449358573147437 1 1 0.010191685690546251 1 1 1 1 1 1 1 1 1 1 1 1 1 1 1 1 1 1 1 1 1 1 1 1 1 1 1 1 1 1 1 1 1 1 1 1 1 1 1 1 1 1 1 1 1 0.009296030539507661 1 1 1 1 1 1 1 1 0.0077556096519475499 0.0076573516056454953 1 1 1 1 1 0.0091948670575403065 1 1 1 0.0059491005117435717 1 1 1 1 1 1 0.010061207510869969 1 1 1 1 1 1 1 1 1 1 1 0.011505392275771822 1 1 1 1 1 0.010933062042058041 1 1 1 1 1 1 1 1 1 1 1 1 0.0097273364569186241 1 1 1 0.0099103222309521889 1 1 1 1 1 1 1 0.0050499771235997595 1 1 1 1 1 1 1 1 1 0.0083801093545042837 0.0058244092696161411 1 1 1 1 1 1 1 1 1 1 1 1 1 1 0.0094739228843698457 1 1 1 0.01001007188957715 1 1 1 1 1 1 1 1 1 1 1 1 1 1 1 1 1 1 1 0.010114461963877238 1 0.010003087589375341 0.0090328260256173267 1 1 1 0.0095738044275873076 0.0064068638932494853 1 0.0068419168616955586 0.010417043540485206 1 1 1 1 1 0.010943005799229204 1 0.0044965661997055408 1 1 1 1 1 1 1 1 1 0.010063234051148482 0.011845329966463994 1 1 0.010173348021704571 0.0050957772536592994 1 1 1 1 1 1 0.006935638859617013 1 1 1 0.0099967728955363093 1 1 1 1 1 1 1 1 1 1 1 1 1 1 1 1 1 1 1 1 1 1 1 1 1 1 1 0.0099305486629379693 1 0.0094353878555502799 1 1 1 1 0.0097374618621122108 1 1 0.009127608318522067 0.010151981229602333 1 1 1 0.010043909683579632 1 1 0.0090155558382653076 1 1 0.0096312691390901695 1 1 1 1 1 1 1 1 1 1 1 1 1 1 1 1 1 0.0098386015357109398 1 1 1 1 1 1 1 1 1 1 1 1 1 0.0092276283403833377 1 1 1 1 1 0.0099008506007536665 1 0.0096408866970652748 1 1 1 1 1 1 0.0099320444650997965 1 1 1 0.0097799713540523033 1 1 1 1 1 1 1 1 1 1 1 1 1 1 1 1 1 1 1 1 1 1 1 1 1 0.0096369165503979067 1 1 1 1 1 0.0097983150146869671 1 1 1 1 1 1 1 1 1 1 1 1 1 1 1 1 1 1 1 1 1 1 1 1 1 1 1 1 1 1 1 1 1 1 1 1 1 1 1 1 1 1 1 1 1 1 1 1 1 1 0.009870757177790809 1 1 1 0.010190092876466056 1 1 1 1 1 1 1 0.010654914085372343 1 1 1 1 1 1 1 1 1 1 1 1 1 1 1 1 1 1 1 1 1 1 1 1 1 1 1 0.0092853121229642416 1 1 1 1 1 1 0.0079711884079320065 0.011733341650226549 1 1 1 1 0.011196470405434273 1 1 1 1 1 1 0.0092155973490829525 1 1 0.0095214586596422991 1 1 1 0.0098379669818409385 1 1 1 1 1 1 0.0070699387017315492 1 1 1 1 1 1 1 1 1 1 1 1 1 1 1 1 1 1 0.011538618509591248 1 1 1 1 0.010049355101851648 0.010066915046208803 1 1 1 0.010162540825273174 1 1 1 1 1 1 0.0088925447263696993 1 0.0097523929318390525 1 1 0.0099018445950281569 1 1 1 1 1 1 1 1 0.007413603499927944 1 1 1 1 1 1 1 1 1 1 1 1 1 1 1 1 1 1 0.0044725934518864609 1 1 1 1 1 1 0.0082087588131105685 1 1 1 1 1 1 0.0099634972178675139 1 1 1 1 1 1 0.010169099315481789 1 1 1 0.010029042284126979 1 1 1 1 1 1 1 1 1 1 1 1 1 1 1 1 1 1 1 1 1 1 1 0.00493529252349275 1 0.010023738238794735 1 1 1 1 1 1 1 1 1 1 1 0.0099333180518325209 1 0.0078937543877599294 1 0.0059246268175745971 1 1 1 1 1 1 1 1 1 1 1 1 1 0.005870885839943411 1 1 1 1 1 1 0.010744927576879473 1 0.0093534653832776093 1 1 1 0.0072891223358857692 1 1 1 0.0087133795325185417 1 1 1 1 0.0098294380499125839 1 0.010273176961181298 1 1 1 1 0.0049532629663407348 1 1 1 1 1 0.0056230698614346819 1 1 1 1 1 1 1 1 1 1 1 1 1 0.0094002066935826717 1 1 1 0.0087600285360757996 1 1 1 1 0.0095170085824323684 1 1 1 1 1 1 1 1 1 1 1 1 1 1 1 1 1 1 1 1 0.0093598218424931264 1 1 1 1 1 0.0076445207107100517 1 1 1 1 1 1 1 1 1 1 1 1 1 1 1 1 1 1 0.0090686166184783638 1 1 1 1 1 1 1 1 1 1 1 0.0066724188094854087 1 1 1 1 1 1 1 1 1 1 1 1 1 1 1 1 1 1 1 1 1 1 1 1 1 1 1 1 1 1 1 1 1 1 0.0096242036661123888 1 1 1 1 1 1 1 1 1 1 1 1 1 1 1 1 1 1 1 1 1 1 1 1 1 1 1 1 1 1 1 1 1 1 1 1 1 1 1 1 1 1 1 1 1 1 1 1 1 1 1 0.0092443926971194166 1 1 0.01008183937719721 1 0.0089963124607545814 1 1 0.0091283249779742399 1 1 1 1 1 0.0084849606443795911 1 1 1 1 1 1 0.0087120211622942305 1 1 1 1 1 1 1 1 1 1 1 1 1 1 1 1 1 1 1 1 1 1 1 1 0.0097534464883215818 1 1 1 1 1 1 1 1 1 1 0.0097369015543145535 1 1 1 1 1 1 1 1 1 1 1 1 1 1 1 1 1 1 1 1 0.0042715438614342642 1 1 1 1 0.010057639510787308 1 1 0.010082912454286833 1 1 1 1 0.0068057674455414595 1 1 1 0.010082156360302642 1 0.0086342402508933491 0.010284405010020568 0.010963712090298399 1 1 0.010277401773712554 1 1 1 1 1 1 0.0087133973824237831 1 1 1 1 1 1 1 1 0.010045048926610671 0.0069826389639549118 1 1 1 1 1 1 1 1 1 1 1 1 1 1 1 1 1 1 1 1 1 1 1 1 0.0087089657532555802 1 1 1 1 0.0093575098814256998 1 1 1 1 1 1 1 0.0094629074350690342 1 1 1 1 0.009723781597520199 1 1 1 1 1 1 1 1 1 1 1 1 1 1 1 1 1 0.0098854911179879507 1 0.0097623824781264117 1 1 1 1 1 1 1 1 1 1 1 1 1 1 1 1 1 1 1 1 1 1 1 0.010014200334825477 1 1 0.010098454160792894 1 1 1 1 1 1 1 1 0.010045449474330165 1 1 0.010083601843030447 1 1 1 0.0094278668017294155 1 1 0.010247370051558631 1 0.0093198560185207176 0.0099967822868704155 1 1 1 1 1 1 1 1 1 1 1 1 1 0.0089629942745085237 1 0.010157793843620319 0.009999380304630396 1 1 1 1 0.0099437023827044242 1 1 1 0.0099664144230144532 1 1 0.0096203347178202159 1 1 1 0.0099618534494900698 1 1 0.0048216120439277966 1 1 1 1 1 1 1 1 1 1 1 1 0.0077305593165738658 1 1 0.0076117450926667194 1 1 0.010028083565679486 0.010200629266980395 1 1 1 0.0099747398736501 1 0.0098756365400495295 0.0073020484837107262 1 1 1 1 0.0080558293494735547 1 1 1 0.0078361793124575359 1 1 1 1 1 1 1 1 1 1 1 1 1 1 1 1 1 1 1 1 1 1 1 1 1 1 1 1 1 1 1 1 1 1 1 1 1 1 1 1 1 1 1 1 1 1 1 1 1 1 1 1 1 1 1 1 1 1 1 1 1 1 1 1 1 1 0.0098599368443205871 1 1 1 1 0.0095158138113023635 1 1 1 1 1 0.0086182593477715959 1 1 0.0096069562690914642 1 1 1 1 1 1 1 1 1 1 1 1 1 1 1 0.0094821117443403494 1 1 1 1 1 1 1 1 1 1 1 1 1 1 1 1 1 1 1 1 1 1 1 1 1 1 1 1 1 1 1 1 1 1 1 1 1 1 1 1 1 1 1 1 1 1 1 1 1 1 1 1 1 1 1 1 1 1 1 1 1 1 1 1 1 1 1 1 1 1 1 1 1 1 1 1 1 0.0091738871476679112 1 1 1 1 0.007771350211285815 1 1 1 1 1 1 1 0.0067275954697934258 1 1 1 0.0098538978676869487 1 1 1 1 1 1 1 1 1 0.0098917032420598582 1 1 1 1 1 1 0.0097350923195694723 1 1 1 1 1 1 1 1 1 1 1 1 1 1 1 1 1 1 1 1 1 1 1 1 1 1 1 1 1 1 1 1 1 1 1 1 1 1 1 1 1 1 1 1 1 1 1 1 1 1 1 1 1 1 1 1 1 1 1 1 1 1 1 1 1 1 1 1 1 1 1 1 1 1 1 1 1 1 1 1 1 1 1 1 1 1 1 0.0098458755810416649 0.0096788727176051817 1 1 0.0091989963417472183 0.0091766630361747384 1 0.0080571996618701638 0.0099372730173833759 1 0.010016028086763237 0.0087139049988008768 1 1 0.009392047194743635 1 0.0083976414732930965 1 0.0099500697066033303 1 0.0084395236752738065 1 1 1 1 1 1 1 1 1 1 1 1 1 1 1 1 1 1 1 1 1 0.010195326930954679 1 0.009458889823002985 0.011463802338265581 1 1 1 0.010119279763893985 0.0099239112366049029 1 1 1 1 1 0.010279651038154031 0.0099836157940434607 1 1 1 1 1 1 1 0.0081981962597655247 0.0096330269322905063 1 1 1 1 1 1 1 1 1 0.0041498912834160365 1 1 1 1 1 1 1 1 1 1 1 1 1 1 1 1 1 1 1 1 1 1 1 1 0.010558443793028352 1 1 1 1 1 1 0.010164888677250704 1 1 0.0097510210321480415 1 1 1 1 1 1 1 1 1 1 1 1 1 1 1 1 1 1 1 1 1 1 1 1 1 0.0094939955583484142 1 1 1 1 1 1 1 1 0.009074683557148553 1 1 1 1 0.010080622824604825 1 1 1 1 1 1 1 1 1 0.0096385035253430014 1 1 1 0.0040100105936285001 1 1 1 1 0.010043244891045446 1 1 1 0.0078747002135327281 1 0.010100913873148706 1 0.009539532507982432 1 1 1 1 1 1 1 1 1 1 1 1 1 1 0.005922378656194007 1 1 0.0073960267079118524 1 1 0.0097221496856391941 0.010000288681704888 0.0094614690845011406 1 1 1 1 1 0.0098230897516513298 1 1 1 1 1 1 1 1 1 1 1 1 1 1 1 1 1 1 1 1 1 0.0039215982984664782 1 1 1 1 1 1 0.0039815275660364351 1 1 0.0099714104744408685 1 1 1 1 1 1 1 1 1 0.0078235074107984789 1 1 1 1 1 1 1 1 1 1 1 1 1 1 1 1 1 1 1 0.0053888853527363154 1 1 1 1 1 0.0084471098582531712 1 1 1 1 1 0.009979111550903124 0.0049126258983878922 1 1 0.0099536048218489617 1 1 1 1 1 1 1 0.0083214954155000961 1 1 1 1 1 1 1 1 1 1 1 1 0.0099210123176120876 1 1 1 1 1 1 1 0.0039772364634223407 1 0.010580425231616977 1 1 0.0050430967678004885 1 1 1 1 1 1 0.0091624601282107969 1 1 1 1 1 1 1 1 1 1 1 1 1 1 1 1 1 1 1 0.0081356769393997538 1 1 1 1 1 1 0.0099312979216930226 0.0063751440515790398 1 1 1 1 1 1 1 0.0069997289938458903 1 1 1 1 0.0078330904540319032 1 1 1 1 1 1 1 1 1 1 1 0.0099501802571503664 1 1 1 1 1 1 1 1 0.0098815142042602954 1 1 1 1 1 0.0098316944614106668 1 1 1 1 1 1 1 0.0076611197678015646 1 1 0.0059096659560567647 1 1 1 1 1 1 1 1 0.0053724800233415394 1 1 1 1 1 1 1 0.0037704439500971278 1 1 1 1 1 1 1 1 1 1 1 1 0.0092275800946781967 1 1 1 1 0.0099554889950346018 1 1 1 1 1 1 1 1 1 1 1 1 1 1 1 1 0.010419503460403656 1 1 1 1 1 1 1 1 1 1 1 0.011432564207845004 1 1 1 1 0.0029775411169246941 1 1 1 1 1 1 1 1 1 1 1 1 1 1 1 1 1 0.010019301155510703 1 1 0.0099981260693254043 0.003564260820491843 1 1 1 1 1 1 1 1 1 1 1 1 1 1 0.0040282216357713178 1 1 1 1 1 1 0.003000014811715971 1 1 1 1 1 1 1 1 1 1 1 1 1 1 1 1 1 1 1 1 1 1 1 1 1 1 1 1 1 1 1 1 1 1 1 1 1 1 1 1 1 1 1 1 1 1 1 1 1 1 1 1 1 1 1 1 1 1 1 1 1 1 1 1 1 1 1 1 1 1 0.010092406818665162 1 1 1 1 0.010029242024708059 1 1 1 1 1 1 1 1 1 1 1 1 1 1 1 1 1 1 1 1 1 1 1 1 1 1 1 0.0098418834767945232 1 0.010196518801909842 0.010563015729521213 1 1 1 1 1 1 1 1 1 1 1 0.0096552972048902855 1 1 1 1 0.011036051720547869 0.010638027261334051 1 1 1 1 1 1 0.0059210386974099562 1 1 1 1 1 1 1 1 1 0.0068715405303854246 1 1 1 0.0075588086408705738 1 1 1 1 1 0.007909225966071666 1 1 0.0085060684226658453 1 1 1 1 1 1 1 1 1 1 1 1 1 1 1 1 1 1 1 1 1 1 1 1 1 1 1 1 0.0035236999846556768 1 1 0.0032064652748982243 1 1 0.0099772461410142146 1 0.0090215467144475394 1 0.0099492476494269927 1 1 1 0.0099895203038784831 0.0065995397723880057 1 1 0.01104932241130022 0.0099825598228539605 1 1 1 1 1 1 1 1 1 1 1 1 1 1 1 1 1 1 1 0.010523071689896945 1 1 1 1 1 1 1 1 1 1 1 1 1 1 1 1 1 1 1 1 1 1 0.0039381128598465522 1 1 1 1 1 1 1 1 1 1 1 0.010172751689580891 1 1 1 1 0.0098973336389126046 1 1 0.0095705449864287237 1 1 1 0.0079528760973370805 1 1 1 0.0080969945157429724 1 0.0099480031158671756 1 0.0094798604292614837 1 1 1 1 1 1 1 1 0.0094741710934961101 1 0.009611313188436537 1 1 1 1 1 1 0.0099378416523553462 1 1 0.0088174521248101257 1 1 0.010041635471215178 1 1 0.0096637287417725148 1 1 1 0.0094218119852284531 1 1 1 1 1 0.0093137377657361766 1 1 0.010030943203600913 1 1 1 1 1 1 0.0099134952063215532 1 1 1 1 0.0098388891263564912 1 1 1 1 1 1 1 1 1 1 1 1 1 1 1 1 1 1 1 1 1 1 0.0098771916308273006 1 1 1 1 1 1 0.0095189412272742042 1 1 1 1 1 1 0.010294119229006063 1 1 1 1 1 1 1 1 0.011591366564795896 1 0.011745898719929745 1 0.010703842150560052 0.0090922772083253302 0.0099924967610980856 1 1 1 1 1 1 1 1 1 1 1 1 0.0079285182491545866 1 1 0.010029191951375074 1 1 0.011577616409992822 1 1 1 1 1 0.010006467828054649 1 1 0.011718137902360806 1 1 0.0075136405901011886 1 1 1 1 1 1 1 0.0086621420550424683 1 0.0090601838502860181 1 1 1 1 1 1 1 1 1 1 1 1 1 0.0096262717170782514 1 1 1 1 0.0099883864943285713 1 1 1 1 1 1 1 1 1 1 1 1 1 1 1 1 0.0088336511484933596 1 1 1 1 0.010037962190483821 0.008996656062568156 1 1 1 1 0.0099486296856031529 1 1 1 0.0098859181917378275 1 1 0.0089360665523242361 1 0.008151419162731946 1 1 0.0094580155503720693 1 0.008605247834364331 1 1 1 0.0086245184157531952 0.0081376714405443223 1 1 1 1 1 1 1 1 0.0097334650871862965 1 1 1 1 1 0.0098400659999560974 0.0092407303894414729 1 1 1 1 1 1 1 1 1 0.01041069555178253 1 0.011068135127603327 0.0091901639073846426 1 0.010030017459976939 0.010326702354847625 1 1 0.0094270212515547101 1 1 0.0099860184104000032 1 1 1 1 1 1 0.010265357024740258 0.0096507637680228776 1 1 1 0.0100154243345343 1 1 1 0.0099123643235398025 1 1 1 1 1 0.0099366828530732271 1 1 1 0.010013014461854968 1 1 1 1 0.010196328372143654 1 1 0.009989208825356647 1 1 0.0093557008042417546 1 1 1 1 1 1 0.010204913500632917 1 0.0090104573154992547 1 1 1 0.010022901439608926 1 1 0.010030212597050496 1 1 0.010058967743956617 1 0.0068667936650372453 1 1 1 1 1 1 1 1 1 1 1 0.010014393535975899 1 0.0096830287071475087 1 1 1 1 1 1 1 1 1 1 1 0.0096064684379434124 1 0.0089607528435343958 1 1 1 1 1 1 1 1 1 1 1 1 1 1 1 1 1 1 1 1 0.0098831195331482036 0.0097898267992967743 1 1 1 1 1 1 1 0.0097576398969918456 1 0.010061701261643869 1 1 1 1 1 1 1 1 1 1 1 1 1 1 1 1 1 1 1 1 1 1 1 1 1 1 1 1 1 1 1 1 1 1 1 1 1 1 1 1 1 1 1 1 1 1 1 1 1 1 0.0099085777445770858 1 1 1 1 1 1 1 1 1 1 0.0092299276541495372 1 0.0077309976969568671 1 1 1 1 1 1 1 1 1 1 1 1 1 0.0084929314620598492 1 1 1 0.008369635350410071 1 1 1 1 1 0.0099059690240045906 1 0.0067783882275778747 1 1 1 1 1 1 0.009966775198928364 1 1 1 1 1 1 1 1 1 1 1 1 1 1 1 1 1 1 1 1 1 1 1 0.009475951234186087 1 0.0055023134487836751 1 1 0.0097092747608938136 1 1 0.0032324494915649616 1 1 0.0011876409454157385 1 1 1 1 1 1 1 1 1 1 1 1 1 0.010268738273920799 0.012828932279733907 1 1 1 1 1 1 1 1 1 1 0.014508002978828949 1 1 1 1 1 1 1 1 1 1 1 1 1 1 1 1 1 1 1 1 1 1 1 1 1 0.0096454732175587192 1 0.010164071428165874 1 1 1 1 0.010017015438353188 1 1 1 1 1 1 0.0096190730062865049 1 1 1 1 1 1 1 1 1 1 0.0098311808858209237 1 1 1 1 1 1 1 1 1 1 1 1 1 0.0099107370680939621 1 1 1 1 1 0.0097140904596070242 1 0.0096228862711412871 1 1 0.009814764835538857 1 1 1 1 1 1 1 1 1 0.007076804525435923 1 1 1 0.0074430929507357767 1 1 1 1 1 1 1 1 0.0081561663741888321 1 1 1 0.0096075051610986627 1 1 1 1 1 1 1 1 1 1 1 1 1 1 1 1 1 1 1 1 1 1 1 1 0.0093795898245239064 1 1 1 1 1 1 1 1 1 0.0093140544935512957 1 1 0.0089870949856225655 1 1 1 1 1 1 1 1 1 1 1 1 1 1 1 1 1 1 1 1 1 1 1 1 1 1 1 1 1 1 1 1 1 1 1 1 0.0099898846678814351 1 1 1 1 1 1 0.0099836029289577417 1 1 0.0099734931537250951 1 1 0.010242953036209033 1 0.009973650993369082 1 0.010006237772365235 1 1 1 0.0083178120050715031 1 0.009811106884799815 1 1 1 1 1 1 1 1 1 1 1 1 1 1 1 1 1 1 1 1 1 1 1 0.010008438981525279 1 1 1 1 1 1 1 1 0.0094605462571844424 1 1 1 1 1 1 1 0.010096471188579859 1 1 1 0.0092461722055672251 1 1 0.0099125980196734815 1 1 0.0089267029275547378 1 1 1 1 1 1 1 1 1 1 0.0096441774701182641 1 1 1 1 1 1 1 1 1 1 1 1 1 1 1 1 1 1 1 1 1 1 0.008950344125966422 1 1 1 1 0.010059881833259652 0.010019233792455064 1 1 0.0095411979018683087 1 0.010462464619422976 1 0.0099386730752310335 1 1 1 0.009881276952919819 1 1 1 1 0.0091336038613802576 1 0.0087948184288678313 1 1 1 1 1 1 0.0095285955635662223 1 1 1 1 1 1 1 1 0.0098377552311855881 1 1 1 1 1 1 1 1 0.0094473488179565128 0.0099874952598631266 1 1 1 1 1 1 1 1 0.0090041533225751549 1 1 1 0.01001725013517818 1 1 1 1 1 0.0097317693602380489 1 1 1 1 1 1 0.0086805534160400225 0.01005550230176591 1 1 1 1 0.0098129894819842418 0.0099170197893917577 1 0.0096291480196612489 1 0.0099798366736720042 1 1 1 1 1 1 1 1 1 1 1 1 1 1 1 1 1 1 1 1 0.0099670703736309159 1 1 0.0092750081586302976 1 1 1 0.010003673572160492 0.009666703498960658 1 0.010008843351795225 1 1 1 1 1 1 1 1 1 1 1 1 1 0.0093690750399691054 1 1 1 1 1 1 1 1 1 0.0099633365048655866 1 0.0094973227321583521 1 1 1 1 1 1 1 1 1 1 1 1 1 1 1 1 1 1 1 1 1 1 1 0.010588169289165276 1 0.010215678391415645 1 1 0.0096096024682211269 1 0.010846115796380548 1 1 1 1 1 0.0099790110484211363 1 1 1 0.010115931834001526 1 1 1 1 1 1 1 1 1 1 1 1 1 1 1 1 1 1 1 1 1 1 1 1 1 1 1 1 1 1 1 1 1 1 1 1 1 1 1 1 1 1 1 0.009396228152264291 0.010252334798974333 1 1 1 0.0096656228891940973 1 0.010039278022065432 1 1 0.0096632937841099054 1 1 1 0.010134652009539145 1 0.0098292673135893047 1 1 0.010364014694359183 1 0.0079247590887075066 1 0.0082287630820584243 1 1 1 0.0099784797180541181 0.0096710046315909189 1 1 1 1 1 1 0.0097058039508072375 1 1 0.0092569460084465996 1 1 0.0090261864738401393 1 1 1 1 1 0.0071130254726373236 0.0099597509867157211 1 1 0.01006034230941549 1 1 1 1 1 1 1 1 0.0099025523791633555 1 1 1 1 1 1 1 1 1 1 1 1 1 1 1 1 1 1 1 1 1 1 1 1 1 1 1 1 1 0.0092935463824994121 1 1 1 1 0.0085921716152036857 1 0.0094281461251006192 1 1 0.0078214954364305821 1 1 1 1 0.009041464690183975 1 1 1 1 0.0094172377601055672 1 1 1 1 1 1 1 1 1 1 1 1 1 1 0.0096439662819466886 1 1 1 1 1 0.0070851861960445801 1 1 1 1 1 1 1 0.009627890307477089 1 0.0082258205748563726 1 1 1 1 1 1 1 1 0.009164838770110869 1 0.0077594309295685726 1 1 0.010073157446338753 1 1 1 1 0.010130345658236707 0.010452809227108695 1 1 1 1 0.010853873609203417 1 1 1 1 1 0.009898226855242144 1 1 1 1 0.010076702380099821 1 1 1 1 1 1 1 1 1 1 1 1 1 0.0099972280389481801 1 1 1 1 1 1 1 1 1 1 1 0.0099078266864569362 1 1 0.0097489360355995387 1 1 1 1 1 1 1 1 1 1 1 1 1 1 1 1 1 1 1 1 1 1 0.0099023550945527162 1 1 1 1 1 1 1 1 1 1 1 1 1 0.01003596511788187 1 1 1 1 1 1 1 1 1 1 1 1 1 1 1 1 1 1 1 1 1 1 1 0.0092837164592482514 0.0096074785445959716 1 1 1 1 1 1 1 1 1 0.0079096506234600742 1 1 1 1 1 1 0.010051113738296171 0.01303952706762636 1 1 0.01065346227441559 1 0.011639749881949364 1 1 1 1 1 1 1 1 1 1 1 1 0.0081746792424574333 1 1 0.0076510142298903822 1 1 1 0.010227971798553923 1 1 0.009932266026321683 1 1 1 0.0094558474423882787 1 0.010092087464248478 1 1 1 1 1 1 1 1 1 1 1 1 1 1 1 0.009266333464199205 1 1 1 1 1 1 1 1 1 1 0.0099382697776747402 1 1 0.010137310182537124 1 1 1 1 1 1 0.01022160828411218 1 1 1 0.01072688582320311 1 1 1 1 1 1 1 1 1 1 0.0098026439207132294 1 0.0097200149066654969 1 1 1 0.010046565682315463 1 1 1 1 1 0.0097198510099175892 1 1 1 1 1 1 1 0.0088501094049842355 1 1 1 1 1 0.0081505140515753718 1 1 1 1 1 0.0097078778856471981 1 1 1 1 1 1 1 1 1 1 1 1 0.0088910698966306705 1 1 1 0.010561053222451312 1 0.0089221381572657348 1 0.0099961194030730068 1 1 1 1 1 1 1 1 1 1 0.0090785432750659818 1 1 1 1 0.0092763889112958704 1 0.0085207400698295559 1 1 1 1 1 1 1 1 1 1 1 1 1 0.009578233536161114 1 1 0.0099579602510599021 1 1 1 0.0098622370577828786 1 0.010191005304968123 1 1 0.0099786118661794442 1 1 1 1 0.0099317695281935826 1 1 1 1 1 1 1 1 1 1 1 1 1 1 1 1 1 1 1 1 1 1 1 1 1 0.010004039236652277 1 1 1 1 1 1 1 1 1 1 1 1 1 1 1 0.0098809802280788103 1 1 1 0.0097488016285151493 1 1 1 1 1 1 1 1 1 1 1 1 1 1 1 1 0.010312094962184297 1 1 0.0064147252254407854 0.0077909087815862098 1 1 1 1 1 1 1 1 0.0097994237169158373 1 1 1 1 1 0.010071982415506933 1 1 1 0.006702295583120489 1 1 0.009483581404034257 1 1 0.0099264980892282938 1 1 0.0097068821433129674 1 1 1 1 1 1 1 0.0096186785270074987 1 1 1 0.0098284938475285792 1 0.0096924100910096324 1 1 1 1 1 1 1 1 1 1 0.0090616256566932729 1 1 0.0091676719933472903 1 1 1 0.0068970709909714489 1 1 1 0.0071762164513820949 1 0.0091215045546765953 1 1 1 1 1 1 0.0099360916821389748 1 1 1 1 0.0094029268646752193 1 1 1 1 1 0.0099999348591396225 1 1 0.009719454534737014 1 0.010076554851998994 1 0.0092320148952275936 0.0083907502483250625 1 1 1 0.0097874680055966938 1 1 1 1 1 1 0.0067453019025365546 1 0.0099974799403710138 1 0.0084526201493238598 1 1 0.0099187361779631607 1 1 1 0.0079984818170083585 1 1 1 1 1 1 1 1 1 1 1 1 1 0.0096902447345569923 1 1 1 1 1 1 1 1 1 1 1 0.0096263035854441108 1 0.0091634875817607764 1 1 1 0.0096243856220173882 1 1 1 1 1 1 1 1 1 0.0080470245196418815 0.010025418338279642 1 1 1 1 0.0095465645262876944 1 1 1 1 0.0089871952819473265 0.0062615791562675412 0.0079858760647179838 1 0.0088377556319166467 1 0.0098638976327290028 1 1 1 0.0092788142558000823 0.0088692360740689168 1 1 0.0096531550852171129 0.0094259704714300674 1 1 0.0097769556523409126 1 1 1 1 1 1 1 1 0.0097632750539340986 0.0065354367825374154 1 0.010372037847100174 1 1 1 0.010089664543629202 1 1 1 0.0099035750141258493 1 1 1 1 1 1 1 1 1 1 1 1 1 1 1 1 1 1 1 1 0.0092179062133671257 1 1 1 1 1 1 1 1 1 1 1 1 1 1 1 1 1 1 1 1 1 1 1 1 1 0.0098620459213614124 1 1 1 1 1 0.0057507940905737569 1 1 1 1 1 1 1 1 1 1 1 1 0.0092127196712035696 0.0096716569529231508 1 1 1 1 0.0059532295938545358 1 1 1 1 1 1 1 1 0.0065295194523671985 1 1 1 1 1 1 1 1 1 1 1 1 1 1 1 1 1 1 0.010874094593388702 0.0084812638050934929 0.0093618723448219629 1 1 1 1 1 1 1 1 0.010058909507257631 1 1 1 1 0.0099018021424347076 1 1 0.0099564210284192062 1 1 1 1 1 1 1 1 1 0.010038358167443443 1 0.0095530273331390254 1 0.0085573712402117162 1 0.010465648036386326 1 1 1 1 1 1 1 1 1 1 1 1 1 1 0.0098506688341580897 1 1 1 1 1 0.0093871349698926663 1 1 1 1 1 1 1 1 1 1 1 1 1 1 1 1 1 1 1 1 0.0096286983475616303 1 1 0.009202821815395279 1 1 1 0.0098618490441928271 1 1 1 1 1 0.010202740087256407 1 0.0090053149210427928 1 1 1 1 1 1 1 1 1 0.0097965802380842147 1 0.0099961694146666023 1 0.010402547305279354 0.0091479845135305007 1 1 1 1 1 1 1 1 0.010055971266452544 1 1 1 1 1 1 1 1 1 1 1 1 0.0096460039678804357 1 1 0.0070956158486099969 1 1 1 1 1 0.0076784935906710153 1 1 1 1 1 0.0094772349619779532 1 1 0.0088655732512862434 1 1 1 1 1 1 0.0090535659015734491 1 1 1 1 1 1 1 0.0082412879934952825 1 0.0099504079390435856 1 1 1 1 0.0092200581684038097 1 1 1 1 1 1 1 1 1 1 1 1 0.0097351488051430346 1 1 0.0083804529705160287 1 1 1 1 1 1 1 0.0093560760272407804 1 1 1 1 1 1 1 1 1 1 1 1 1 0.010083727019374055 1 1 1 1 1 1 1 1 1 0.010004415688634341 1 1 0.0069286285204851047 1 1 1 1 1 0.0081773042121583081 1 1 1 1 1 1 0.007990485292754361 0.0090423431093841107 1 1 1 1 0.006580251410286406 1 0.009694509745162793 1 1 0.0065815735101697019 1 1 1 1 1 1 1 1 1 1 1 1 1 1 1 1 1 1 1 1 1 1 1 0.0079821828091895843 1 0.0089488886655600883 1 1 1 1 1 1 1 0.010038236730256877 1 0.0070489210840211716 1 1 1 1 0.0099117810362547611 0.0079649848851807998 1 1 1 1 1 1 0.009258972748661623 1 1 0.0099888267649789805 1 1 1 1 1 0.0089892662447091341 1 1 1 1 1 1 1 1 1 0.006889981001884567 0.0090420696735992127 1 0.0071827549828335415 1 1 0.0064046403873901023 1 1 1 1 1 1 1 1 1 1 1 1 0.010174561332371287 1 1 1 1 1 1 1 1 1 1 1 1 0.0070400178744032616 1 1 1 1 0.010058630113512363 1 1 1 1 1 1 0.0072750650325813983 1 1 1 1 0.0097628431517551885 0.007174331043562388 1 1 1 1 0.00761837969939691 1 0.0061607074918531464 1 0.0095366788969383481 1 1 1 1 1 1 1 1 1 1 1 1 1 1 1 1 1 1 1 1 1 1 1 1 1 1 1 1 0.0099961222989942942 0.0096426017987397868 0.0096516811256710296 1 1 1 1 1 1 0.0097860713027442918 1 1 1 0.0074680523411306942 1 0.0077471531681774543 1 1 1 1 1 1 1 1 0.0092581701264839392 1 1 0.008320880385560326 1 1 1 1 0.0080356415487367709 1 1 1 1 1 1 1 0.0065977482026004985 1 1 0.0068642295112503774 1 1 1 0.0099738092771336825 1 1 1 1 1 1 1 1 1 0.007536413670467838 1 1 1 1 1 0.0097277886174167976 1 0.010099545316440016 1 0.0094271185386161013 1 1 0.0099590912391432206 1 1 0.0097498431309578151 0.0097559127057422739 1 1 1 1 1 1 1 0.0071159154642736399 1 1 1 1 1 0.0072158388677958912 1 1 1 1 1 0.0099880561850626132 1 0.0099073592314390738 1 1 1 1 1 1 1 1 1 1 1 1 1 1 1 1 1 1 1 1 1 0.00998766558468989 1 1 1 1 1 1 1 1 1 1 1 1 1 1 1 1 0.0092923436023561474 0.0088574530568861706 1 1 1 1 1 0.009450792816365048 1 1 1 1 1 0.0095573367781243423 1 1 1 1 1 1 1 1 1 1 1 1 1 1 1 1 1 1 1 1 1 1 1 1 1 1 1 1 1 1 1 0.0099971438534720708 1 1 0.007840837764285645 1 1 1 1 0.0077865745631484715 1 1 1 1 1 1 1 1 1 1 1 0.010004474897748689 1 1 0.0077798260218890983 1 1 0.010004969952110115 1 1 0.0099939184115203344 1 1 1 1 1 1 1 1 1 0.0089174424454456069 1 1 1 1 1 1 1 1 1 1 0.0099934233571589131 1 1 1 1 1 1 1 1 1 1 0.010000624991072118 1 1 1 0.010011011099101335 1 1 1 0.010010386108029222 1 1 1 1 1 1 1 1 1 1 1 1 1 1 1 1 1 1 1 0.0078436946647871247 1 1 1 1 1 1 1 1 1 1 1 1 1 1 1 1 0.010005943404331898 1 1 1 1 1 1 1 1 1 1 1 1 0.0076497618950126496 1 1 1 0.0076486244092302171 0.0081876646414444053 1 1 0.010008359769870096 1 1 1 1 1 1 1 1 1 1 1 0.0083081135112136294 1 1 1 1 1 1 1 0.0086882919783181807 1 1 1 1 1 1 1 1 0.0095088630198137992 1 1 1 1 1 0.010126795762516048 1 1 1 1 1 1 1 1 1 1 1 1 1 1 1 1 1 1 1 0.0092764339995446751 1 1 1 1 0.0083634468194342497 1 1 1 1 1 1 1 0.010126642358226683 1 1 1 1 1 0.009085589186723201 1 1 1 1 1 1 1 1 1 1 1 1 1 1 1 1 1 1 1 1 0.0085361117760902293 1 1 1 1 1 1 1 1 0.0079764313920854951 1 1 1 1 1 1 1 1 1 0.0075330296194022952 1 1 1 1 0.010452761869594405 0.0073900942351534972 1 0.010154659839051727 1 1 1 1 0.009880064040201508 1 1 0.0097763951322362205 1 1 1 1 1 1 1 1 1 1 1 1 1 1 1 1 1 1 1 1 1 1 1 1 1 1 0.010003267030954426 1 1 1 0.0099978830476333807 1 1 1 1 1 0.0098759393881905529 1 1 0.0099359781142696422 1 1 1 1 1 1 1 1 1 1 1 1 1 1 1 1 1 1 0.0098038772322535245 1 0.0098975400629726269 1 1 0.0084459216084529255 1 0.0099984439824873095 1 0.0099970349473169819 1 1 1 0.0075911733463287848 1 1 0.0099004636260456268 1 0.0086588189838076104 1 1 1 0.0091689538492840568 0.0088488106472142895 1 1 0.0085026004250621755 1 1 1 1 1 1 1 1 0.0080278612144666708 1 0.0074216923461849112 1 1 0.0076303592327649945 1 0.0098664326168055542 1 1 1 1 1 1 1 1 0.0095578272484473752 1 1 0.0091995746275289041 1 1 1 1 1 1 1 1 1 1 1 1 1 1 1 1 1 1 0.0099907399908737704 1 1 1 1 0.0099907304566496779 1 1 1 1 1 1 1 0.0099810496071966303 1 1 1 1 1 1 1 1 1 1 1 1 1 1 1 1 1 1 0.0098870459737634836 1 1 1 1 1 1 1 1 0.0099661665062525748 1 1 1 1 1 0.0074495685910466406 1 1 1 1 1 0.0076279422689206275 1 1 1 1 1 0.0078822255807822102 1 0.0096288356692751115 1 0.0099475470012036441 1 0.0090110648737608112 0.0090928776168167115 1 0.0097125944478125906 1 1 0.0095827942158059256 1 1 0.010012027040392939 1 1 1 0.010032907360166887 1 0.0093445793338208481 1 1 1 0.010124654401541797 1 0.0094108932088976926 1 1 0.008977152976327344 0.0091860695088458386 1 0.0092301500378569792 1 1 1 1 1 1 1 1 1 1 1 1 1 1 0.0097092540032439178 1 0.0097809861657206891 1 1 1 1 1 1 1 1 1 1 1 1 1 1 1 1 1 1 0.0098370788629052429 1 1 0.009426374030687747 0.0096888955462685958 1 1 1 0.0099492500288302418 1 1 1 1 0.0099111857316813989 1 1 1 1 1 1 1 1 1 1 1 1 1 1 1 1 1 0.0099448953454187358 1 1 1 1 1 1 1 1 1 1 0.0087597730767480942 1 1 1 1 1 1 1 1 1 0.0086301461470858973 1 1 0.010005780112416346 1 1 0.0099496066070021774 1 1 0.010095849752334376 1 1 1 0.010025366124075698 1 0.0099122455355192731 1 1 1 1 0.010049643938769273 0.010009629605550458 1 1 1 0.0089470638969961144 1 0.008127624241997965 0.010185021639420158 0.0093767649500143928 1 1 1 0.010175844207841026 1 1 1 0.0099702989794637556 1 1 1 0.0099042888665851741 1 1 0.0087785221404158165 1 1 1 1 1 1 1 0.0088010016991546466 1 1 1 1 1 1 1 1 0.0099887746907553927 1 1 1 1 1 1 1 1 1 1 1 1 1 1 1 0.0088271691360123361 1 1 1 1 1 1 1 1 1 1 1 1 1 1 0.0085590024124605844 1 0.0099993017108466527 0.0081984004034303913 1 0.0099980644302733457 1 1 1 1 1 1 1 1 1 1 1 1 1 1 1 1 1 1 1 1 1 1 1 1 0.0099265277304157653 1 1 0.0098055368231638133 1 1 1 1 1 0.0099565026956229472 0.0098726519088860945 1 0.0099780784171592338 1 1 0.0099877727526680917 1 1 1 1 1 1 1 1 1 0.0098456296218974483 1 1 1 1 1 1 1 1 1 1 1 1 1 1 1 1 1 1 1 1 1 1 1 0.010039839848499892 1 1 1 1 0.0097590910467059127 1 1 1 1 1 1 1 1 1 1 1 1 1 1 1 1 0.0078630817695332696 1 1 1 1 1 1 1 0.0084937727629465533 1 1 1 1 1 1 1 1 1 1 1 1 1 1 0.009196242812434835 1 1 1 1 1 1 1 1 1 1 1 1 1 0.009551717983934109 0.010247415804726672 1 1 0.0091873692267325953 1 1 1 1 1 1 1 1 1 1 0.0091754015975857948 1 0.009597111743657006 1 1 1 1 1 1 1 1 1 0.0094178078874410757 1 1 1 0.0086606331505261896 1 1 1 1 1 1 1 1 1 1 0.0099727791902620589 1 1 1 0.0099577224755943126 1 1 1 1 0.009957765032415555 1 1 1 1 1 1 1 1 1 0.0099786220322518274 1 1 1 1 1 1 0.010021690501606759 1 1 1 1 0.010512193427068951 1 0.0097995501006574899 1 1 1 1 1 1 1 0.0099369536585318888 1 0.010126000962031461 1 1 0.009962976014134952 1 1 1 1 1 1 1 1 1 1 0.0092846221252921961 1 1 0.0099204496870240865 1 1 1 1 1 0.0097398412047450637 1 1 1 1 1 1 1 1 1 1 0.0092682857335247802 1 0.010507641625325356 1 1 0.009933597173432368 1 1 1 0.010041638872978853 1 0.010155194262328728 1 0.010133493281511245 1 1 1 1 1 1 1 1 1 1 1 0.01012756059243727 1 0.0091913761976920687 1 0.01001408936953985 1 0.0089416184422212129 1 1 1 0.010054049997056511 1 1 1 1 1 1 1 0.0092414935239471217 1 1 0.01002153693183582 1 1 0.0090353247069886872 1 1 1 1 0.0099730679625126932 1 1 1 1 0.0099867272624716494 1 1 1 0.0099271749042132394 1 1 0.0098755720112601413 1 1 1 1 1 0.0099914420207885581 1 1 1 0.0098576075056310934 1 1 1 1 1 1 1 1 1 1 1 1 1 1 1 1 1 1 1 0.009648132290510222 1 1 1 1 1 1 1 1 1 1 1 0.0096880671321052242 1 1 1 1 1 1 1 1 1 1 0.0098720420313581428 1 1 0.0091504408369776254 1 1 1 1 0.010037752747099477 1 1 0.0092209059752513655 1 1 1 1 0.009554460603706752 1 0.0095296671769110278 0.0093670341334458479 1 1 1 1 1 1 1 1 0.0092192378096714028 1 1 0.0089744823913728983 1 1 1 1 1 1 1 1 1 1 1 1 0.0097228948647014556 1 1 1 1 1 1 1 1 1 1 1 1 1 1 1 1 1 1 1 1 1 1 1 1 1 1 0.0096365102079325818 1 1 1 1 1 1 1 1 1 1 1 1 1 1 1 0.0099152763629816853 1 1 1 0.0097728838686127768 1 1 1 1 1 1 1 1 1 1 0.0067433821989802759 1 0.0097886677325859702 1 1 1 1 1 1 0.0097927672924368239 1 0.0095139164703768771 1 1 1 1 1 1 1 1 1 1 1 1 1 1 1 1 1 1 1 1 1 0.0098111891606916871 1 1 1 1 0.0095185100834472326 1 1 0.0097973609055071811 1 1 1 1 1 1 1 1 1 1 0.010047827951585821 1 1 0.0097105554830448845 1 1 1 1 1 1 1 1 1 1 1 0.0098558442111299285 0.0095069104129530992 1 1 1 1 1 0.0095987512984790462 1 1 1 1 1 1 1 1 1 1 1 1 0.0098416093657125621 1 0.0094594822493605322 1 0.0085353626094702619 1 1 1 1 1 1 0.0097649128244916526 1 1 1 0.0091023267507524368 1 1 0.0088609245346499953 1 0.0091427369105827414 1 0.0096561607178976099 1 1 1 1 1 1 0.01015831402416119 0.0073979377792146445 1 1 1 1 0.0072233389333538379 1 1 1 0.010058084625555786 1 1 1 1 0.0052270620452972965 1 0.0093835026553286457 1 1 1 1 1 0.0098534019995009173 1 0.010002746351760218 0.0084543335696573955 1 0.0086941074303050758 1 1 1 1 1 1 1 0.0099268920911187979 1 1 0.0090249089859540891 1 0.0081571536189153793 1 1 0.0076863031208466714 1 1 1 1 1 1 0.009967046496833408 1 1 1 1 1 1 1 1 1 0.010068288747676072 1 1 1 0.009490380526740564 1 1 1 1 1 1 1 1 1 1 1 1 1 0.0097718205389820158 1 1 0.0097931092925434334 1 1 1 0.008734168744085483 1 1 1 1 1 1 1 1 1 1 1 1 1 1 1 1 1 1 1 0.0091947533658395635 1 0.0093815007755312201 1 0.012163885267341945 1 1 1 1 1 1 1 1 1 1 1 1 0.0087592177569632713 1 1 1 0.010736770610326922 0.011669069022700379 1 1 0.0096737774387094713 1 1 0.004784311291030555 1 1 1 1 1 1 1 0.0085324727158334335 1 1 1 1 1 1 1 0.0091401917172126163 1 1 1 1 1 1 1 0.0095365242593766636 1 0.008776499194397611 1 1 1 1 0.0074180553246584518 1 0.0073572203148918576 1 1 1 1 1 1 0.0091001529428658308 1 0.011597469236779217 1 1 1 1 1 1 0.010615521461042941 1 1 1 0.0047862434221878896 1 1 1 1 1 0.009954152580433015 1 1 1 1 1 1 1 1 1 1 1 1 1 1 1 1 1 1 1 1 1 1 1 1 1 1 1 1 1 1 1 1 1 0.010271035980010007 1 0.010234874287186762 1 1 1 1 0.0075641237129064386 1 1 1 1 0.010035438820820348 1 1 0.0092216641777498505 1 1 1 1 1 1 1 1 1 1 1 1 0.0097452288248813072 1 1 1 1 1 0.0091989644820178323 1 1 1 1 1 1 1 1 1 1 1 1 1 1 1 1 1 1 1 1 1 1 1 1 1 0.005710772637303599 1 1 1 1 1 1 1 1 1 1 1 1 1 1 1 1 1 1 1 1 1 1 1 1 1 1 0.010329022106143034 1 1 1 1 1 1 1 1 1 1 1 1 1 1 1 1 1 1 1 1 1 1 1 1 1 1 1 1 1 1 1 1 0.0091012281360545975 1 1 1 1 1 1 1 1 1 1 1 0.0098065831533185998 1 1 1 0.0078661300614287152 1 1 1 1 0.0099983812589799215 1 1 1 1 1 1 0.0096213129809505672 1 1 1 1 1 1 1 1 1 1 1 1 1 1 1 1 1 1 1 0.009762454617485157 1 1 1 0.010014326135325047 1 1 1 1 0.0098593450441274173 1 1 1 1 1 1 0.0096740748717593847 0.0089258867606858763 1 1 1 1 1 1 1 0.009448516051116556 1 1 1 1 0.0090961807864867131 1 1 1 1 0.0084820344196204125 1 1 1 0.0099366840424336324 1 1 1 1 1 1 1 1 1 1 1 1 0.0081813536053904918 0.0092872543665664786 1 1 1 1 0.0069700259850847763 1 1 1 1 1 1 0.009689235253075041 1 1 1 1 1 1 1 1 1 1 1 1 1 1 1 1 1 1 1 1 1 1 1 1 1 1 1 1 1 0.0097335889960722208 1 1 0.0087261168966927122 1 1 1 1 0.0091080693932730494 1 1 1 1 1 1 1 1 1 1 0.0085682743267484502 0.0096140304705458254 1 0.0083695039921883492 1 1 1 1 1 1 1 1 1 0.0099730300959232562 1 1 0.0087210274923437362 1 1 0.010037522170066992 1 0.0097325754925324751 1 1 1 1 0.010052567446774801 1 1 1 1 1 1 1 1 1 1 0.0086146026958409134 1 1 1 0.0075145189349649557 1 1 0.010698418289057758 1 0.0084905901424716483 1 1 1 1 1 0.0099990855807119451 1 0.0090043937627922559 1 1 1 1 1 0.0055712751941153441 1 0.0091790699101021826 1 0.009930447437914566 1 1 1 1 1 1 0.0084989961873374407 1 1 1 1 1 1 1 1 1 1 1 1 1 1 1 1 1 1 1 1 1 1 1 1 1 1 1 1 1 1 1 1 1 0.0072120492240388221 0.0073223888690248148 1 1 1 1 1 1 1 0.0073143240271561251 1 1 1 1 1 1 1 1 1 1 1 1 1 1 1 1 1 1 1 1 1 1 1 1 1 0.0073406445256625399 1 1 0.0075695171377541479 1 1 1 1 1 1 1 1 1 1 1 1 1 0.0088782305374576174 1 1 1 1 1 1 1 1 1 1 1 1 1 1 1 1 1 1 1 1 1 0.0039956683165535863 1 1 1 1 1 0.0039578382305252412 1 1 1 1 1 1 1 1 1 1 1 1 1 1 1 1 1 1 1 1 1 1 1 1 1 
</DataArray>
</CellData>
</Piece>
</UnstructuredGrid>
</VTKFile>
