<?xml version="1.0"?>
<VTKFile type="UnstructuredGrid" version="0.1" byte_order="LittleEndian">
<UnstructuredGrid>
<Piece NumberOfPoints="30881" NumberOfCells="10862">
<Points>
<DataArray type="Float64" NumberOfComponents="3" format="ascii">
-0.49999999999999828 -0.48677703703187492 0 -0.5 -0.5 0 -0.48129281494584059 -0.49338851851593718 0 -0.5 -0.5 0 -0.48129281494584059 -0.49338851851593718 0 -0.46258562989168328 -0.5 0 -0.49999999999999828 -0.48677703703187492 0 -0.48129281494584059 -0.49338851851593718 0 -0.49999999999999828 -0.48677703703187492 0 -0.4824545428279598 -0.47451624516148783 0 -0.48129281494584059 -0.49338851851593718 0 -0.49999999999999828 -0.48677703703187492 0 -0.4824545428279598 -0.47451624516148783 0 -0.5 -0.46599539173150673 0 -0.4824545428279598 -0.47451624516148783 0 -0.46853075243710779 -0.48354990242643758 0 -0.46411508256092049 -0.46598235294430129 0 -0.4824545428279598 -0.47451624516148783 0 -0.48129281494584059 -0.49338851851593718 0 -0.46853075243710779 -0.48354990242643758 0 -0.48129281494584059 -0.49338851851593718 0 -0.46258562989168328 -0.5 0 -0.48129281494584059 -0.49338851851593718 0 -0.46258562989168328 -0.5 0 -0.46853075243710779 -0.48354990242643758 0 -0.46258562989168328 -0.5 0 -0.46853075243710779 -0.48354990242643758 0 -0.45147378687733691 -0.48362213557840178 0 -0.46853075243710779 -0.48354990242643758 0 -0.45147378687733691 -0.48362213557840178 0 -0.46411508256092049 -0.46598235294430129 0 -0.4457251648104853 -0.47020164095208389 0 -0.45147378687733691 -0.48362213557840178 0 -0.46411508256092049 -0.46598235294430129 0 -0.4457251648104853 -0.47020164095208389 0 -0.45147378687733691 -0.48362213557840178 0 -0.43513446131126993 -0.48199891714758791 0 -0.45147378687733691 -0.48362213557840178 0 -0.43275163025255442 -0.5 0 -0.43513446131126993 -0.48199891714758791 0 -0.46258562989168328 -0.5 0 -0.45147378687733691 -0.48362213557840178 0 -0.43275163025255442 -0.5 0 -0.4467190029717853 -0.45478934699519452 0 -0.4422915115958943 -0.43555510214664611 0 -0.43246707723660932 -0.44794326854796312 0 -0.4457251648104853 -0.47020164095208389 0 -0.4467190029717853 -0.45478934699519452 0 -0.46411508256092049 -0.46598235294430129 0 -0.4457251648104853 -0.47020164095208389 0 -0.4467190029717853 -0.45478934699519452 0 -0.43016578207734568 -0.46313500011938619 0 -0.4467190029717853 -0.45478934699519452 0 -0.46411508256092049 -0.46598235294430129 0 -0.47114575579794699 -0.4403844242888923 0 -0.4467190029717853 -0.45478934699519452 0 -0.47114575579794699 -0.4403844242888923 0 -0.4422915115958943 -0.43555510214664611 0 -0.47114575579794699 -0.4403844242888923 0 -0.4422915115958943 -0.43555510214664611 0 -0.46411508256092049 -0.46598235294430129 0 -0.47114575579794699 -0.4403844242888923 0 -0.48354307623736548 -0.45841843211146538 0 -0.4824545428279598 -0.47451624516148783 0 -0.46411508256092049 -0.46598235294430129 0 -0.48354307623736548 -0.45841843211146538 0 -0.4824545428279598 -0.47451624516148783 0 -0.48354307623736548 -0.45841843211146538 0 -0.5 -0.46599539173150673 0 -0.48354307623736548 -0.45841843211146538 0 -0.5 -0.46599539173150673 0 -0.49999999999999972 -0.44521374643113848 0 -0.47114575579794699 -0.4403844242888923 0 -0.49999999999999972 -0.44521374643113848 0 -0.47114575579794699 -0.4403844242888923 0 -0.49999999999999972 -0.44521374643113848 0 -0.48704432221743971 -0.42935617662229603 0 -0.47114575579794699 -0.4403844242888923 0 -0.48354307623736548 -0.45841843211146538 0 -0.49999999999999972 -0.44521374643113848 0 -0.49999999999999972 -0.44521374643113848 0 -0.48704432221743971 -0.42935617662229603 0 -0.5 -0.41591957503128979 0 -0.48704432221743971 -0.42935617662229603 0 -0.5 -0.41591957503128979 0 -0.47703153307181151 -0.41590696073786332 0 -0.5 -0.41591957503128979 0 -0.47703153307181151 -0.41590696073786332 0 -0.48817838912021821 -0.4022119694541284 0 -0.47114575579794699 -0.4403844242888923 0 -0.48704432221743971 -0.42935617662229603 0 -0.47703153307181151 -0.41590696073786332 0 -0.5 -0.38662540363144121 0 -0.47568202340906118 -0.39039593841591919 0 -0.4947615751445838 -0.37332156409002909 0 -0.47568202340906118 -0.39039593841591919 0 -0.4947615751445838 -0.37332156409002909 0 -0.5 -0.38662540363144121 0 -0.48817838912021821 -0.4022119694541284 0 -0.47568202340906118 -0.39039593841591919 0 -0.5 -0.41591957503128979 0 -0.5 -0.38662540363144121 0 -0.48817838912021821 -0.4022119694541284 0 -0.47703153307181151 -0.41590696073786332 0 -0.48817838912021821 -0.4022119694541284 0 -0.47568202340906118 -0.39039593841591919 0 -0.47703153307181151 -0.41590696073786332 0 -0.47568202340906118 -0.39039593841591919 0 -0.45660247167353862 -0.40747031274180939 0 -0.47568202340906118 -0.39039593841591919 0 -0.48030931097003587 -0.37191064435083931 0 -0.46669490250066459 -0.37481721741951951 0 -0.47568202340906118 -0.39039593841591919 0 -0.4947615751445838 -0.37332156409002909 0 -0.48030931097003587 -0.37191064435083931 0 -0.45332061783919553 -0.38729481725706361 0 -0.46669490250066459 -0.37481721741951951 0 -0.45095991715087752 -0.36968037302039969 0 -0.47568202340906118 -0.39039593841591919 0 -0.45332061783919553 -0.38729481725706361 0 -0.46669490250066459 -0.37481721741951951 0 -0.47568202340906118 -0.39039593841591919 0 -0.45660247167353862 -0.40747031274180939 0 -0.47568202340906118 -0.39039593841591919 0 -0.45332061783919553 -0.38729481725706361 0 -0.45660247167353862 -0.40747031274180939 0 -0.44332653075004852 -0.401690115615219 0 -0.44646247228389868 -0.41654464256061052 0 -0.42870657106664078 -0.39987574649354879 0 -0.45332061783919553 -0.38729481725706361 0 -0.44332653075004852 -0.401690115615219 0 -0.43479631603355468 -0.39077639303142497 0 -0.45332061783919553 -0.38729481725706361 0 -0.44332653075004852 -0.401690115615219 0 -0.45660247167353862 -0.40747031274180939 0 -0.45332061783919553 -0.38729481725706361 0 -0.43421362475025049 -0.37527491429266319 0 -0.43479631603355468 -0.39077639303142497 0 -0.45332061783919553 -0.38729481725706361 0 -0.43421362475025049 -0.37527491429266319 0 -0.45095991715087752 -0.36968037302039969 0 -0.47114575579794699 -0.4403844242888923 0 -0.45663439814062529 -0.42533932462455271 0 -0.4422915115958943 -0.43555510214664611 0 -0.47114575579794699 -0.4403844242888923 0 -0.47703153307181151 -0.41590696073786332 0 -0.45663439814062529 -0.42533932462455271 0 -0.45663439814062529 -0.42533932462455271 0 -0.45660247167353862 -0.40747031274180939 0 -0.44646247228389868 -0.41654464256061052 0 -0.47703153307181151 -0.41590696073786332 0 -0.45663439814062529 -0.42533932462455271 0 -0.45660247167353862 -0.40747031274180939 0 -0.44332653075004852 -0.401690115615219 0 -0.45660247167353862 -0.40747031274180939 0 -0.44646247228389868 -0.41654464256061052 0 -0.45660247167353862 -0.40747031274180939 0 -0.44646247228389868 -0.41654464256061052 0 -0.44646247228389868 -0.41654464256061052 0 -0.4375229199380159 -0.42454468706769971 0 -0.45663439814062529 -0.42533932462455271 0 -0.4375229199380159 -0.42454468706769971 0 -0.4422915115958943 -0.43555510214664611 0 -0.45663439814062529 -0.42533932462455271 0 -0.44646247228389868 -0.41654464256061052 0 -0.4375229199380159 -0.42454468706769971 0 -0.4375229199380159 -0.42454468706769971 0 -0.4422915115958943 -0.43555510214664611 0 -0.43077617074680319 -0.43406335077952207 0 -0.43077617074680319 -0.43406335077952207 0 -0.42550232634077589 -0.42345940056268039 0 -0.41950844772475421 -0.43888456563633732 0 -0.4375229199380159 -0.42454468706769971 0 -0.43077617074680319 -0.43406335077952207 0 -0.42550232634077589 -0.42345940056268039 0 -0.44646247228389868 -0.41654464256061052 0 -0.41657232816672918 -0.41306671883907142 0 -0.42870657106664078 -0.39987574649354879 0 -0.44646247228389868 -0.41654464256061052 0 -0.4375229199380159 -0.42454468706769971 0 -0.42550232634077589 -0.42345940056268039 0 -0.44646247228389868 -0.41654464256061052 0 -0.42550232634077589 -0.42345940056268039 0 -0.41657232816672918 -0.41306671883907142 0 -0.44646247228389868 -0.41654464256061052 0 -0.41657232816672918 -0.41306671883907142 0 -0.42550232634077589 -0.42345940056268039 0 -0.41657232816672918 -0.41306671883907142 0 -0.41333489101611293 -0.42699700567040988 0 -0.41657232816672918 -0.41306671883907142 0 -0.41333489101611293 -0.42699700567040988 0 -0.39893236021425188 -0.42931692235905211 0 -0.41333489101611293 -0.42699700567040988 0 -0.39893236021425188 -0.42931692235905211 0 -0.41950844772475421 -0.43888456563633732 0 -0.42550232634077589 -0.42345940056268039 0 -0.41333489101611293 -0.42699700567040988 0 -0.41950844772475421 -0.43888456563633732 0 -0.43421362475025049 -0.37527491429266319 0 -0.42478231784314502 -0.38643128255249681 0 -0.41656514696884139 -0.37636588688318029 0 -0.43421362475025049 -0.37527491429266319 0 -0.42478231784314502 -0.38643128255249681 0 -0.43479631603355468 -0.39077639303142497 0 -0.42478231784314502 -0.38643128255249681 0 -0.43479631603355468 -0.39077639303142497 0 -0.42870657106664078 -0.39987574649354879 0 -0.44332653075004852 -0.401690115615219 0 -0.43479631603355468 -0.39077639303142497 0 -0.42870657106664078 -0.39987574649354879 0 -0.41657232816672918 -0.41306671883907142 0 -0.40962993039643741 -0.3898634720616666 0 -0.3946356370269814 -0.39577424904278191 0 -0.42478231784314502 -0.38643128255249681 0 -0.42870657106664078 -0.39987574649354879 0 -0.40962993039643741 -0.3898634720616666 0 -0.41657232816672918 -0.41306671883907142 0 -0.42870657106664078 -0.39987574649354879 0 -0.40962993039643741 -0.3898634720616666 0 -0.42478231784314502 -0.38643128255249681 0 -0.40962993039643741 -0.3898634720616666 0 -0.41656514696884139 -0.37636588688318029 0 -0.40962993039643741 -0.3898634720616666 0 -0.41656514696884139 -0.37636588688318029 0 -0.40465459864295228 -0.37650109000307358 0 -0.39431275766669582 -0.38061373190328529 0 -0.40465459864295228 -0.37650109000307358 0 -0.3968495855878465 -0.36923685638487008 0 -0.40962993039643741 -0.3898634720616666 0 -0.39431275766669582 -0.38061373190328529 0 -0.40465459864295228 -0.37650109000307358 0 -0.40962993039643741 -0.3898634720616666 0 -0.39431275766669582 -0.38061373190328529 0 -0.3946356370269814 -0.39577424904278191 0 -0.3946356370269814 -0.39577424904278191 0 -0.38704143117499401 -0.40999023144455299 0 -0.37464038230528551 -0.396492613407532 0 -0.3946356370269814 -0.39577424904278191 0 -0.37522403377147279 -0.38060127254172499 0 -0.37464038230528551 -0.396492613407532 0 -0.39431275766669582 -0.38061373190328529 0 -0.3946356370269814 -0.39577424904278191 0 -0.37522403377147279 -0.38060127254172499 0 -0.39431275766669582 -0.38061373190328529 0 -0.37522403377147279 -0.38060127254172499 0 -0.38569326772338258 -0.37053454129240582 0 -0.41657232816672918 -0.41306671883907142 0 -0.39893236021425188 -0.42931692235905211 0 -0.38704143117499401 -0.40999023144455299 0 -0.41657232816672918 -0.41306671883907142 0 -0.3946356370269814 -0.39577424904278191 0 -0.38704143117499401 -0.40999023144455299 0 -0.41657232816672918 -0.41306671883907142 0 -0.38704143117499401 -0.40999023144455299 0 -0.38704143117499401 -0.40999023144455299 0 -0.38131756488089769 -0.42670085612339947 0 -0.36377437909963828 -0.41972983174959272 0 -0.38131756488089769 -0.42670085612339947 0 -0.38339996822118783 -0.44368928783448319 0 -0.36866352395763108 -0.4313760290561211 0 -0.39893236021425188 -0.42931692235905211 0 -0.38131756488089769 -0.42670085612339947 0 -0.38339996822118783 -0.44368928783448319 0 -0.39893236021425188 -0.42931692235905211 0 -0.38704143117499401 -0.40999023144455299 0 -0.38131756488089769 -0.42670085612339947 0 -0.38339996822118783 -0.44368928783448319 0 -0.40446438048225181 -0.45117017211807442 0 -0.3895931593355052 -0.46351353191466821 0 -0.39893236021425188 -0.42931692235905211 0 -0.38339996822118783 -0.44368928783448319 0 -0.40446438048225181 -0.45117017211807442 0 -0.40446438048225181 -0.45117017211807442 0 -0.3895931593355052 -0.46351353191466821 0 -0.40280611050484572 -0.47090640128894168 0 -0.38339996822118783 -0.44368928783448319 0 -0.3895931593355052 -0.46351353191466821 0 -0.37415472949075129 -0.45946062715310632 0 -0.3895931593355052 -0.46351353191466821 0 -0.38039451612360919 -0.47713749807852829 0 -0.37415472949075129 -0.45946062715310632 0 -0.38039451612360919 -0.47713749807852829 0 -0.39198476482648659 -0.49312537606366408 0 -0.39366244928105898 -0.47747566409097131 0 -0.3895931593355052 -0.46351353191466821 0 -0.38039451612360919 -0.47713749807852829 0 -0.39366244928105898 -0.47747566409097131 0 -0.39198476482648659 -0.49312537606366408 0 -0.37055643484088358 -0.49425936316784103 0 -0.39198476482648659 -0.49312537606366408 0 -0.40291763061342539 -0.5 0 -0.37308363097429631 -0.50000000000000244 0 -0.39198476482648659 -0.49312537606366408 0 -0.37055643484088358 -0.49425936316784103 0 -0.37308363097429631 -0.50000000000000244 0 -0.38039451612360919 -0.47713749807852829 0 -0.39198476482648659 -0.49312537606366408 0 -0.37055643484088358 -0.49425936316784103 0 -0.39198476482648659 -0.49312537606366408 0 -0.41341309481208982 -0.49199138895948757 0 -0.39198476482648659 -0.49312537606366408 0 -0.39366244928105898 -0.47747566409097131 0 -0.40353369561484831 -0.48269551310905429 0 -0.39198476482648659 -0.49312537606366408 0 -0.40291763061342539 -0.5 0 -0.41341309481208982 -0.49199138895948757 0 -0.39198476482648659 -0.49312537606366408 0 -0.40353369561484831 -0.48269551310905429 0 -0.41341309481208982 -0.49199138895948757 0 -0.3895931593355052 -0.46351353191466821 0 -0.39366244928105898 -0.47747566409097131 0 -0.40280611050484572 -0.47090640128894168 0 -0.39366244928105898 -0.47747566409097131 0 -0.40353369561484831 -0.48269551310905429 0 -0.40280611050484572 -0.47090640128894168 0 -0.40280611050484572 -0.47090640128894168 0 -0.41792735015940108 -0.47619959015896091 0 -0.41524515795200517 -0.46243146669528151 0 -0.40353369561484831 -0.48269551310905429 0 -0.41792735015940108 -0.47619959015896091 0 -0.41341309481208982 -0.49199138895948757 0 -0.40353369561484831 -0.48269551310905429 0 -0.40280611050484572 -0.47090640128894168 0 -0.41792735015940108 -0.47619959015896091 0 -0.41792735015940108 -0.47619959015896091 0 -0.41341309481208982 -0.49199138895948757 0 -0.42480663413382869 -0.48754747406650911 0 -0.40291763061342539 -0.5 0 -0.41341309481208982 -0.49199138895948757 0 -0.43275163025255442 -0.5 0 -0.41341309481208982 -0.49199138895948757 0 -0.42480663413382869 -0.48754747406650911 0 -0.43275163025255442 -0.5 0 -0.42480663413382869 -0.48754747406650911 0 -0.43275163025255442 -0.5 0 -0.43513446131126993 -0.48199891714758791 0 -0.4457251648104853 -0.47020164095208389 0 -0.43513446131126993 -0.48199891714758791 0 -0.43016578207734568 -0.46313500011938619 0 -0.41792735015940108 -0.47619959015896091 0 -0.43513446131126993 -0.48199891714758791 0 -0.43016578207734568 -0.46313500011938619 0 -0.41792735015940108 -0.47619959015896091 0 -0.42480663413382869 -0.48754747406650911 0 -0.43513446131126993 -0.48199891714758791 0 -0.4467190029717853 -0.45478934699519452 0 -0.43016578207734568 -0.46313500011938619 0 -0.43246707723660932 -0.44794326854796312 0 -0.43016578207734568 -0.46313500011938619 0 -0.42051073979218989 -0.45215097324273301 0 -0.41524515795200517 -0.46243146669528151 0 -0.43016578207734568 -0.46313500011938619 0 -0.43246707723660932 -0.44794326854796312 0 -0.42051073979218989 -0.45215097324273301 0 -0.4422915115958943 -0.43555510214664611 0 -0.43077617074680319 -0.43406335077952207 0 -0.43246707723660932 -0.44794326854796312 0 -0.43077617074680319 -0.43406335077952207 0 -0.43246707723660932 -0.44794326854796312 0 -0.41950844772475421 -0.43888456563633732 0 -0.43246707723660932 -0.44794326854796312 0 -0.42051073979218989 -0.45215097324273301 0 -0.41950844772475421 -0.43888456563633732 0 -0.39893236021425188 -0.42931692235905211 0 -0.40446438048225181 -0.45117017211807442 0 -0.41950844772475421 -0.43888456563633732 0 -0.40446438048225181 -0.45117017211807442 0 -0.42051073979218989 -0.45215097324273301 0 -0.41950844772475421 -0.43888456563633732 0 -0.40446438048225181 -0.45117017211807442 0 -0.42051073979218989 -0.45215097324273301 0 -0.41524515795200517 -0.46243146669528151 0 -0.40446438048225181 -0.45117017211807442 0 -0.40280611050484572 -0.47090640128894168 0 -0.41524515795200517 -0.46243146669528151 0 -0.41792735015940108 -0.47619959015896091 0 -0.43016578207734568 -0.46313500011938619 0 -0.41524515795200517 -0.46243146669528151 0 -0.45018232007011222 -0.256765034028549 0 -0.429874989515865 -0.26165756953837482 0 -0.43598079583492633 -0.24721882136819351 0 -0.45018232007011222 -0.256765034028549 0 -0.43765198640052377 -0.27443700488157741 0 -0.429874989515865 -0.26165756953837482 0 -0.45018232007011222 -0.256765034028549 0 -0.43598079583492633 -0.24721882136819351 0 -0.45139902778349827 -0.24711062934306771 0 -0.45018232007011222 -0.256765034028549 0 -0.43765198640052377 -0.27443700488157741 0 -0.46196722525855399 -0.27174391220054139 0 -0.43765198640052377 -0.27443700488157741 0 -0.46196722525855399 -0.27174391220054139 0 -0.4476129789611048 -0.29283803371489903 0 -0.46196722525855399 -0.27174391220054139 0 -0.48050148842732221 -0.25523221810557922 0 -0.46267023581878858 -0.24817136713935201 0 -0.45018232007011222 -0.256765034028549 0 -0.46196722525855399 -0.27174391220054139 0 -0.46267023581878858 -0.24817136713935201 0 -0.45018232007011222 -0.256765034028549 0 -0.46267023581878858 -0.24817136713935201 0 -0.45139902778349827 -0.24711062934306771 0 -0.48050148842732221 -0.25523221810557922 0 -0.5 -0.26944871803204617 0 -0.5 -0.2401545466321974 0 -0.48050148842732221 -0.25523221810557922 0 -0.5 -0.26944871803204617 0 -0.48245797385404121 -0.28063059353633901 0 -0.46196722525855399 -0.27174391220054139 0 -0.48050148842732221 -0.25523221810557922 0 -0.48245797385404121 -0.28063059353633901 0 -0.46196722525855399 -0.27174391220054139 0 -0.48245797385404121 -0.28063059353633901 0 -0.46937090116945868 -0.29821258941183898 0 -0.48245797385404121 -0.28063059353633901 0 -0.5 -0.29874288943189498 0 -0.46937090116945868 -0.29821258941183898 0 -0.5 -0.26944871803204617 0 -0.48245797385404121 -0.28063059353633901 0 -0.5 -0.29874288943189498 0 -0.5 -0.29874288943189498 0 -0.46937090116945868 -0.29821258941183898 0 -0.47623524987602139 -0.32201367690444971 0 -0.46937090116945868 -0.29821258941183898 0 -0.4476129789611048 -0.29283803371489903 0 -0.45018982867155483 -0.32180400573951162 0 -0.46196722525855399 -0.27174391220054139 0 -0.46937090116945868 -0.29821258941183898 0 -0.4476129789611048 -0.29283803371489903 0 -0.43765198640052377 -0.27443700488157741 0 -0.4476129789611048 -0.29283803371489903 0 -0.43236213870239748 -0.29002705800971151 0 -0.4476129789611048 -0.29283803371489903 0 -0.45018982867155483 -0.32180400573951162 0 -0.4314578060398388 -0.3048790663939604 0 -0.45018982867155483 -0.32180400573951162 0 -0.4314578060398388 -0.3048790663939604 0 -0.45018982867155483 -0.32180400573951162 0 -0.46157657978994598 -0.34139555482026068 0 -0.43521386225128428 -0.33802231259611382 0 -0.46157657978994598 -0.34139555482026068 0 -0.43521386225128428 -0.33802231259611382 0 -0.45018982867155483 -0.32180400573951162 0 -0.46157657978994598 -0.34139555482026068 0 -0.47623524987602139 -0.32201367690444971 0 -0.46937090116945868 -0.29821258941183898 0 -0.45018982867155483 -0.32180400573951162 0 -0.47623524987602139 -0.32201367690444971 0 -0.5 -0.29874288943189498 0 -0.47623524987602139 -0.32201367690444971 0 -0.5 -0.32803706083174372 0 -0.47623524987602139 -0.32201367690444971 0 -0.5 -0.32803706083174372 0 -0.48561656391384522 -0.34384835974822991 0 -0.5 -0.32803706083174372 0 -0.5 -0.35733123223159241 0 -0.48561656391384522 -0.34384835974822991 0 -0.46157657978994598 -0.34139555482026068 0 -0.47623524987602139 -0.32201367690444971 0 -0.48561656391384522 -0.34384835974822991 0 -0.46157657978994598 -0.34139555482026068 0 -0.47568148196104371 -0.35852722048879659 0 -0.48561656391384522 -0.34384835974822991 0 -0.47568148196104371 -0.35852722048879659 0 -0.48561656391384522 -0.34384835974822991 0 -0.48768886795130861 -0.36141736908419309 0 -0.5 -0.35733123223159241 0 -0.48561656391384522 -0.34384835974822991 0 -0.48768886795130861 -0.36141736908419309 0 -0.5 -0.35733123223159241 0 -0.4947615751445838 -0.37332156409002909 0 -0.48768886795130861 -0.36141736908419309 0 -0.5 -0.38662540363144121 0 -0.5 -0.35733123223159241 0 -0.4947615751445838 -0.37332156409002909 0 -0.4947615751445838 -0.37332156409002909 0 -0.48768886795130861 -0.36141736908419309 0 -0.48030931097003587 -0.37191064435083931 0 -0.47568148196104371 -0.35852722048879659 0 -0.48030931097003587 -0.37191064435083931 0 -0.46669490250066459 -0.37481721741951951 0 -0.47568148196104371 -0.35852722048879659 0 -0.48768886795130861 -0.36141736908419309 0 -0.48030931097003587 -0.37191064435083931 0 -0.46669490250066459 -0.37481721741951951 0 -0.45985290530711531 -0.35919053618658509 0 -0.45095991715087752 -0.36968037302039969 0 -0.47568148196104371 -0.35852722048879659 0 -0.46669490250066459 -0.37481721741951951 0 -0.45985290530711531 -0.35919053618658509 0 -0.46157657978994598 -0.34139555482026068 0 -0.47568148196104371 -0.35852722048879659 0 -0.45985290530711531 -0.35919053618658509 0 -0.46157657978994598 -0.34139555482026068 0 -0.45985290530711531 -0.35919053618658509 0 -0.44091292170358748 -0.35617636658334351 0 -0.46157657978994598 -0.34139555482026068 0 -0.44091292170358748 -0.35617636658334351 0 -0.43521386225128428 -0.33802231259611382 0 -0.43421362475025049 -0.37527491429266319 0 -0.44091292170358748 -0.35617636658334351 0 -0.45095991715087752 -0.36968037302039969 0 -0.45985290530711531 -0.35919053618658509 0 -0.44091292170358748 -0.35617636658334351 0 -0.45095991715087752 -0.36968037302039969 0 -0.43421362475025049 -0.37527491429266319 0 -0.41656514696884139 -0.37636588688318029 0 -0.42218579342164808 -0.36334977441807748 0 -0.43421362475025049 -0.37527491429266319 0 -0.44091292170358748 -0.35617636658334351 0 -0.42218579342164808 -0.36334977441807748 0 -0.44091292170358748 -0.35617636658334351 0 -0.42218579342164808 -0.36334977441807748 0 -0.42066840753926321 -0.34864312644900147 0 -0.44091292170358748 -0.35617636658334351 0 -0.42066840753926321 -0.34864312644900147 0 -0.43521386225128428 -0.33802231259611382 0 -0.42218579342164808 -0.36334977441807748 0 -0.42066840753926321 -0.34864312644900147 0 -0.40690054455725883 -0.35815659477868023 0 -0.40690054455725883 -0.35815659477868023 0 -0.40885114471262263 -0.334649070371968 0 -0.42066840753926321 -0.34864312644900147 0 -0.40690054455725883 -0.35815659477868023 0 -0.40885114471262263 -0.334649070371968 0 -0.42218579342164808 -0.36334977441807748 0 -0.40690054455725883 -0.35815659477868023 0 -0.40625971269279348 -0.36587953617857771 0 -0.40690054455725883 -0.35815659477868023 0 -0.40625971269279348 -0.36587953617857771 0 -0.41656514696884139 -0.37636588688318029 0 -0.42218579342164808 -0.36334977441807748 0 -0.40625971269279348 -0.36587953617857771 0 -0.42218579342164808 -0.36334977441807748 0 -0.40690054455725883 -0.35815659477868023 0 -0.41656514696884139 -0.37636588688318029 0 -0.40465459864295228 -0.37650109000307358 0 -0.40625971269279348 -0.36587953617857771 0 -0.40465459864295228 -0.37650109000307358 0 -0.40625971269279348 -0.36587953617857771 0 -0.3968495855878465 -0.36923685638487008 0 -0.40690054455725883 -0.35815659477868023 0 -0.40029228617445223 -0.36350286704594809 0 -0.3911593018599101 -0.36073848084166482 0 -0.40625971269279348 -0.36587953617857771 0 -0.40029228617445223 -0.36350286704594809 0 -0.3968495855878465 -0.36923685638487008 0 -0.40690054455725883 -0.35815659477868023 0 -0.40625971269279348 -0.36587953617857771 0 -0.40029228617445223 -0.36350286704594809 0 -0.3911593018599101 -0.36073848084166482 0 -0.3968495855878465 -0.36923685638487008 0 -0.38569326772338258 -0.37053454129240582 0 -0.40029228617445223 -0.36350286704594809 0 -0.3911593018599101 -0.36073848084166482 0 -0.3968495855878465 -0.36923685638487008 0 -0.39431275766669582 -0.38061373190328529 0 -0.3968495855878465 -0.36923685638487008 0 -0.38569326772338258 -0.37053454129240582 0 -0.3911593018599101 -0.36073848084166482 0 -0.38569326772338258 -0.37053454129240582 0 -0.37568472164775779 -0.36524225821647011 0 -0.37522403377147279 -0.38060127254172499 0 -0.38569326772338258 -0.37053454129240582 0 -0.37568472164775779 -0.36524225821647011 0 -0.3911593018599101 -0.36073848084166482 0 -0.37568472164775779 -0.36524225821647011 0 -0.38024887903539811 -0.3491016629308506 0 -0.40690054455725883 -0.35815659477868023 0 -0.3911593018599101 -0.36073848084166482 0 -0.38024887903539811 -0.3491016629308506 0 -0.40690054455725883 -0.35815659477868023 0 -0.38024887903539811 -0.3491016629308506 0 -0.39533213247953691 -0.34338662223350158 0 -0.40690054455725883 -0.35815659477868023 0 -0.39533213247953691 -0.34338662223350158 0 -0.40885114471262263 -0.334649070371968 0 -0.40690054455725883 -0.35815659477868023 0 -0.38024887903539811 -0.3491016629308506 0 -0.39533213247953691 -0.34338662223350158 0 -0.38532796161286798 -0.33163916085250739 0 -0.40885114471262263 -0.334649070371968 0 -0.38532796161286798 -0.33163916085250739 0 -0.40885114471262263 -0.334649070371968 0 -0.38024887903539811 -0.3491016629308506 0 -0.39533213247953691 -0.34338662223350158 0 -0.38532796161286798 -0.33163916085250739 0 -0.38024887903539811 -0.3491016629308506 0 -0.38532796161286798 -0.33163916085250739 0 -0.37024470816872912 -0.33735420154985679 0 -0.38532796161286798 -0.33163916085250739 0 -0.37601492727600683 -0.3197696392392384 0 -0.39293033406270472 -0.31505081143976649 0 -0.37601492727600683 -0.3197696392392384 0 -0.39293033406270472 -0.31505081143976649 0 -0.37651642550459341 -0.307078797330949 0 -0.38532796161286798 -0.33163916085250739 0 -0.39293033406270472 -0.31505081143976649 0 -0.40885114471262263 -0.334649070371968 0 -0.39293033406270472 -0.31505081143976649 0 -0.40885114471262263 -0.334649070371968 0 -0.41078846406037228 -0.3113015987101887 0 -0.40885114471262263 -0.334649070371968 0 -0.42554877913925399 -0.3223331804902434 0 -0.41078846406037228 -0.3113015987101887 0 -0.40885114471262263 -0.334649070371968 0 -0.41078846406037228 -0.3113015987101887 0 -0.42066840753926321 -0.34864312644900147 0 -0.40885114471262263 -0.334649070371968 0 -0.43521386225128428 -0.33802231259611382 0 -0.40885114471262263 -0.334649070371968 0 -0.43521386225128428 -0.33802231259611382 0 -0.40885114471262263 -0.334649070371968 0 -0.43521386225128428 -0.33802231259611382 0 -0.42554877913925399 -0.3223331804902434 0 -0.42554877913925399 -0.3223331804902434 0 -0.4314578060398388 -0.3048790663939604 0 -0.41078846406037228 -0.3113015987101887 0 -0.45018982867155483 -0.32180400573951162 0 -0.43521386225128428 -0.33802231259611382 0 -0.42554877913925399 -0.3223331804902434 0 -0.45018982867155483 -0.32180400573951162 0 -0.42554877913925399 -0.3223331804902434 0 -0.4314578060398388 -0.3048790663939604 0 -0.4476129789611048 -0.29283803371489903 0 -0.4314578060398388 -0.3048790663939604 0 -0.43236213870239748 -0.29002705800971151 0 -0.4314578060398388 -0.3048790663939604 0 -0.43236213870239748 -0.29002705800971151 0 -0.41272578340812272 -0.2879541270484095 0 -0.4314578060398388 -0.3048790663939604 0 -0.41272578340812272 -0.2879541270484095 0 -0.43765198640052377 -0.27443700488157741 0 -0.43236213870239748 -0.29002705800971151 0 -0.41272578340812272 -0.2879541270484095 0 -0.4314578060398388 -0.3048790663939604 0 -0.41272578340812272 -0.2879541270484095 0 -0.41078846406037228 -0.3113015987101887 0 -0.41272578340812272 -0.2879541270484095 0 -0.41078846406037228 -0.3113015987101887 0 -0.41272578340812272 -0.2879541270484095 0 -0.41078846406037228 -0.3113015987101887 0 -0.39233272698174793 -0.29435547039456872 0 -0.39293033406270472 -0.31505081143976649 0 -0.41078846406037228 -0.3113015987101887 0 -0.39233272698174793 -0.29435547039456872 0 -0.39293033406270472 -0.31505081143976649 0 -0.37651642550459341 -0.307078797330949 0 -0.39233272698174793 -0.29435547039456872 0 -0.39233272698174793 -0.29435547039456872 0 -0.39278725088820249 -0.26993907014966689 0 -0.37040839911066209 -0.28171057629616708 0 -0.37651642550459341 -0.307078797330949 0 -0.39233272698174793 -0.29435547039456872 0 -0.37040839911066209 -0.28171057629616708 0 -0.41272578340812272 -0.2879541270484095 0 -0.39233272698174793 -0.29435547039456872 0 -0.39278725088820249 -0.26993907014966689 0 -0.41272578340812272 -0.2879541270484095 0 -0.39278725088820249 -0.26993907014966689 0 -0.39278725088820249 -0.26993907014966689 0 -0.37040839911066209 -0.28171057629616708 0 -0.39278725088820249 -0.26993907014966689 0 -0.37533687834285862 -0.25417213976024849 0 -0.37040839911066209 -0.28171057629616708 0 -0.39278725088820249 -0.26993907014966689 0 -0.37533687834285862 -0.25417213976024849 0 -0.39826986996263802 -0.25360934065352753 0 -0.39278725088820249 -0.26993907014966689 0 -0.37533687834285862 -0.25417213976024849 0 -0.39278725088820249 -0.26993907014966689 0 -0.39826986996263802 -0.25360934065352753 0 -0.41519883225968468 -0.25815034790020708 0 -0.39278725088820249 -0.26993907014966689 0 -0.41519883225968468 -0.25815034790020708 0 -0.39826986996263802 -0.25360934065352753 0 -0.41519883225968468 -0.25815034790020708 0 -0.41615383063077721 -0.2466412503256647 0 -0.41519883225968468 -0.25815034790020708 0 -0.41615383063077721 -0.2466412503256647 0 -0.41272578340812272 -0.2879541270484095 0 -0.41519883225968468 -0.25815034790020708 0 -0.41272578340812272 -0.2879541270484095 0 -0.41519883225968468 -0.25815034790020708 0 -0.429874989515865 -0.26165756953837482 0 -0.41272578340812272 -0.2879541270484095 0 -0.39278725088820249 -0.26993907014966689 0 -0.41519883225968468 -0.25815034790020708 0 -0.43765198640052377 -0.27443700488157741 0 -0.41272578340812272 -0.2879541270484095 0 -0.429874989515865 -0.26165756953837482 0 -0.41519883225968468 -0.25815034790020708 0 -0.43598079583492633 -0.24721882136819351 0 -0.41519883225968468 -0.25815034790020708 0 -0.429874989515865 -0.26165756953837482 0 -0.43598079583492633 -0.24721882136819351 0 -0.41519883225968468 -0.25815034790020708 0 -0.43598079583492633 -0.24721882136819351 0 -0.41615383063077721 -0.2466412503256647 0 -0.31968345090478489 -0.25798973640781447 0 -0.33623326073948312 -0.25365348176558788 0 -0.32213598881581812 -0.2442700999577708 0 -0.31968345090478489 -0.25798973640781447 0 -0.31319680135340772 -0.27337899374224139 0 -0.30564385326437488 -0.26015983685037081 0 -0.31968345090478489 -0.25798973640781447 0 -0.31319680135340772 -0.27337899374224139 0 -0.33256675641106698 -0.27199424518209242 0 -0.31319680135340772 -0.27337899374224139 0 -0.33256675641106698 -0.27199424518209242 0 -0.3219330120753135 -0.28752383142540722 0 -0.33256675641106698 -0.27199424518209242 0 -0.33623326073948312 -0.25365348176558788 0 -0.35329637777243872 -0.26495799818728782 0 -0.31968345090478489 -0.25798973640781447 0 -0.33256675641106698 -0.27199424518209242 0 -0.33623326073948312 -0.25365348176558788 0 -0.33623326073948312 -0.25365348176558788 0 -0.35329637777243872 -0.26495799818728782 0 -0.35305879752332059 -0.24486073726717009 0 -0.37533687834285862 -0.25417213976024849 0 -0.35329637777243872 -0.26495799818728782 0 -0.35305879752332059 -0.24486073726717009 0 -0.37533687834285862 -0.25417213976024849 0 -0.35329637777243872 -0.26495799818728782 0 -0.37040839911066209 -0.28171057629616708 0 -0.35329637777243872 -0.26495799818728782 0 -0.34802954733312141 -0.29348208244266671 0 -0.37040839911066209 -0.28171057629616708 0 -0.33256675641106698 -0.27199424518209242 0 -0.35329637777243872 -0.26495799818728782 0 -0.34802954733312141 -0.29348208244266671 0 -0.34802954733312141 -0.29348208244266671 0 -0.37040839911066209 -0.28171057629616708 0 -0.37651642550459341 -0.307078797330949 0 -0.37040839911066209 -0.28171057629616708 0 -0.36249180620921062 -0.30132401124355712 0 -0.34802954733312141 -0.29348208244266671 0 -0.37040839911066209 -0.28171057629616708 0 -0.36249180620921062 -0.30132401124355712 0 -0.37651642550459341 -0.307078797330949 0 -0.36249180620921062 -0.30132401124355712 0 -0.36514172279026702 -0.314674684486903 0 -0.36249180620921062 -0.30132401124355712 0 -0.35217384865543538 -0.31302074178168637 0 -0.36514172279026702 -0.314674684486903 0 -0.34802954733312141 -0.29348208244266671 0 -0.33894022777705518 -0.31261958861733652 0 -0.35217384865543538 -0.31302074178168637 0 -0.34802954733312141 -0.29348208244266671 0 -0.36249180620921062 -0.30132401124355712 0 -0.35217384865543538 -0.31302074178168637 0 -0.34802954733312141 -0.29348208244266671 0 -0.32565069555558063 -0.30525358858916618 0 -0.33894022777705518 -0.31261958861733652 0 -0.34802954733312141 -0.29348208244266671 0 -0.32565069555558063 -0.30525358858916618 0 -0.32565069555558063 -0.30525358858916618 0 -0.32940773276489932 -0.31652548782855527 0 -0.33894022777705518 -0.31261958861733652 0 -0.33256675641106698 -0.27199424518209242 0 -0.34802954733312141 -0.29348208244266671 0 -0.3219330120753135 -0.28752383142540722 0 -0.34802954733312141 -0.29348208244266671 0 -0.3219330120753135 -0.28752383142540722 0 -0.32565069555558063 -0.30525358858916618 0 -0.3219330120753135 -0.28752383142540722 0 -0.31228269981280887 -0.29918463989613459 0 -0.30483638085835207 -0.28788342401786787 0 -0.31319680135340772 -0.27337899374224139 0 -0.3219330120753135 -0.28752383142540722 0 -0.30483638085835207 -0.28788342401786787 0 -0.32565069555558063 -0.30525358858916618 0 -0.30327184377803978 -0.31702509473566581 0 -0.31228269981280887 -0.29918463989613459 0 -0.3219330120753135 -0.28752383142540722 0 -0.32565069555558063 -0.30525358858916618 0 -0.31228269981280887 -0.29918463989613459 0 -0.32565069555558063 -0.30525358858916618 0 -0.30327184377803978 -0.31702509473566581 0 -0.31475841231360341 -0.32260943229412947 0 -0.32694554799167658 -0.33099179923519167 0 -0.33828159541335823 -0.32561934181358893 0 -0.32565069555558063 -0.30525358858916618 0 -0.31475841231360341 -0.32260943229412947 0 -0.30327184377803978 -0.31702509473566581 0 -0.31475841231360341 -0.32260943229412947 0 -0.33828159541335823 -0.32561934181358893 0 -0.32940773276489932 -0.31652548782855527 0 -0.32565069555558063 -0.30525358858916618 0 -0.31475841231360341 -0.32260943229412947 0 -0.32940773276489932 -0.31652548782855527 0 -0.31475841231360341 -0.32260943229412947 0 -0.33828159541335823 -0.32561934181358893 0 -0.31475841231360341 -0.32260943229412947 0 -0.31372637242327511 -0.33497634201883658 0 -0.32694554799167658 -0.33099179923519167 0 -0.32694554799167658 -0.33099179923519167 0 -0.32737612656656928 -0.35021722948502532 0 -0.3170311031704231 -0.34491623006635341 0 -0.31372637242327511 -0.33497634201883658 0 -0.32694554799167658 -0.33099179923519167 0 -0.3170311031704231 -0.34491623006635341 0 -0.31372637242327511 -0.33497634201883658 0 -0.3170311031704231 -0.34491623006635341 0 -0.30849554643820359 -0.34481279163420842 0 -0.32694554799167658 -0.33099179923519167 0 -0.33828159541335823 -0.32561934181358893 0 -0.35359721351353718 -0.34004673108302108 0 -0.32694554799167658 -0.33099179923519167 0 -0.35359721351353718 -0.34004673108302108 0 -0.33765025977867152 -0.34480892108230998 0 -0.32694554799167658 -0.33099179923519167 0 -0.35359721351353718 -0.34004673108302108 0 -0.32694554799167658 -0.33099179923519167 0 -0.33765025977867152 -0.34480892108230998 0 -0.32737612656656928 -0.35021722948502532 0 -0.33828159541335823 -0.32561934181358893 0 -0.32940773276489932 -0.31652548782855527 0 -0.33894022777705518 -0.31261958861733652 0 -0.33828159541335823 -0.32561934181358893 0 -0.33894022777705518 -0.31261958861733652 0 -0.35217384865543538 -0.31302074178168637 0 -0.33828159541335823 -0.32561934181358893 0 -0.3618047785131131 -0.32862925133304821 0 -0.33828159541335823 -0.32561934181358893 0 -0.35217384865543538 -0.31302074178168637 0 -0.3618047785131131 -0.32862925133304821 0 -0.38532796161286798 -0.33163916085250739 0 -0.37601492727600683 -0.3197696392392384 0 -0.3618047785131131 -0.32862925133304821 0 -0.35217384865543538 -0.31302074178168637 0 -0.36514172279026702 -0.314674684486903 0 -0.3618047785131131 -0.32862925133304821 0 -0.37601492727600683 -0.3197696392392384 0 -0.36514172279026702 -0.314674684486903 0 -0.3618047785131131 -0.32862925133304821 0 -0.37601492727600683 -0.3197696392392384 0 -0.37651642550459341 -0.307078797330949 0 -0.36514172279026702 -0.314674684486903 0 -0.38532796161286798 -0.33163916085250739 0 -0.37024470816872912 -0.33735420154985679 0 -0.3618047785131131 -0.32862925133304821 0 -0.37024470816872912 -0.33735420154985679 0 -0.3618047785131131 -0.32862925133304821 0 -0.35359721351353718 -0.34004673108302108 0 -0.38532796161286798 -0.33163916085250739 0 -0.3618047785131131 -0.32862925133304821 0 -0.38024887903539811 -0.3491016629308506 0 -0.37024470816872912 -0.33735420154985679 0 -0.35359721351353718 -0.34004673108302108 0 -0.33828159541335823 -0.32561934181358893 0 -0.3618047785131131 -0.32862925133304821 0 -0.35359721351353718 -0.34004673108302108 0 -0.35359721351353718 -0.34004673108302108 0 -0.36247207576052709 -0.35740109745143939 0 -0.34268215104290278 -0.35797992452600158 0 -0.35359721351353718 -0.34004673108302108 0 -0.34268215104290278 -0.35797992452600158 0 -0.33765025977867152 -0.34480892108230998 0 -0.37568472164775779 -0.36524225821647011 0 -0.38024887903539811 -0.3491016629308506 0 -0.36247207576052709 -0.35740109745143939 0 -0.38024887903539811 -0.3491016629308506 0 -0.35359721351353718 -0.34004673108302108 0 -0.36247207576052709 -0.35740109745143939 0 -0.38024887903539811 -0.3491016629308506 0 -0.35359721351353718 -0.34004673108302108 0 -0.37522403377147279 -0.38060127254172499 0 -0.37568472164775779 -0.36524225821647011 0 -0.35964608014779109 -0.37334112637938882 0 -0.37568472164775779 -0.36524225821647011 0 -0.36247207576052709 -0.35740109745143939 0 -0.35964608014779109 -0.37334112637938882 0 -0.36247207576052709 -0.35740109745143939 0 -0.35964608014779109 -0.37334112637938882 0 -0.34268215104290278 -0.35797992452600158 0 -0.35964608014779109 -0.37334112637938882 0 -0.34268215104290278 -0.35797992452600158 0 -0.34254000635277743 -0.38197763020755832 0 -0.34268215104290278 -0.35797992452600158 0 -0.32737612656656928 -0.35021722948502532 0 -0.32270418411731933 -0.37181077970513959 0 -0.34268215104290278 -0.35797992452600158 0 -0.32270418411731933 -0.37181077970513959 0 -0.34254000635277743 -0.38197763020755832 0 -0.34268215104290278 -0.35797992452600158 0 -0.34254000635277743 -0.38197763020755832 0 -0.34268215104290278 -0.35797992452600158 0 -0.33765025977867152 -0.34480892108230998 0 -0.32737612656656928 -0.35021722948502532 0 -0.32737612656656928 -0.35021722948502532 0 -0.31662274924076123 -0.35606216629487569 0 -0.32270418411731933 -0.37181077970513959 0 -0.32737612656656928 -0.35021722948502532 0 -0.3170311031704231 -0.34491623006635341 0 -0.31662274924076123 -0.35606216629487569 0 -0.3170311031704231 -0.34491623006635341 0 -0.31662274924076123 -0.35606216629487569 0 -0.30902027636205309 -0.35243705172998302 0 -0.31662274924076123 -0.35606216629487569 0 -0.32270418411731933 -0.37181077970513959 0 -0.30796050174877349 -0.36016317053514468 0 -0.32270418411731933 -0.37181077970513959 0 -0.29719619905707523 -0.36594012765828582 0 -0.30796050174877349 -0.36016317053514468 0 -0.32270418411731933 -0.37181077970513959 0 -0.29719619905707523 -0.36594012765828582 0 -0.3103864423796594 -0.37828470113645102 0 -0.32270418411731933 -0.37181077970513959 0 -0.29719619905707523 -0.36594012765828582 0 -0.29719619905707523 -0.36594012765828582 0 -0.29943295026653399 -0.35953932364306618 0 -0.30796050174877349 -0.36016317053514468 0 -0.29719619905707523 -0.36594012765828582 0 -0.29584447723995128 -0.37444813956539807 0 -0.3103864423796594 -0.37828470113645102 0 -0.31662274924076123 -0.35606216629487569 0 -0.30796050174877349 -0.36016317053514468 0 -0.30902027636205309 -0.35243705172998302 0 -0.30796050174877349 -0.36016317053514468 0 -0.30902027636205309 -0.35243705172998302 0 -0.30278665144889838 -0.35518957417951802 0 -0.3170311031704231 -0.34491623006635341 0 -0.30902027636205309 -0.35243705172998302 0 -0.30849554643820359 -0.34481279163420842 0 -0.30902027636205309 -0.35243705172998302 0 -0.30849554643820359 -0.34481279163420842 0 -0.30076474035813339 -0.34759465108555682 0 -0.30849554643820359 -0.34481279163420842 0 -0.30076474035813339 -0.34759465108555682 0 -0.30398917998114899 -0.33934800480643368 0 -0.30902027636205309 -0.35243705172998302 0 -0.30076474035813339 -0.34759465108555682 0 -0.30278665144889838 -0.35518957417951802 0 -0.29943295026653399 -0.35953932364306618 0 -0.30796050174877349 -0.36016317053514468 0 -0.30278665144889838 -0.35518957417951802 0 -0.30076474035813339 -0.34759465108555682 0 -0.30278665144889838 -0.35518957417951802 0 -0.29719830368448108 -0.35301728683459582 0 -0.29943295026653399 -0.35953932364306618 0 -0.30278665144889838 -0.35518957417951802 0 -0.29719830368448108 -0.35301728683459582 0 -0.29943295026653399 -0.35953932364306618 0 -0.29719830368448108 -0.35301728683459582 0 -0.29016743694869812 -0.35649807524262711 0 -0.29016743694869812 -0.35649807524262711 0 -0.28284547851944208 -0.35047845284871731 0 -0.27168821399683141 -0.36006947561143121 0 -0.29719830368448108 -0.35301728683459582 0 -0.29016743694869812 -0.35649807524262711 0 -0.2925915294609488 -0.34919256188026188 0 -0.2925915294609488 -0.34919256188026188 0 -0.28611540962297188 -0.3426453659285974 0 -0.29619358151489988 -0.34015641309103278 0 -0.30076474035813339 -0.34759465108555682 0 -0.29719830368448108 -0.35301728683459582 0 -0.2925915294609488 -0.34919256188026188 0 -0.30076474035813339 -0.34759465108555682 0 -0.2925915294609488 -0.34919256188026188 0 -0.29619358151489988 -0.34015641309103278 0 -0.2925915294609488 -0.34919256188026188 0 -0.28284547851944208 -0.35047845284871731 0 -0.28611540962297188 -0.3426453659285974 0 -0.28284547851944208 -0.35047845284871731 0 -0.27676447355633299 -0.3457480812413124 0 -0.28611540962297188 -0.3426453659285974 0 -0.29016743694869812 -0.35649807524262711 0 -0.2925915294609488 -0.34919256188026188 0 -0.28284547851944208 -0.35047845284871731 0 -0.29202770366946113 -0.36668513997228358 0 -0.27168821399683141 -0.36006947561143121 0 -0.28307956849111848 -0.3828068929804474 0 -0.29719619905707523 -0.36594012765828582 0 -0.27168821399683141 -0.36006947561143121 0 -0.29202770366946113 -0.36668513997228358 0 -0.28307956849111848 -0.3828068929804474 0 -0.29202770366946113 -0.36668513997228358 0 -0.29584447723995128 -0.37444813956539807 0 -0.28307956849111848 -0.3828068929804474 0 -0.29719619905707523 -0.36594012765828582 0 -0.29016743694869812 -0.35649807524262711 0 -0.27168821399683141 -0.36006947561143121 0 -0.29719619905707523 -0.36594012765828582 0 -0.29202770366946113 -0.36668513997228358 0 -0.27168821399683141 -0.36006947561143121 0 -0.29719619905707523 -0.36594012765828582 0 -0.29943295026653399 -0.35953932364306618 0 -0.29016743694869812 -0.35649807524262711 0 -0.29719619905707523 -0.36594012765828582 0 -0.29202770366946113 -0.36668513997228358 0 -0.29584447723995128 -0.37444813956539807 0 -0.27168821399683141 -0.36006947561143121 0 -0.28307956849111848 -0.3828068929804474 0 -0.27168821399683141 -0.36006947561143121 0 -0.28307956849111848 -0.3828068929804474 0 -0.26050234447883253 -0.38027693877573482 0 -0.27168821399683141 -0.36006947561143121 0 -0.25721723303835431 -0.36623646057876708 0 -0.26050234447883253 -0.38027693877573482 0 -0.27168821399683141 -0.36006947561143121 0 -0.25721723303835431 -0.36623646057876708 0 -0.24850069890613241 -0.35473287875334369 0 -0.25721723303835431 -0.36623646057876708 0 -0.24817767477162081 -0.36986654917455902 0 -0.24850069890613241 -0.35473287875334369 0 -0.25721723303835431 -0.36623646057876708 0 -0.26050234447883253 -0.38027693877573482 0 -0.24817767477162081 -0.36986654917455902 0 -0.27168821399683141 -0.36006947561143121 0 -0.25445926970156468 -0.34270101061729968 0 -0.24850069890613241 -0.35473287875334369 0 -0.27168821399683141 -0.36006947561143121 0 -0.26120815563270988 -0.3391510272218049 0 -0.25445926970156468 -0.34270101061729968 0 -0.27168821399683141 -0.36006947561143121 0 -0.24850069890613241 -0.35473287875334369 0 -0.27168821399683141 -0.36006947561143121 0 -0.27676447355633299 -0.3457480812413124 0 -0.26120815563270988 -0.3391510272218049 0 -0.27168821399683141 -0.36006947561143121 0 -0.26120815563270988 -0.3391510272218049 0 -0.28284547851944208 -0.35047845284871731 0 -0.27168821399683141 -0.36006947561143121 0 -0.27676447355633299 -0.3457480812413124 0 -0.27676447355633299 -0.3457480812413124 0 -0.27858368134566353 -0.33798527866036399 0 -0.28611540962297188 -0.3426453659285974 0 -0.27676447355633299 -0.3457480812413124 0 -0.27858368134566353 -0.33798527866036399 0 -0.26120815563270988 -0.3391510272218049 0 -0.28089299200049878 -0.32879660088216478 0 -0.26120815563270988 -0.3391510272218049 0 -0.28089299200049878 -0.32879660088216478 0 -0.26120815563270988 -0.3391510272218049 0 -0.26730676106940449 -0.32685643845792262 0 -0.27858368134566353 -0.33798527866036399 0 -0.28089299200049878 -0.32879660088216478 0 -0.26120815563270988 -0.3391510272218049 0 -0.26120815563270988 -0.3391510272218049 0 -0.26057751607960811 -0.32279583566460812 0 -0.26730676106940449 -0.32685643845792262 0 -0.26120815563270988 -0.3391510272218049 0 -0.25273748935779161 -0.32224337373924072 0 -0.26120815563270988 -0.3391510272218049 0 -0.25207330520806498 -0.33378255792528982 0 -0.25273748935779161 -0.32224337373924072 0 -0.26120815563270988 -0.3391510272218049 0 -0.25445926970156468 -0.34270101061729968 0 -0.25207330520806498 -0.33378255792528982 0 -0.25445926970156468 -0.34270101061729968 0 -0.2460450098649074 -0.33743905859998191 0 -0.26120815563270988 -0.3391510272218049 0 -0.25207330520806498 -0.33378255792528982 0 -0.25445926970156468 -0.34270101061729968 0 -0.25273748935779161 -0.32224337373924072 0 -0.26050456352867191 -0.3149367065078193 0 -0.24426682308287331 -0.30533572025667649 0 -0.26120815563270988 -0.3391510272218049 0 -0.25273748935779161 -0.32224337373924072 0 -0.26057751607960811 -0.32279583566460812 0 -0.26057751607960811 -0.32279583566460812 0 -0.26050456352867191 -0.3149367065078193 0 -0.26730676106940449 -0.32685643845792262 0 -0.25273748935779161 -0.32224337373924072 0 -0.26057751607960811 -0.32279583566460812 0 -0.26050456352867191 -0.3149367065078193 0 -0.28089299200049878 -0.32879660088216478 0 -0.26050456352867191 -0.3149367065078193 0 -0.27445713665833338 -0.31633796571173628 0 -0.28089299200049878 -0.32879660088216478 0 -0.26050456352867191 -0.3149367065078193 0 -0.26050456352867191 -0.3149367065078193 0 -0.27445713665833338 -0.31633796571173628 0 -0.26793999894844561 -0.31004618489902153 0 -0.28089299200049878 -0.32879660088216478 0 -0.26050456352867191 -0.3149367065078193 0 -0.26730676106940449 -0.32685643845792262 0 -0.28089299200049878 -0.32879660088216478 0 -0.27445713665833338 -0.31633796571173628 0 -0.28125105682705043 -0.31976055402590231 0 -0.27445713665833338 -0.31633796571173628 0 -0.28252008875028978 -0.31254235777143202 0 -0.28125105682705043 -0.31976055402590231 0 -0.28252008875028978 -0.31254235777143202 0 -0.28823329624350208 -0.31711313423980658 0 -0.29327146190654751 -0.30876504511160502 0 -0.28089299200049878 -0.32879660088216478 0 -0.28823329624350208 -0.31711313423980658 0 -0.30327184377803978 -0.31702509473566581 0 -0.28089299200049878 -0.32879660088216478 0 -0.29457520052377689 -0.33013191680287202 0 -0.30327184377803978 -0.31702509473566581 0 -0.28089299200049878 -0.32879660088216478 0 -0.30327184377803978 -0.31702509473566581 0 -0.28252008875028978 -0.31254235777143202 0 -0.28125105682705043 -0.31976055402590231 0 -0.28823329624350208 -0.31711313423980658 0 -0.28823329624350208 -0.31711313423980658 0 -0.30327184377803978 -0.31702509473566581 0 -0.29327146190654751 -0.30876504511160502 0 -0.28089299200049878 -0.32879660088216478 0 -0.28125105682705043 -0.31976055402590231 0 -0.28823329624350208 -0.31711313423980658 0 -0.28089299200049878 -0.32879660088216478 0 -0.28793737591580382 -0.33358531802794061 0 -0.27858368134566353 -0.33798527866036399 0 -0.28089299200049878 -0.32879660088216478 0 -0.28793737591580382 -0.33358531802794061 0 -0.28089299200049878 -0.32879660088216478 0 -0.28793737591580382 -0.33358531802794061 0 -0.29457520052377689 -0.33013191680287202 0 -0.27858368134566353 -0.33798527866036399 0 -0.28793737591580382 -0.33358531802794061 0 -0.28611540962297188 -0.3426453659285974 0 -0.28793737591580382 -0.33358531802794061 0 -0.28611540962297188 -0.3426453659285974 0 -0.29619358151489988 -0.34015641309103278 0 -0.28793737591580382 -0.33358531802794061 0 -0.29619358151489988 -0.34015641309103278 0 -0.29457520052377689 -0.33013191680287202 0 -0.29619358151489988 -0.34015641309103278 0 -0.29457520052377689 -0.33013191680287202 0 -0.30458020940964259 -0.3310961572775562 0 -0.30076474035813339 -0.34759465108555682 0 -0.29619358151489988 -0.34015641309103278 0 -0.30398917998114899 -0.33934800480643368 0 -0.29619358151489988 -0.34015641309103278 0 -0.30458020940964259 -0.3310961572775562 0 -0.30398917998114899 -0.33934800480643368 0 -0.31372637242327511 -0.33497634201883658 0 -0.30849554643820359 -0.34481279163420842 0 -0.30398917998114899 -0.33934800480643368 0 -0.31475841231360341 -0.32260943229412947 0 -0.31372637242327511 -0.33497634201883658 0 -0.30458020940964259 -0.3310961572775562 0 -0.31372637242327511 -0.33497634201883658 0 -0.30458020940964259 -0.3310961572775562 0 -0.30398917998114899 -0.33934800480643368 0 -0.31475841231360341 -0.32260943229412947 0 -0.30458020940964259 -0.3310961572775562 0 -0.30327184377803978 -0.31702509473566581 0 -0.29457520052377689 -0.33013191680287202 0 -0.30458020940964259 -0.3310961572775562 0 -0.30327184377803978 -0.31702509473566581 0 -0.30327184377803978 -0.31702509473566581 0 -0.30068554560480582 -0.30112982209441241 0 -0.31228269981280887 -0.29918463989613459 0 -0.30327184377803978 -0.31702509473566581 0 -0.30068554560480582 -0.30112982209441241 0 -0.29327146190654751 -0.30876504511160502 0 -0.30068554560480582 -0.30112982209441241 0 -0.30483638085835207 -0.28788342401786787 0 -0.28888361246081401 -0.29493054457851903 0 -0.30068554560480582 -0.30112982209441241 0 -0.31228269981280887 -0.29918463989613459 0 -0.30483638085835207 -0.28788342401786787 0 -0.28888361246081401 -0.29493054457851903 0 -0.28078806465599399 -0.28300047521785149 0 -0.29451735460655398 -0.27472288856989607 0 -0.30483638085835207 -0.28788342401786787 0 -0.28888361246081401 -0.29493054457851903 0 -0.29451735460655398 -0.27472288856989607 0 -0.28888361246081401 -0.29493054457851903 0 -0.28295382644196537 -0.3038897035906043 0 -0.27388309143310768 -0.29511411685975181 0 -0.28888361246081401 -0.29493054457851903 0 -0.28295382644196537 -0.3038897035906043 0 -0.29327146190654751 -0.30876504511160502 0 -0.30068554560480582 -0.30112982209441241 0 -0.28888361246081401 -0.29493054457851903 0 -0.29327146190654751 -0.30876504511160502 0 -0.28252008875028978 -0.31254235777143202 0 -0.28295382644196537 -0.3038897035906043 0 -0.29327146190654751 -0.30876504511160502 0 -0.27445713665833338 -0.31633796571173628 0 -0.28252008875028978 -0.31254235777143202 0 -0.27524002690986649 -0.30828041126704497 0 -0.28252008875028978 -0.31254235777143202 0 -0.28295382644196537 -0.3038897035906043 0 -0.27524002690986649 -0.30828041126704497 0 -0.28295382644196537 -0.3038897035906043 0 -0.27524002690986649 -0.30828041126704497 0 -0.27388309143310768 -0.29511411685975181 0 -0.26808679199009749 -0.30362992927208171 0 -0.26252268864995981 -0.29761987486456531 0 -0.27388309143310768 -0.29511411685975181 0 -0.27524002690986649 -0.30828041126704497 0 -0.26808679199009749 -0.30362992927208171 0 -0.27388309143310768 -0.29511411685975181 0 -0.27445713665833338 -0.31633796571173628 0 -0.27524002690986649 -0.30828041126704497 0 -0.26793999894844561 -0.31004618489902153 0 -0.27524002690986649 -0.30828041126704497 0 -0.26808679199009749 -0.30362992927208171 0 -0.26793999894844561 -0.31004618489902153 0 -0.26808679199009749 -0.30362992927208171 0 -0.26793999894844561 -0.31004618489902153 0 -0.26278193746552841 -0.30551063084933561 0 -0.26050456352867191 -0.3149367065078193 0 -0.25485564421046719 -0.30132045870319019 0 -0.24011613505684479 -0.30107681213347393 0 -0.26050456352867191 -0.3149367065078193 0 -0.24011613505684479 -0.30107681213347393 0 -0.26050456352867191 -0.3149367065078193 0 -0.26278193746552841 -0.30551063084933561 0 -0.25485564421046719 -0.30132045870319019 0 -0.26050456352867191 -0.3149367065078193 0 -0.26793999894844561 -0.31004618489902153 0 -0.26278193746552841 -0.30551063084933561 0 -0.26278193746552841 -0.30551063084933561 0 -0.26252268864995981 -0.29761987486456531 0 -0.25485564421046719 -0.30132045870319019 0 -0.26252268864995981 -0.29761987486456531 0 -0.25485564421046719 -0.30132045870319019 0 -0.2567143935458242 -0.29223768812186002 0 -0.26808679199009749 -0.30362992927208171 0 -0.26278193746552841 -0.30551063084933561 0 -0.26252268864995981 -0.29761987486456531 0 -0.25608276685525683 -0.28295324223861612 0 -0.2567143935458242 -0.29223768812186002 0 -0.24732420154209239 -0.29033586459568173 0 -0.25485564421046719 -0.30132045870319019 0 -0.2567143935458242 -0.29223768812186002 0 -0.24732420154209239 -0.29033586459568173 0 -0.26252268864995981 -0.29761987486456531 0 -0.2567143935458242 -0.29223768812186002 0 -0.26350989061834318 -0.28909490770035701 0 -0.25608276685525683 -0.28295324223861612 0 -0.26350989061834318 -0.28909490770035701 0 -0.26907982973782107 -0.2804670883869903 0 -0.25608276685525683 -0.28295324223861612 0 -0.2567143935458242 -0.29223768812186002 0 -0.26350989061834318 -0.28909490770035701 0 -0.26350989061834318 -0.28909490770035701 0 -0.27388309143310768 -0.29511411685975181 0 -0.26907982973782107 -0.2804670883869903 0 -0.26252268864995981 -0.29761987486456531 0 -0.26350989061834318 -0.28909490770035701 0 -0.27388309143310768 -0.29511411685975181 0 -0.28888361246081401 -0.29493054457851903 0 -0.27388309143310768 -0.29511411685975181 0 -0.28078806465599399 -0.28300047521785149 0 -0.27388309143310768 -0.29511411685975181 0 -0.28078806465599399 -0.28300047521785149 0 -0.26907982973782107 -0.2804670883869903 0 -0.27772768471542669 -0.26767482265106679 0 -0.26907982973782107 -0.2804670883869903 0 -0.25958550566062261 -0.27102626557679149 0 -0.28078806465599399 -0.28300047521785149 0 -0.27772768471542669 -0.26767482265106679 0 -0.26907982973782107 -0.2804670883869903 0 -0.25608276685525683 -0.28295324223861612 0 -0.26907982973782107 -0.2804670883869903 0 -0.25958550566062261 -0.27102626557679149 0 -0.25608276685525683 -0.28295324223861612 0 -0.25958550566062261 -0.27102626557679149 0 -0.2444485511135471 -0.27534046621033159 0 -0.26398002587916253 -0.25656090854441049 0 -0.24465976002352091 -0.25387891845332877 0 -0.25992972331208369 -0.2410680052130979 0 -0.25958550566062261 -0.27102626557679149 0 -0.26398002587916253 -0.25656090854441049 0 -0.24465976002352091 -0.25387891845332877 0 -0.27772768471542669 -0.26767482265106679 0 -0.26398002587916253 -0.25656090854441049 0 -0.27722523139620658 -0.24922189107985179 0 -0.27772768471542669 -0.26767482265106679 0 -0.25958550566062261 -0.27102626557679149 0 -0.26398002587916253 -0.25656090854441049 0 -0.27772768471542669 -0.26767482265106679 0 -0.29131753467172561 -0.25675805269722002 0 -0.27722523139620658 -0.24922189107985179 0 -0.28078806465599399 -0.28300047521785149 0 -0.27772768471542669 -0.26767482265106679 0 -0.29451735460655398 -0.27472288856989607 0 -0.27772768471542669 -0.26767482265106679 0 -0.29131753467172561 -0.25675805269722002 0 -0.29451735460655398 -0.27472288856989607 0 -0.31319680135340772 -0.27337899374224139 0 -0.29451735460655398 -0.27472288856989607 0 -0.30564385326437488 -0.26015983685037081 0 -0.31319680135340772 -0.27337899374224139 0 -0.30483638085835207 -0.28788342401786787 0 -0.29451735460655398 -0.27472288856989607 0 -0.29131753467172561 -0.25675805269722002 0 -0.29451735460655398 -0.27472288856989607 0 -0.30564385326437488 -0.26015983685037081 0 -0.29131753467172561 -0.25675805269722002 0 -0.30564385326437488 -0.26015983685037081 0 -0.30769212114973271 -0.24578220261295139 0 -0.31968345090478489 -0.25798973640781447 0 -0.30564385326437488 -0.26015983685037081 0 -0.30769212114973271 -0.24578220261295139 0 -0.34207866423036198 -0.45986413066326443 0 -0.33141508850449702 -0.45187214799378478 0 -0.32594289259428999 -0.46085836632795257 0 -0.34207866423036198 -0.45986413066326443 0 -0.32594289259428999 -0.46085836632795257 0 -0.33264581849560632 -0.47431014716802089 0 -0.34207866423036198 -0.45986413066326443 0 -0.34225571697252682 -0.42997304157067162 0 -0.34207866423036198 -0.45986413066326443 0 -0.33358626016413989 -0.44229992863572659 0 -0.33141508850449702 -0.45187214799378478 0 -0.34207866423036198 -0.45986413066326443 0 -0.33358626016413989 -0.44229992863572659 0 -0.34225571697252682 -0.42997304157067162 0 -0.33358626016413989 -0.44229992863572659 0 -0.33141508850449702 -0.45187214799378478 0 -0.32300139100864811 -0.44723989508536771 0 -0.33358626016413989 -0.44229992863572659 0 -0.32300139100864811 -0.44723989508536771 0 -0.32413493920603592 -0.43586432580396972 0 -0.32300139100864811 -0.44723989508536771 0 -0.31385630152515048 -0.44199725430357722 0 -0.32413493920603592 -0.43586432580396972 0 -0.32300139100864811 -0.44723989508536771 0 -0.31385630152515048 -0.44199725430357722 0 -0.31044958537109257 -0.45255960714027171 0 -0.32594289259428999 -0.46085836632795257 0 -0.31333683559556219 -0.46686726284272168 0 -0.31044958537109257 -0.45255960714027171 0 -0.32594289259428999 -0.46085836632795257 0 -0.31333683559556219 -0.46686726284272168 0 -0.32224857144892449 -0.47649828689453749 0 -0.32300139100864811 -0.44723989508536771 0 -0.32594289259428999 -0.46085836632795257 0 -0.31044958537109257 -0.45255960714027171 0 -0.33141508850449702 -0.45187214799378478 0 -0.32300139100864811 -0.44723989508536771 0 -0.32594289259428999 -0.46085836632795257 0 -0.31333683559556219 -0.46686726284272168 0 -0.32224857144892449 -0.47649828689453749 0 -0.30503152439861497 -0.48190266549989857 0 -0.32224857144892449 -0.47649828689453749 0 -0.32279626626388608 -0.48781718170045291 0 -0.30503152439861497 -0.48190266549989857 0 -0.32594289259428999 -0.46085836632795257 0 -0.32224857144892449 -0.47649828689453749 0 -0.33264581849560632 -0.47431014716802089 0 -0.32224857144892449 -0.47649828689453749 0 -0.32279626626388608 -0.48781718170045291 0 -0.33105735271625752 -0.4845747321984929 0 -0.32006214434654462 -0.5 0 -0.32279626626388608 -0.48781718170045291 0 -0.30503152439861497 -0.48190266549989857 0 -0.32006214434654462 -0.5 0 -0.32279626626388608 -0.48781718170045291 0 -0.33558173840908911 -0.49611022390933512 0 -0.32006214434654462 -0.5 0 -0.33558173840908911 -0.49611022390933512 0 -0.34657288766042038 -0.5 0 -0.33558173840908911 -0.49611022390933512 0 -0.34190161148819742 -0.48975521975585701 0 -0.35306908662498632 -0.4951847935385878 0 -0.32279626626388608 -0.48781718170045291 0 -0.33558173840908911 -0.49611022390933512 0 -0.33105735271625752 -0.4845747321984929 0 -0.33558173840908911 -0.49611022390933512 0 -0.33105735271625752 -0.4845747321984929 0 -0.34190161148819742 -0.48975521975585701 0 -0.34207866423036198 -0.45986413066326443 0 -0.34190161148819742 -0.48975521975585701 0 -0.34207866423036198 -0.45986413066326443 0 -0.34190161148819742 -0.48975521975585701 0 -0.33264581849560632 -0.47431014716802089 0 -0.33105735271625752 -0.4845747321984929 0 -0.34190161148819742 -0.48975521975585701 0 -0.33264581849560632 -0.47431014716802089 0 -0.32224857144892449 -0.47649828689453749 0 -0.33105735271625752 -0.4845747321984929 0 -0.33264581849560632 -0.47431014716802089 0 -0.34190161148819742 -0.48975521975585701 0 -0.35001641252228072 -0.47142734906239081 0 -0.35328963507943428 -0.48328499015431992 0 -0.34207866423036198 -0.45986413066326443 0 -0.34190161148819742 -0.48975521975585701 0 -0.35001641252228072 -0.47142734906239081 0 -0.35328963507943428 -0.48328499015431992 0 -0.35950950469085041 -0.48638993404071668 0 -0.36112286221809747 -0.47283058930211808 0 -0.35001641252228072 -0.47142734906239081 0 -0.35328963507943428 -0.48328499015431992 0 -0.36112286221809747 -0.47283058930211808 0 -0.33558173840908911 -0.49611022390933512 0 -0.35306908662498632 -0.4951847935385878 0 -0.33558173840908911 -0.49611022390933512 0 -0.34657288766042038 -0.5 0 -0.35306908662498632 -0.4951847935385878 0 -0.34657288766042038 -0.5 0 -0.35306908662498632 -0.4951847935385878 0 -0.37308363097429631 -0.50000000000000244 0 -0.34190161148819742 -0.48975521975585701 0 -0.35328963507943428 -0.48328499015431992 0 -0.35306908662498632 -0.4951847935385878 0 -0.35328963507943428 -0.48328499015431992 0 -0.35306908662498632 -0.4951847935385878 0 -0.35950950469085041 -0.48638993404071668 0 -0.35306908662498632 -0.4951847935385878 0 -0.35950950469085041 -0.48638993404071668 0 -0.37055643484088358 -0.49425936316784103 0 -0.35306908662498632 -0.4951847935385878 0 -0.37055643484088358 -0.49425936316784103 0 -0.35950950469085041 -0.48638993404071668 0 -0.37055643484088358 -0.49425936316784103 0 -0.36112286221809747 -0.47283058930211808 0 -0.35306908662498632 -0.4951847935385878 0 -0.37055643484088358 -0.49425936316784103 0 -0.37308363097429631 -0.50000000000000244 0 -0.37055643484088358 -0.49425936316784103 0 -0.37308363097429631 -0.50000000000000244 0 -0.38039451612360919 -0.47713749807852829 0 -0.37055643484088358 -0.49425936316784103 0 -0.36112286221809747 -0.47283058930211808 0 -0.37055643484088358 -0.49425936316784103 0 -0.36112286221809747 -0.47283058930211808 0 -0.38039451612360919 -0.47713749807852829 0 -0.36112286221809747 -0.47283058930211808 0 -0.37415472949075129 -0.45946062715310632 0 -0.37415472949075129 -0.45946062715310632 0 -0.3629811744391212 -0.45722253899736259 0 -0.36406731613876331 -0.44506275929787698 0 -0.36112286221809747 -0.47283058930211808 0 -0.37415472949075129 -0.45946062715310632 0 -0.3629811744391212 -0.45722253899736259 0 -0.36112286221809747 -0.47283058930211808 0 -0.3629811744391212 -0.45722253899736259 0 -0.35168928959531232 -0.4514018154363949 0 -0.36112286221809747 -0.47283058930211808 0 -0.35168928959531232 -0.4514018154363949 0 -0.35001641252228072 -0.47142734906239081 0 -0.36112286221809747 -0.47283058930211808 0 -0.35168928959531232 -0.4514018154363949 0 -0.34207866423036198 -0.45986413066326443 0 -0.35001641252228072 -0.47142734906239081 0 -0.35168928959531232 -0.4514018154363949 0 -0.35168928959531232 -0.4514018154363949 0 -0.34225571697252682 -0.42997304157067162 0 -0.35168928959531232 -0.4514018154363949 0 -0.36406731613876331 -0.44506275929787698 0 -0.34225571697252682 -0.42997304157067162 0 -0.34207866423036198 -0.45986413066326443 0 -0.35168928959531232 -0.4514018154363949 0 -0.34225571697252682 -0.42997304157067162 0 -0.38339996822118783 -0.44368928783448319 0 -0.36406731613876331 -0.44506275929787698 0 -0.36866352395763108 -0.4313760290561211 0 -0.38339996822118783 -0.44368928783448319 0 -0.37415472949075129 -0.45946062715310632 0 -0.36406731613876331 -0.44506275929787698 0 -0.3629811744391212 -0.45722253899736259 0 -0.35168928959531232 -0.4514018154363949 0 -0.36406731613876331 -0.44506275929787698 0 -0.38131756488089769 -0.42670085612339947 0 -0.36866352395763108 -0.4313760290561211 0 -0.36377437909963828 -0.41972983174959272 0 -0.38704143117499401 -0.40999023144455299 0 -0.3575105341832589 -0.40691374405003478 0 -0.38704143117499401 -0.40999023144455299 0 -0.36377437909963828 -0.41972983174959272 0 -0.3575105341832589 -0.40691374405003478 0 -0.35062038894632092 -0.41624612172537079 0 -0.34239786166265201 -0.40597533588911489 0 -0.34225571697252682 -0.42997304157067162 0 -0.36377437909963828 -0.41972983174959272 0 -0.3575105341832589 -0.40691374405003478 0 -0.35062038894632092 -0.41624612172537079 0 -0.3575105341832589 -0.40691374405003478 0 -0.35062038894632092 -0.41624612172537079 0 -0.34239786166265201 -0.40597533588911489 0 -0.36406731613876331 -0.44506275929787698 0 -0.36866352395763108 -0.4313760290561211 0 -0.34225571697252682 -0.42997304157067162 0 -0.36866352395763108 -0.4313760290561211 0 -0.36377437909963828 -0.41972983174959272 0 -0.34225571697252682 -0.42997304157067162 0 -0.36377437909963828 -0.41972983174959272 0 -0.35062038894632092 -0.41624612172537079 0 -0.34225571697252682 -0.42997304157067162 0 -0.37522403377147279 -0.38060127254172499 0 -0.37464038230528551 -0.396492613407532 0 -0.35879027536972019 -0.3891835699585654 0 -0.37522403377147279 -0.38060127254172499 0 -0.35964608014779109 -0.37334112637938882 0 -0.35879027536972019 -0.3891835699585654 0 -0.38704143117499401 -0.40999023144455299 0 -0.3575105341832589 -0.40691374405003478 0 -0.37464038230528551 -0.396492613407532 0 -0.3575105341832589 -0.40691374405003478 0 -0.37464038230528551 -0.396492613407532 0 -0.35879027536972019 -0.3891835699585654 0 -0.3575105341832589 -0.40691374405003478 0 -0.35030966939210212 -0.39601257002631829 0 -0.35879027536972019 -0.3891835699585654 0 -0.35030966939210212 -0.39601257002631829 0 -0.34254000635277743 -0.38197763020755832 0 -0.34239786166265201 -0.40597533588911489 0 -0.3575105341832589 -0.40691374405003478 0 -0.35030966939210212 -0.39601257002631829 0 -0.34239786166265201 -0.40597533588911489 0 -0.35964608014779109 -0.37334112637938882 0 -0.35879027536972019 -0.3891835699585654 0 -0.34254000635277743 -0.38197763020755832 0 -0.35030966939210212 -0.39601257002631829 0 -0.35879027536972019 -0.3891835699585654 0 -0.34254000635277743 -0.38197763020755832 0 -0.32270418411731933 -0.37181077970513959 0 -0.34254000635277743 -0.38197763020755832 0 -0.32435131947256218 -0.38428518727128619 0 -0.34254000635277743 -0.38197763020755832 0 -0.33211028503505757 -0.39455092735479258 0 -0.32435131947256218 -0.38428518727128619 0 -0.34254000635277743 -0.38197763020755832 0 -0.33211028503505757 -0.39455092735479258 0 -0.34239786166265201 -0.40597533588911489 0 -0.34254000635277743 -0.38197763020755832 0 -0.34239786166265201 -0.40597533588911489 0 -0.33211028503505757 -0.39455092735479258 0 -0.32627218782356721 -0.40254155632103228 0 -0.33325599186729038 -0.40952977136485508 0 -0.33211028503505757 -0.39455092735479258 0 -0.34239786166265201 -0.40597533588911489 0 -0.33325599186729038 -0.40952977136485508 0 -0.32627218782356721 -0.40254155632103228 0 -0.31778611784491262 -0.39429551077659458 0 -0.31836523457261151 -0.40628576827473822 0 -0.31778611784491262 -0.39429551077659458 0 -0.31836523457261151 -0.40628576827473822 0 -0.30856762168503782 -0.40330407176644772 0 -0.33211028503505757 -0.39455092735479258 0 -0.32627218782356721 -0.40254155632103228 0 -0.31778611784491262 -0.39429551077659458 0 -0.33211028503505757 -0.39455092735479258 0 -0.31778611784491262 -0.39429551077659458 0 -0.32435131947256218 -0.38428518727128619 0 -0.31778611784491262 -0.39429551077659458 0 -0.32435131947256218 -0.38428518727128619 0 -0.3103864423796594 -0.37828470113645102 0 -0.32270418411731933 -0.37181077970513959 0 -0.32435131947256218 -0.38428518727128619 0 -0.3103864423796594 -0.37828470113645102 0 -0.34225571697252682 -0.42997304157067162 0 -0.32127707919304882 -0.42450406978857058 0 -0.32413493920603592 -0.43586432580396972 0 -0.33358626016413989 -0.44229992863572659 0 -0.34225571697252682 -0.42997304157067162 0 -0.32413493920603592 -0.43586432580396972 0 -0.34225571697252682 -0.42997304157067162 0 -0.32547848823970138 -0.41505510354763547 0 -0.32127707919304882 -0.42450406978857058 0 -0.34225571697252682 -0.42997304157067162 0 -0.33325599186729038 -0.40952977136485508 0 -0.34239786166265201 -0.40597533588911489 0 -0.34225571697252682 -0.42997304157067162 0 -0.34225571697252682 -0.42997304157067162 0 -0.33325599186729038 -0.40952977136485508 0 -0.32547848823970138 -0.41505510354763547 0 -0.34239786166265201 -0.40597533588911489 0 -0.34225571697252682 -0.42997304157067162 0 -0.33325599186729038 -0.40952977136485508 0 -0.32627218782356721 -0.40254155632103228 0 -0.33325599186729038 -0.40952977136485508 0 -0.32547848823970138 -0.41505510354763547 0 -0.32547848823970138 -0.41505510354763547 0 -0.3149711123139971 -0.41411215899080989 0 -0.32127707919304882 -0.42450406978857058 0 -0.32627218782356721 -0.40254155632103228 0 -0.32547848823970138 -0.41505510354763547 0 -0.31836523457261151 -0.40628576827473822 0 -0.32547848823970138 -0.41505510354763547 0 -0.31836523457261151 -0.40628576827473822 0 -0.3149711123139971 -0.41411215899080989 0 -0.31836523457261151 -0.40628576827473822 0 -0.3149711123139971 -0.41411215899080989 0 -0.30856762168503782 -0.40330407176644772 0 -0.3149711123139971 -0.41411215899080989 0 -0.32127707919304882 -0.42450406978857058 0 -0.31068047406536009 -0.42124040027518911 0 -0.32127707919304882 -0.42450406978857058 0 -0.31073004788055869 -0.43167813375356229 0 -0.31068047406536009 -0.42124040027518911 0 -0.32127707919304882 -0.42450406978857058 0 -0.32413493920603592 -0.43586432580396972 0 -0.31073004788055869 -0.43167813375356229 0 -0.31385630152515048 -0.44199725430357722 0 -0.32413493920603592 -0.43586432580396972 0 -0.31073004788055869 -0.43167813375356229 0 -0.31073004788055869 -0.43167813375356229 0 -0.29829421210859891 -0.43220714453990322 0 -0.30286215921622678 -0.44210958888768459 0 -0.31073004788055869 -0.43167813375356229 0 -0.29829421210859891 -0.43220714453990322 0 -0.30293836312512551 -0.42244552438862548 0 -0.29829421210859891 -0.43220714453990322 0 -0.30293836312512551 -0.42244552438862548 0 -0.29038846928103268 -0.42353273433611682 0 -0.31073004788055869 -0.43167813375356229 0 -0.30293836312512551 -0.42244552438862548 0 -0.31068047406536009 -0.42124040027518911 0 -0.3149711123139971 -0.41411215899080989 0 -0.31068047406536009 -0.42124040027518911 0 -0.30545777612822328 -0.41428354029227837 0 -0.30293836312512551 -0.42244552438862548 0 -0.31068047406536009 -0.42124040027518911 0 -0.30545777612822328 -0.41428354029227837 0 -0.3149711123139971 -0.41411215899080989 0 -0.30545777612822328 -0.41428354029227837 0 -0.30856762168503782 -0.40330407176644772 0 -0.30545777612822328 -0.41428354029227837 0 -0.30856762168503782 -0.40330407176644772 0 -0.30079847364115991 -0.40578130343003371 0 -0.30545777612822328 -0.41428354029227837 0 -0.2987732092282892 -0.41413177709842958 0 -0.30079847364115991 -0.40578130343003371 0 -0.30293836312512551 -0.42244552438862548 0 -0.2987732092282892 -0.41413177709842958 0 -0.29038846928103268 -0.42353273433611682 0 -0.30293836312512551 -0.42244552438862548 0 -0.2987732092282892 -0.41413177709842958 0 -0.30293836312512551 -0.42244552438862548 0 -0.30545777612822328 -0.41428354029227837 0 -0.2987732092282892 -0.41413177709842958 0 -0.30545777612822328 -0.41428354029227837 0 -0.2987732092282892 -0.41413177709842958 0 -0.2987732092282892 -0.41413177709842958 0 -0.29092638885970451 -0.39846933503943821 0 -0.2987732092282892 -0.41413177709842958 0 -0.28243901841779939 -0.41376093348156762 0 -0.29092638885970451 -0.39846933503943821 0 -0.2987732092282892 -0.41413177709842958 0 -0.28243901841779939 -0.41376093348156762 0 -0.29038846928103268 -0.42353273433611682 0 -0.2987732092282892 -0.41413177709842958 0 -0.28243901841779939 -0.41376093348156762 0 -0.28243901841779939 -0.41376093348156762 0 -0.29038846928103268 -0.42353273433611682 0 -0.27500508569675858 -0.42792788340523652 0 -0.29038846928103268 -0.42353273433611682 0 -0.27500508569675858 -0.42792788340523652 0 -0.28620792983366777 -0.44117103379144762 0 -0.29829421210859891 -0.43220714453990322 0 -0.29038846928103268 -0.42353273433611682 0 -0.28620792983366777 -0.44117103379144762 0 -0.31778611784491262 -0.39429551077659458 0 -0.3103864423796594 -0.37828470113645102 0 -0.30424293331838692 -0.39073887816822978 0 -0.29584447723995128 -0.37444813956539807 0 -0.29713407365637251 -0.38186722723828942 0 -0.3103864423796594 -0.37828470113645102 0 -0.29713407365637251 -0.38186722723828942 0 -0.30424293331838692 -0.39073887816822978 0 -0.29406976999373469 -0.38920344929064732 0 -0.29713407365637251 -0.38186722723828942 0 -0.3103864423796594 -0.37828470113645102 0 -0.30424293331838692 -0.39073887816822978 0 -0.29998863005712628 -0.39809616774203599 0 -0.30424293331838692 -0.39073887816822978 0 -0.30856762168503782 -0.40330407176644772 0 -0.29998863005712628 -0.39809616774203599 0 -0.30424293331838692 -0.39073887816822978 0 -0.29406976999373469 -0.38920344929064732 0 -0.31778611784491262 -0.39429551077659458 0 -0.30424293331838692 -0.39073887816822978 0 -0.30856762168503782 -0.40330407176644772 0 -0.29998863005712628 -0.39809616774203599 0 -0.30079847364115991 -0.40578130343003371 0 -0.29092638885970451 -0.39846933503943821 0 -0.29998863005712628 -0.39809616774203599 0 -0.30856762168503782 -0.40330407176644772 0 -0.30079847364115991 -0.40578130343003371 0 -0.2987732092282892 -0.41413177709842958 0 -0.30079847364115991 -0.40578130343003371 0 -0.29092638885970451 -0.39846933503943821 0 -0.29092638885970451 -0.39846933503943821 0 -0.28307956849111848 -0.3828068929804474 0 -0.29092638885970451 -0.39846933503943821 0 -0.28307956849111848 -0.3828068929804474 0 -0.27459219804921331 -0.39809849142257658 0 -0.28243901841779939 -0.41376093348156762 0 -0.29092638885970451 -0.39846933503943821 0 -0.27459219804921331 -0.39809849142257658 0 -0.29998863005712628 -0.39809616774203599 0 -0.29092638885970451 -0.39846933503943821 0 -0.29406976999373469 -0.38920344929064732 0 -0.29092638885970451 -0.39846933503943821 0 -0.29406976999373469 -0.38920344929064732 0 -0.28307956849111848 -0.3828068929804474 0 -0.29713407365637251 -0.38186722723828942 0 -0.29406976999373469 -0.38920344929064732 0 -0.28307956849111848 -0.3828068929804474 0 -0.29584447723995128 -0.37444813956539807 0 -0.29713407365637251 -0.38186722723828942 0 -0.28307956849111848 -0.3828068929804474 0 -0.28307956849111848 -0.3828068929804474 0 -0.27459219804921331 -0.39809849142257658 0 -0.26050234447883253 -0.38027693877573482 0 -0.28307956849111848 -0.3828068929804474 0 -0.27459219804921331 -0.39809849142257658 0 -0.27459219804921331 -0.39809849142257658 0 -0.26610482760730952 -0.4133900898647066 0 -0.27459219804921331 -0.39809849142257658 0 -0.26088670843651829 -0.40068536336094251 0 -0.26610482760730952 -0.4133900898647066 0 -0.26088670843651829 -0.40068536336094251 0 -0.26050234447883253 -0.38027693877573482 0 -0.2487824818667288 -0.3954643368039899 0 -0.27459219804921331 -0.39809849142257658 0 -0.26088670843651829 -0.40068536336094251 0 -0.26050234447883253 -0.38027693877573482 0 -0.26088670843651829 -0.40068536336094251 0 -0.24694430377570939 -0.41295507854145541 0 -0.2487824818667288 -0.3954643368039899 0 -0.27500508569675858 -0.42792788340523652 0 -0.25298523514652932 -0.43702750984159111 0 -0.27028712802556781 -0.44002206955302048 0 -0.27500508569675858 -0.42792788340523652 0 -0.27028712802556781 -0.44002206955302048 0 -0.28620792983366777 -0.44117103379144762 0 -0.28243901841779939 -0.41376093348156762 0 -0.27500508569675858 -0.42792788340523652 0 -0.26610482760730952 -0.4133900898647066 0 -0.28243901841779939 -0.41376093348156762 0 -0.27459219804921331 -0.39809849142257658 0 -0.26610482760730952 -0.4133900898647066 0 -0.28243901841779939 -0.41376093348156762 0 -0.26610482760730952 -0.4133900898647066 0 -0.26610482760730952 -0.4133900898647066 0 -0.24694430377570939 -0.41295507854145541 0 -0.26610482760730952 -0.4133900898647066 0 -0.25298523514652932 -0.43702750984159111 0 -0.24694430377570939 -0.41295507854145541 0 -0.26088670843651829 -0.40068536336094251 0 -0.26610482760730952 -0.4133900898647066 0 -0.24694430377570939 -0.41295507854145541 0 -0.27500508569675858 -0.42792788340523652 0 -0.26610482760730952 -0.4133900898647066 0 -0.25298523514652932 -0.43702750984159111 0 -0.26610482760730952 -0.4133900898647066 0 -0.25298523514652932 -0.43702750984159111 0 -0.25298523514652932 -0.43702750984159111 0 -0.25823473398406083 -0.46259190486934387 0 -0.27139768853026319 -0.45350369328431828 0 -0.25298523514652932 -0.43702750984159111 0 -0.27139768853026319 -0.45350369328431828 0 -0.27028712802556781 -0.44002206955302048 0 -0.25298523514652932 -0.43702750984159111 0 -0.25823473398406083 -0.46259190486934387 0 -0.2398656426857485 -0.46066492981847512 0 -0.27139768853026319 -0.45350369328431828 0 -0.28665438526504589 -0.45880473289459528 0 -0.27499686831673542 -0.4693274569635677 0 -0.25823473398406083 -0.46259190486934387 0 -0.27139768853026319 -0.45350369328431828 0 -0.27499686831673542 -0.4693274569635677 0 -0.27139768853026319 -0.45350369328431828 0 -0.27028712802556781 -0.44002206955302048 0 -0.28620792983366777 -0.44117103379144762 0 -0.28620792983366777 -0.44117103379144762 0 -0.29665932401628559 -0.4519210782245337 0 -0.28665438526504589 -0.45880473289459528 0 -0.28620792983366777 -0.44117103379144762 0 -0.29665932401628559 -0.4519210782245337 0 -0.30286215921622678 -0.44210958888768459 0 -0.27139768853026319 -0.45350369328431828 0 -0.28620792983366777 -0.44117103379144762 0 -0.28665438526504589 -0.45880473289459528 0 -0.29829421210859891 -0.43220714453990322 0 -0.28620792983366777 -0.44117103379144762 0 -0.30286215921622678 -0.44210958888768459 0 -0.28665438526504589 -0.45880473289459528 0 -0.28928475434474438 -0.47221518125428918 0 -0.27499686831673542 -0.4693274569635677 0 -0.28665438526504589 -0.45880473289459528 0 -0.30029558254474148 -0.46389675841394568 0 -0.28928475434474438 -0.47221518125428918 0 -0.29665932401628559 -0.4519210782245337 0 -0.28665438526504589 -0.45880473289459528 0 -0.30029558254474148 -0.46389675841394568 0 -0.29665932401628559 -0.4519210782245337 0 -0.30029558254474148 -0.46389675841394568 0 -0.31044958537109257 -0.45255960714027171 0 -0.31333683559556219 -0.46686726284272168 0 -0.30029558254474148 -0.46389675841394568 0 -0.31044958537109257 -0.45255960714027171 0 -0.31385630152515048 -0.44199725430357722 0 -0.31044958537109257 -0.45255960714027171 0 -0.30286215921622678 -0.44210958888768459 0 -0.31385630152515048 -0.44199725430357722 0 -0.31073004788055869 -0.43167813375356229 0 -0.30286215921622678 -0.44210958888768459 0 -0.29665932401628559 -0.4519210782245337 0 -0.31044958537109257 -0.45255960714027171 0 -0.30286215921622678 -0.44210958888768459 0 -0.32006214434654462 -0.5 0 -0.30503152439861497 -0.48190266549989857 0 -0.29355140103266869 -0.5 0 -0.30029558254474148 -0.46389675841394568 0 -0.30503152439861497 -0.48190266549989857 0 -0.28928475434474438 -0.47221518125428918 0 -0.31333683559556219 -0.46686726284272168 0 -0.30029558254474148 -0.46389675841394568 0 -0.30503152439861497 -0.48190266549989857 0 -0.30503152439861497 -0.48190266549989857 0 -0.28928475434474438 -0.47221518125428918 0 -0.27944541119858413 -0.48714429249943858 0 -0.30503152439861497 -0.48190266549989857 0 -0.29355140103266869 -0.5 0 -0.27944541119858413 -0.48714429249943858 0 -0.26704065771879287 -0.5 0 -0.27944541119858413 -0.48714429249943858 0 -0.26377894750559139 -0.4817410620592058 0 -0.29355140103266869 -0.5 0 -0.26704065771879287 -0.5 0 -0.27944541119858413 -0.48714429249943858 0 -0.27944541119858413 -0.48714429249943858 0 -0.27499686831673542 -0.4693274569635677 0 -0.26377894750559139 -0.4817410620592058 0 -0.28928475434474438 -0.47221518125428918 0 -0.27944541119858413 -0.48714429249943858 0 -0.27499686831673542 -0.4693274569635677 0 -0.25823473398406083 -0.46259190486934387 0 -0.27499686831673542 -0.4693274569635677 0 -0.26377894750559139 -0.4817410620592058 0 -0.25823473398406083 -0.46259190486934387 0 -0.26377894750559139 -0.4817410620592058 0 -0.24769273461092009 -0.47775775457152359 0 -0.26704065771879287 -0.5 0 -0.26377894750559139 -0.4817410620592058 0 -0.24052991440491719 -0.5 0 -0.26377894750559139 -0.4817410620592058 0 -0.24052991440491719 -0.5 0 -0.24769273461092009 -0.47775775457152359 0 -0.24052991440491719 -0.5 0 -0.24769273461092009 -0.47775775457152359 0 -0.2238647917587385 -0.47868470982513422 0 -0.24769273461092009 -0.47775775457152359 0 -0.2238647917587385 -0.47868470982513422 0 -0.2253613830811457 -0.45761053917550981 0 -0.24052991440491719 -0.5 0 -0.2238647917587385 -0.47868470982513422 0 -0.2140191710910414 -0.49999999999999972 0 -0.25298523514652932 -0.43702750984159111 0 -0.23591515519085041 -0.44398209369878189 0 -0.2398656426857485 -0.46066492981847512 0 -0.25298523514652932 -0.43702750984159111 0 -0.2398656426857485 -0.46066492981847512 0 -0.25823473398406083 -0.46259190486934387 0 -0.24769273461092009 -0.47775775457152359 0 -0.2398656426857485 -0.46066492981847512 0 -0.24769273461092009 -0.47775775457152359 0 -0.2398656426857485 -0.46066492981847512 0 -0.2253613830811457 -0.45761053917550981 0 -0.24769273461092009 -0.47775775457152359 0 -0.2253613830811457 -0.45761053917550981 0 -0.2238647917587385 -0.47868470982513422 0 -0.2253613830811457 -0.45761053917550981 0 -0.20999779143719291 -0.46083672605530768 0 -0.23591515519085041 -0.44398209369878189 0 -0.2398656426857485 -0.46066492981847512 0 -0.2253613830811457 -0.45761053917550981 0 -0.23591515519085041 -0.44398209369878189 0 -0.2253613830811457 -0.45761053917550981 0 -0.22549954629610269 -0.43500765649169948 0 -0.2253613830811457 -0.45761053917550981 0 -0.20999779143719291 -0.46083672605530768 0 -0.2030300315513712 -0.43746332377949593 0 -0.2253613830811457 -0.45761053917550981 0 -0.2030300315513712 -0.43746332377949593 0 -0.20999779143719291 -0.46083672605530768 0 -0.19715634076338631 -0.4518064782969281 0 -0.2030300315513712 -0.43746332377949593 0 -0.2253613830811457 -0.45761053917550981 0 -0.2030300315513712 -0.43746332377949593 0 -0.22549954629610269 -0.43500765649169948 0 -0.20999779143719291 -0.46083672605530768 0 -0.19715634076338631 -0.4518064782969281 0 -0.2055877559272139 -0.47590323914846377 0 -0.19715634076338631 -0.4518064782969281 0 -0.2055877559272139 -0.47590323914846377 0 -0.19179305986328829 -0.46711759196808689 0 -0.19715634076338631 -0.4518064782969281 0 -0.2055877559272139 -0.47590323914846377 0 -0.19179305986328829 -0.46711759196808689 0 -0.19715634076338631 -0.4518064782969281 0 -0.184822707974968 -0.45592422963236362 0 -0.19715634076338631 -0.4518064782969281 0 -0.2030300315513712 -0.43746332377949593 0 -0.18872492559955881 -0.42770971744539221 0 -0.19715634076338631 -0.4518064782969281 0 -0.18872492559955881 -0.42770971744539221 0 -0.19715634076338631 -0.4518064782969281 0 -0.1870173619903012 -0.44414077979923022 0 -0.18872492559955881 -0.42770971744539221 0 -0.19715634076338631 -0.4518064782969281 0 -0.184822707974968 -0.45592422963236362 0 -0.1870173619903012 -0.44414077979923022 0 -0.2140191710910414 -0.49999999999999972 0 -0.2055877559272139 -0.47590323914846377 0 -0.2140191710910414 -0.49999999999999972 0 -0.2055877559272139 -0.47590323914846377 0 -0.1915741566131953 -0.48274482478870012 0 -0.2238647917587385 -0.47868470982513422 0 -0.2140191710910414 -0.49999999999999972 0 -0.2055877559272139 -0.47590323914846377 0 -0.2238647917587385 -0.47868470982513422 0 -0.20999779143719291 -0.46083672605530768 0 -0.2055877559272139 -0.47590323914846377 0 -0.19179305986328829 -0.46711759196808689 0 -0.2055877559272139 -0.47590323914846377 0 -0.1915741566131953 -0.48274482478870012 0 -0.19179305986328829 -0.46711759196808689 0 -0.1915741566131953 -0.48274482478870012 0 -0.17982433803767831 -0.46920918797397909 0 -0.2140191710910414 -0.49999999999999972 0 -0.1915741566131953 -0.48274482478870012 0 -0.1841956238768391 -0.5 0 -0.1915741566131953 -0.48274482478870012 0 -0.1841956238768391 -0.5 0 -0.17247084166804699 -0.48396500267038112 0 -0.1841956238768391 -0.5 0 -0.17247084166804699 -0.48396500267038112 0 -0.15437207666263669 -0.50000000000000022 0 -0.15669106487963419 -0.47716915445828201 0 -0.17247084166804699 -0.48396500267038112 0 -0.15437207666263669 -0.50000000000000022 0 -0.15669106487963419 -0.47716915445828201 0 -0.17247084166804699 -0.48396500267038112 0 -0.1680230602922401 -0.4683158249620154 0 -0.17247084166804699 -0.48396500267038112 0 -0.17982433803767831 -0.46920918797397909 0 -0.1680230602922401 -0.4683158249620154 0 -0.1915741566131953 -0.48274482478870012 0 -0.17247084166804699 -0.48396500267038112 0 -0.17982433803767831 -0.46920918797397909 0 -0.19179305986328829 -0.46711759196808689 0 -0.17982433803767831 -0.46920918797397909 0 -0.184822707974968 -0.45592422963236362 0 -0.17982433803767831 -0.46920918797397909 0 -0.184822707974968 -0.45592422963236362 0 -0.17211900377920919 -0.45689747079087062 0 -0.17982433803767831 -0.46920918797397909 0 -0.17211900377920919 -0.45689747079087062 0 -0.1680230602922401 -0.4683158249620154 0 -0.1870173619903012 -0.44414077979923022 0 -0.17843006300647921 -0.44542980211747812 0 -0.1823118302108766 -0.43680876328769058 0 -0.184822707974968 -0.45592422963236362 0 -0.1870173619903012 -0.44414077979923022 0 -0.17843006300647921 -0.44542980211747812 0 -0.17211900377920919 -0.45689747079087062 0 -0.17843006300647921 -0.44542980211747812 0 -0.16919262628862339 -0.44362555979768409 0 -0.184822707974968 -0.45592422963236362 0 -0.17211900377920919 -0.45689747079087062 0 -0.17843006300647921 -0.44542980211747812 0 -0.17843006300647921 -0.44542980211747812 0 -0.16919262628862339 -0.44362555979768409 0 -0.17507497024716731 -0.42995475378866199 0 -0.1590100530966318 -0.45433830891656402 0 -0.148881704538534 -0.44296791951084241 0 -0.1613290413136293 -0.43150746337484569 0 -0.1590100530966318 -0.45433830891656402 0 -0.1613290413136293 -0.43150746337484569 0 -0.16919262628862339 -0.44362555979768409 0 -0.1590100530966318 -0.45433830891656402 0 -0.1613290413136293 -0.43150746337484569 0 -0.17211900377920919 -0.45689747079087062 0 -0.16919262628862339 -0.44362555979768409 0 -0.1590100530966318 -0.45433830891656402 0 -0.15669106487963419 -0.47716915445828201 0 -0.1680230602922401 -0.4683158249620154 0 -0.1590100530966318 -0.45433830891656402 0 -0.15669106487963419 -0.47716915445828201 0 -0.1590100530966318 -0.45433830891656402 0 -0.17211900377920919 -0.45689747079087062 0 -0.1680230602922401 -0.4683158249620154 0 -0.1590100530966318 -0.45433830891656402 0 -0.15669106487963419 -0.47716915445828201 0 -0.1590100530966318 -0.45433830891656402 0 -0.1472923250818238 -0.46077477567243558 0 -0.1590100530966318 -0.45433830891656402 0 -0.1472923250818238 -0.46077477567243558 0 -0.148881704538534 -0.44296791951084241 0 -0.1472923250818238 -0.46077477567243558 0 -0.148881704538534 -0.44296791951084241 0 -0.13194602454298601 -0.43962244526902572 0 -0.13194602454298601 -0.43962244526902572 0 -0.13077987840644981 -0.46069854066347632 0 -0.11615585050415531 -0.45102464773050138 0 -0.1472923250818238 -0.46077477567243558 0 -0.13194602454298601 -0.43962244526902572 0 -0.1472923250818238 -0.46077477567243558 0 -0.13077987840644981 -0.46069854066347632 0 -0.13742439756140509 -0.48004162281001828 0 -0.1472923250818238 -0.46077477567243558 0 -0.13194602454298601 -0.43962244526902572 0 -0.13077987840644981 -0.46069854066347632 0 -0.13742439756140509 -0.48004162281001828 0 -0.12108079434187891 -0.47202921183540031 0 -0.1206292342060253 -0.48641385964910883 0 -0.13077987840644981 -0.46069854066347632 0 -0.13742439756140509 -0.48004162281001828 0 -0.12108079434187891 -0.47202921183540031 0 -0.13742439756140509 -0.48004162281001828 0 -0.131118449396015 -0.5 0 -0.1206292342060253 -0.48641385964910883 0 -0.15669106487963419 -0.47716915445828201 0 -0.13742439756140509 -0.48004162281001828 0 -0.15437207666263669 -0.50000000000000022 0 -0.15669106487963419 -0.47716915445828201 0 -0.15437207666263669 -0.50000000000000022 0 -0.13742439756140509 -0.48004162281001828 0 -0.131118449396015 -0.5 0 -0.15437207666263669 -0.50000000000000022 0 -0.15669106487963419 -0.47716915445828201 0 -0.1472923250818238 -0.46077477567243558 0 -0.13742439756140509 -0.48004162281001828 0 -0.13678826443221431 -0.39755243580027871 0 -0.14931675495270949 -0.41057852288770358 0 -0.15761740849691311 -0.38818340141201402 0 -0.1369224961495438 -0.38192389563367207 0 -0.13678826443221431 -0.39755243580027871 0 -0.15761740849691311 -0.38818340141201402 0 -0.1369224961495438 -0.38192389563367207 0 -0.15761740849691311 -0.38818340141201402 0 -0.148308101659717 -0.36695316985008092 0 -0.1369224961495438 -0.38192389563367207 0 -0.12526638733901391 -0.39147447277512609 0 -0.13678826443221431 -0.39755243580027871 0 -0.1369224961495438 -0.38192389563367207 0 -0.1303219987982592 -0.3665496015062627 0 -0.12201267174342199 -0.37938718301114999 0 -0.1369224961495438 -0.38192389563367207 0 -0.12526638733901391 -0.39147447277512609 0 -0.12201267174342199 -0.37938718301114999 0 -0.12526638733901391 -0.39147447277512609 0 -0.13678826443221431 -0.39755243580027871 0 -0.12592730430259419 -0.40432488328170318 0 -0.13678826443221431 -0.39755243580027871 0 -0.12592730430259419 -0.40432488328170318 0 -0.1345256340888337 -0.41538851269275129 0 -0.13678826443221431 -0.39755243580027871 0 -0.1345256340888337 -0.41538851269275129 0 -0.14931675495270949 -0.41057852288770358 0 -0.12592730430259419 -0.40432488328170318 0 -0.1345256340888337 -0.41538851269275129 0 -0.1165997240041481 -0.41847011486561592 0 -0.13194602454298601 -0.43962244526902572 0 -0.1345256340888337 -0.41538851269275129 0 -0.14483107865759889 -0.42859660432134139 0 -0.13194602454298601 -0.43962244526902572 0 -0.1345256340888337 -0.41538851269275129 0 -0.1165997240041481 -0.41847011486561592 0 -0.148881704538534 -0.44296791951084241 0 -0.14483107865759889 -0.42859660432134139 0 -0.1613290413136293 -0.43150746337484569 0 -0.148881704538534 -0.44296791951084241 0 -0.13194602454298601 -0.43962244526902572 0 -0.14483107865759889 -0.42859660432134139 0 -0.14483107865759889 -0.42859660432134139 0 -0.14931675495270949 -0.41057852288770358 0 -0.1613290413136293 -0.43150746337484569 0 -0.1345256340888337 -0.41538851269275129 0 -0.14483107865759889 -0.42859660432134139 0 -0.14931675495270949 -0.41057852288770358 0 -0.16364802953062679 -0.40867661783312748 0 -0.1613290413136293 -0.43150746337484569 0 -0.14931675495270949 -0.41057852288770358 0 -0.16364802953062679 -0.40867661783312748 0 -0.1613290413136293 -0.43150746337484569 0 -0.16364802953062679 -0.40867661783312748 0 -0.1613290413136293 -0.43150746337484569 0 -0.17507497024716731 -0.42995475378866199 0 -0.16919262628862339 -0.44362555979768409 0 -0.1613290413136293 -0.43150746337484569 0 -0.17507497024716731 -0.42995475378866199 0 -0.1870173619903012 -0.44414077979923022 0 -0.1823118302108766 -0.43680876328769058 0 -0.18872492559955881 -0.42770971744539221 0 -0.17843006300647921 -0.44542980211747812 0 -0.17507497024716731 -0.42995475378866199 0 -0.1823118302108766 -0.43680876328769058 0 -0.17507497024716731 -0.42995475378866199 0 -0.1806986800215967 -0.4173161083834821 0 -0.18872492559955881 -0.42770971744539221 0 -0.17507497024716731 -0.42995475378866199 0 -0.1823118302108766 -0.43680876328769058 0 -0.18872492559955881 -0.42770971744539221 0 -0.1806986800215967 -0.4173161083834821 0 -0.18228064084688081 -0.39610998094782668 0 -0.19209360216251761 -0.40824625574224149 0 -0.16364802953062679 -0.40867661783312748 0 -0.17507497024716731 -0.42995475378866199 0 -0.1806986800215967 -0.4173161083834821 0 -0.16364802953062679 -0.40867661783312748 0 -0.1806986800215967 -0.4173161083834821 0 -0.18228064084688081 -0.39610998094782668 0 -0.16364802953062679 -0.40867661783312748 0 -0.18228064084688081 -0.39610998094782668 0 -0.15761740849691311 -0.38818340141201402 0 -0.14931675495270949 -0.41057852288770358 0 -0.16364802953062679 -0.40867661783312748 0 -0.15761740849691311 -0.38818340141201402 0 -0.15761740849691311 -0.38818340141201402 0 -0.183603859264966 -0.3766054584014627 0 -0.1661931572416451 -0.36889933283976362 0 -0.18228064084688081 -0.39610998094782668 0 -0.15761740849691311 -0.38818340141201402 0 -0.183603859264966 -0.3766054584014627 0 -0.18228064084688081 -0.39610998094782668 0 -0.183603859264966 -0.3766054584014627 0 -0.20216487974800659 -0.3829991661375407 0 -0.18228064084688081 -0.39610998094782668 0 -0.20343785588976751 -0.39944649130885712 0 -0.19209360216251761 -0.40824625574224149 0 -0.18228064084688081 -0.39610998094782668 0 -0.20216487974800659 -0.3829991661375407 0 -0.20343785588976751 -0.39944649130885712 0 -0.20343785588976751 -0.39944649130885712 0 -0.21350444502423929 -0.40864471589815532 0 -0.22035180610084079 -0.39356726900625483 0 -0.20216487974800659 -0.3829991661375407 0 -0.20343785588976751 -0.39944649130885712 0 -0.22035180610084079 -0.39356726900625483 0 -0.20216487974800659 -0.3829991661375407 0 -0.22035180610084079 -0.39356726900625483 0 -0.219169022554425 -0.37113875127287832 0 -0.1806986800215967 -0.4173161083834821 0 -0.2030300315513712 -0.43746332377949593 0 -0.18872492559955881 -0.42770971744539221 0 -0.1806986800215967 -0.4173161083834821 0 -0.2030300315513712 -0.43746332377949593 0 -0.2030300315513712 -0.43746332377949593 0 -0.19369636752838881 -0.41903658901391427 0 -0.2031687955665597 -0.42354741618771741 0 -0.1806986800215967 -0.4173161083834821 0 -0.2030300315513712 -0.43746332377949593 0 -0.19369636752838881 -0.41903658901391427 0 -0.19369636752838881 -0.41903658901391427 0 -0.20299923128825029 -0.41376529568937459 0 -0.2031687955665597 -0.42354741618771741 0 -0.1806986800215967 -0.4173161083834821 0 -0.19369636752838881 -0.41903658901391427 0 -0.19209360216251761 -0.40824625574224149 0 -0.19369636752838881 -0.41903658901391427 0 -0.19209360216251761 -0.40824625574224149 0 -0.20299923128825029 -0.41376529568937459 0 -0.20343785588976751 -0.39944649130885712 0 -0.19209360216251761 -0.40824625574224149 0 -0.20299923128825029 -0.41376529568937459 0 -0.20343785588976751 -0.39944649130885712 0 -0.20299923128825029 -0.41376529568937459 0 -0.21350444502423929 -0.40864471589815532 0 -0.21350444502423929 -0.40864471589815532 0 -0.21294955189822859 -0.42392445626808489 0 -0.2277837799441092 -0.41252006721820539 0 -0.20299923128825029 -0.41376529568937459 0 -0.2031687955665597 -0.42354741618771741 0 -0.21294955189822859 -0.42392445626808489 0 -0.20299923128825029 -0.41376529568937459 0 -0.21350444502423929 -0.40864471589815532 0 -0.21294955189822859 -0.42392445626808489 0 -0.2030300315513712 -0.43746332377949593 0 -0.21294955189822859 -0.42392445626808489 0 -0.22549954629610269 -0.43500765649169948 0 -0.2030300315513712 -0.43746332377949593 0 -0.2031687955665597 -0.42354741618771741 0 -0.21294955189822859 -0.42392445626808489 0 -0.23591515519085041 -0.44398209369878189 0 -0.22549954629610269 -0.43500765649169948 0 -0.23735783041644329 -0.42609093398936743 0 -0.22549954629610269 -0.43500765649169948 0 -0.2277837799441092 -0.41252006721820539 0 -0.23735783041644329 -0.42609093398936743 0 -0.21294955189822859 -0.42392445626808489 0 -0.22549954629610269 -0.43500765649169948 0 -0.2277837799441092 -0.41252006721820539 0 -0.2277837799441092 -0.41252006721820539 0 -0.24694430377570939 -0.41295507854145541 0 -0.2277837799441092 -0.41252006721820539 0 -0.24694430377570939 -0.41295507854145541 0 -0.23735783041644329 -0.42609093398936743 0 -0.2277837799441092 -0.41252006721820539 0 -0.24694430377570939 -0.41295507854145541 0 -0.2359891007147569 -0.39914414181493052 0 -0.25298523514652932 -0.43702750984159111 0 -0.24694430377570939 -0.41295507854145541 0 -0.23735783041644329 -0.42609093398936743 0 -0.25298523514652932 -0.43702750984159111 0 -0.23591515519085041 -0.44398209369878189 0 -0.23735783041644329 -0.42609093398936743 0 -0.22035180610084079 -0.39356726900625483 0 -0.23802591309349369 -0.38358476956933441 0 -0.219169022554425 -0.37113875127287832 0 -0.22035180610084079 -0.39356726900625483 0 -0.2359891007147569 -0.39914414181493052 0 -0.23802591309349369 -0.38358476956933441 0 -0.21350444502423929 -0.40864471589815532 0 -0.2277837799441092 -0.41252006721820539 0 -0.22035180610084079 -0.39356726900625483 0 -0.2277837799441092 -0.41252006721820539 0 -0.22035180610084079 -0.39356726900625483 0 -0.2359891007147569 -0.39914414181493052 0 -0.2359891007147569 -0.39914414181493052 0 -0.2487824818667288 -0.3954643368039899 0 -0.23802591309349369 -0.38358476956933441 0 -0.24694430377570939 -0.41295507854145541 0 -0.2359891007147569 -0.39914414181493052 0 -0.2487824818667288 -0.3954643368039899 0 -0.26050234447883253 -0.38027693877573482 0 -0.2487824818667288 -0.3954643368039899 0 -0.23802591309349369 -0.38358476956933441 0 -0.26050234447883253 -0.38027693877573482 0 -0.23802591309349369 -0.38358476956933441 0 -0.24817767477162081 -0.36986654917455902 0 -0.23802591309349369 -0.38358476956933441 0 -0.24817767477162081 -0.36986654917455902 0 -0.23583729862822109 -0.36574384613307409 0 -0.24817767477162081 -0.36986654917455902 0 -0.23583729862822109 -0.36574384613307409 0 -0.24850069890613241 -0.35473287875334369 0 -0.23583729862822109 -0.36574384613307409 0 -0.219169022554425 -0.37113875127287832 0 -0.22531318381543361 -0.34939628189525529 0 -0.23802591309349369 -0.38358476956933441 0 -0.23583729862822109 -0.36574384613307409 0 -0.219169022554425 -0.37113875127287832 0 -0.22531318381543361 -0.34939628189525529 0 -0.24850069890613241 -0.35473287875334369 0 -0.24219101746094579 -0.34438554910399921 0 -0.23583729862822109 -0.36574384613307409 0 -0.22531318381543361 -0.34939628189525529 0 -0.24850069890613241 -0.35473287875334369 0 -0.22531318381543361 -0.34939628189525529 0 -0.24850069890613241 -0.35473287875334369 0 -0.25445926970156468 -0.34270101061729968 0 -0.24850069890613241 -0.35473287875334369 0 -0.24219101746094579 -0.34438554910399921 0 -0.25445926970156468 -0.34270101061729968 0 -0.24219101746094579 -0.34438554910399921 0 -0.2460450098649074 -0.33743905859998191 0 -0.25207330520806498 -0.33378255792528982 0 -0.2460450098649074 -0.33743905859998191 0 -0.24306356592407591 -0.32787829483024122 0 -0.2348359590034956 -0.33686915078515089 0 -0.24306356592407591 -0.32787829483024122 0 -0.23163603200856511 -0.32708080208212859 0 -0.2460450098649074 -0.33743905859998191 0 -0.2348359590034956 -0.33686915078515089 0 -0.24306356592407591 -0.32787829483024122 0 -0.24219101746094579 -0.34438554910399921 0 -0.2460450098649074 -0.33743905859998191 0 -0.2348359590034956 -0.33686915078515089 0 -0.25273748935779161 -0.32224337373924072 0 -0.24326482791746179 -0.31394285089519419 0 -0.24426682308287331 -0.30533572025667649 0 -0.25273748935779161 -0.32224337373924072 0 -0.24426682308287331 -0.30533572025667649 0 -0.25273748935779161 -0.32224337373924072 0 -0.24326482791746179 -0.31394285089519419 0 -0.2440208243134171 -0.32058552998791068 0 -0.25273748935779161 -0.32224337373924072 0 -0.24306356592407591 -0.32787829483024122 0 -0.2440208243134171 -0.32058552998791068 0 -0.25207330520806498 -0.33378255792528982 0 -0.25273748935779161 -0.32224337373924072 0 -0.24306356592407591 -0.32787829483024122 0 -0.24306356592407591 -0.32787829483024122 0 -0.2440208243134171 -0.32058552998791068 0 -0.23701741405433899 -0.31827760048696663 0 -0.24306356592407591 -0.32787829483024122 0 -0.23701741405433899 -0.31827760048696663 0 -0.23163603200856511 -0.32708080208212859 0 -0.24326482791746179 -0.31394285089519419 0 -0.23701741405433899 -0.31827760048696663 0 -0.2384772558931193 -0.30928307653082621 0 -0.24326482791746179 -0.31394285089519419 0 -0.2440208243134171 -0.32058552998791068 0 -0.23701741405433899 -0.31827760048696663 0 -0.22244826701882919 -0.32070202864358233 0 -0.22802593536356699 -0.30882837184141948 0 -0.21110805984082151 -0.30983785689108939 0 -0.23701741405433899 -0.31827760048696663 0 -0.22244826701882919 -0.32070202864358233 0 -0.22802593536356699 -0.30882837184141948 0 -0.23701741405433899 -0.31827760048696663 0 -0.23163603200856511 -0.32708080208212859 0 -0.22244826701882919 -0.32070202864358233 0 -0.23163603200856511 -0.32708080208212859 0 -0.22244826701882919 -0.32070202864358233 0 -0.22079431421521131 -0.33353493235345111 0 -0.22531318381543361 -0.34939628189525529 0 -0.2348359590034956 -0.33686915078515089 0 -0.22079431421521131 -0.33353493235345111 0 -0.22531318381543361 -0.34939628189525529 0 -0.24219101746094579 -0.34438554910399921 0 -0.2348359590034956 -0.33686915078515089 0 -0.2348359590034956 -0.33686915078515089 0 -0.23163603200856511 -0.32708080208212859 0 -0.22079431421521131 -0.33353493235345111 0 -0.22079431421521131 -0.33353493235345111 0 -0.20839645480677241 -0.32403064402179738 0 -0.20212566872473489 -0.34405968503716688 0 -0.22531318381543361 -0.34939628189525529 0 -0.22079431421521131 -0.33353493235345111 0 -0.20212566872473489 -0.34405968503716688 0 -0.22244826701882919 -0.32070202864358233 0 -0.20839645480677241 -0.32403064402179738 0 -0.21110805984082151 -0.30983785689108939 0 -0.22244826701882919 -0.32070202864358233 0 -0.22079431421521131 -0.33353493235345111 0 -0.20839645480677241 -0.32403064402179738 0 -0.20839645480677241 -0.32403064402179738 0 -0.19575919956014079 -0.31702437624003538 0 -0.21110805984082151 -0.30983785689108939 0 -0.20839645480677241 -0.32403064402179738 0 -0.19575919956014079 -0.31702437624003538 0 -0.19562896033857519 -0.33020038185646122 0 -0.19575919956014079 -0.31702437624003538 0 -0.19562896033857519 -0.33020038185646122 0 -0.18477851095256179 -0.32477614194451959 0 -0.20212566872473489 -0.34405968503716688 0 -0.1789381536340362 -0.33872308817907848 0 -0.19562896033857519 -0.33020038185646122 0 -0.20212566872473489 -0.34405968503716688 0 -0.1789381536340362 -0.33872308817907848 0 -0.20839645480677241 -0.32403064402179738 0 -0.19562896033857519 -0.33020038185646122 0 -0.20212566872473489 -0.34405968503716688 0 -0.20212566872473489 -0.34405968503716688 0 -0.2037839996862793 -0.36234410805543599 0 -0.1863350517553729 -0.35962674217565882 0 -0.20212566872473489 -0.34405968503716688 0 -0.1863350517553729 -0.35962674217565882 0 -0.1789381536340362 -0.33872308817907848 0 -0.183603859264966 -0.3766054584014627 0 -0.20216487974800659 -0.3829991661375407 0 -0.2037839996862793 -0.36234410805543599 0 -0.183603859264966 -0.3766054584014627 0 -0.2037839996862793 -0.36234410805543599 0 -0.1863350517553729 -0.35962674217565882 0 -0.219169022554425 -0.37113875127287832 0 -0.22531318381543361 -0.34939628189525529 0 -0.2037839996862793 -0.36234410805543599 0 -0.20216487974800659 -0.3829991661375407 0 -0.219169022554425 -0.37113875127287832 0 -0.2037839996862793 -0.36234410805543599 0 -0.22531318381543361 -0.34939628189525529 0 -0.20212566872473489 -0.34405968503716688 0 -0.2037839996862793 -0.36234410805543599 0 -0.22531318381543361 -0.34939628189525529 0 -0.20212566872473489 -0.34405968503716688 0 -0.24465976002352091 -0.25387891845332877 0 -0.23199225124923151 -0.26692477658714647 0 -0.21854221021918649 -0.25236034283526498 0 -0.23199225124923151 -0.26692477658714647 0 -0.21864709985809599 -0.27150291036173302 0 -0.21854221021918649 -0.25236034283526498 0 -0.24465976002352091 -0.25387891845332877 0 -0.2444485511135471 -0.27534046621033159 0 -0.23199225124923151 -0.26692477658714647 0 -0.25958550566062261 -0.27102626557679149 0 -0.24465976002352091 -0.25387891845332877 0 -0.2444485511135471 -0.27534046621033159 0 -0.2444485511135471 -0.27534046621033159 0 -0.23199225124923151 -0.26692477658714647 0 -0.23366363503180709 -0.28154124507507411 0 -0.2197277065850177 -0.2872169177591285 0 -0.23366363503180709 -0.28154124507507411 0 -0.21864709985809599 -0.27150291036173302 0 -0.23199225124923151 -0.26692477658714647 0 -0.23366363503180709 -0.28154124507507411 0 -0.21864709985809599 -0.27150291036173302 0 -0.2197277065850177 -0.2872169177591285 0 -0.23366363503180709 -0.28154124507507411 0 -0.24011613505684479 -0.30107681213347393 0 -0.2197277065850177 -0.2872169177591285 0 -0.24011613505684479 -0.30107681213347393 0 -0.2197277065850177 -0.2872169177591285 0 -0.24011613505684479 -0.30107681213347393 0 -0.2201073871300871 -0.30044142834658671 0 -0.2444485511135471 -0.27534046621033159 0 -0.23366363503180709 -0.28154124507507411 0 -0.24732420154209239 -0.29033586459568173 0 -0.23366363503180709 -0.28154124507507411 0 -0.24732420154209239 -0.29033586459568173 0 -0.24011613505684479 -0.30107681213347393 0 -0.25608276685525683 -0.28295324223861612 0 -0.2444485511135471 -0.27534046621033159 0 -0.24732420154209239 -0.29033586459568173 0 -0.26050456352867191 -0.3149367065078193 0 -0.24011613505684479 -0.30107681213347393 0 -0.24426682308287331 -0.30533572025667649 0 -0.25485564421046719 -0.30132045870319019 0 -0.24732420154209239 -0.29033586459568173 0 -0.24011613505684479 -0.30107681213347393 0 -0.24011613505684479 -0.30107681213347393 0 -0.2384772558931193 -0.30928307653082621 0 -0.22802593536356699 -0.30882837184141948 0 -0.24326482791746179 -0.31394285089519419 0 -0.24426682308287331 -0.30533572025667649 0 -0.2384772558931193 -0.30928307653082621 0 -0.24011613505684479 -0.30107681213347393 0 -0.24426682308287331 -0.30533572025667649 0 -0.2384772558931193 -0.30928307653082621 0 -0.23701741405433899 -0.31827760048696663 0 -0.2384772558931193 -0.30928307653082621 0 -0.22802593536356699 -0.30882837184141948 0 -0.22802593536356699 -0.30882837184141948 0 -0.2201073871300871 -0.30044142834658671 0 -0.21110805984082151 -0.30983785689108939 0 -0.24011613505684479 -0.30107681213347393 0 -0.22802593536356699 -0.30882837184141948 0 -0.2201073871300871 -0.30044142834658671 0 -0.2201073871300871 -0.30044142834658671 0 -0.21110805984082151 -0.30983785689108939 0 -0.20155909880418441 -0.29524718310782239 0 -0.21110805984082151 -0.30983785689108939 0 -0.2000775247532616 -0.30687463122530689 0 -0.20155909880418441 -0.29524718310782239 0 -0.19575919956014079 -0.31702437624003538 0 -0.21110805984082151 -0.30983785689108939 0 -0.2000775247532616 -0.30687463122530689 0 -0.18961770926909149 -0.30481471110084102 0 -0.20155909880418441 -0.29524718310782239 0 -0.1798976030385912 -0.29461474791537873 0 -0.19575919956014079 -0.31702437624003538 0 -0.2000775247532616 -0.30687463122530689 0 -0.18961770926909149 -0.30481471110084102 0 -0.19575919956014079 -0.31702437624003538 0 -0.18961770926909149 -0.30481471110084102 0 -0.1803928959391416 -0.31521744924658562 0 -0.2000775247532616 -0.30687463122530689 0 -0.18961770926909149 -0.30481471110084102 0 -0.20155909880418441 -0.29524718310782239 0 -0.19933927811319041 -0.27335702338478318 0 -0.1798976030385912 -0.29461474791537873 0 -0.20155909880418441 -0.29524718310782239 0 -0.19933927811319041 -0.27335702338478318 0 -0.1798976030385912 -0.29461474791537873 0 -0.2197277065850177 -0.2872169177591285 0 -0.20155909880418441 -0.29524718310782239 0 -0.19933927811319041 -0.27335702338478318 0 -0.2197277065850177 -0.2872169177591285 0 -0.2201073871300871 -0.30044142834658671 0 -0.20155909880418441 -0.29524718310782239 0 -0.21864709985809599 -0.27150291036173302 0 -0.19933927811319041 -0.27335702338478318 0 -0.21854221021918649 -0.25236034283526498 0 -0.2197277065850177 -0.2872169177591285 0 -0.21864709985809599 -0.27150291036173302 0 -0.19933927811319041 -0.27335702338478318 0 -0.2197277065850177 -0.2872169177591285 0 -0.19933927811319041 -0.27335702338478318 0 -0.19672455084482071 -0.27157955221738023 0 -0.19563648814007639 -0.2627950405098789 0 -0.1773613401945949 -0.28300380337564962 0 -0.19672455084482071 -0.27157955221738023 0 -0.19933927811319041 -0.27335702338478318 0 -0.1773613401945949 -0.28300380337564962 0 -0.19672455084482071 -0.27157955221738023 0 -0.19933927811319041 -0.27335702338478318 0 -0.19563648814007639 -0.2627950405098789 0 -0.19672455084482071 -0.27157955221738023 0 -0.19933927811319041 -0.27335702338478318 0 -0.19933927811319041 -0.27335702338478318 0 -0.19563648814007639 -0.2627950405098789 0 -0.2024770003035091 -0.25628481747185139 0 -0.19563648814007639 -0.2627950405098789 0 -0.19160736129165659 -0.25262396586623759 0 -0.18182513936558051 -0.25739227955256888 0 -0.19563648814007639 -0.2627950405098789 0 -0.19160736129165659 -0.25262396586623759 0 -0.2024770003035091 -0.25628481747185139 0 -0.19160736129165659 -0.25262396586623759 0 -0.2024770003035091 -0.25628481747185139 0 -0.19988453840298659 -0.24176205441804 0 -0.19933927811319041 -0.27335702338478318 0 -0.2024770003035091 -0.25628481747185139 0 -0.21854221021918649 -0.25236034283526498 0 -0.2024770003035091 -0.25628481747185139 0 -0.21854221021918649 -0.25236034283526498 0 -0.19988453840298659 -0.24176205441804 0 -0.19933927811319041 -0.27335702338478318 0 -0.21854221021918649 -0.25236034283526498 0 -0.16270034237907721 -0.26451024010365409 0 -0.1689202540561075 -0.25519621835756329 0 -0.15263230708737521 -0.24356194903458239 0 -0.16270034237907721 -0.26451024010365409 0 -0.15585924966824549 -0.27338725763800159 0 -0.15263230708737521 -0.24356194903458239 0 -0.16270034237907721 -0.26451024010365409 0 -0.1689202540561075 -0.25519621835756329 0 -0.17291740387759841 -0.2648938158906885 0 -0.1689202540561075 -0.25519621835756329 0 -0.18182513936558051 -0.25739227955256888 0 -0.1745260775709061 -0.24562280720632229 0 -0.19160736129165659 -0.25262396586623759 0 -0.18182513936558051 -0.25739227955256888 0 -0.1745260775709061 -0.24562280720632229 0 -0.19563648814007639 -0.2627950405098789 0 -0.18182513936558051 -0.25739227955256888 0 -0.18269465011250469 -0.26841637399603913 0 -0.1689202540561075 -0.25519621835756329 0 -0.18182513936558051 -0.25739227955256888 0 -0.17291740387759841 -0.2648938158906885 0 -0.18182513936558051 -0.25739227955256888 0 -0.17291740387759841 -0.2648938158906885 0 -0.18269465011250469 -0.26841637399603913 0 -0.19563648814007639 -0.2627950405098789 0 -0.18269465011250469 -0.26841637399603913 0 -0.1773613401945949 -0.28300380337564962 0 -0.17291740387759841 -0.2648938158906885 0 -0.17526212336935321 -0.27297056277525461 0 -0.1680750992927145 -0.27556825783864097 0 -0.19563648814007639 -0.2627950405098789 0 -0.1773613401945949 -0.28300380337564962 0 -0.17291740387759841 -0.2648938158906885 0 -0.17526212336935321 -0.27297056277525461 0 -0.18269465011250469 -0.26841637399603913 0 -0.17526212336935321 -0.27297056277525461 0 -0.18269465011250469 -0.26841637399603913 0 -0.1773613401945949 -0.28300380337564962 0 -0.17526212336935321 -0.27297056277525461 0 -0.1680750992927145 -0.27556825783864097 0 -0.1773613401945949 -0.28300380337564962 0 -0.1680750992927145 -0.27556825783864097 0 -0.1682011228878135 -0.28257539269247411 0 -0.1773613401945949 -0.28300380337564962 0 -0.1680750992927145 -0.27556825783864097 0 -0.1622412594804854 -0.28273310688964581 0 -0.1682011228878135 -0.28257539269247411 0 -0.16270034237907721 -0.26451024010365409 0 -0.17291740387759841 -0.2648938158906885 0 -0.1680750992927145 -0.27556825783864097 0 -0.16270034237907721 -0.26451024010365409 0 -0.1680750992927145 -0.27556825783864097 0 -0.16179622859894191 -0.27503335760685149 0 -0.16270034237907721 -0.26451024010365409 0 -0.16179622859894191 -0.27503335760685149 0 -0.15585924966824549 -0.27338725763800159 0 -0.16179622859894191 -0.27503335760685149 0 -0.1622412594804854 -0.28273310688964581 0 -0.15585924966824549 -0.27338725763800159 0 -0.1680750992927145 -0.27556825783864097 0 -0.16179622859894191 -0.27503335760685149 0 -0.1622412594804854 -0.28273310688964581 0 -0.1622412594804854 -0.28273310688964581 0 -0.16512679258345911 -0.28899640266596011 0 -0.15908619224911419 -0.30321256624142101 0 -0.1622412594804854 -0.28273310688964581 0 -0.15908619224911419 -0.30321256624142101 0 -0.15585924966824549 -0.27338725763800159 0 -0.15908619224911419 -0.30321256624142101 0 -0.15585924966824549 -0.27338725763800159 0 -0.16512679258345911 -0.28899640266596011 0 -0.1773613401945949 -0.28300380337564962 0 -0.15908619224911419 -0.30321256624142101 0 -0.1773613401945949 -0.28300380337564962 0 -0.15908619224911419 -0.30321256624142101 0 -0.16512679258345911 -0.28899640266596011 0 -0.1682011228878135 -0.28257539269247411 0 -0.1773613401945949 -0.28300380337564962 0 -0.1622412594804854 -0.28273310688964581 0 -0.16512679258345911 -0.28899640266596011 0 -0.1682011228878135 -0.28257539269247411 0 -0.1773613401945949 -0.28300380337564962 0 -0.1798976030385912 -0.29461474791537873 0 -0.15908619224911419 -0.30321256624142101 0 -0.19933927811319041 -0.27335702338478318 0 -0.1773613401945949 -0.28300380337564962 0 -0.1798976030385912 -0.29461474791537873 0 -0.1798976030385912 -0.29461474791537873 0 -0.17759103405270391 -0.30762984517719472 0 -0.16045592796399111 -0.3158724724459735 0 -0.18961770926909149 -0.30481471110084102 0 -0.1798976030385912 -0.29461474791537873 0 -0.17759103405270391 -0.30762984517719472 0 -0.18961770926909149 -0.30481471110084102 0 -0.17759103405270391 -0.30762984517719472 0 -0.1803928959391416 -0.31521744924658562 0 -0.1798976030385912 -0.29461474791537873 0 -0.16045592796399111 -0.3158724724459735 0 -0.1798976030385912 -0.29461474791537873 0 -0.15908619224911419 -0.30321256624142101 0 -0.16045592796399111 -0.3158724724459735 0 -0.15908619224911419 -0.30321256624142101 0 -0.16045592796399111 -0.3158724724459735 0 -0.1471380549162328 -0.30532142906175452 0 -0.14032160831301491 -0.30752887986621158 0 -0.14130665940473261 -0.32287327510069419 0 -0.15908619224911419 -0.30321256624142101 0 -0.1471380549162328 -0.30532142906175452 0 -0.14130665940473261 -0.32287327510069419 0 -0.15908619224911419 -0.30321256624142101 0 -0.1471380549162328 -0.30532142906175452 0 -0.1510678287434867 -0.29559461902651829 0 -0.14390798587081549 -0.29739780507392732 0 -0.1471380549162328 -0.30532142906175452 0 -0.1510678287434867 -0.29559461902651829 0 -0.14390798587081549 -0.29739780507392732 0 -0.1471380549162328 -0.30532142906175452 0 -0.14032160831301491 -0.30752887986621158 0 -0.14032160831301491 -0.30752887986621158 0 -0.13439128381467691 -0.29991683468539793 0 -0.13033731665847181 -0.31286393971371201 0 -0.13439128381467691 -0.29991683468539793 0 -0.13033731665847181 -0.31286393971371201 0 -0.12304085188452731 -0.29931348820209958 0 -0.14390798587081549 -0.29739780507392732 0 -0.14032160831301491 -0.30752887986621158 0 -0.13439128381467691 -0.29991683468539793 0 -0.14390798587081549 -0.29739780507392732 0 -0.13439128381467691 -0.29991683468539793 0 -0.14011095662501261 -0.28947786809128212 0 -0.13439128381467691 -0.29991683468539793 0 -0.14011095662501261 -0.28947786809128212 0 -0.12994370463312691 -0.28995419054763111 0 -0.13439128381467691 -0.29991683468539793 0 -0.12994370463312691 -0.28995419054763111 0 -0.12304085188452731 -0.29931348820209958 0 -0.12994370463312691 -0.28995419054763111 0 -0.13687965345326569 -0.27993872332247433 0 -0.1257911728949061 -0.280427018304516 0 -0.12994370463312691 -0.28995419054763111 0 -0.1257911728949061 -0.280427018304516 0 -0.1194571486541455 -0.28746452468861589 0 -0.14011095662501261 -0.28947786809128212 0 -0.12994370463312691 -0.28995419054763111 0 -0.13687965345326569 -0.27993872332247433 0 -0.15908619224911419 -0.30321256624142101 0 -0.15162645984294551 -0.28670064183700439 0 -0.15585924966824549 -0.27338725763800159 0 -0.14011095662501261 -0.28947786809128212 0 -0.1458827091329962 -0.28225219708249882 0 -0.13687965345326569 -0.27993872332247433 0 -0.15908619224911419 -0.30321256624142101 0 -0.1510678287434867 -0.29559461902651829 0 -0.15162645984294551 -0.28670064183700439 0 -0.1458827091329962 -0.28225219708249882 0 -0.1468811506158991 -0.28912565090950809 0 -0.15162645984294551 -0.28670064183700439 0 -0.14011095662501261 -0.28947786809128212 0 -0.1458827091329962 -0.28225219708249882 0 -0.1468811506158991 -0.28912565090950809 0 -0.14390798587081549 -0.29739780507392732 0 -0.1468811506158991 -0.28912565090950809 0 -0.1510678287434867 -0.29559461902651829 0 -0.14390798587081549 -0.29739780507392732 0 -0.14011095662501261 -0.28947786809128212 0 -0.1468811506158991 -0.28912565090950809 0 -0.1468811506158991 -0.28912565090950809 0 -0.1510678287434867 -0.29559461902651829 0 -0.15162645984294551 -0.28670064183700439 0 -0.1458827091329962 -0.28225219708249882 0 -0.15162645984294551 -0.28670064183700439 0 -0.15098162864793119 -0.27663156012407891 0 -0.15162645984294551 -0.28670064183700439 0 -0.15098162864793119 -0.27663156012407891 0 -0.15585924966824549 -0.27338725763800159 0 -0.15098162864793119 -0.27663156012407891 0 -0.1522527558101047 -0.27366235468835692 0 -0.14903370440966179 -0.27344637702894548 0 -0.15098162864793119 -0.27663156012407891 0 -0.1522527558101047 -0.27366235468835692 0 -0.15585924966824549 -0.27338725763800159 0 -0.14903370440966179 -0.27344637702894548 0 -0.1531364405145805 -0.27118422396240138 0 -0.14385763015454139 -0.26954128824380802 0 -0.1522527558101047 -0.27366235468835692 0 -0.15585924966824549 -0.27338725763800159 0 -0.1531364405145805 -0.27118422396240138 0 -0.1522527558101047 -0.27366235468835692 0 -0.14903370440966179 -0.27344637702894548 0 -0.1531364405145805 -0.27118422396240138 0 -0.14903370440966179 -0.27344637702894548 0 -0.14385763015454139 -0.26954128824380802 0 -0.1442805510697899 -0.27562940435382949 0 -0.14385763015454139 -0.26954128824380802 0 -0.1442805510697899 -0.27562940435382949 0 -0.13835653564694769 -0.27242798417408381 0 -0.1458827091329962 -0.28225219708249882 0 -0.1442805510697899 -0.27562940435382949 0 -0.13687965345326569 -0.27993872332247433 0 -0.15098162864793119 -0.27663156012407891 0 -0.14903370440966179 -0.27344637702894548 0 -0.1442805510697899 -0.27562940435382949 0 -0.1458827091329962 -0.28225219708249882 0 -0.15098162864793119 -0.27663156012407891 0 -0.1442805510697899 -0.27562940435382949 0 -0.13687965345326569 -0.27993872332247433 0 -0.12970248462840331 -0.2717774759070859 0 -0.13835653564694769 -0.27242798417408381 0 -0.1442805510697899 -0.27562940435382949 0 -0.13687965345326569 -0.27993872332247433 0 -0.13835653564694769 -0.27242798417408381 0 -0.13687965345326569 -0.27993872332247433 0 -0.1257911728949061 -0.280427018304516 0 -0.12970248462840331 -0.2717774759070859 0 -0.12970248462840331 -0.2717774759070859 0 -0.13570208279224111 -0.26528350045903498 0 -0.12855037573501921 -0.26115248962005239 0 -0.14385763015454139 -0.26954128824380802 0 -0.13835653564694769 -0.27242798417408381 0 -0.13570208279224111 -0.26528350045903498 0 -0.12970248462840331 -0.2717774759070859 0 -0.13835653564694769 -0.27242798417408381 0 -0.13570208279224111 -0.26528350045903498 0 -0.13570208279224111 -0.26528350045903498 0 -0.12855037573501921 -0.26115248962005239 0 -0.1377523016625678 -0.25581657194563601 0 -0.14385763015454139 -0.26954128824380802 0 -0.13570208279224111 -0.26528350045903498 0 -0.1377523016625678 -0.25581657194563601 0 -0.12855037573501921 -0.26115248962005239 0 -0.1377523016625678 -0.25581657194563601 0 -0.1223681628105569 -0.24044891992886891 0 -0.1531364405145805 -0.27118422396240138 0 -0.1377523016625678 -0.25581657194563601 0 -0.15263230708737521 -0.24356194903458239 0 -0.15585924966824549 -0.27338725763800159 0 -0.1531364405145805 -0.27118422396240138 0 -0.15263230708737521 -0.24356194903458239 0 -0.15585924966824549 -0.27338725763800159 0 -0.15263230708737521 -0.24356194903458239 0 -0.1531364405145805 -0.27118422396240138 0 -0.1377523016625678 -0.25581657194563601 0 -0.1531364405145805 -0.27118422396240138 0 -0.14385763015454139 -0.26954128824380802 0 -0.1377523016625678 -0.25581657194563601 0 -0.1661931572416451 -0.36889933283976362 0 -0.1633245426028184 -0.34238590264286861 0 -0.15433175674287769 -0.35458729317269139 0 -0.1661931572416451 -0.36889933283976362 0 -0.1633245426028184 -0.34238590264286861 0 -0.1661931572416451 -0.36889933283976362 0 -0.17388048196752651 -0.3522733272046466 0 -0.1633245426028184 -0.34238590264286861 0 -0.1661931572416451 -0.36889933283976362 0 -0.15433175674287769 -0.35458729317269139 0 -0.148308101659717 -0.36695316985008092 0 -0.15761740849691311 -0.38818340141201402 0 -0.1661931572416451 -0.36889933283976362 0 -0.148308101659717 -0.36695316985008092 0 -0.183603859264966 -0.3766054584014627 0 -0.1661931572416451 -0.36889933283976362 0 -0.1863350517553729 -0.35962674217565882 0 -0.1661931572416451 -0.36889933283976362 0 -0.1863350517553729 -0.35962674217565882 0 -0.17388048196752651 -0.3522733272046466 0 -0.1863350517553729 -0.35962674217565882 0 -0.17388048196752651 -0.3522733272046466 0 -0.1789381536340362 -0.33872308817907848 0 -0.17388048196752651 -0.3522733272046466 0 -0.1789381536340362 -0.33872308817907848 0 -0.1633245426028184 -0.34238590264286861 0 -0.19562896033857519 -0.33020038185646122 0 -0.1789381536340362 -0.33872308817907848 0 -0.18477851095256179 -0.32477614194451959 0 -0.1789381536340362 -0.33872308817907848 0 -0.18477851095256179 -0.32477614194451959 0 -0.1735479853981102 -0.32728394705986258 0 -0.1789381536340362 -0.33872308817907848 0 -0.1735479853981102 -0.32728394705986258 0 -0.1633245426028184 -0.34238590264286861 0 -0.17759103405270391 -0.30762984517719472 0 -0.1803928959391416 -0.31521744924658562 0 -0.16045592796399111 -0.3158724724459735 0 -0.19575919956014079 -0.31702437624003538 0 -0.1803928959391416 -0.31521744924658562 0 -0.18477851095256179 -0.32477614194451959 0 -0.1803928959391416 -0.31521744924658562 0 -0.18477851095256179 -0.32477614194451959 0 -0.1735479853981102 -0.32728394705986258 0 -0.1803928959391416 -0.31521744924658562 0 -0.1735479853981102 -0.32728394705986258 0 -0.16045592796399111 -0.3158724724459735 0 -0.1735479853981102 -0.32728394705986258 0 -0.16045592796399111 -0.3158724724459735 0 -0.1633245426028184 -0.34238590264286861 0 -0.16045592796399111 -0.3158724724459735 0 -0.1633245426028184 -0.34238590264286861 0 -0.1476770575246594 -0.3298450188736391 0 -0.16045592796399111 -0.3158724724459735 0 -0.1633245426028184 -0.34238590264286861 0 -0.1633245426028184 -0.34238590264286861 0 -0.15030263560259111 -0.34285112818916452 0 -0.1476770575246594 -0.3298450188736391 0 -0.1476770575246594 -0.3298450188736391 0 -0.14130665940473261 -0.32287327510069419 0 -0.13989838249203351 -0.33226752099114382 0 -0.1476770575246594 -0.3298450188736391 0 -0.14096893258994439 -0.33934882548262568 0 -0.13989838249203351 -0.33226752099114382 0 -0.15030263560259111 -0.34285112818916452 0 -0.1476770575246594 -0.3298450188736391 0 -0.14096893258994439 -0.33934882548262568 0 -0.15908619224911419 -0.30321256624142101 0 -0.14130665940473261 -0.32287327510069419 0 -0.16045592796399111 -0.3158724724459735 0 -0.1476770575246594 -0.3298450188736391 0 -0.14130665940473261 -0.32287327510069419 0 -0.15908619224911419 -0.30321256624142101 0 -0.16045592796399111 -0.3158724724459735 0 -0.14130665940473261 -0.32287327510069419 0 -0.16045592796399111 -0.3158724724459735 0 -0.1476770575246594 -0.3298450188736391 0 -0.14130665940473261 -0.32287327510069419 0 -0.12766342535057629 -0.32481504462803062 0 -0.13033731665847181 -0.31286393971371201 0 -0.14032160831301491 -0.30752887986621158 0 -0.14130665940473261 -0.32287327510069419 0 -0.13033731665847181 -0.31286393971371201 0 -0.14130665940473261 -0.32287327510069419 0 -0.12766342535057629 -0.32481504462803062 0 -0.12902917457320359 -0.33644978787578289 0 -0.12766342535057629 -0.32481504462803062 0 -0.12902917457320359 -0.33644978787578289 0 -0.123033176677132 -0.34308019655903149 0 -0.14096893258994439 -0.33934882548262568 0 -0.12902917457320359 -0.33644978787578289 0 -0.13366226850604379 -0.34759248760944123 0 -0.14096893258994439 -0.33934882548262568 0 -0.13989838249203351 -0.33226752099114382 0 -0.12902917457320359 -0.33644978787578289 0 -0.14130665940473261 -0.32287327510069419 0 -0.12902917457320359 -0.33644978787578289 0 -0.14130665940473261 -0.32287327510069419 0 -0.13989838249203351 -0.33226752099114382 0 -0.12902917457320359 -0.33644978787578289 0 -0.12902917457320359 -0.33644978787578289 0 -0.123033176677132 -0.34308019655903149 0 -0.12902917457320359 -0.33644978787578289 0 -0.13366226850604379 -0.34759248760944123 0 -0.123033176677132 -0.34308019655903149 0 -0.13366226850604379 -0.34759248760944123 0 -0.1303219987982592 -0.3665496015062627 0 -0.123033176677132 -0.34308019655903149 0 -0.1303219987982592 -0.3665496015062627 0 -0.123033176677132 -0.34308019655903149 0 -0.13366226850604379 -0.34759248760944123 0 -0.1435303466076166 -0.35184693234157938 0 -0.1303219987982592 -0.3665496015062627 0 -0.14096893258994439 -0.33934882548262568 0 -0.13366226850604379 -0.34759248760944123 0 -0.1435303466076166 -0.35184693234157938 0 -0.15030263560259111 -0.34285112818916452 0 -0.14096893258994439 -0.33934882548262568 0 -0.1435303466076166 -0.35184693234157938 0 -0.1435303466076166 -0.35184693234157938 0 -0.15433175674287769 -0.35458729317269139 0 -0.148308101659717 -0.36695316985008092 0 -0.1633245426028184 -0.34238590264286861 0 -0.15030263560259111 -0.34285112818916452 0 -0.15433175674287769 -0.35458729317269139 0 -0.15030263560259111 -0.34285112818916452 0 -0.1435303466076166 -0.35184693234157938 0 -0.15433175674287769 -0.35458729317269139 0 -0.1435303466076166 -0.35184693234157938 0 -0.148308101659717 -0.36695316985008092 0 -0.1303219987982592 -0.3665496015062627 0 -0.1369224961495438 -0.38192389563367207 0 -0.148308101659717 -0.36695316985008092 0 -0.1303219987982592 -0.3665496015062627 0 -0.1303219987982592 -0.3665496015062627 0 -0.1159926709000937 -0.36685414663024191 0 -0.11895596668836859 -0.34683008488337108 0 -0.1303219987982592 -0.3665496015062627 0 -0.1159926709000937 -0.36685414663024191 0 -0.12201267174342199 -0.37938718301114999 0 -0.1024060606807759 -0.36205135125861898 0 -0.1016559479587178 -0.38500202459504551 0 -0.1159926709000937 -0.36685414663024191 0 -0.1024060606807759 -0.36205135125861898 0 -0.1094440337948836 -0.37923577087639421 0 -0.1024060606807759 -0.36205135125861898 0 -0.1016559479587178 -0.38500202459504551 0 -0.095426438310298192 -0.37780241062099151 0 -0.1024060606807759 -0.36205135125861898 0 -0.090139611558562177 -0.37333304007799939 0 -0.095426438310298192 -0.37780241062099151 0 -0.1024060606807759 -0.36205135125861898 0 -0.093943439343664059 -0.36410026383479388 0 -0.090139611558562177 -0.37333304007799939 0 -0.1024060606807759 -0.36205135125861898 0 -0.093943439343664059 -0.36410026383479388 0 -0.095626283443773746 -0.35612124291623848 0 -0.1024060606807759 -0.36205135125861898 0 -0.090139611558562177 -0.37333304007799939 0 -0.1024060606807759 -0.36205135125861898 0 -0.1029439411344124 -0.34559419992324319 0 -0.1024060606807759 -0.36205135125861898 0 -0.1029439411344124 -0.34559419992324319 0 -0.11895596668836859 -0.34683008488337108 0 -0.1024060606807759 -0.36205135125861898 0 -0.095626283443773746 -0.35612124291623848 0 -0.1029439411344124 -0.34559419992324319 0 -0.095626283443773746 -0.35612124291623848 0 -0.1029439411344124 -0.34559419992324319 0 -0.093212578299404075 -0.34130700998995739 0 -0.1159926709000937 -0.36685414663024191 0 -0.1024060606807759 -0.36205135125861898 0 -0.11895596668836859 -0.34683008488337108 0 -0.1024060606807759 -0.36205135125861898 0 -0.11895596668836859 -0.34683008488337108 0 -0.1303219987982592 -0.3665496015062627 0 -0.11895596668836859 -0.34683008488337108 0 -0.123033176677132 -0.34308019655903149 0 -0.1029439411344124 -0.34559419992324319 0 -0.11895596668836859 -0.34683008488337108 0 -0.123033176677132 -0.34308019655903149 0 -0.11895596668836859 -0.34683008488337108 0 -0.123033176677132 -0.34308019655903149 0 -0.1029439411344124 -0.34559419992324319 0 -0.1137910684918501 -0.33520612369310882 0 -0.123033176677132 -0.34308019655903149 0 -0.123033176677132 -0.34308019655903149 0 -0.1159692764993048 -0.31568518943543378 0 -0.1137910684918501 -0.33520612369310882 0 -0.123033176677132 -0.34308019655903149 0 -0.1159692764993048 -0.31568518943543378 0 -0.12766342535057629 -0.32481504462803062 0 -0.123033176677132 -0.34308019655903149 0 -0.1159692764993048 -0.31568518943543378 0 -0.1137910684918501 -0.33520612369310882 0 -0.1159692764993048 -0.31568518943543378 0 -0.1034818215880495 -0.3291370485878673 0 -0.12766342535057629 -0.32481504462803062 0 -0.13033731665847181 -0.31286393971371201 0 -0.1159692764993048 -0.31568518943543378 0 -0.1159692764993048 -0.31568518943543378 0 -0.10079975883819629 -0.31506063040533638 0 -0.1034818215880495 -0.3291370485878673 0 -0.10079975883819629 -0.31506063040533638 0 -0.093212578299404075 -0.34130700998995739 0 -0.10079975883819629 -0.31506063040533638 0 -0.093212578299404075 -0.34130700998995739 0 -0.087373844159168004 -0.3291061545470132 0 -0.10079975883819629 -0.31506063040533638 0 -0.1034818215880495 -0.3291370485878673 0 -0.093212578299404075 -0.34130700998995739 0 -0.1029439411344124 -0.34559419992324319 0 -0.1034818215880495 -0.3291370485878673 0 -0.1029439411344124 -0.34559419992324319 0 -0.1034818215880495 -0.3291370485878673 0 -0.093212578299404075 -0.34130700998995739 0 -0.1029439411344124 -0.34559419992324319 0 -0.1137910684918501 -0.33520612369310882 0 -0.1034818215880495 -0.3291370485878673 0 -0.093212578299404075 -0.34130700998995739 0 -0.087373844159168004 -0.3291061545470132 0 -0.080908772255243899 -0.33898270124258217 0 -0.087373844159168004 -0.3291061545470132 0 -0.080908772255243899 -0.33898270124258217 0 -0.077490532230771417 -0.32991328235931511 0 -0.093212578299404075 -0.34130700998995739 0 -0.080908772255243899 -0.33898270124258217 0 -0.080378844364046895 -0.35001101873094542 0 -0.10079975883819629 -0.31506063040533638 0 -0.085305929108392881 -0.31951846990187233 0 -0.091873739319295072 -0.31122357941036211 0 -0.10079975883819629 -0.31506063040533638 0 -0.087373844159168004 -0.3291061545470132 0 -0.085305929108392881 -0.31951846990187233 0 -0.085305929108392881 -0.31951846990187233 0 -0.076805788315873161 -0.32077910918615782 0 -0.077490532230771417 -0.32991328235931511 0 -0.087373844159168004 -0.3291061545470132 0 -0.085305929108392881 -0.31951846990187233 0 -0.077490532230771417 -0.32991328235931511 0 -0.085305929108392881 -0.31951846990187233 0 -0.076805788315873161 -0.32077910918615782 0 -0.078544889372492196 -0.31002595631180607 0 -0.085305929108392881 -0.31951846990187233 0 -0.091873739319295072 -0.31122357941036211 0 -0.078544889372492196 -0.31002595631180607 0 -0.066882954587322394 -0.32486941793266988 0 -0.078544889372492196 -0.31002595631180607 0 -0.05424539878688571 -0.319762651601179 0 -0.078544889372492196 -0.31002595631180607 0 -0.05424539878688571 -0.319762651601179 0 -0.076805788315873161 -0.32077910918615782 0 -0.066882954587322394 -0.32486941793266988 0 -0.078544889372492196 -0.31002595631180607 0 -0.076805788315873161 -0.32077910918615782 0 -0.066882954587322394 -0.32486941793266988 0 -0.077490532230771417 -0.32991328235931511 0 -0.066882954587322394 -0.32486941793266988 0 -0.070160141916437824 -0.34098238217286791 0 -0.054527031800802053 -0.34042178362413461 0 -0.066882954587322394 -0.32486941793266988 0 -0.077490532230771417 -0.32991328235931511 0 -0.070160141916437824 -0.34098238217286791 0 -0.080908772255243899 -0.33898270124258217 0 -0.077490532230771417 -0.32991328235931511 0 -0.070160141916437824 -0.34098238217286791 0 -0.080908772255243899 -0.33898270124258217 0 -0.070160141916437824 -0.34098238217286791 0 -0.080378844364046895 -0.35001101873094542 0 -0.070160141916437824 -0.34098238217286791 0 -0.066522813126512412 -0.35680227137673098 0 -0.054527031800802053 -0.34042178362413461 0 -0.070160141916437824 -0.34098238217286791 0 -0.066522813126512412 -0.35680227137673098 0 -0.080378844364046895 -0.35001101873094542 0 -0.066522813126512412 -0.35680227137673098 0 -0.076582500297099523 -0.36039923154202719 0 -0.080378844364046895 -0.35001101873094542 0 -0.066522813126512412 -0.35680227137673098 0 -0.073802945937226916 -0.36723024648585417 0 -0.058387822440418388 -0.36975607908058028 0 -0.073802945937226916 -0.36723024648585417 0 -0.058387822440418388 -0.36975607908058028 0 -0.08170780991661282 -0.38109255286014232 0 -0.066522813126512412 -0.35680227137673098 0 -0.073802945937226916 -0.36723024648585417 0 -0.076582500297099523 -0.36039923154202719 0 -0.073802945937226916 -0.36723024648585417 0 -0.076582500297099523 -0.36039923154202719 0 -0.085625397760611066 -0.36755338957457828 0 -0.085625397760611066 -0.36755338957457828 0 -0.087954911787112483 -0.37534235041220648 0 -0.08170780991661282 -0.38109255286014232 0 -0.073802945937226916 -0.36723024648585417 0 -0.085625397760611066 -0.36755338957457828 0 -0.08170780991661282 -0.38109255286014232 0 -0.085625397760611066 -0.36755338957457828 0 -0.08170780991661282 -0.38109255286014232 0 -0.093943439343664059 -0.36410026383479388 0 -0.085625397760611066 -0.36755338957457828 0 -0.090139611558562177 -0.37333304007799939 0 -0.093943439343664059 -0.36410026383479388 0 -0.090139611558562177 -0.37333304007799939 0 -0.085625397760611066 -0.36755338957457828 0 -0.090139611558562177 -0.37333304007799939 0 -0.087954911787112483 -0.37534235041220648 0 -0.085625397760611066 -0.36755338957457828 0 -0.087954911787112483 -0.37534235041220648 0 -0.090139611558562177 -0.37333304007799939 0 -0.087954911787112483 -0.37534235041220648 0 -0.093943439343664059 -0.36410026383479388 0 -0.095626283443773746 -0.35612124291623848 0 -0.085625397760611066 -0.36755338957457828 0 -0.093212578299404075 -0.34130700998995739 0 -0.085625397760611066 -0.36755338957457828 0 -0.076582500297099523 -0.36039923154202719 0 -0.085625397760611066 -0.36755338957457828 0 -0.080378844364046895 -0.35001101873094542 0 -0.093212578299404075 -0.34130700998995739 0 -0.085625397760611066 -0.36755338957457828 0 -0.080378844364046895 -0.35001101873094542 0 -0.085625397760611066 -0.36755338957457828 0 -0.080378844364046895 -0.35001101873094542 0 -0.095626283443773746 -0.35612124291623848 0 -0.093212578299404075 -0.34130700998995739 0 -0.085625397760611066 -0.36755338957457828 0 -0.10474757541744149 -0.26087495970427582 0 -0.090174700483665673 -0.26498018187443112 0 -0.1005321994236209 -0.2431127607729493 0 -0.10474757541744149 -0.26087495970427582 0 -0.11757885349586771 -0.25701660664448461 0 -0.1005321994236209 -0.2431127607729493 0 -0.12855037573501921 -0.26115248962005239 0 -0.11757885349586771 -0.25701660664448461 0 -0.1127895441811773 -0.27358429336009982 0 -0.12855037573501921 -0.26115248962005239 0 -0.11757885349586771 -0.25701660664448461 0 -0.1223681628105569 -0.24044891992886891 0 -0.10474757541744149 -0.26087495970427582 0 -0.11757885349586771 -0.25701660664448461 0 -0.1127895441811773 -0.27358429336009982 0 -0.11757885349586771 -0.25701660664448461 0 -0.1127895441811773 -0.27358429336009982 0 -0.1257911728949061 -0.280427018304516 0 -0.12970248462840331 -0.2717774759070859 0 -0.1127895441811773 -0.27358429336009982 0 -0.12855037573501921 -0.26115248962005239 0 -0.1127895441811773 -0.27358429336009982 0 -0.12970248462840331 -0.2717774759070859 0 -0.12855037573501921 -0.26115248962005239 0 -0.1127895441811773 -0.27358429336009982 0 -0.1257911728949061 -0.280427018304516 0 -0.1127895441811773 -0.27358429336009982 0 -0.1194571486541455 -0.28746452468861589 0 -0.1127895441811773 -0.27358429336009982 0 -0.1083869393769897 -0.28881425082071571 0 -0.1127895441811773 -0.27358429336009982 0 -0.093274829049746905 -0.28897707944045958 0 -0.090174700483665673 -0.26498018187443112 0 -0.10474757541744149 -0.26087495970427582 0 -0.1127895441811773 -0.27358429336009982 0 -0.090174700483665673 -0.26498018187443112 0 -0.1127895441811773 -0.27358429336009982 0 -0.1067008731150054 -0.28283902414649681 0 -0.093274829049746905 -0.28897707944045958 0 -0.1127895441811773 -0.27358429336009982 0 -0.093274829049746905 -0.28897707944045958 0 -0.1083869393769897 -0.28881425082071571 0 -0.102844379958099 -0.30028926102243358 0 -0.093274829049746905 -0.28897707944045958 0 -0.1127895441811773 -0.27358429336009982 0 -0.1083869393769897 -0.28881425082071571 0 -0.1067008731150054 -0.28283902414649681 0 -0.1083869393769897 -0.28881425082071571 0 -0.1067008731150054 -0.28283902414649681 0 -0.1083869393769897 -0.28881425082071571 0 -0.1067008731150054 -0.28283902414649681 0 -0.093274829049746905 -0.28897707944045958 0 -0.1127895441811773 -0.27358429336009982 0 -0.1083869393769897 -0.28881425082071571 0 -0.1194571486541455 -0.28746452468861589 0 -0.12994370463312691 -0.28995419054763111 0 -0.1194571486541455 -0.28746452468861589 0 -0.12304085188452731 -0.29931348820209958 0 -0.1083869393769897 -0.28881425082071571 0 -0.1194571486541455 -0.28746452468861589 0 -0.12304085188452731 -0.29931348820209958 0 -0.1159692764993048 -0.31568518943543378 0 -0.1083869393769897 -0.28881425082071571 0 -0.12304085188452731 -0.29931348820209958 0 -0.1159692764993048 -0.31568518943543378 0 -0.1083869393769897 -0.28881425082071571 0 -0.13033731665847181 -0.31286393971371201 0 -0.1159692764993048 -0.31568518943543378 0 -0.12304085188452731 -0.29931348820209958 0 -0.1159692764993048 -0.31568518943543378 0 -0.10079975883819629 -0.31506063040533638 0 -0.1083869393769897 -0.28881425082071571 0 -0.10079975883819629 -0.31506063040533638 0 -0.1083869393769897 -0.28881425082071571 0 -0.10079975883819629 -0.31506063040533638 0 -0.1083869393769897 -0.28881425082071571 0 -0.102844379958099 -0.30028926102243358 0 -0.10079975883819629 -0.31506063040533638 0 -0.102844379958099 -0.30028926102243358 0 -0.091873739319295072 -0.31122357941036211 0 -0.078544889372492196 -0.31002595631180607 0 -0.073760113918316481 -0.30436986552081963 0 -0.093274829049746905 -0.28897707944045958 0 -0.102844379958099 -0.30028926102243358 0 -0.078544889372492196 -0.31002595631180607 0 -0.093274829049746905 -0.28897707944045958 0 -0.102844379958099 -0.30028926102243358 0 -0.091873739319295072 -0.31122357941036211 0 -0.078544889372492196 -0.31002595631180607 0 -0.102844379958099 -0.30028926102243358 0 -0.078544889372492196 -0.31002595631180607 0 -0.078544889372492196 -0.31002595631180607 0 -0.073760113918316481 -0.30436986552081963 0 -0.05424539878688571 -0.319762651601179 0 -0.073760113918316481 -0.30436986552081963 0 -0.05424539878688571 -0.319762651601179 0 -0.073760113918316481 -0.30436986552081963 0 -0.071188273097670243 -0.28513602236808322 0 -0.055748641784298267 -0.30178875706485681 0 -0.073760113918316481 -0.30436986552081963 0 -0.071188273097670243 -0.28513602236808322 0 -0.093274829049746905 -0.28897707944045958 0 -0.073760113918316481 -0.30436986552081963 0 -0.093274829049746905 -0.28897707944045958 0 -0.071188273097670243 -0.28513602236808322 0 -0.093274829049746905 -0.28897707944045958 0 -0.090174700483665673 -0.26498018187443112 0 -0.071188273097670243 -0.28513602236808322 0 -0.063484538676239377 -0.26413124226689111 0 -0.090174700483665673 -0.26498018187443112 0 -0.063484538676239377 -0.26413124226689111 0 -0.076282262678724011 -0.24169347649274159 0 -0.063484538676239377 -0.26413124226689111 0 -0.090174700483665673 -0.26498018187443112 0 -0.076282262678724011 -0.24169347649274159 0 -0.036942597034766073 -0.27265489088473938 0 -0.050686814673754729 -0.28656900804104057 0 -0.0185119813334658 -0.28327625011988139 0 -0.038581934025118947 -0.25114857380685968 0 -0.038334603868346327 -0.2604973367990705 0 -0.03064478186574425 -0.25326356670072259 0 -0.038334603868346327 -0.2604973367990705 0 -0.029413390480137139 -0.26518294325465769 0 -0.03064478186574425 -0.25326356670072259 0 -0.038334603868346327 -0.2604973367990705 0 -0.046517308340487992 -0.25474718453952289 0 -0.048289188575406587 -0.26955092917192058 0 -0.038581934025118947 -0.25114857380685968 0 -0.038334603868346327 -0.2604973367990705 0 -0.046517308340487992 -0.25474718453952289 0 -0.063484538676239377 -0.26413124226689111 0 -0.046517308340487992 -0.25474718453952289 0 -0.0567919256119837 -0.24387644547435741 0 -0.063484538676239377 -0.26413124226689111 0 -0.046517308340487992 -0.25474718453952289 0 -0.048289188575406587 -0.26955092917192058 0 -0.063484538676239377 -0.26413124226689111 0 -0.050686814673754729 -0.28656900804104057 0 -0.071188273097670243 -0.28513602236808322 0 -0.063484538676239377 -0.26413124226689111 0 -0.050686814673754729 -0.28656900804104057 0 -0.063484538676239377 -0.26413124226689111 0 -0.048289188575406587 -0.26955092917192058 0 -0.050686814673754729 -0.28656900804104057 0 -0.048289188575406587 -0.26955092917192058 0 -0.036942597034766073 -0.27265489088473938 0 -0.050686814673754729 -0.28656900804104057 0 -0.038334603868346327 -0.2604973367990705 0 -0.048289188575406587 -0.26955092917192058 0 -0.036942597034766073 -0.27265489088473938 0 -0.038334603868346327 -0.2604973367990705 0 -0.036942597034766073 -0.27265489088473938 0 -0.029413390480137139 -0.26518294325465769 0 -0.050686814673754729 -0.28656900804104057 0 -0.037889090671270123 -0.30900677381518998 0 -0.0185119813334658 -0.28327625011988139 0 -0.071188273097670243 -0.28513602236808322 0 -0.050686814673754729 -0.28656900804104057 0 -0.055748641784298267 -0.30178875706485681 0 -0.073760113918316481 -0.30436986552081963 0 -0.055748641784298267 -0.30178875706485681 0 -0.05424539878688571 -0.319762651601179 0 -0.055748641784298267 -0.30178875706485681 0 -0.037889090671270123 -0.30900677381518998 0 -0.05424539878688571 -0.319762651601179 0 -0.050686814673754729 -0.28656900804104057 0 -0.055748641784298267 -0.30178875706485681 0 -0.037889090671270123 -0.30900677381518998 0 -0.050686814673754729 -0.28656900804104057 0 -0.037889090671270123 -0.30900677381518998 0 -0.037889090671270123 -0.30900677381518998 0 -0.014390974368570029 -0.31032982847088841 0 -0.0185119813334658 -0.28327625011988139 0 -0.014390974368570029 -0.31032982847088841 0 0.001904989571353899 -0.32214434476741449 0 0.0019518825097332619 -0.30029273945570772 0 -0.014390974368570029 -0.31032982847088841 0 -0.0185119813334658 -0.28327625011988139 0 0.0019518825097332619 -0.30029273945570772 0 -0.0185119813334658 -0.28327625011988139 0 -0.0020851015340006161 -0.28052611142458661 0 0.0019518825097332619 -0.30029273945570772 0 -0.014390974368570029 -0.31032982847088841 0 -0.0185119813334658 -0.28327625011988139 0 -0.036942597034766073 -0.27265489088473938 0 -0.0185119813334658 -0.28327625011988139 0 -0.029413390480137139 -0.26518294325465769 0 -0.0185119813334658 -0.28327625011988139 0 -0.02263298829836323 -0.25622267176887481 0 -0.029413390480137139 -0.26518294325465769 0 -0.0185119813334658 -0.28327625011988139 0 -0.02263298829836323 -0.25622267176887481 0 -0.0185119813334658 -0.28327625011988139 0 -0.0093077836028632385 -0.27105033158696179 0 -0.02263298829836323 -0.25622267176887481 0 -0.0185119813334658 -0.28327625011988139 0 -0.0020851015340006161 -0.28052611142458661 0 -0.0093077836028632385 -0.27105033158696179 0 -0.0020851015340006161 -0.28052611142458661 0 -0.0093077836028632385 -0.27105033158696179 0 0.0055944649301708496 -0.26664830233551728 0 -0.014059514610042069 -0.25416210053859828 0 -0.02263298829836323 -0.25622267176887481 0 0.0055944649301708496 -0.26664830233551728 0 -0.0093077836028632385 -0.27105033158696179 0 -0.02263298829836323 -0.25622267176887481 0 0.0055944649301708496 -0.26664830233551728 0 -0.02263298829836323 -0.25622267176887481 0 0.0055944649301708496 -0.26664830233551728 0 -0.014059514610042069 -0.25416210053859828 0 -0.0080727856436109482 -0.2481099565327444 0 0.0055944649301708496 -0.26664830233551728 0 -0.014059514610042069 -0.25416210053859828 0 -0.01887874476148543 -0.24814250919209771 0 -0.0080727856436109482 -0.2481099565327444 0 -0.014059514610042069 -0.25416210053859828 0 -0.02263298829836323 -0.25622267176887481 0 -0.02285766608625657 -0.25474770747244752 0 -0.014059514610042069 -0.25416210053859828 0 -0.02285766608625657 -0.25474770747244752 0 -0.01887874476148543 -0.24814250919209771 0 -0.02285766608625657 -0.25474770747244752 0 -0.026067501294639708 -0.24850247980592871 0 -0.01887874476148543 -0.24814250919209771 0 -0.02263298829836323 -0.25622267176887481 0 -0.02285766608625657 -0.25474770747244752 0 -0.02263298829836323 -0.25622267176887481 0 -0.029413390480137139 -0.26518294325465769 0 -0.03064478186574425 -0.25326356670072259 0 -0.02263298829836323 -0.25622267176887481 0 -0.03064478186574425 -0.25326356670072259 0 -0.02263298829836323 -0.25622267176887481 0 -0.02285766608625657 -0.25474770747244752 0 -0.03064478186574425 -0.25326356670072259 0 -0.02285766608625657 -0.25474770747244752 0 -0.03064478186574425 -0.25326356670072259 0 -0.026067501294639708 -0.24850247980592871 0 -0.040780788735907937 -0.34809370153295588 0 -0.035070660285960877 -0.35841379707961513 0 -0.051335308585544609 -0.35442186843706669 0 -0.040780788735907937 -0.34809370153295588 0 -0.033802973987086503 -0.33588719504380232 0 -0.029167969020145641 -0.35132386348016093 0 -0.040780788735907937 -0.34809370153295588 0 -0.035070660285960877 -0.35841379707961513 0 -0.029167969020145641 -0.35132386348016093 0 -0.035070660285960877 -0.35841379707961513 0 -0.040000350022935588 -0.37213681664196291 0 -0.021437446366364531 -0.36359117576668931 0 -0.035070660285960877 -0.35841379707961513 0 -0.058387822440418388 -0.36975607908058028 0 -0.035070660285960877 -0.35841379707961513 0 -0.040000350022935588 -0.37213681664196291 0 -0.058387822440418388 -0.36975607908058028 0 -0.040000350022935588 -0.37213681664196291 0 -0.058387822440418388 -0.36975607908058028 0 -0.058563253679506787 -0.38068245751723601 0 -0.035070660285960877 -0.35841379707961513 0 -0.058387822440418388 -0.36975607908058028 0 -0.051335308585544609 -0.35442186843706669 0 -0.066522813126512412 -0.35680227137673098 0 -0.058387822440418388 -0.36975607908058028 0 -0.051335308585544609 -0.35442186843706669 0 -0.066522813126512412 -0.35680227137673098 0 -0.051335308585544609 -0.35442186843706669 0 -0.054527031800802053 -0.34042178362413461 0 -0.040780788735907937 -0.34809370153295588 0 -0.051335308585544609 -0.35442186843706669 0 -0.054527031800802053 -0.34042178362413461 0 -0.066882954587322394 -0.32486941793266988 0 -0.054527031800802053 -0.34042178362413461 0 -0.05424539878688571 -0.319762651601179 0 -0.054527031800802053 -0.34042178362413461 0 -0.05424539878688571 -0.319762651601179 0 -0.033802973987086503 -0.33588719504380232 0 -0.05424539878688571 -0.319762651601179 0 -0.039668382727836717 -0.32560359559526031 0 -0.05424539878688571 -0.319762651601179 0 -0.033802973987086503 -0.33588719504380232 0 -0.037889090671270123 -0.30900677381518998 0 -0.025091366668787349 -0.3314445395893405 0 -0.05424539878688571 -0.319762651601179 0 -0.039668382727836717 -0.32560359559526031 0 -0.033802973987086503 -0.33588719504380232 0 -0.037889090671270123 -0.30900677381518998 0 -0.05424539878688571 -0.319762651601179 0 -0.039668382727836717 -0.32560359559526031 0 -0.037889090671270123 -0.30900677381518998 0 -0.039668382727836717 -0.32560359559526031 0 -0.025091366668787349 -0.3314445395893405 0 -0.040780788735907937 -0.34809370153295588 0 -0.054527031800802053 -0.34042178362413461 0 -0.033802973987086503 -0.33588719504380232 0 -0.039668382727836717 -0.32560359559526031 0 -0.025091366668787349 -0.3314445395893405 0 -0.039668382727836717 -0.32560359559526031 0 -0.033802973987086503 -0.33588719504380232 0 -0.025091366668787349 -0.3314445395893405 0 -0.025091366668787349 -0.3314445395893405 0 -0.01336054918728761 -0.35201173848642592 0 -0.033802973987086503 -0.33588719504380232 0 -0.025091366668787349 -0.3314445395893405 0 -0.01336054918728761 -0.35201173848642592 0 -0.025091366668787349 -0.3314445395893405 0 -0.01532372128421448 -0.33535839064186268 0 -0.01336054918728761 -0.35201173848642592 0 -0.025091366668787349 -0.3314445395893405 0 -0.022734703789933738 -0.32728556430890232 0 -0.01532372128421448 -0.33535839064186268 0 -0.025091366668787349 -0.3314445395893405 0 -0.01532372128421448 -0.33535839064186268 0 -0.022734703789933738 -0.32728556430890232 0 -0.01532372128421448 -0.33535839064186268 0 -0.037889090671270123 -0.30900677381518998 0 -0.014390974368570029 -0.31032982847088841 0 -0.022734703789933738 -0.32728556430890232 0 -0.037889090671270123 -0.30900677381518998 0 -0.025091366668787349 -0.3314445395893405 0 -0.022734703789933738 -0.32728556430890232 0 -0.014390974368570029 -0.31032982847088841 0 -0.022734703789933738 -0.32728556430890232 0 -0.01532372128421448 -0.33535839064186268 0 -0.014390974368570029 -0.31032982847088841 0 -0.010269967403673339 -0.33738340682189533 0 -0.014390974368570029 -0.31032982847088841 0 -0.010269967403673339 -0.33738340682189533 0 -0.01532372128421448 -0.33535839064186268 0 -0.014390974368570029 -0.31032982847088841 0 -0.010269967403673339 -0.33738340682189533 0 0.001904989571353899 -0.32214434476741449 0 -0.010269967403673339 -0.33738340682189533 0 -0.0096343958099064687 -0.34155580596031437 0 0.0075807645751098419 -0.34453611388615663 0 -0.010269967403673339 -0.33738340682189533 0 0.0075807645751098419 -0.34453611388615663 0 -0.0096343958099064687 -0.34155580596031437 0 -0.01532372128421448 -0.33535839064186268 0 -0.01336054918728761 -0.35201173848642592 0 -0.010269967403673339 -0.33738340682189533 0 -0.0096343958099064687 -0.34155580596031437 0 -0.010269967403673339 -0.33738340682189533 0 -0.0096343958099064687 -0.34155580596031437 0 -0.01532372128421448 -0.33535839064186268 0 -0.0096343958099064687 -0.34155580596031437 0 -0.01532372128421448 -0.33535839064186268 0 -0.010269967403673339 -0.33738340682189533 0 -0.01532372128421448 -0.33535839064186268 0 -0.010269967403673339 -0.33738340682189533 0 0.0034794820758208261 -0.33361449123698089 0 0.001904989571353899 -0.32214434476741449 0 -0.0096343958099064687 -0.34155580596031437 0 -0.0070150904897389628 -0.35875101633193152 0 -0.0096343958099064687 -0.34155580596031437 0 -0.0070150904897389628 -0.35875101633193152 0 -0.01336054918728761 -0.35201173848642592 0 -0.0096343958099064687 -0.34155580596031437 0 -0.0070150904897389628 -0.35875101633193152 0 0.0099352179383349771 -0.36287309999936251 0 -0.033802973987086503 -0.33588719504380232 0 -0.01336054918728761 -0.35201173848642592 0 -0.029167969020145641 -0.35132386348016093 0 -0.01336054918728761 -0.35201173848642592 0 -0.029167969020145641 -0.35132386348016093 0 -0.021437446366364531 -0.36359117576668931 0 -0.033802973987086503 -0.33588719504380232 0 -0.01336054918728761 -0.35201173848642592 0 -0.035070660285960877 -0.35841379707961513 0 -0.029167969020145641 -0.35132386348016093 0 -0.021437446366364531 -0.36359117576668931 0 -0.040000350022935588 -0.37213681664196291 0 -0.021437446366364531 -0.36359117576668931 0 -0.02618172091304426 -0.37743656618445498 0 -0.021437446366364531 -0.36359117576668931 0 -0.002178803782163227 -0.37161627006544062 0 -0.02618172091304426 -0.37743656618445498 0 -0.040000350022935588 -0.37213681664196291 0 -0.021437446366364531 -0.36359117576668931 0 -0.01336054918728761 -0.35201173848642592 0 -0.021437446366364531 -0.36359117576668931 0 -0.002178803782163227 -0.37161627006544062 0 -0.01336054918728761 -0.35201173848642592 0 -0.002178803782163227 -0.37161627006544062 0 -0.0070150904897389628 -0.35875101633193152 0 -0.01336054918728761 -0.35201173848642592 0 -0.002178803782163227 -0.37161627006544062 0 -0.002178803782163227 -0.37161627006544062 0 -0.026336278995230201 -0.38905167830789189 0 -0.002178803782163227 -0.37161627006544062 0 -0.0066930742226519926 -0.39143820132839208 0 -0.026336278995230201 -0.38905167830789189 0 -0.0066930742226519926 -0.39143820132839208 0 -0.001728596279610697 -0.40597762003102339 0 -0.017737199096442072 -0.40073047040120602 0 -0.0066930742226519926 -0.39143820132839208 0 -0.017737199096442072 -0.40073047040120602 0 -0.026336278995230201 -0.38905167830789189 0 -0.017737199096442072 -0.40073047040120602 0 -0.026336278995230201 -0.38905167830789189 0 -0.033287388117186109 -0.40399871831440642 0 -0.002178803782163227 -0.37161627006544062 0 -0.026336278995230201 -0.38905167830789189 0 -0.02618172091304426 -0.37743656618445498 0 -0.026336278995230201 -0.38905167830789189 0 -0.02618172091304426 -0.37743656618445498 0 -0.033482850758781962 -0.383939184607547 0 -0.02618172091304426 -0.37743656618445498 0 -0.042372487296275553 -0.37905951185084519 0 -0.033482850758781962 -0.383939184607547 0 -0.02618172091304426 -0.37743656618445498 0 -0.042372487296275553 -0.37905951185084519 0 -0.040000350022935588 -0.37213681664196291 0 -0.02618172091304426 -0.37743656618445498 0 -0.042372487296275553 -0.37905951185084519 0 -0.042372487296275553 -0.37905951185084519 0 -0.039040915830577852 -0.39020898208699611 0 -0.049048127186911553 -0.38756594990863991 0 -0.042372487296275553 -0.37905951185084519 0 -0.039040915830577852 -0.39020898208699611 0 -0.033482850758781962 -0.383939184607547 0 -0.026336278995230201 -0.38905167830789189 0 -0.039040915830577852 -0.39020898208699611 0 -0.033482850758781962 -0.383939184607547 0 -0.026336278995230201 -0.38905167830789189 0 -0.050493754208297943 -0.40648708655034188 0 -0.039040915830577852 -0.39020898208699611 0 -0.048181286987745188 -0.3967611761759377 0 -0.050493754208297943 -0.40648708655034188 0 -0.026336278995230201 -0.38905167830789189 0 -0.039040915830577852 -0.39020898208699611 0 -0.050493754208297943 -0.40648708655034188 0 -0.026336278995230201 -0.38905167830789189 0 -0.033287388117186109 -0.40399871831440642 0 -0.050493754208297943 -0.40648708655034188 0 -0.039040915830577852 -0.39020898208699611 0 -0.048181286987745188 -0.3967611761759377 0 -0.049048127186911553 -0.38756594990863991 0 -0.048181286987745188 -0.3967611761759377 0 -0.055512870853615448 -0.39455951290216967 0 -0.049048127186911553 -0.38756594990863991 0 -0.055512870853615448 -0.39455951290216967 0 -0.052509649903146327 -0.40794203844841681 0 -0.074281153156084773 -0.38791836881244668 0 -0.048181286987745188 -0.3967611761759377 0 -0.055512870853615448 -0.39455951290216967 0 -0.050493754208297943 -0.40648708655034188 0 -0.055512870853615448 -0.39455951290216967 0 -0.052509649903146327 -0.40794203844841681 0 -0.050493754208297943 -0.40648708655034188 0 -0.048181286987745188 -0.3967611761759377 0 -0.050493754208297943 -0.40648708655034188 0 -0.040000350022935588 -0.37213681664196291 0 -0.042372487296275553 -0.37905951185084519 0 -0.058563253679506787 -0.38068245751723601 0 -0.042372487296275553 -0.37905951185084519 0 -0.058563253679506787 -0.38068245751723601 0 -0.040000350022935588 -0.37213681664196291 0 -0.058563253679506787 -0.38068245751723601 0 -0.042372487296275553 -0.37905951185084519 0 -0.058563253679506787 -0.38068245751723601 0 -0.049048127186911553 -0.38756594990863991 0 -0.055512870853615448 -0.39455951290216967 0 -0.058563253679506787 -0.38068245751723601 0 -0.049048127186911553 -0.38756594990863991 0 -0.055571169944573007 -0.4278419796903028 0 -0.060002998013559863 -0.44648162232419802 0 -0.069408814394604765 -0.42365151461769918 0 -0.055571169944573007 -0.4278419796903028 0 -0.060002998013559863 -0.44648162232419802 0 -0.055571169944573007 -0.4278419796903028 0 -0.04142135733128624 -0.43391233418184683 0 -0.048623679129421588 -0.44273110985945369 0 -0.055571169944573007 -0.4278419796903028 0 -0.059775586818595829 -0.41787661413097049 0 -0.069408814394604765 -0.42365151461769918 0 -0.055571169944573007 -0.4278419796903028 0 -0.059775586818595829 -0.41787661413097049 0 -0.052509649903146327 -0.40794203844841681 0 -0.055571169944573007 -0.4278419796903028 0 -0.052509649903146327 -0.40794203844841681 0 -0.038621424185474637 -0.4207153063468223 0 -0.055571169944573007 -0.4278419796903028 0 -0.052509649903146327 -0.40794203844841681 0 -0.052509649903146327 -0.40794203844841681 0 -0.070248957975066639 -0.42074520084202788 0 -0.059775586818595829 -0.41787661413097049 0 -0.052509649903146327 -0.40794203844841681 0 -0.070248957975066639 -0.42074520084202788 0 -0.052509649903146327 -0.40794203844841681 0 -0.050493754208297943 -0.40648708655034188 0 -0.041470954428671609 -0.41006675355118111 0 -0.052509649903146327 -0.40794203844841681 0 -0.050493754208297943 -0.40648708655034188 0 -0.052509649903146327 -0.40794203844841681 0 -0.038621424185474637 -0.4207153063468223 0 -0.033287388117186109 -0.40399871831440642 0 -0.050493754208297943 -0.40648708655034188 0 -0.041470954428671609 -0.41006675355118111 0 -0.052509649903146327 -0.40794203844841681 0 -0.041470954428671609 -0.41006675355118111 0 -0.038621424185474637 -0.4207153063468223 0 -0.033287388117186109 -0.40399871831440642 0 -0.041470954428671609 -0.41006675355118111 0 -0.027792962261932352 -0.41547375898907968 0 -0.041470954428671609 -0.41006675355118111 0 -0.038621424185474637 -0.4207153063468223 0 -0.027792962261932352 -0.41547375898907968 0 -0.055571169944573007 -0.4278419796903028 0 -0.038621424185474637 -0.4207153063468223 0 -0.04142135733128624 -0.43391233418184683 0 -0.038621424185474637 -0.4207153063468223 0 -0.026103506495360269 -0.43222827563723731 0 -0.038621424185474637 -0.4207153063468223 0 -0.04142135733128624 -0.43391233418184683 0 -0.026103506495360269 -0.43222827563723731 0 -0.04142135733128624 -0.43391233418184683 0 -0.026103506495360269 -0.43222827563723731 0 -0.035662081446574762 -0.44437129177822371 0 -0.026103506495360269 -0.43222827563723731 0 -0.027792962261932352 -0.41547375898907968 0 -0.009537301248459449 -0.42510302968362512 0 -0.026103506495360269 -0.43222827563723731 0 -0.009537301248459449 -0.42510302968362512 0 -0.019709463090837601 -0.44530454005801179 0 -0.038621424185474637 -0.4207153063468223 0 -0.026103506495360269 -0.43222827563723731 0 -0.027792962261932352 -0.41547375898907968 0 -0.017737199096442072 -0.40073047040120602 0 -0.027792962261932352 -0.41547375898907968 0 -0.009537301248459449 -0.42510302968362512 0 -0.017737199096442072 -0.40073047040120602 0 -0.033287388117186109 -0.40399871831440642 0 -0.027792962261932352 -0.41547375898907968 0 -0.001728596279610697 -0.40597762003102339 0 -0.017737199096442072 -0.40073047040120602 0 -0.009537301248459449 -0.42510302968362512 0 -0.017737199096442072 -0.40073047040120602 0 -0.009537301248459449 -0.42510302968362512 0 -0.001728596279610697 -0.40597762003102339 0 -0.009537301248459449 -0.42510302968362512 0 0.0082246319185010179 -0.41465428951275207 0 -0.009537301248459449 -0.42510302968362512 0 -0.0013374034004768371 -0.44947558896604423 0 -0.009537301248459449 -0.42510302968362512 0 -0.0013374034004768371 -0.44947558896604423 0 0.01039378864355619 -0.42848339288335913 0 -0.009537301248459449 -0.42510302968362512 0 -0.0013374034004768371 -0.44947558896604423 0 -0.019709463090837601 -0.44530454005801179 0 -0.0013374034004768371 -0.44947558896604423 0 -0.014612752260004851 -0.46155177919014362 0 -0.019709463090837601 -0.44530454005801179 0 -0.0013374034004768371 -0.44947558896604423 0 -0.014612752260004851 -0.46155177919014362 0 0.0068624944475057766 -0.47384814824846327 0 -0.014612752260004851 -0.46155177919014362 0 -0.028521420705905499 -0.4674310816654948 0 -0.030789477839635839 -0.45543267362212791 0 -0.014612752260004851 -0.46155177919014362 0 -0.030789477839635839 -0.45543267362212791 0 -0.019709463090837601 -0.44530454005801179 0 -0.030789477839635839 -0.45543267362212791 0 -0.019709463090837601 -0.44530454005801179 0 -0.035662081446574762 -0.44437129177822371 0 -0.026103506495360269 -0.43222827563723731 0 -0.019709463090837601 -0.44530454005801179 0 -0.035662081446574762 -0.44437129177822371 0 -0.015217900669161011 -0.5 0 -0.01418124297067914 -0.47781864258071971 0 0.0024053695883212941 -0.48891336768777249 0 -0.01418124297067914 -0.47781864258071971 0 0.0068624944475057766 -0.47384814824846327 0 0.0024053695883212941 -0.48891336768777249 0 -0.014612752260004851 -0.46155177919014362 0 -0.01418124297067914 -0.47781864258071971 0 0.0068624944475057766 -0.47384814824846327 0 -0.014612752260004851 -0.46155177919014362 0 -0.028521420705905499 -0.4674310816654948 0 -0.01418124297067914 -0.47781864258071971 0 -0.028521420705905499 -0.4674310816654948 0 -0.01418124297067914 -0.47781864258071971 0 -0.027752274071966478 -0.47742461628286209 0 -0.015217900669161011 -0.5 0 -0.027752274071966478 -0.47742461628286209 0 -0.038171784631523778 -0.48284131767108018 0 -0.015217900669161011 -0.5 0 -0.01418124297067914 -0.47781864258071971 0 -0.027752274071966478 -0.47742461628286209 0 -0.015217900669161011 -0.5 0 -0.043972809743024373 -0.5 0 -0.038171784631523778 -0.48284131767108018 0 -0.043972809743024373 -0.5 0 -0.038171784631523778 -0.48284131767108018 0 -0.049841179956411519 -0.48183723669954598 0 -0.038171784631523778 -0.48284131767108018 0 -0.048675315621036823 -0.47094071089761919 0 -0.038171784631523778 -0.48284131767108018 0 -0.048675315621036823 -0.47094071089761919 0 -0.049841179956411519 -0.48183723669954598 0 -0.027752274071966478 -0.47742461628286209 0 -0.038171784631523778 -0.48284131767108018 0 -0.038764373548703768 -0.47063519779216179 0 -0.028521420705905499 -0.4674310816654948 0 -0.027752274071966478 -0.47742461628286209 0 -0.038764373548703768 -0.47063519779216179 0 -0.038764373548703768 -0.47063519779216179 0 -0.048675315621036823 -0.47094071089761919 0 -0.045335619097383061 -0.46570514195792412 0 -0.038171784631523778 -0.48284131767108018 0 -0.038764373548703768 -0.47063519779216179 0 -0.048675315621036823 -0.47094071089761919 0 -0.048675315621036823 -0.47094071089761919 0 -0.055120034750126161 -0.47128965669693351 0 -0.049841179956411519 -0.48183723669954598 0 -0.048675315621036823 -0.47094071089761919 0 -0.055120034750126161 -0.47128965669693351 0 -0.057384894248553399 -0.46524593439390849 0 -0.055120034750126161 -0.47128965669693351 0 -0.059149819292987238 -0.47777467248794547 0 -0.064422500494955764 -0.4650694252783244 0 -0.059149819292987238 -0.47777467248794547 0 -0.049841179956411519 -0.48183723669954598 0 -0.058853327493046781 -0.48842932436532971 0 -0.055120034750126161 -0.47128965669693351 0 -0.059149819292987238 -0.47777467248794547 0 -0.049841179956411519 -0.48183723669954598 0 -0.059149819292987238 -0.47777467248794547 0 -0.058853327493046781 -0.48842932436532971 0 -0.068575109655922298 -0.48253471263916042 0 -0.043972809743024373 -0.5 0 -0.058853327493046781 -0.48842932436532971 0 -0.072727718816887776 -0.49999999999999672 0 -0.043972809743024373 -0.5 0 -0.049841179956411519 -0.48183723669954598 0 -0.058853327493046781 -0.48842932436532971 0 -0.045123684251444827 -0.45223268167437758 0 -0.035662081446574762 -0.44437129177822371 0 -0.048623679129421588 -0.44273110985945369 0 -0.04142135733128624 -0.43391233418184683 0 -0.035662081446574762 -0.44437129177822371 0 -0.048623679129421588 -0.44273110985945369 0 -0.030789477839635839 -0.45543267362212791 0 -0.045123684251444827 -0.45223268167437758 0 -0.035662081446574762 -0.44437129177822371 0 -0.030789477839635839 -0.45543267362212791 0 -0.045123684251444827 -0.45223268167437758 0 -0.04007978340352341 -0.46172459869688548 0 -0.028521420705905499 -0.4674310816654948 0 -0.030789477839635839 -0.45543267362212791 0 -0.04007978340352341 -0.46172459869688548 0 -0.028521420705905499 -0.4674310816654948 0 -0.038764373548703768 -0.47063519779216179 0 -0.04007978340352341 -0.46172459869688548 0 -0.038764373548703768 -0.47063519779216179 0 -0.04007978340352341 -0.46172459869688548 0 -0.045335619097383061 -0.46570514195792412 0 -0.04007978340352341 -0.46172459869688548 0 -0.045335619097383061 -0.46570514195792412 0 -0.047248161051959649 -0.4591011094540644 0 -0.045123684251444827 -0.45223268167437758 0 -0.04007978340352341 -0.46172459869688548 0 -0.047248161051959649 -0.4591011094540644 0 -0.045123684251444827 -0.45223268167437758 0 -0.050581796861615229 -0.45333412325219669 0 -0.047248161051959649 -0.4591011094540644 0 -0.050581796861615229 -0.45333412325219669 0 -0.047248161051959649 -0.4591011094540644 0 -0.051910461861691633 -0.46612409294888979 0 -0.051910461861691633 -0.46612409294888979 0 -0.05917884661055 -0.4590401041241583 0 -0.060002998013559863 -0.44648162232419802 0 -0.051910461861691633 -0.46612409294888979 0 -0.060002998013559863 -0.44648162232419802 0 -0.050581796861615229 -0.45333412325219669 0 -0.051910461861691633 -0.46612409294888979 0 -0.060002998013559863 -0.44648162232419802 0 -0.048675315621036823 -0.47094071089761919 0 -0.05917884661055 -0.4590401041241583 0 -0.048675315621036823 -0.47094071089761919 0 -0.051910461861691633 -0.46612409294888979 0 -0.05917884661055 -0.4590401041241583 0 -0.048675315621036823 -0.47094071089761919 0 -0.045335619097383061 -0.46570514195792412 0 -0.051910461861691633 -0.46612409294888979 0 -0.045335619097383061 -0.46570514195792412 0 -0.047248161051959649 -0.4591011094540644 0 -0.051910461861691633 -0.46612409294888979 0 -0.055120034750126161 -0.47128965669693351 0 -0.057384894248553399 -0.46524593439390849 0 -0.064422500494955764 -0.4650694252783244 0 -0.048675315621036823 -0.47094071089761919 0 -0.057384894248553399 -0.46524593439390849 0 -0.05917884661055 -0.4590401041241583 0 -0.057384894248553399 -0.46524593439390849 0 -0.05917884661055 -0.4590401041241583 0 -0.059237257045792073 -0.46090013765886428 0 -0.064422500494955764 -0.4650694252783244 0 -0.057384894248553399 -0.46524593439390849 0 -0.059237257045792073 -0.46090013765886428 0 -0.064422500494955764 -0.4650694252783244 0 -0.057384894248553399 -0.46524593439390849 0 -0.059237257045792073 -0.46090013765886428 0 -0.05917884661055 -0.4590401041241583 0 -0.059237257045792073 -0.46090013765886428 0 -0.062180371227510647 -0.45563934639583059 0 -0.064422500494955764 -0.4650694252783244 0 -0.059237257045792073 -0.46090013765886428 0 -0.05917884661055 -0.4590401041241583 0 -0.062180371227510647 -0.45563934639583059 0 -0.05917884661055 -0.4590401041241583 0 -0.062180371227510647 -0.45563934639583059 0 -0.05917884661055 -0.4590401041241583 0 -0.061269440441321127 -0.45180810022505591 0 -0.05917884661055 -0.4590401041241583 0 -0.062180371227510647 -0.45563934639583059 0 -0.061269440441321127 -0.45180810022505591 0 -0.062180371227510647 -0.45563934639583059 0 -0.061269440441321127 -0.45180810022505591 0 -0.055571169944573007 -0.4278419796903028 0 -0.060002998013559863 -0.44648162232419802 0 -0.048623679129421588 -0.44273110985945369 0 -0.05917884661055 -0.4590401041241583 0 -0.061269440441321127 -0.45180810022505591 0 -0.060002998013559863 -0.44648162232419802 0 -0.061269440441321127 -0.45180810022505591 0 -0.060002998013559863 -0.44648162232419802 0 -0.050581796861615229 -0.45333412325219669 0 -0.060002998013559863 -0.44648162232419802 0 -0.048623679129421588 -0.44273110985945369 0 -0.045123684251444827 -0.45223268167437758 0 -0.050581796861615229 -0.45333412325219669 0 -0.048623679129421588 -0.44273110985945369 0 -0.061269440441321127 -0.45180810022505591 0 -0.069408814394604765 -0.42365151461769918 0 -0.062180371227510647 -0.45563934639583059 0 -0.061269440441321127 -0.45180810022505591 0 -0.077098496045509793 -0.43873696019506903 0 -0.062180371227510647 -0.45563934639583059 0 -0.077098496045509793 -0.43873696019506903 0 -0.073769461018799692 -0.45951707792468061 0 -0.061269440441321127 -0.45180810022505591 0 -0.077098496045509793 -0.43873696019506903 0 -0.069408814394604765 -0.42365151461769918 0 -0.061269440441321127 -0.45180810022505591 0 -0.060002998013559863 -0.44648162232419802 0 -0.069408814394604765 -0.42365151461769918 0 -0.062180371227510647 -0.45563934639583059 0 -0.077098496045509793 -0.43873696019506903 0 -0.062180371227510647 -0.45563934639583059 0 -0.064422500494955764 -0.4650694252783244 0 -0.062180371227510647 -0.45563934639583059 0 -0.064422500494955764 -0.4650694252783244 0 -0.073769461018799692 -0.45951707792468061 0 -0.084521355142842869 -0.45759592347480388 0 -0.086143661312174283 -0.48253471263916248 0 -0.099165393688022629 -0.46120376842987459 0 -0.073769461018799692 -0.45951707792468061 0 -0.084521355142842869 -0.45759592347480388 0 -0.086143661312174283 -0.48253471263916248 0 -0.084521355142842869 -0.45759592347480388 0 -0.089624247433654214 -0.44685599598904568 0 -0.099165393688022629 -0.46120376842987459 0 -0.077098496045509793 -0.43873696019506903 0 -0.084521355142842869 -0.45759592347480388 0 -0.089624247433654214 -0.44685599598904568 0 -0.077098496045509793 -0.43873696019506903 0 -0.073769461018799692 -0.45951707792468061 0 -0.084521355142842869 -0.45759592347480388 0 -0.089624247433654214 -0.44685599598904568 0 -0.099878095611554862 -0.4393977270813314 0 -0.089545628933694749 -0.43673796215895883 0 -0.077098496045509793 -0.43873696019506903 0 -0.089624247433654214 -0.44685599598904568 0 -0.089545628933694749 -0.43673796215895883 0 -0.072727718816887776 -0.49999999999999672 0 -0.068575109655922298 -0.48253471263916042 0 -0.058853327493046781 -0.48842932436532971 0 -0.072727718816887776 -0.49999999999999672 0 -0.068575109655922298 -0.48253471263916042 0 -0.072727718816887776 -0.49999999999999672 0 -0.068575109655922298 -0.48253471263916042 0 -0.086143661312174283 -0.48253471263916248 0 -0.064422500494955764 -0.4650694252783244 0 -0.068575109655922298 -0.48253471263916042 0 -0.059149819292987238 -0.47777467248794547 0 -0.064422500494955764 -0.4650694252783244 0 -0.068575109655922298 -0.48253471263916042 0 -0.064422500494955764 -0.4650694252783244 0 -0.073769461018799692 -0.45951707792468061 0 -0.086143661312174283 -0.48253471263916248 0 -0.064422500494955764 -0.4650694252783244 0 -0.068575109655922298 -0.48253471263916042 0 -0.086143661312174283 -0.48253471263916248 0 -0.064422500494955764 -0.4650694252783244 0 -0.086143661312174283 -0.48253471263916248 0 -0.072727718816887776 -0.49999999999999672 0 -0.086143661312174283 -0.48253471263916248 0 -0.090296270473140428 -0.5 0 -0.086143661312174283 -0.48253471263916248 0 -0.090296270473140428 -0.5 0 -0.10786482212939311 -0.50000000000000011 0 -0.086143661312174283 -0.48253471263916248 0 -0.10786482212939311 -0.50000000000000011 0 -0.086143661312174283 -0.48253471263916248 0 -0.10786482212939311 -0.50000000000000011 0 -0.1056577076014347 -0.47999846360012538 0 -0.086143661312174283 -0.48253471263916248 0 -0.1056577076014347 -0.47999846360012538 0 -0.099165393688022629 -0.46120376842987459 0 -0.1056577076014347 -0.47999846360012538 0 -0.12108079434187891 -0.47202921183540031 0 -0.099165393688022629 -0.46120376842987459 0 -0.1056577076014347 -0.47999846360012538 0 -0.12108079434187891 -0.47202921183540031 0 -0.1206292342060253 -0.48641385964910883 0 -0.131118449396015 -0.5 0 -0.10786482212939311 -0.50000000000000011 0 -0.1206292342060253 -0.48641385964910883 0 -0.10786482212939311 -0.50000000000000011 0 -0.1056577076014347 -0.47999846360012538 0 -0.1206292342060253 -0.48641385964910883 0 -0.099878095611554862 -0.4393977270813314 0 -0.099165393688022629 -0.46120376842987459 0 -0.099878095611554862 -0.4393977270813314 0 -0.099165393688022629 -0.46120376842987459 0 -0.11615585050415531 -0.45102464773050138 0 -0.089624247433654214 -0.44685599598904568 0 -0.099878095611554862 -0.4393977270813314 0 -0.099165393688022629 -0.46120376842987459 0 -0.12108079434187891 -0.47202921183540031 0 -0.099165393688022629 -0.46120376842987459 0 -0.11615585050415531 -0.45102464773050138 0 -0.13077987840644981 -0.46069854066347632 0 -0.12108079434187891 -0.47202921183540031 0 -0.11615585050415531 -0.45102464773050138 0 -0.13194602454298601 -0.43962244526902572 0 -0.11615585050415531 -0.45102464773050138 0 -0.1129403580353462 -0.43280081863281078 0 -0.099878095611554862 -0.4393977270813314 0 -0.11615585050415531 -0.45102464773050138 0 -0.1129403580353462 -0.43280081863281078 0 -0.13194602454298601 -0.43962244526902572 0 -0.1165997240041481 -0.41847011486561592 0 -0.13194602454298601 -0.43962244526902572 0 -0.1129403580353462 -0.43280081863281078 0 -0.1165997240041481 -0.41847011486561592 0 -0.1129403580353462 -0.43280081863281078 0 -0.1079125428112538 -0.41892639524425412 0 -0.1165997240041481 -0.41847011486561592 0 -0.099878095611554862 -0.4393977270813314 0 -0.100590797535087 -0.41759168573278821 0 -0.092016620863508841 -0.4218345739943074 0 -0.099878095611554862 -0.4393977270813314 0 -0.089545628933694749 -0.43673796215895883 0 -0.092016620863508841 -0.4218345739943074 0 -0.099878095611554862 -0.4393977270813314 0 -0.1129403580353462 -0.43280081863281078 0 -0.10283731640903 -0.42510314405888588 0 -0.099878095611554862 -0.4393977270813314 0 -0.100590797535087 -0.41759168573278821 0 -0.099878095611554862 -0.4393977270813314 0 -0.10283731640903 -0.42510314405888588 0 -0.100590797535087 -0.41759168573278821 0 -0.1129403580353462 -0.43280081863281078 0 -0.10283731640903 -0.42510314405888588 0 -0.1079125428112538 -0.41892639524425412 0 -0.100590797535087 -0.41759168573278821 0 -0.1012534234653099 -0.39731778446220639 0 -0.1165997240041481 -0.41847011486561592 0 -0.1012534234653099 -0.39731778446220639 0 -0.100590797535087 -0.41759168573278821 0 -0.094499944748829334 -0.39722631626938482 0 -0.088610052547492879 -0.41006814396079783 0 -0.100590797535087 -0.41759168573278821 0 -0.1079125428112538 -0.41892639524425412 0 -0.1012534234653099 -0.39731778446220639 0 -0.100590797535087 -0.41759168573278821 0 -0.094499944748829334 -0.39722631626938482 0 -0.1079125428112538 -0.41892639524425412 0 -0.1165997240041481 -0.41847011486561592 0 -0.1012534234653099 -0.39731778446220639 0 -0.10283731640903 -0.42510314405888588 0 -0.100590797535087 -0.41759168573278821 0 -0.1079125428112538 -0.41892639524425412 0 -0.10283731640903 -0.42510314405888588 0 -0.100590797535087 -0.41759168573278821 0 -0.12592730430259419 -0.40432488328170318 0 -0.1165997240041481 -0.41847011486561592 0 -0.1152538145686829 -0.39895411709426332 0 -0.1165997240041481 -0.41847011486561592 0 -0.1152538145686829 -0.39895411709426332 0 -0.1012534234653099 -0.39731778446220639 0 -0.12526638733901391 -0.39147447277512609 0 -0.12592730430259419 -0.40432488328170318 0 -0.1152538145686829 -0.39895411709426332 0 -0.12526638733901391 -0.39147447277512609 0 -0.1152538145686829 -0.39895411709426332 0 -0.1147112201852714 -0.38836266809632891 0 -0.1152538145686829 -0.39895411709426332 0 -0.1147112201852714 -0.38836266809632891 0 -0.1077648281157602 -0.39377477908459929 0 -0.12526638733901391 -0.39147447277512609 0 -0.12201267174342199 -0.37938718301114999 0 -0.1147112201852714 -0.38836266809632891 0 -0.1147112201852714 -0.38836266809632891 0 -0.1094440337948836 -0.37923577087639421 0 -0.1073228884697877 -0.3875649225559597 0 -0.1147112201852714 -0.38836266809632891 0 -0.1073228884697877 -0.3875649225559597 0 -0.1077648281157602 -0.39377477908459929 0 -0.12201267174342199 -0.37938718301114999 0 -0.1147112201852714 -0.38836266809632891 0 -0.1094440337948836 -0.37923577087639421 0 -0.1159926709000937 -0.36685414663024191 0 -0.12201267174342199 -0.37938718301114999 0 -0.1094440337948836 -0.37923577087639421 0 -0.1024060606807759 -0.36205135125861898 0 -0.1094440337948836 -0.37923577087639421 0 -0.1016559479587178 -0.38500202459504551 0 -0.1094440337948836 -0.37923577087639421 0 -0.1016559479587178 -0.38500202459504551 0 -0.1073228884697877 -0.3875649225559597 0 -0.1016559479587178 -0.38500202459504551 0 -0.1014693111655476 -0.390712419775258 0 -0.1016559479587178 -0.38500202459504551 0 -0.1073228884697877 -0.3875649225559597 0 -0.1014693111655476 -0.390712419775258 0 -0.1016559479587178 -0.38500202459504551 0 -0.091585827134305964 -0.3839926061052007 0 -0.1016559479587178 -0.38500202459504551 0 -0.1014693111655476 -0.390712419775258 0 -0.093729726096669103 -0.3869476153003294 0 -0.1016559479587178 -0.38500202459504551 0 -0.091585827134305964 -0.3839926061052007 0 -0.093729726096669103 -0.3869476153003294 0 -0.1014693111655476 -0.390712419775258 0 -0.093729726096669103 -0.3869476153003294 0 -0.1016559479587178 -0.38500202459504551 0 -0.095426438310298192 -0.37780241062099151 0 -0.091585827134305964 -0.3839926061052007 0 -0.100590797535087 -0.41759168573278821 0 -0.1012534234653099 -0.39731778446220639 0 -0.099487365185966847 -0.39952233119993291 0 -0.100590797535087 -0.41759168573278821 0 -0.094499944748829334 -0.39722631626938482 0 -0.099487365185966847 -0.39952233119993291 0 -0.1152538145686829 -0.39895411709426332 0 -0.1077648281157602 -0.39377477908459929 0 -0.1012534234653099 -0.39731778446220639 0 -0.1073228884697877 -0.3875649225559597 0 -0.1077648281157602 -0.39377477908459929 0 -0.1014693111655476 -0.390712419775258 0 -0.1077648281157602 -0.39377477908459929 0 -0.1012534234653099 -0.39731778446220639 0 -0.1014693111655476 -0.390712419775258 0 -0.1077648281157602 -0.39377477908459929 0 -0.1014693111655476 -0.390712419775258 0 -0.1012534234653099 -0.39731778446220639 0 -0.094499944748829334 -0.39722631626938482 0 -0.099487365185966847 -0.39952233119993291 0 -0.1012534234653099 -0.39731778446220639 0 -0.094499944748829334 -0.39722631626938482 0 -0.093729726096669103 -0.3869476153003294 0 -0.1012534234653099 -0.39731778446220639 0 -0.1014693111655476 -0.390712419775258 0 -0.093729726096669103 -0.3869476153003294 0 -0.1012534234653099 -0.39731778446220639 0 -0.093729726096669103 -0.3869476153003294 0 -0.1012534234653099 -0.39731778446220639 0 -0.1014693111655476 -0.390712419775258 0 -0.094499944748829334 -0.39722631626938482 0 -0.099487365185966847 -0.39952233119993291 0 -0.094499944748829334 -0.39722631626938482 0 -0.085553154766675646 -0.40134027138503481 0 -0.088610052547492879 -0.41006814396079783 0 -0.094499944748829334 -0.39722631626938482 0 -0.082560309743270749 -0.39172977139542609 0 -0.085553154766675646 -0.40134027138503481 0 -0.094499944748829334 -0.39722631626938482 0 -0.082560309743270749 -0.39172977139542609 0 -0.091033556626635648 -0.38563610430902873 0 -0.094499944748829334 -0.39722631626938482 0 -0.082560309743270749 -0.39172977139542609 0 -0.094499944748829334 -0.39722631626938482 0 -0.091033556626635648 -0.38563610430902873 0 -0.082560309743270749 -0.39172977139542609 0 -0.079097438192195432 -0.39013559964190198 0 -0.074673198083630793 -0.40544040024196493 0 -0.082560309743270749 -0.39172977139542609 0 -0.079097438192195432 -0.39013559964190198 0 -0.082560309743270749 -0.39172977139542609 0 -0.076542312027108539 -0.406336853914531 0 -0.082560309743270749 -0.39172977139542609 0 -0.085553154766675646 -0.40134027138503481 0 -0.076542312027108539 -0.406336853914531 0 -0.085553154766675646 -0.40134027138503481 0 -0.076542312027108539 -0.406336853914531 0 -0.088610052547492879 -0.41006814396079783 0 -0.090139611558562177 -0.37333304007799939 0 -0.088525620654428705 -0.37725057202694517 0 -0.088525620654428705 -0.37725057202694517 0 -0.087954911787112483 -0.37534235041220648 0 -0.08170780991661282 -0.38109255286014232 0 -0.090139611558562177 -0.37333304007799939 0 -0.088525620654428705 -0.37725057202694517 0 -0.087954911787112483 -0.37534235041220648 0 -0.088525620654428705 -0.37725057202694517 0 -0.087954911787112483 -0.37534235041220648 0 -0.090139611558562177 -0.37333304007799939 0 -0.095426438310298192 -0.37780241062099151 0 -0.088525620654428705 -0.37725057202694517 0 -0.088525620654428705 -0.37725057202694517 0 -0.091585827134305964 -0.3839926061052007 0 -0.095426438310298192 -0.37780241062099151 0 -0.088525620654428705 -0.37725057202694517 0 -0.091585827134305964 -0.3839926061052007 0 -0.088525620654428705 -0.37725057202694517 0 -0.086634605294488312 -0.38349630075200858 0 -0.088525620654428705 -0.37725057202694517 0 -0.086634605294488312 -0.38349630075200858 0 -0.091585827134305964 -0.3839926061052007 0 -0.082560309743270749 -0.39172977139542609 0 -0.086634605294488312 -0.38349630075200858 0 -0.091033556626635648 -0.38563610430902873 0 -0.094499944748829334 -0.39722631626938482 0 -0.091033556626635648 -0.38563610430902873 0 -0.093729726096669103 -0.3869476153003294 0 -0.086634605294488312 -0.38349630075200858 0 -0.091585827134305964 -0.3839926061052007 0 -0.086634605294488312 -0.38349630075200858 0 -0.091033556626635648 -0.38563610430902873 0 -0.086634605294488312 -0.38349630075200858 0 -0.091585827134305964 -0.3839926061052007 0 -0.091033556626635648 -0.38563610430902873 0 -0.091585827134305964 -0.3839926061052007 0 -0.091033556626635648 -0.38563610430902873 0 -0.093729726096669103 -0.3869476153003294 0 -0.091033556626635648 -0.38563610430902873 0 -0.093729726096669103 -0.3869476153003294 0 -0.091585827134305964 -0.3839926061052007 0 -0.093729726096669103 -0.3869476153003294 0 -0.091585827134305964 -0.3839926061052007 0 -0.091033556626635648 -0.38563610430902873 0 -0.082560309743270749 -0.39172977139542609 0 -0.086634605294488312 -0.38349630075200858 0 -0.082560309743270749 -0.39172977139542609 0 -0.086634605294488312 -0.38349630075200858 0 -0.081174899406055781 -0.38294902548401538 0 -0.082560309743270749 -0.39172977139542609 0 -0.079097438192195432 -0.39013559964190198 0 -0.081174899406055781 -0.38294902548401538 0 -0.079097438192195432 -0.39013559964190198 0 -0.081174899406055781 -0.38294902548401538 0 -0.074281153156084773 -0.38791836881244668 0 -0.079097438192195432 -0.39013559964190198 0 -0.081174899406055781 -0.38294902548401538 0 -0.086634605294488312 -0.38349630075200858 0 -0.081174899406055781 -0.38294902548401538 0 -0.088525620654428705 -0.37725057202694517 0 -0.086634605294488312 -0.38349630075200858 0 -0.08170780991661282 -0.38109255286014232 0 -0.086634605294488312 -0.38349630075200858 0 -0.081174899406055781 -0.38294902548401538 0 -0.08170780991661282 -0.38109255286014232 0 -0.086634605294488312 -0.38349630075200858 0 -0.08170780991661282 -0.38109255286014232 0 -0.081174899406055781 -0.38294902548401538 0 -0.08170780991661282 -0.38109255286014232 0 -0.087954911787112483 -0.37534235041220648 0 -0.08170780991661282 -0.38109255286014232 0 -0.055512870853615448 -0.39455951290216967 0 -0.058563253679506787 -0.38068245751723601 0 -0.074281153156084773 -0.38791836881244668 0 -0.058563253679506787 -0.38068245751723601 0 -0.074281153156084773 -0.38791836881244668 0 -0.058387822440418388 -0.36975607908058028 0 -0.08170780991661282 -0.38109255286014232 0 -0.058387822440418388 -0.36975607908058028 0 -0.081174899406055781 -0.38294902548401538 0 -0.08170780991661282 -0.38109255286014232 0 -0.058563253679506787 -0.38068245751723601 0 -0.081174899406055781 -0.38294902548401538 0 -0.074281153156084773 -0.38791836881244668 0 -0.058563253679506787 -0.38068245751723601 0 -0.081174899406055781 -0.38294902548401538 0 -0.058387822440418388 -0.36975607908058028 0 -0.058563253679506787 -0.38068245751723601 0 -0.081174899406055781 -0.38294902548401538 0 -0.081174899406055781 -0.38294902548401538 0 -0.074281153156084773 -0.38791836881244668 0 -0.079097438192195432 -0.39013559964190198 0 -0.074281153156084773 -0.38791836881244668 0 -0.079097438192195432 -0.39013559964190198 0 -0.074281153156084773 -0.38791836881244668 0 -0.074673198083630793 -0.40544040024196493 0 -0.052509649903146327 -0.40794203844841681 0 -0.074281153156084773 -0.38791836881244668 0 -0.052509649903146327 -0.40794203844841681 0 -0.074281153156084773 -0.38791836881244668 0 -0.074673198083630793 -0.40544040024196493 0 -0.082560309743270749 -0.39172977139542609 0 -0.074673198083630793 -0.40544040024196493 0 -0.076542312027108539 -0.406336853914531 0 -0.079097438192195432 -0.39013559964190198 0 -0.074673198083630793 -0.40544040024196493 0 -0.052509649903146327 -0.40794203844841681 0 -0.074673198083630793 -0.40544040024196493 0 -0.070248957975066639 -0.42074520084202788 0 -0.076542312027108539 -0.406336853914531 0 -0.070248957975066639 -0.42074520084202788 0 -0.074673198083630793 -0.40544040024196493 0 -0.070248957975066639 -0.42074520084202788 0 -0.074673198083630793 -0.40544040024196493 0 -0.076542312027108539 -0.406336853914531 0 -0.070248957975066639 -0.42074520084202788 0 -0.070248957975066639 -0.42074520084202788 0 -0.077246521605040669 -0.42579562012280953 0 -0.078194253298280558 -0.41865647959270891 0 -0.076542312027108539 -0.406336853914531 0 -0.070248957975066639 -0.42074520084202788 0 -0.078194253298280558 -0.41865647959270891 0 -0.059775586818595829 -0.41787661413097049 0 -0.070248957975066639 -0.42074520084202788 0 -0.069408814394604765 -0.42365151461769918 0 -0.060002998013559863 -0.44648162232419802 0 -0.069408814394604765 -0.42365151461769918 0 -0.070248957975066639 -0.42074520084202788 0 -0.069408814394604765 -0.42365151461769918 0 -0.077098496045509793 -0.43873696019506903 0 -0.069408814394604765 -0.42365151461769918 0 -0.077246521605040669 -0.42579562012280953 0 -0.070248957975066639 -0.42074520084202788 0 -0.069408814394604765 -0.42365151461769918 0 -0.077246521605040669 -0.42579562012280953 0 -0.070248957975066639 -0.42074520084202788 0 -0.077246521605040669 -0.42579562012280953 0 -0.077246521605040669 -0.42579562012280953 0 -0.082943237868067593 -0.4239856173255338 0 -0.078194253298280558 -0.41865647959270891 0 -0.077098496045509793 -0.43873696019506903 0 -0.082943237868067593 -0.4239856173255338 0 -0.092016620863508841 -0.4218345739943074 0 -0.077098496045509793 -0.43873696019506903 0 -0.089545628933694749 -0.43673796215895883 0 -0.092016620863508841 -0.4218345739943074 0 -0.077098496045509793 -0.43873696019506903 0 -0.092016620863508841 -0.4218345739943074 0 -0.077098496045509793 -0.43873696019506903 0 -0.077246521605040669 -0.42579562012280953 0 -0.082943237868067593 -0.4239856173255338 0 -0.100590797535087 -0.41759168573278821 0 -0.092016620863508841 -0.4218345739943074 0 -0.088610052547492879 -0.41006814396079783 0 -0.082943237868067593 -0.4239856173255338 0 -0.092016620863508841 -0.4218345739943074 0 -0.083714880680240453 -0.41622037016703428 0 -0.092016620863508841 -0.4218345739943074 0 -0.088610052547492879 -0.41006814396079783 0 -0.083714880680240453 -0.41622037016703428 0 -0.076542312027108539 -0.406336853914531 0 -0.088610052547492879 -0.41006814396079783 0 -0.083714880680240453 -0.41622037016703428 0 -0.076542312027108539 -0.406336853914531 0 -0.078194253298280558 -0.41865647959270891 0 -0.083714880680240453 -0.41622037016703428 0 -0.082943237868067593 -0.4239856173255338 0 -0.078194253298280558 -0.41865647959270891 0 -0.083714880680240453 -0.41622037016703428 0 -0.081808777729522386 -0.083143660930833002 0 -0.073985000225153141 -0.099795971436559522 0 -0.085935801107842547 -0.09579043756499836 0 -0.081808777729522386 -0.083143660930833002 0 -0.085935801107842547 -0.09579043756499836 0 -0.094306078709463503 -0.087148618235937392 0 -0.081808777729522386 -0.083143660930833002 0 -0.094306078709463503 -0.087148618235937392 0 -0.095869533599057435 -0.074719864200214883 0 -0.081808777729522386 -0.083143660930833002 0 -0.087640100333796281 -0.066301869750421821 0 -0.076351800502585221 -0.068318825045574613 0 -0.081808777729522386 -0.083143660930833002 0 -0.087640100333796281 -0.066301869750421821 0 -0.095869533599057435 -0.074719864200214883 0 -0.087640100333796281 -0.066301869750421821 0 -0.095869533599057435 -0.074719864200214883 0 -0.097041901727127691 -0.062312633498474219 0 -0.087640100333796281 -0.066301869750421821 0 -0.076351800502585221 -0.068318825045574613 0 -0.079773765115028039 -0.057914828426178573 0 -0.081808777729522386 -0.083143660930833002 0 -0.076351800502585221 -0.068318825045574613 0 -0.068001603171865072 -0.074911341683796137 0 -0.068001603171865072 -0.074911341683796137 0 -0.065822825648978775 -0.060485584973140792 0 -0.05753372126900759 -0.073422836261521005 0 -0.076351800502585221 -0.068318825045574613 0 -0.068001603171865072 -0.074911341683796137 0 -0.065822825648978775 -0.060485584973140792 0 -0.068001603171865072 -0.074911341683796137 0 -0.066670257350634976 -0.085780572793309681 0 -0.05753372126900759 -0.073422836261521005 0 -0.081808777729522386 -0.083143660930833002 0 -0.066670257350634976 -0.085780572793309681 0 -0.073985000225153141 -0.099795971436559522 0 -0.081808777729522386 -0.083143660930833002 0 -0.068001603171865072 -0.074911341683796137 0 -0.066670257350634976 -0.085780572793309681 0 -0.066670257350634976 -0.085780572793309681 0 -0.073985000225153141 -0.099795971436559522 0 -0.05982498813170789 -0.10249801488187529 0 -0.073985000225153141 -0.099795971436559522 0 -0.065415314349395459 -0.11473522154729129 0 -0.05982498813170789 -0.10249801488187529 0 -0.073985000225153141 -0.099795971436559522 0 -0.065415314349395459 -0.11473522154729129 0 -0.07727601190464152 -0.1134926659633375 0 -0.065415314349395459 -0.11473522154729129 0 -0.060446148579459319 -0.1303024678998376 0 -0.071674103496310607 -0.1250344835198243 0 -0.07727601190464152 -0.1134926659633375 0 -0.082994471061899833 -0.1234246307735777 0 -0.071674103496310607 -0.1250344835198243 0 -0.065415314349395459 -0.11473522154729129 0 -0.07727601190464152 -0.1134926659633375 0 -0.071674103496310607 -0.1250344835198243 0 -0.07727601190464152 -0.1134926659633375 0 -0.082994471061899833 -0.1234246307735777 0 -0.08680817640523622 -0.1078855820033275 0 -0.082994471061899833 -0.1234246307735777 0 -0.08680817640523622 -0.1078855820033275 0 -0.095277368860953449 -0.1178446661751102 0 -0.082994471061899833 -0.1234246307735777 0 -0.095277368860953449 -0.1178446661751102 0 -0.095971306836852913 -0.13086642389395989 0 -0.085935801107842547 -0.09579043756499836 0 -0.08680817640523622 -0.1078855820033275 0 -0.1020424425883536 -0.1015565670732166 0 -0.073985000225153141 -0.099795971436559522 0 -0.085935801107842547 -0.09579043756499836 0 -0.08680817640523622 -0.1078855820033275 0 -0.073985000225153141 -0.099795971436559522 0 -0.07727601190464152 -0.1134926659633375 0 -0.08680817640523622 -0.1078855820033275 0 -0.085935801107842547 -0.09579043756499836 0 -0.1020424425883536 -0.1015565670732166 0 -0.094306078709463503 -0.087148618235937392 0 -0.08680817640523622 -0.1078855820033275 0 -0.1020424425883536 -0.1015565670732166 0 -0.095277368860953449 -0.1178446661751102 0 -0.1020424425883536 -0.1015565670732166 0 -0.095277368860953449 -0.1178446661751102 0 -0.1085913382140784 -0.11903379143832921 0 -0.095277368860953449 -0.1178446661751102 0 -0.1085913382140784 -0.11903379143832921 0 -0.095971306836852913 -0.13086642389395989 0 -0.1085913382140784 -0.11903379143832921 0 -0.11893842975153809 -0.10446969177473921 0 -0.12736410167423581 -0.1213878944680517 0 -0.1020424425883536 -0.1015565670732166 0 -0.11893842975153809 -0.10446969177473921 0 -0.1189291253072135 -0.086669643832799348 0 -0.1020424425883536 -0.1015565670732166 0 -0.1085913382140784 -0.11903379143832921 0 -0.11893842975153809 -0.10446969177473921 0 -0.1189291253072135 -0.086669643832799348 0 -0.1056068239719813 -0.08097964138995771 0 -0.1139735316209595 -0.069866863539540053 0 -0.1020424425883536 -0.1015565670732166 0 -0.1189291253072135 -0.086669643832799348 0 -0.1056068239719813 -0.08097964138995771 0 -0.1020424425883536 -0.1015565670732166 0 -0.1056068239719813 -0.08097964138995771 0 -0.094306078709463503 -0.087148618235937392 0 -0.1056068239719813 -0.08097964138995771 0 -0.094306078709463503 -0.087148618235937392 0 -0.095869533599057435 -0.074719864200214883 0 -0.095869533599057435 -0.074719864200214883 0 -0.1039382096783972 -0.069282752438140638 0 -0.097041901727127691 -0.062312633498474219 0 -0.1056068239719813 -0.08097964138995771 0 -0.1039382096783972 -0.069282752438140638 0 -0.1139735316209595 -0.069866863539540053 0 -0.1056068239719813 -0.08097964138995771 0 -0.095869533599057435 -0.074719864200214883 0 -0.1039382096783972 -0.069282752438140638 0 -0.1039382096783972 -0.069282752438140638 0 -0.097041901727127691 -0.062312633498474219 0 -0.1071992574728602 -0.058534759562516372 0 -0.1039382096783972 -0.069282752438140638 0 -0.1139735316209595 -0.069866863539540053 0 -0.1071992574728602 -0.058534759562516372 0 -0.1189291253072135 -0.086669643832799348 0 -0.1139735316209595 -0.069866863539540053 0 -0.12930964035960699 -0.069761515268982097 0 -0.1139735316209595 -0.069866863539540053 0 -0.1161384697585349 -0.056806249932135858 0 -0.12930964035960699 -0.069761515268982097 0 -0.1161384697585349 -0.056806249932135858 0 -0.1208541397454049 -0.045822468476665427 0 -0.12930964035960699 -0.069761515268982097 0 -0.1248214427799455 -0.0491876577223027 0 -0.1208541397454049 -0.045822468476665427 0 -0.12930964035960699 -0.069761515268982097 0 -0.1161384697585349 -0.056806249932135858 0 -0.10991932193075039 -0.048940588969216672 0 -0.1071992574728602 -0.058534759562516372 0 -0.1139735316209595 -0.069866863539540053 0 -0.1161384697585349 -0.056806249932135858 0 -0.1071992574728602 -0.058534759562516372 0 -0.1161384697585349 -0.056806249932135858 0 -0.10991932193075039 -0.048940588969216672 0 -0.1149357203506014 -0.047989794102068162 0 -0.1161384697585349 -0.056806249932135858 0 -0.1149357203506014 -0.047989794102068162 0 -0.1208541397454049 -0.045822468476665427 0 -0.1248214427799455 -0.0491876577223027 0 -0.1208541397454049 -0.045822468476665427 0 -0.1246368416492639 -0.024787675353444869 0 -0.1128309499677153 -0.040389869030254703 0 -0.10841128816168021 -0.033720593740292633 0 -0.11239863913120279 -0.021883421684348751 0 -0.1208541397454049 -0.045822468476665427 0 -0.11239863913120279 -0.021883421684348751 0 -0.1208541397454049 -0.045822468476665427 0 -0.1128309499677153 -0.040389869030254703 0 -0.11239863913120279 -0.021883421684348751 0 -0.1248214427799455 -0.0491876577223027 0 -0.1246368416492639 -0.024787675353444869 0 -0.1149357203506014 -0.047989794102068162 0 -0.1208541397454049 -0.045822468476665427 0 -0.1128309499677153 -0.040389869030254703 0 -0.10991932193075039 -0.048940588969216672 0 -0.1149357203506014 -0.047989794102068162 0 -0.1128309499677153 -0.040389869030254703 0 -0.10991932193075039 -0.048940588969216672 0 -0.1128309499677153 -0.040389869030254703 0 -0.1049963107845597 -0.040407454994133042 0 -0.10991932193075039 -0.048940588969216672 0 -0.1049963107845597 -0.040407454994133042 0 -0.1002598709818909 -0.049694841596422852 0 -0.1049963107845597 -0.040407454994133042 0 -0.10841128816168021 -0.033720593740292633 0 -0.1012581714839781 -0.029848849592015819 0 -0.1128309499677153 -0.040389869030254703 0 -0.1049963107845597 -0.040407454994133042 0 -0.10841128816168021 -0.033720593740292633 0 -0.097298262181343159 -0.039849987036595598 0 -0.1012581714839781 -0.029848849592015819 0 -0.091929659262116575 -0.033133953101480262 0 -0.1049963107845597 -0.040407454994133042 0 -0.097298262181343159 -0.039849987036595598 0 -0.1012581714839781 -0.029848849592015819 0 -0.1049963107845597 -0.040407454994133042 0 -0.097298262181343159 -0.039849987036595598 0 -0.1002598709818909 -0.049694841596422852 0 -0.097298262181343159 -0.039849987036595598 0 -0.1002598709818909 -0.049694841596422852 0 -0.087030839425688053 -0.044306376809862227 0 -0.1002598709818909 -0.049694841596422852 0 -0.097041901727127691 -0.062312633498474219 0 -0.1071992574728602 -0.058534759562516372 0 -0.1002598709818909 -0.049694841596422852 0 -0.097041901727127691 -0.062312633498474219 0 -0.090164156554830718 -0.055563028782557922 0 -0.10991932193075039 -0.048940588969216672 0 -0.1002598709818909 -0.049694841596422852 0 -0.1071992574728602 -0.058534759562516372 0 -0.1244522405185825 -0.00038769298458709092 0 -0.11239863913120279 -0.021883421684348751 0 -0.10394313851700079 0.0020556251079679459 0 -0.1244522405185825 -0.00038769298458709092 0 -0.1246368416492639 -0.024787675353444869 0 -0.1244522405185825 -0.00038769298458709092 0 -0.11239863913120279 -0.021883421684348751 0 -0.1246368416492639 -0.024787675353444869 0 -0.1208541397454049 -0.045822468476665427 0 -0.11239863913120279 -0.021883421684348751 0 -0.1246368416492639 -0.024787675353444869 0 -0.10841128816168021 -0.033720593740292633 0 -0.11239863913120279 -0.021883421684348751 0 -0.1012581714839781 -0.029848849592015819 0 -0.1012581714839781 -0.029848849592015819 0 -0.090677970328949406 -0.022917020247476879 0 -0.091929659262116575 -0.033133953101480262 0 -0.1012581714839781 -0.029848849592015819 0 -0.1001126671493681 -0.016491083843961009 0 -0.090677970328949406 -0.022917020247476879 0 -0.1001126671493681 -0.016491083843961009 0 -0.092285416285709382 -0.0098617528039315269 0 -0.090677970328949406 -0.022917020247476879 0 -0.11239863913120279 -0.021883421684348751 0 -0.1012581714839781 -0.029848849592015819 0 -0.1001126671493681 -0.016491083843961009 0 -0.1001126671493681 -0.016491083843961009 0 -0.092285416285709382 -0.0098617528039315269 0 -0.10394313851700079 0.0020556251079679459 0 -0.11239863913120279 -0.021883421684348751 0 -0.1001126671493681 -0.016491083843961009 0 -0.10394313851700079 0.0020556251079679459 0 -0.092285416285709382 -0.0098617528039315269 0 -0.10394313851700079 0.0020556251079679459 0 -0.085958893623968774 0.001514634656162053 0 -0.11239863913120279 -0.021883421684348751 0 -0.10394313851700079 0.0020556251079679459 0 -0.092285416285709382 -0.0098617528039315269 0 -0.077949881484559239 -0.01307625006729682 0 -0.085958893623968774 0.001514634656162053 0 -0.092285416285709382 -0.0098617528039315269 0 -0.090677970328949406 -0.022917020247476879 0 -0.077949881484559239 -0.01307625006729682 0 -0.090677970328949406 -0.022917020247476879 0 -0.073841780976804383 -0.025706854857452392 0 -0.077949881484559239 -0.01307625006729682 0 -0.090677970328949406 -0.022917020247476879 0 -0.073841780976804383 -0.025706854857452392 0 -0.082102255714859004 -0.034759692131612618 0 -0.090677970328949406 -0.022917020247476879 0 -0.091929659262116575 -0.033133953101480262 0 -0.082102255714859004 -0.034759692131612618 0 -0.073841780976804383 -0.025706854857452392 0 -0.077949881484559239 -0.01307625006729682 0 -0.060674527584339763 -0.015412449877807689 0 -0.073841780976804383 -0.025706854857452392 0 -0.060674527584339763 -0.015412449877807689 0 -0.060703590497751453 -0.03101491529774986 0 -0.077949881484559239 -0.01307625006729682 0 -0.085958893623968774 0.001514634656162053 0 -0.065648076432031049 0.00090955339710942099 0 -0.077949881484559239 -0.01307625006729682 0 -0.060674527584339763 -0.015412449877807689 0 -0.065648076432031049 0.00090955339710942099 0 -0.079773765115028039 -0.057914828426178573 0 -0.087030839425688053 -0.044306376809862227 0 -0.074827122987446398 -0.047817820925290022 0 -0.079773765115028039 -0.057914828426178573 0 -0.090164156554830718 -0.055563028782557922 0 -0.087030839425688053 -0.044306376809862227 0 -0.087640100333796281 -0.066301869750421821 0 -0.079773765115028039 -0.057914828426178573 0 -0.090164156554830718 -0.055563028782557922 0 -0.087640100333796281 -0.066301869750421821 0 -0.097041901727127691 -0.062312633498474219 0 -0.090164156554830718 -0.055563028782557922 0 -0.1002598709818909 -0.049694841596422852 0 -0.090164156554830718 -0.055563028782557922 0 -0.087030839425688053 -0.044306376809862227 0 -0.097298262181343159 -0.039849987036595598 0 -0.087030839425688053 -0.044306376809862227 0 -0.091929659262116575 -0.033133953101480262 0 -0.087030839425688053 -0.044306376809862227 0 -0.091929659262116575 -0.033133953101480262 0 -0.082102255714859004 -0.034759692131612618 0 -0.087030839425688053 -0.044306376809862227 0 -0.082102255714859004 -0.034759692131612618 0 -0.074827122987446398 -0.047817820925290022 0 -0.082102255714859004 -0.034759692131612618 0 -0.070942460250367517 -0.03706080152277047 0 -0.074827122987446398 -0.047817820925290022 0 -0.073841780976804383 -0.025706854857452392 0 -0.082102255714859004 -0.034759692131612618 0 -0.070942460250367517 -0.03706080152277047 0 -0.073841780976804383 -0.025706854857452392 0 -0.070942460250367517 -0.03706080152277047 0 -0.060703590497751453 -0.03101491529774986 0 -0.070942460250367517 -0.03706080152277047 0 -0.061850736208416378 -0.044087883634974623 0 -0.060703590497751453 -0.03101491529774986 0 -0.070942460250367517 -0.03706080152277047 0 -0.074827122987446398 -0.047817820925290022 0 -0.061850736208416378 -0.044087883634974623 0 -0.074827122987446398 -0.047817820925290022 0 -0.065822825648978775 -0.060485584973140792 0 -0.061850736208416378 -0.044087883634974623 0 -0.079773765115028039 -0.057914828426178573 0 -0.074827122987446398 -0.047817820925290022 0 -0.065822825648978775 -0.060485584973140792 0 -0.076351800502585221 -0.068318825045574613 0 -0.079773765115028039 -0.057914828426178573 0 -0.065822825648978775 -0.060485584973140792 0 -0.065822825648978775 -0.060485584973140792 0 -0.051906109188989122 -0.051634581827710108 0 -0.055146373663134192 -0.063188587977351315 0 -0.065822825648978775 -0.060485584973140792 0 -0.051906109188989122 -0.051634581827710108 0 -0.061850736208416378 -0.044087883634974623 0 -0.051906109188989122 -0.051634581827710108 0 -0.044968642856814678 -0.064628327886466996 0 -0.055146373663134192 -0.063188587977351315 0 -0.061850736208416378 -0.044087883634974623 0 -0.048286593140243993 -0.039377229684959138 0 -0.060703590497751453 -0.03101491529774986 0 -0.051906109188989122 -0.051634581827710108 0 -0.061850736208416378 -0.044087883634974623 0 -0.048286593140243993 -0.039377229684959138 0 -0.048286593140243993 -0.039377229684959138 0 -0.039642814346724391 -0.052475069278980747 0 -0.030584103036016622 -0.035608219704199993 0 -0.039642814346724391 -0.052475069278980747 0 -0.024435088609687641 -0.049746151716912712 0 -0.030584103036016622 -0.035608219704199993 0 -0.048286593140243993 -0.039377229684959138 0 -0.044331283213942488 -0.020119990811347448 0 -0.030584103036016622 -0.035608219704199993 0 -0.039642814346724391 -0.052475069278980747 0 -0.03034189778213453 -0.060014988360291517 0 -0.024435088609687641 -0.049746151716912712 0 -0.039642814346724391 -0.052475069278980747 0 -0.03034189778213453 -0.060014988360291517 0 -0.044968642856814678 -0.064628327886466996 0 -0.051906109188989122 -0.051634581827710108 0 -0.039642814346724391 -0.052475069278980747 0 -0.044968642856814678 -0.064628327886466996 0 -0.051906109188989122 -0.051634581827710108 0 -0.048286593140243993 -0.039377229684959138 0 -0.039642814346724391 -0.052475069278980747 0 -0.060674527584339763 -0.015412449877807689 0 -0.044331283213942488 -0.020119990811347448 0 -0.045118160941850949 -0.00049033847668307538 0 -0.060674527584339763 -0.015412449877807689 0 -0.045118160941850949 -0.00049033847668307538 0 -0.065648076432031049 0.00090955339710942099 0 -0.048286593140243993 -0.039377229684959138 0 -0.060703590497751453 -0.03101491529774986 0 -0.044331283213942488 -0.020119990811347448 0 -0.060674527584339763 -0.015412449877807689 0 -0.060703590497751453 -0.03101491529774986 0 -0.044331283213942488 -0.020119990811347448 0 -0.044331283213942488 -0.020119990811347448 0 -0.027025641752002061 -0.0079319500279313396 0 -0.030584103036016622 -0.035608219704199993 0 -0.044331283213942488 -0.020119990811347448 0 -0.045118160941850949 -0.00049033847668307538 0 -0.027025641752002061 -0.0079319500279313396 0 -0.027025641752002061 -0.0079319500279313396 0 -0.0118242871531395 -0.020545428430059291 0 -0.0091716063734174208 -0.003332990253060792 0 -0.027025641752002061 -0.0079319500279313396 0 -0.0091716063734174208 -0.003332990253060792 0 -0.01566814095190756 0.010235570601176981 0 -0.027025641752002061 -0.0079319500279313396 0 -0.0118242871531395 -0.020545428430059291 0 -0.030584103036016622 -0.035608219704199993 0 -0.0118242871531395 -0.020545428430059291 0 -0.030584103036016622 -0.035608219704199993 0 -0.0118242871531395 -0.020545428430059291 0 0.006935528729737548 -0.0054826371559186567 0 0.0027408304473846411 -0.028176541972939319 0 -0.0118242871531395 -0.020545428430059291 0 -0.01026660782967455 -0.041229232136501717 0 0.0027408304473846411 -0.028176541972939319 0 -0.0118242871531395 -0.020545428430059291 0 -0.0091716063734174208 -0.003332990253060792 0 0.006935528729737548 -0.0054826371559186567 0 -0.0118242871531395 -0.020545428430059291 0 0.006935528729737548 -0.0054826371559186567 0 -0.024435088609687641 -0.049746151716912712 0 -0.01026660782967455 -0.041229232136501717 0 -0.01499476028908407 -0.06055090283160456 0 -0.03034189778213453 -0.060014988360291517 0 -0.01499476028908407 -0.06055090283160456 0 -0.03034189778213453 -0.060014988360291517 0 -0.024435088609687641 -0.049746151716912712 0 -0.01499476028908407 -0.06055090283160456 0 -0.024435088609687641 -0.049746151716912712 0 -0.030584103036016622 -0.035608219704199993 0 -0.01026660782967455 -0.041229232136501717 0 -0.0118242871531395 -0.020545428430059291 0 -0.030584103036016622 -0.035608219704199993 0 -0.01026660782967455 -0.041229232136501717 0 -0.01026660782967455 -0.041229232136501717 0 0.0096258971738255473 -0.043108802377643002 0 0.00035237720396625368 -0.061086817302918282 0 -0.01026660782967455 -0.041229232136501717 0 -0.01499476028908407 -0.06055090283160456 0 0.00035237720396625368 -0.061086817302918282 0 -0.01499476028908407 -0.06055090283160456 0 0.00035237720396625368 -0.061086817302918282 0 -0.011408129540087309 -0.083886203777590068 0 0.0065051428120863272 -0.082127796022149757 0 0.00035237720396625368 -0.061086817302918282 0 -0.011408129540087309 -0.083886203777590068 0 0.00035237720396625368 -0.061086817302918282 0 -0.01499476028908407 -0.06055090283160456 0 -0.011408129540087309 -0.083886203777590068 0 0.00035237720396625368 -0.061086817302918282 0 -0.011408129540087309 -0.083886203777590068 0 0.001856719827670471 -0.098182337095309047 0 0.0065051428120863272 -0.082127796022149757 0 -0.011408129540087309 -0.083886203777590068 0 -0.03053113156520738 -0.089911417014305078 0 -0.02316863628414112 -0.10668559025226169 0 -0.011408129540087309 -0.083886203777590068 0 -0.03053113156520738 -0.089911417014305078 0 -0.026049830403481512 -0.075342802050597457 0 -0.01499476028908407 -0.06055090283160456 0 -0.011408129540087309 -0.083886203777590068 0 -0.026049830403481512 -0.075342802050597457 0 -0.03034189778213453 -0.060014988360291517 0 -0.01499476028908407 -0.06055090283160456 0 -0.026049830403481512 -0.075342802050597457 0 -0.03034189778213453 -0.060014988360291517 0 -0.026049830403481512 -0.075342802050597457 0 -0.041349905228919973 -0.078428718904655664 0 -0.03034189778213453 -0.060014988360291517 0 -0.044968642856814678 -0.064628327886466996 0 -0.041349905228919973 -0.078428718904655664 0 -0.03053113156520738 -0.089911417014305078 0 -0.026049830403481512 -0.075342802050597457 0 -0.041349905228919973 -0.078428718904655664 0 -0.03053113156520738 -0.089911417014305078 0 -0.041349905228919973 -0.078428718904655664 0 -0.047432501145458397 -0.097370211357339573 0 -0.041349905228919973 -0.078428718904655664 0 -0.053879666709155317 -0.08598560359304859 0 -0.05753372126900759 -0.073422836261521005 0 -0.041349905228919973 -0.078428718904655664 0 -0.053879666709155317 -0.08598560359304859 0 -0.047432501145458397 -0.097370211357339573 0 -0.066670257350634976 -0.085780572793309681 0 -0.053879666709155317 -0.08598560359304859 0 -0.05982498813170789 -0.10249801488187529 0 -0.066670257350634976 -0.085780572793309681 0 -0.053879666709155317 -0.08598560359304859 0 -0.05753372126900759 -0.073422836261521005 0 -0.044968642856814678 -0.064628327886466996 0 -0.041349905228919973 -0.078428718904655664 0 -0.05753372126900759 -0.073422836261521005 0 -0.065822825648978775 -0.060485584973140792 0 -0.05753372126900759 -0.073422836261521005 0 -0.055146373663134192 -0.063188587977351315 0 -0.044968642856814678 -0.064628327886466996 0 -0.05753372126900759 -0.073422836261521005 0 -0.055146373663134192 -0.063188587977351315 0 -0.065415314349395459 -0.11473522154729129 0 -0.048239208743362072 -0.1165718691901324 0 -0.05982498813170789 -0.10249801488187529 0 -0.065415314349395459 -0.11473522154729129 0 -0.048239208743362072 -0.1165718691901324 0 -0.060446148579459319 -0.1303024678998376 0 -0.048239208743362072 -0.1165718691901324 0 -0.05982498813170789 -0.10249801488187529 0 -0.047432501145458397 -0.097370211357339573 0 -0.053879666709155317 -0.08598560359304859 0 -0.05982498813170789 -0.10249801488187529 0 -0.047432501145458397 -0.097370211357339573 0 -0.048239208743362072 -0.1165718691901324 0 -0.047432501145458397 -0.097370211357339573 0 -0.02316863628414112 -0.10668559025226169 0 -0.03053113156520738 -0.089911417014305078 0 -0.047432501145458397 -0.097370211357339573 0 -0.02316863628414112 -0.10668559025226169 0 -0.048239208743362072 -0.1165718691901324 0 -0.02316863628414112 -0.10668559025226169 0 -0.029948833034415319 -0.13246817914486481 0 -0.02316863628414112 -0.10668559025226169 0 -0.01250087523651249 -0.12826546419306251 0 -0.029948833034415319 -0.13246817914486481 0 -0.011408129540087309 -0.083886203777590068 0 -0.02316863628414112 -0.10668559025226169 0 -0.02316863628414112 -0.10668559025226169 0 0.0015243557028834459 -0.11711868301268021 0 0.001856719827670471 -0.098182337095309047 0 -0.011408129540087309 -0.083886203777590068 0 -0.02316863628414112 -0.10668559025226169 0 0.001856719827670471 -0.098182337095309047 0 -0.02316863628414112 -0.10668559025226169 0 -0.01250087523651249 -0.12826546419306251 0 0.0015243557028834459 -0.11711868301268021 0 -0.01250087523651249 -0.12826546419306251 0 -0.013317386200938249 -0.14799664519887931 0 0.0088678229424013627 -0.13941235935176011 0 -0.01250087523651249 -0.12826546419306251 0 0.0088678229424013627 -0.13941235935176011 0 0.0015243557028834459 -0.11711868301268021 0 -0.01250087523651249 -0.12826546419306251 0 -0.029948833034415319 -0.13246817914486481 0 -0.013317386200938249 -0.14799664519887931 0 -0.013317386200938249 -0.14799664519887931 0 -0.035502595344277812 -0.15658093104599841 0 -0.029948833034415319 -0.13246817914486481 0 -0.013317386200938249 -0.14799664519887931 0 -0.035502595344277812 -0.15658093104599841 0 -0.013317386200938249 -0.14799664519887931 0 0.0088678229424013627 -0.13941235935176011 0 -0.013317386200938249 -0.14799664519887931 0 0.0027310736070901482 -0.15493719994590471 0 0.0088678229424013627 -0.13941235935176011 0 -0.013317386200938249 -0.14799664519887931 0 -0.0013673002328405961 -0.1767093328090546 0 0.0027310736070901482 -0.15493719994590471 0 -0.013317386200938249 -0.14799664519887931 0 -0.0013673002328405961 -0.1767093328090546 0 -0.029934926785222919 -0.1776443960910804 0 -0.0013673002328405961 -0.1767093328090546 0 -0.0217915143334447 -0.19785215020996011 0 -0.0013673002328405961 -0.1767093328090546 0 -0.029934926785222919 -0.1776443960910804 0 -0.0217915143334447 -0.19785215020996011 0 -0.013317386200938249 -0.14799664519887931 0 -0.029934926785222919 -0.1776443960910804 0 -0.035502595344277812 -0.15658093104599841 0 -0.035502595344277812 -0.15658093104599841 0 -0.057687804487617317 -0.16516521689311761 0 -0.029934926785222919 -0.1776443960910804 0 -0.035502595344277812 -0.15658093104599841 0 -0.057687804487617317 -0.16516521689311761 0 -0.029934926785222919 -0.1776443960910804 0 -0.048583433801033478 -0.18728911877980611 0 -0.034676635542126917 -0.191298641696723 0 -0.029934926785222919 -0.1776443960910804 0 -0.048583433801033478 -0.18728911877980611 0 -0.057687804487617317 -0.16516521689311761 0 -0.048583433801033478 -0.18728911877980611 0 -0.057687804487617317 -0.16516521689311761 0 -0.063770138428779252 -0.18079669395549949 0 -0.035502595344277812 -0.15658093104599841 0 -0.057687804487617317 -0.16516521689311761 0 -0.06059931965736505 -0.14742373122833671 0 -0.035502595344277812 -0.15658093104599841 0 -0.06059931965736505 -0.14742373122833671 0 -0.046947221071775923 -0.13666943570183401 0 -0.048239208743362072 -0.1165718691901324 0 -0.046947221071775923 -0.13666943570183401 0 -0.060446148579459319 -0.1303024678998376 0 -0.06059931965736505 -0.14742373122833671 0 -0.046947221071775923 -0.13666943570183401 0 -0.060446148579459319 -0.1303024678998376 0 -0.048239208743362072 -0.1165718691901324 0 -0.029948833034415319 -0.13246817914486481 0 -0.046947221071775923 -0.13666943570183401 0 -0.029948833034415319 -0.13246817914486481 0 -0.035502595344277812 -0.15658093104599841 0 -0.046947221071775923 -0.13666943570183401 0 -0.03064478186574425 -0.25326356670072259 0 -0.026067501294639708 -0.24850247980592871 0 -0.033387688564450117 -0.24425465961654741 0 -0.026067501294639708 -0.24850247980592871 0 -0.02456862519526215 -0.24210395604782819 0 -0.033387688564450117 -0.24425465961654741 0 -0.02974340118516787 -0.23585106297766359 0 -0.02456862519526215 -0.24210395604782819 0 -0.02062871475200042 -0.2320366992723622 0 -0.02974340118516787 -0.23585106297766359 0 -0.02456862519526215 -0.24210395604782819 0 -0.033387688564450117 -0.24425465961654741 0 -0.02456862519526215 -0.24210395604782819 0 -0.01660477195623393 -0.2403164687020414 0 -0.02062871475200042 -0.2320366992723622 0 -0.02456862519526215 -0.24210395604782819 0 -0.01660477195623393 -0.2403164687020414 0 -0.01887874476148543 -0.24814250919209771 0 -0.026067501294639708 -0.24850247980592871 0 -0.02456862519526215 -0.24210395604782819 0 -0.01887874476148543 -0.24814250919209771 0 -0.01660477195623393 -0.2403164687020414 0 -0.01887874476148543 -0.24814250919209771 0 -0.0080727856436109482 -0.2481099565327444 0 -0.0080727856436109482 -0.2481099565327444 0 -0.0084819670471955304 -0.2367225590632196 0 0.0055632338660241776 -0.24332209518663511 0 -0.01660477195623393 -0.2403164687020414 0 -0.0084819670471955304 -0.2367225590632196 0 -0.02062871475200042 -0.2320366992723622 0 -0.01660477195623393 -0.2403164687020414 0 -0.0080727856436109482 -0.2481099565327444 0 -0.0084819670471955304 -0.2367225590632196 0 -0.0084819670471955304 -0.2367225590632196 0 -0.0075276580997289226 -0.21896018305478171 0 0.0032521440618358652 -0.23009641691855939 0 -0.0084819670471955304 -0.2367225590632196 0 -0.0075276580997289226 -0.21896018305478171 0 -0.02062871475200042 -0.2320366992723622 0 -0.0075276580997289226 -0.21896018305478171 0 -0.02062871475200042 -0.2320366992723622 0 -0.024832472176938718 -0.21885173135413241 0 -0.02974340118516787 -0.23585106297766359 0 -0.02062871475200042 -0.2320366992723622 0 -0.031998745265470661 -0.22641465662269231 0 -0.02062871475200042 -0.2320366992723622 0 -0.024832472176938718 -0.21885173135413241 0 -0.031998745265470661 -0.22641465662269231 0 -0.0075276580997289226 -0.21896018305478171 0 -0.024832472176938718 -0.21885173135413241 0 -0.0217915143334447 -0.19785215020996011 0 -0.024832472176938718 -0.21885173135413241 0 -0.0217915143334447 -0.19785215020996011 0 -0.042215728434048867 -0.21899496761086559 0 -0.0075276580997289226 -0.21896018305478171 0 -0.0217915143334447 -0.19785215020996011 0 0.003555539334036632 -0.19934620758084881 0 -0.0013673002328405961 -0.1767093328090546 0 -0.0217915143334447 -0.19785215020996011 0 0.003555539334036632 -0.19934620758084881 0 -0.029934926785222919 -0.1776443960910804 0 -0.0217915143334447 -0.19785215020996011 0 -0.034676635542126917 -0.191298641696723 0 -0.0217915143334447 -0.19785215020996011 0 -0.034676635542126917 -0.191298641696723 0 -0.04224094911505525 -0.20168175555289891 0 -0.048583433801033478 -0.18728911877980611 0 -0.034676635542126917 -0.191298641696723 0 -0.04224094911505525 -0.20168175555289891 0 -0.048583433801033478 -0.18728911877980611 0 -0.058327232484387218 -0.2013044317948425 0 -0.063770138428779252 -0.18079669395549949 0 -0.048583433801033478 -0.18728911877980611 0 -0.04224094911505525 -0.20168175555289891 0 -0.058327232484387218 -0.2013044317948425 0 -0.058327232484387218 -0.2013044317948425 0 -0.04785115009529034 -0.21335122322519601 0 -0.065984069430329237 -0.21594808513783789 0 -0.04224094911505525 -0.20168175555289891 0 -0.058327232484387218 -0.2013044317948425 0 -0.04785115009529034 -0.21335122322519601 0 -0.04785115009529034 -0.21335122322519601 0 -0.065984069430329237 -0.21594808513783789 0 -0.04785115009529034 -0.21335122322519601 0 -0.050089297127046031 -0.22131182591420251 0 -0.065984069430329237 -0.21594808513783789 0 -0.0217915143334447 -0.19785215020996011 0 -0.042215728434048867 -0.21899496761086559 0 -0.0217915143334447 -0.19785215020996011 0 -0.04224094911505525 -0.20168175555289891 0 -0.042215728434048867 -0.21899496761086559 0 -0.04224094911505525 -0.20168175555289891 0 -0.04785115009529034 -0.21335122322519601 0 -0.042215728434048867 -0.21899496761086559 0 -0.04785115009529034 -0.21335122322519601 0 -0.042215728434048867 -0.21899496761086559 0 -0.050089297127046031 -0.22131182591420251 0 -0.024832472176938718 -0.21885173135413241 0 -0.031998745265470661 -0.22641465662269231 0 -0.042215728434048867 -0.21899496761086559 0 -0.031998745265470661 -0.22641465662269231 0 -0.042215728434048867 -0.21899496761086559 0 -0.041320068815934301 -0.22639292378782619 0 -0.031998745265470661 -0.22641465662269231 0 -0.041320068815934301 -0.22639292378782619 0 -0.038133232148655979 -0.23444534332888789 0 -0.02974340118516787 -0.23585106297766359 0 -0.031998745265470661 -0.22641465662269231 0 -0.038133232148655979 -0.23444534332888789 0 -0.041320068815934301 -0.22639292378782619 0 -0.052151212760384272 -0.22988480121754831 0 -0.038133232148655979 -0.23444534332888789 0 -0.042215728434048867 -0.21899496761086559 0 -0.041320068815934301 -0.22639292378782619 0 -0.050089297127046031 -0.22131182591420251 0 -0.041320068815934301 -0.22639292378782619 0 -0.050089297127046031 -0.22131182591420251 0 -0.052151212760384272 -0.22988480121754831 0 -0.0567919256119837 -0.24387644547435741 0 -0.065984069430329237 -0.21594808513783789 0 -0.050089297127046031 -0.22131182591420251 0 -0.052151212760384272 -0.22988480121754831 0 -0.065984069430329237 -0.21594808513783789 0 -0.052151212760384272 -0.22988480121754831 0 -0.0567919256119837 -0.24387644547435741 0 -0.065984069430329237 -0.21594808513783789 0 -0.052151212760384272 -0.22988480121754831 0 -0.0567919256119837 -0.24387644547435741 0 -0.045207486351244337 -0.24272005325013779 0 -0.046517308340487992 -0.25474718453952289 0 -0.0567919256119837 -0.24387644547435741 0 -0.045207486351244337 -0.24272005325013779 0 -0.038581934025118947 -0.25114857380685968 0 -0.046517308340487992 -0.25474718453952289 0 -0.045207486351244337 -0.24272005325013779 0 -0.052151212760384272 -0.22988480121754831 0 -0.045207486351244337 -0.24272005325013779 0 -0.038133232148655979 -0.23444534332888789 0 -0.02974340118516787 -0.23585106297766359 0 -0.038133232148655979 -0.23444534332888789 0 -0.033387688564450117 -0.24425465961654741 0 -0.045207486351244337 -0.24272005325013779 0 -0.038133232148655979 -0.23444534332888789 0 -0.033387688564450117 -0.24425465961654741 0 -0.038581934025118947 -0.25114857380685968 0 -0.03064478186574425 -0.25326356670072259 0 -0.033387688564450117 -0.24425465961654741 0 -0.038581934025118947 -0.25114857380685968 0 -0.045207486351244337 -0.24272005325013779 0 -0.033387688564450117 -0.24425465961654741 0 -0.076282262678724011 -0.24169347649274159 0 -0.094544528280961701 -0.23130979592197831 0 -0.1005321994236209 -0.2431127607729493 0 -0.090174700483665673 -0.26498018187443112 0 -0.076282262678724011 -0.24169347649274159 0 -0.1005321994236209 -0.2431127607729493 0 -0.063484538676239377 -0.26413124226689111 0 -0.0567919256119837 -0.24387644547435741 0 -0.076282262678724011 -0.24169347649274159 0 -0.0567919256119837 -0.24387644547435741 0 -0.076282262678724011 -0.24169347649274159 0 -0.076216545617433393 -0.2267874217425101 0 -0.0567919256119837 -0.24387644547435741 0 -0.076216545617433393 -0.2267874217425101 0 -0.065984069430329237 -0.21594808513783789 0 -0.076216545617433393 -0.2267874217425101 0 -0.089079986681209755 -0.21925571071859279 0 -0.065984069430329237 -0.21594808513783789 0 -0.076282262678724011 -0.24169347649274159 0 -0.076216545617433393 -0.2267874217425101 0 -0.089079986681209755 -0.21925571071859279 0 -0.076282262678724011 -0.24169347649274159 0 -0.089079986681209755 -0.21925571071859279 0 -0.076282262678724011 -0.24169347649274159 0 -0.089079986681209755 -0.21925571071859279 0 -0.094544528280961701 -0.23130979592197831 0 -0.089079986681209755 -0.21925571071859279 0 -0.087982693832912948 -0.20610030108417279 0 -0.065984069430329237 -0.21594808513783789 0 -0.089079986681209755 -0.21925571071859279 0 -0.091681034097487346 -0.21469539259619891 0 -0.087982693832912948 -0.20610030108417279 0 -0.089079986681209755 -0.21925571071859279 0 -0.091681034097487346 -0.21469539259619891 0 -0.089079986681209755 -0.21925571071859279 0 -0.065984069430329237 -0.21594808513783789 0 -0.058327232484387218 -0.2013044317948425 0 -0.065984069430329237 -0.21594808513783789 0 -0.072928541530643487 -0.1948487939390374 0 -0.065984069430329237 -0.21594808513783789 0 -0.072928541530643487 -0.1948487939390374 0 -0.087982693832912948 -0.20610030108417279 0 -0.065984069430329237 -0.21594808513783789 0 -0.072928541530643487 -0.1948487939390374 0 -0.058327232484387218 -0.2013044317948425 0 -0.072928541530643487 -0.1948487939390374 0 -0.063770138428779252 -0.18079669395549949 0 -0.087982693832912948 -0.20610030108417279 0 -0.072928541530643487 -0.1948487939390374 0 -0.088647710124579282 -0.1895137930351245 0 -0.087982693832912948 -0.20610030108417279 0 -0.088647710124579282 -0.1895137930351245 0 -0.098413722631135098 -0.19641739989264009 0 -0.088647710124579282 -0.1895137930351245 0 -0.098413722631135098 -0.19641739989264009 0 -0.1039428787252024 -0.18306303235069041 0 -0.087982693832912948 -0.20610030108417279 0 -0.098413722631135098 -0.19641739989264009 0 -0.1018219586260966 -0.2062222809526808 0 -0.098413722631135098 -0.19641739989264009 0 -0.10967337184688419 -0.19718759204053191 0 -0.1018219586260966 -0.2062222809526808 0 -0.098413722631135098 -0.19641739989264009 0 -0.10967337184688419 -0.19718759204053191 0 -0.1039428787252024 -0.18306303235069041 0 -0.1039428787252024 -0.18306303235069041 0 -0.1280127438194481 -0.19237656196114411 0 -0.10967337184688419 -0.19718759204053191 0 -0.1178174188303993 -0.20556040013348681 0 -0.1280127438194481 -0.19237656196114411 0 -0.10967337184688419 -0.19718759204053191 0 -0.1039428787252024 -0.18306303235069041 0 -0.1280127438194481 -0.19237656196114411 0 -0.10967337184688419 -0.19718759204053191 0 -0.10961342770230489 -0.21003706569406461 0 -0.1178174188303993 -0.20556040013348681 0 -0.1178174188303993 -0.20556040013348681 0 -0.1109550451866443 -0.21888036136960631 0 -0.13246178853905299 -0.20873151589840269 0 -0.1109550451866443 -0.21888036136960631 0 -0.13246178853905299 -0.20873151589840269 0 -0.1109550451866443 -0.21888036136960631 0 -0.12407830270498089 -0.22426790937284519 0 -0.13246178853905299 -0.20873151589840269 0 -0.10961342770230489 -0.21003706569406461 0 -0.1178174188303993 -0.20556040013348681 0 -0.1109550451866443 -0.21888036136960631 0 -0.10961342770230489 -0.21003706569406461 0 -0.103172625086798 -0.22127395363072039 0 -0.1109550451866443 -0.21888036136960631 0 -0.10961342770230489 -0.21003706569406461 0 -0.1018219586260966 -0.2062222809526808 0 -0.103172625086798 -0.22127395363072039 0 -0.10967337184688419 -0.19718759204053191 0 -0.10961342770230489 -0.21003706569406461 0 -0.1018219586260966 -0.2062222809526808 0 -0.091681034097487346 -0.21469539259619891 0 -0.087982693832912948 -0.20610030108417279 0 -0.103172625086798 -0.22127395363072039 0 -0.089079986681209755 -0.21925571071859279 0 -0.091681034097487346 -0.21469539259619891 0 -0.103172625086798 -0.22127395363072039 0 -0.087982693832912948 -0.20610030108417279 0 -0.103172625086798 -0.22127395363072039 0 -0.087982693832912948 -0.20610030108417279 0 -0.1018219586260966 -0.2062222809526808 0 -0.103172625086798 -0.22127395363072039 0 -0.094544528280961701 -0.23130979592197831 0 -0.103172625086798 -0.22127395363072039 0 -0.1005321994236209 -0.2431127607729493 0 -0.089079986681209755 -0.21925571071859279 0 -0.103172625086798 -0.22127395363072039 0 -0.089079986681209755 -0.21925571071859279 0 -0.094544528280961701 -0.23130979592197831 0 -0.103172625086798 -0.22127395363072039 0 -0.103172625086798 -0.22127395363072039 0 -0.1223681628105569 -0.24044891992886891 0 -0.103172625086798 -0.22127395363072039 0 -0.12407830270498089 -0.22426790937284519 0 -0.1238233973506119 -0.23541481827178831 0 -0.103172625086798 -0.22127395363072039 0 -0.1223681628105569 -0.24044891992886891 0 -0.1238233973506119 -0.23541481827178831 0 -0.103172625086798 -0.22127395363072039 0 -0.12407830270498089 -0.22426790937284519 0 -0.103172625086798 -0.22127395363072039 0 -0.1109550451866443 -0.21888036136960631 0 -0.12407830270498089 -0.22426790937284519 0 -0.11757885349586771 -0.25701660664448461 0 -0.1223681628105569 -0.24044891992886891 0 -0.1005321994236209 -0.2431127607729493 0 -0.11757885349586771 -0.25701660664448461 0 -0.1223681628105569 -0.24044891992886891 0 -0.1223681628105569 -0.24044891992886891 0 -0.1238233973506119 -0.23541481827178831 0 -0.103172625086798 -0.22127395363072039 0 -0.1223681628105569 -0.24044891992886891 0 -0.1005321994236209 -0.2431127607729493 0 -0.088441251280713618 -0.1477167476767523 0 -0.085474651021334253 -0.13655174303235951 0 -0.077236065216807342 -0.1460130695171887 0 -0.088441251280713618 -0.1477167476767523 0 -0.077236065216807342 -0.1460130695171887 0 -0.072985053953480025 -0.15595005707556001 0 -0.088441251280713618 -0.1477167476767523 0 -0.093538562727787294 -0.15940564464812701 0 -0.098894310772838973 -0.14952020789867901 0 -0.088441251280713618 -0.1477167476767523 0 -0.085474651021334253 -0.13655174303235951 0 -0.095252038160572317 -0.1406191133899993 0 -0.085474651021334253 -0.13655174303235951 0 -0.095971306836852913 -0.13086642389395989 0 -0.095252038160572317 -0.1406191133899993 0 -0.082994471061899833 -0.1234246307735777 0 -0.085474651021334253 -0.13655174303235951 0 -0.095971306836852913 -0.13086642389395989 0 -0.082994471061899833 -0.1234246307735777 0 -0.085474651021334253 -0.13655174303235951 0 -0.073596501371478315 -0.1364787996572045 0 -0.085474651021334253 -0.13655174303235951 0 -0.073596501371478315 -0.1364787996572045 0 -0.077236065216807342 -0.1460130695171887 0 -0.06059931965736505 -0.14742373122833671 0 -0.060446148579459319 -0.1303024678998376 0 -0.073596501371478315 -0.1364787996572045 0 -0.082994471061899833 -0.1234246307735777 0 -0.073596501371478315 -0.1364787996572045 0 -0.071674103496310607 -0.1250344835198243 0 -0.060446148579459319 -0.1303024678998376 0 -0.073596501371478315 -0.1364787996572045 0 -0.071674103496310607 -0.1250344835198243 0 -0.06059931965736505 -0.14742373122833671 0 -0.073596501371478315 -0.1364787996572045 0 -0.077236065216807342 -0.1460130695171887 0 -0.057687804487617317 -0.16516521689311761 0 -0.06059931965736505 -0.14742373122833671 0 -0.072985053953480025 -0.15595005707556001 0 -0.06059931965736505 -0.14742373122833671 0 -0.077236065216807342 -0.1460130695171887 0 -0.072985053953480025 -0.15595005707556001 0 -0.057687804487617317 -0.16516521689311761 0 -0.079873013630956835 -0.17374950274023659 0 -0.057687804487617317 -0.16516521689311761 0 -0.072985053953480025 -0.15595005707556001 0 -0.079873013630956835 -0.17374950274023659 0 -0.072928541530643487 -0.1948487939390374 0 -0.079873013630956835 -0.17374950274023659 0 -0.057687804487617317 -0.16516521689311761 0 -0.063770138428779252 -0.18079669395549949 0 -0.079873013630956835 -0.17374950274023659 0 -0.072928541530643487 -0.1948487939390374 0 -0.063770138428779252 -0.18079669395549949 0 -0.079873013630956835 -0.17374950274023659 0 -0.072928541530643487 -0.1948487939390374 0 -0.088647710124579282 -0.1895137930351245 0 -0.079873013630956835 -0.17374950274023659 0 -0.079873013630956835 -0.17374950274023659 0 -0.1039428787252024 -0.18306303235069041 0 -0.088647710124579282 -0.1895137930351245 0 -0.079873013630956835 -0.17374950274023659 0 -0.1039428787252024 -0.18306303235069041 0 -0.088441251280713618 -0.1477167476767523 0 -0.079873013630956835 -0.17374950274023659 0 -0.079873013630956835 -0.17374950274023659 0 -0.093538562727787294 -0.15940564464812701 0 -0.098088850166783578 -0.16700629557107341 0 -0.088441251280713618 -0.1477167476767523 0 -0.079873013630956835 -0.17374950274023659 0 -0.093538562727787294 -0.15940564464812701 0 -0.088441251280713618 -0.1477167476767523 0 -0.072985053953480025 -0.15595005707556001 0 -0.079873013630956835 -0.17374950274023659 0 -0.093538562727787294 -0.15940564464812701 0 -0.098088850166783578 -0.16700629557107341 0 -0.1023953877876435 -0.15903546935389351 0 -0.098088850166783578 -0.16700629557107341 0 -0.1039428787252024 -0.18306303235069041 0 -0.1119878388851908 -0.16231915977259129 0 -0.098088850166783578 -0.16700629557107341 0 -0.1023953877876435 -0.15903546935389351 0 -0.1119878388851908 -0.16231915977259129 0 -0.079873013630956835 -0.17374950274023659 0 -0.098088850166783578 -0.16700629557107341 0 -0.1039428787252024 -0.18306303235069041 0 -0.1039428787252024 -0.18306303235069041 0 -0.11859204859796291 -0.17560578940816099 0 -0.1119878388851908 -0.16231915977259129 0 -0.1039428787252024 -0.18306303235069041 0 -0.11859204859796291 -0.17560578940816099 0 -0.1280127438194481 -0.19237656196114411 0 -0.1023953877876435 -0.15903546935389351 0 -0.1119878388851908 -0.16231915977259129 0 -0.1169630623746598 -0.14907522687480429 0 -0.11859204859796291 -0.17560578940816099 0 -0.1119878388851908 -0.16231915977259129 0 -0.12588679133122799 -0.1624874708491951 0 -0.1119878388851908 -0.16231915977259129 0 -0.1169630623746598 -0.14907522687480429 0 -0.12588679133122799 -0.1624874708491951 0 -0.1119878388851908 -0.16231915977259129 0 -0.1169630623746598 -0.14907522687480429 0 -0.1023953877876435 -0.15903546935389351 0 -0.1169630623746598 -0.14907522687480429 0 -0.098894310772838973 -0.14952020789867901 0 -0.1169630623746598 -0.14907522687480429 0 -0.098894310772838973 -0.14952020789867901 0 -0.1169630623746598 -0.14907522687480429 0 -0.098894310772838973 -0.14952020789867901 0 -0.1074786708911218 -0.1384404444482458 0 -0.088441251280713618 -0.1477167476767523 0 -0.098894310772838973 -0.14952020789867901 0 -0.095252038160572317 -0.1406191133899993 0 -0.098894310772838973 -0.14952020789867901 0 -0.095252038160572317 -0.1406191133899993 0 -0.1074786708911218 -0.1384404444482458 0 -0.093538562727787294 -0.15940564464812701 0 -0.1023953877876435 -0.15903546935389351 0 -0.098894310772838973 -0.14952020789867901 0 -0.1085913382140784 -0.11903379143832921 0 -0.095971306836852913 -0.13086642389395989 0 -0.1074786708911218 -0.1384404444482458 0 -0.095971306836852913 -0.13086642389395989 0 -0.095252038160572317 -0.1406191133899993 0 -0.1074786708911218 -0.1384404444482458 0 -0.1085913382140784 -0.11903379143832921 0 -0.1074786708911218 -0.1384404444482458 0 -0.12736410167423581 -0.1213878944680517 0 -0.1169630623746598 -0.14907522687480429 0 -0.1074786708911218 -0.1384404444482458 0 -0.12736410167423581 -0.1213878944680517 0 -0.1169630623746598 -0.14907522687480429 0 -0.12736410167423581 -0.1213878944680517 0 -0.13746664940214659 -0.13470709103134659 0 -0.12736410167423581 -0.1213878944680517 0 -0.14737054533773081 -0.1208951937003558 0 -0.1169630623746598 -0.14907522687480429 0 -0.13746664940214659 -0.13470709103134659 0 -0.12736410167423581 -0.1213878944680517 0 -0.1569759497016511 -0.14808982533941309 0 -0.14737054533773081 -0.1208951937003558 0 -0.13746664940214659 -0.13470709103134659 0 -0.1569759497016511 -0.14808982533941309 0 -0.14737054533773081 -0.1208951937003558 0 -0.1369695060381555 -0.1485825261071109 0 -0.1526603788815559 -0.1573596194762775 0 -0.1569759497016511 -0.14808982533941309 0 -0.13746664940214659 -0.13470709103134659 0 -0.1369695060381555 -0.1485825261071109 0 -0.1569759497016511 -0.14808982533941309 0 -0.1369695060381555 -0.1485825261071109 0 -0.1569759497016511 -0.14808982533941309 0 -0.1169630623746598 -0.14907522687480429 0 -0.1369695060381555 -0.1485825261071109 0 -0.1169630623746598 -0.14907522687480429 0 -0.1369695060381555 -0.1485825261071109 0 -0.12588679133122799 -0.1624874708491951 0 -0.1169630623746598 -0.14907522687480429 0 -0.13746664940214659 -0.13470709103134659 0 -0.1369695060381555 -0.1485825261071109 0 -0.11859204859796291 -0.17560578940816099 0 -0.12588679133122799 -0.1624874708491951 0 -0.13147554750711021 -0.17522771154146191 0 -0.12588679133122799 -0.1624874708491951 0 -0.13147554750711021 -0.17522771154146191 0 -0.14107140235061469 -0.16358211752318311 0 -0.13147554750711021 -0.17522771154146191 0 -0.14520517551865919 -0.17294749126987599 0 -0.14107140235061469 -0.16358211752318311 0 -0.1369695060381555 -0.1485825261071109 0 -0.12588679133122799 -0.1624874708491951 0 -0.14107140235061469 -0.16358211752318311 0 -0.11859204859796291 -0.17560578940816099 0 -0.13147554750711021 -0.17522771154146191 0 -0.1280127438194481 -0.19237656196114411 0 -0.13147554750711021 -0.17522771154146191 0 -0.1398254013782112 -0.18365029146927231 0 -0.1280127438194481 -0.19237656196114411 0 -0.13147554750711021 -0.17522771154146191 0 -0.1398254013782112 -0.18365029146927231 0 -0.14520517551865919 -0.17294749126987599 0 -0.1398254013782112 -0.18365029146927231 0 -0.14820117369214661 -0.18035874543477601 0 -0.1498687104188495 -0.18767128888863599 0 -0.1398254013782112 -0.18365029146927231 0 -0.14820117369214661 -0.18035874543477601 0 -0.14520517551865919 -0.17294749126987599 0 -0.14820117369214661 -0.18035874543477601 0 -0.14520517551865919 -0.17294749126987599 0 -0.1568216795970071 -0.17538216601134321 0 -0.14820117369214661 -0.18035874543477601 0 -0.15608754076248521 -0.18190001438557629 0 -0.1568216795970071 -0.17538216601134321 0 -0.14520517551865919 -0.17294749126987599 0 -0.15263532751206779 -0.16758471640843459 0 -0.1568216795970071 -0.17538216601134321 0 -0.14820117369214661 -0.18035874543477601 0 -0.15608754076248521 -0.18190001438557629 0 -0.1498687104188495 -0.18767128888863599 0 -0.15608754076248521 -0.18190001438557629 0 -0.1607184616130248 -0.18728683910860641 0 -0.1498687104188495 -0.18767128888863599 0 -0.1369695060381555 -0.1485825261071109 0 -0.14107140235061469 -0.16358211752318311 0 -0.1526603788815559 -0.1573596194762775 0 -0.14520517551865919 -0.17294749126987599 0 -0.14107140235061469 -0.16358211752318311 0 -0.15263532751206779 -0.16758471640843459 0 -0.15263532751206779 -0.16758471640843459 0 -0.1526603788815559 -0.1573596194762775 0 -0.16142564196989831 -0.16655703171874039 0 -0.14107140235061469 -0.16358211752318311 0 -0.15263532751206779 -0.16758471640843459 0 -0.1526603788815559 -0.1573596194762775 0 -0.1526603788815559 -0.1573596194762775 0 -0.16142564196989831 -0.16655703171874039 0 -0.16326087804426159 -0.16588359066980229 0 -0.16326087804426159 -0.16588359066980229 0 -0.1569759497016511 -0.14808982533941309 0 -0.1526603788815559 -0.1573596194762775 0 -0.16326087804426159 -0.16588359066980229 0 -0.1569759497016511 -0.14808982533941309 0 -0.1594122663447772 -0.17133307891758459 0 -0.16142564196989831 -0.16655703171874039 0 -0.16676641630013581 -0.17580840153182001 0 -0.15263532751206779 -0.16758471640843459 0 -0.1594122663447772 -0.17133307891758459 0 -0.16142564196989831 -0.16655703171874039 0 -0.16142564196989831 -0.16655703171874039 0 -0.16326087804426159 -0.16588359066980229 0 -0.16676641630013581 -0.17580840153182001 0 -0.15263532751206779 -0.16758471640843459 0 -0.1594122663447772 -0.17133307891758459 0 -0.1568216795970071 -0.17538216601134321 0 -0.16142564196989831 -0.16655703171874039 0 -0.16326087804426159 -0.16588359066980229 0 -0.16326087804426159 -0.16588359066980229 0 -0.16676641630013581 -0.17580840153182001 0 -0.1783922457352059 -0.17293489930968209 0 -0.16326087804426159 -0.16588359066980229 0 -0.16676641630013581 -0.17580840153182001 0 -0.15608754076248521 -0.18190001438557629 0 -0.1607184616130248 -0.18728683910860641 0 -0.16676641630013581 -0.17580840153182001 0 -0.15608754076248521 -0.18190001438557629 0 -0.1568216795970071 -0.17538216601134321 0 -0.16676641630013581 -0.17580840153182001 0 -0.1594122663447772 -0.17133307891758459 0 -0.1568216795970071 -0.17538216601134321 0 -0.16676641630013581 -0.17580840153182001 0 -0.1607184616130248 -0.18728683910860641 0 -0.16676641630013581 -0.17580840153182001 0 -0.17547527524387041 -0.1884338249559952 0 -0.17547527524387041 -0.1884338249559952 0 -0.1969820185962792 -0.17828497948479149 0 -0.1783922457352059 -0.17293489930968209 0 -0.17547527524387041 -0.1884338249559952 0 -0.1969820185962792 -0.17828497948479149 0 -0.16676641630013581 -0.17580840153182001 0 -0.1783922457352059 -0.17293489930968209 0 -0.17547527524387041 -0.1884338249559952 0 -0.16326087804426159 -0.16588359066980229 0 -0.18947664049148261 -0.1562636999060015 0 -0.16326087804426159 -0.16588359066980229 0 -0.18633417632017751 -0.14736681724080919 0 -0.18947664049148261 -0.1562636999060015 0 -0.16326087804426159 -0.16588359066980229 0 -0.1783922457352059 -0.17293489930968209 0 -0.18947664049148261 -0.1562636999060015 0 -0.18633417632017751 -0.14736681724080919 0 -0.16621773075288121 -0.1295318635244681 0 -0.18400621351090571 -0.1217110611121094 0 -0.16621773075288121 -0.1295318635244681 0 -0.1569759497016511 -0.14808982533941309 0 -0.14737054533773081 -0.1208951937003558 0 -0.18633417632017751 -0.14736681724080919 0 -0.16621773075288121 -0.1295318635244681 0 -0.1569759497016511 -0.14808982533941309 0 -0.18633417632017751 -0.14736681724080919 0 -0.1569759497016511 -0.14808982533941309 0 -0.16326087804426159 -0.16588359066980229 0 -0.18633417632017751 -0.14736681724080919 0 -0.1569759497016511 -0.14808982533941309 0 -0.1377523016625678 -0.25581657194563601 0 -0.15263230708737521 -0.24356194903458239 0 -0.13476861079800859 -0.2391754021203874 0 -0.15263230708737521 -0.24356194903458239 0 -0.13476861079800859 -0.2391754021203874 0 -0.14055595197029169 -0.22979662500526149 0 -0.1377523016625678 -0.25581657194563601 0 -0.1223681628105569 -0.24044891992886891 0 -0.13476861079800859 -0.2391754021203874 0 -0.1377523016625678 -0.25581657194563601 0 -0.1223681628105569 -0.24044891992886891 0 -0.1238233973506119 -0.23541481827178831 0 -0.13476861079800859 -0.2391754021203874 0 -0.13139441447274411 -0.22962184130071481 0 -0.1223681628105569 -0.24044891992886891 0 -0.1238233973506119 -0.23541481827178831 0 -0.13476861079800859 -0.2391754021203874 0 -0.13476861079800859 -0.2391754021203874 0 -0.14055595197029169 -0.22979662500526149 0 -0.13139441447274411 -0.22962184130071481 0 -0.12407830270498089 -0.22426790937284519 0 -0.1238233973506119 -0.23541481827178831 0 -0.13139441447274411 -0.22962184130071481 0 -0.12407830270498089 -0.22426790937284519 0 -0.13139441447274411 -0.22962184130071481 0 -0.13441394179160859 -0.22010184774946731 0 -0.14055595197029169 -0.22979662500526149 0 -0.13139441447274411 -0.22962184130071481 0 -0.13441394179160859 -0.22010184774946731 0 -0.14055595197029169 -0.22979662500526149 0 -0.13441394179160859 -0.22010184774946731 0 -0.14940536450650499 -0.21373664043116339 0 -0.15263230708737521 -0.24356194903458239 0 -0.14940536450650499 -0.21373664043116339 0 -0.15263230708737521 -0.24356194903458239 0 -0.14940536450650499 -0.21373664043116339 0 -0.16621803193972459 -0.22739125443424221 0 -0.15263230708737521 -0.24356194903458239 0 -0.14055595197029169 -0.22979662500526149 0 -0.14940536450650499 -0.21373664043116339 0 -0.14940536450650499 -0.21373664043116339 0 -0.13246178853905299 -0.20873151589840269 0 -0.1539685318914617 -0.1985826704271989 0 -0.13246178853905299 -0.20873151589840269 0 -0.1539685318914617 -0.1985826704271989 0 -0.13441394179160859 -0.22010184774946731 0 -0.14940536450650499 -0.21373664043116339 0 -0.13246178853905299 -0.20873151589840269 0 -0.12407830270498089 -0.22426790937284519 0 -0.13441394179160859 -0.22010184774946731 0 -0.13246178853905299 -0.20873151589840269 0 -0.1178174188303993 -0.20556040013348681 0 -0.13246178853905299 -0.20873151589840269 0 -0.1280127438194481 -0.19237656196114411 0 -0.13246178853905299 -0.20873151589840269 0 -0.1280127438194481 -0.19237656196114411 0 -0.14041115317576749 -0.19424917250638599 0 -0.1398254013782112 -0.18365029146927231 0 -0.1280127438194481 -0.19237656196114411 0 -0.14041115317576749 -0.19424917250638599 0 -0.13246178853905299 -0.20873151589840269 0 -0.14041115317576749 -0.19424917250638599 0 -0.1539685318914617 -0.1985826704271989 0 -0.14041115317576749 -0.19424917250638599 0 -0.1539685318914617 -0.1985826704271989 0 -0.1498687104188495 -0.18767128888863599 0 -0.1398254013782112 -0.18365029146927231 0 -0.14041115317576749 -0.19424917250638599 0 -0.1498687104188495 -0.18767128888863599 0 -0.1607184616130248 -0.18728683910860641 0 -0.1539685318914617 -0.1985826704271989 0 -0.1498687104188495 -0.18767128888863599 0 -0.1607184616130248 -0.18728683910860641 0 -0.1539685318914617 -0.1985826704271989 0 -0.17547527524387041 -0.1884338249559952 0 -0.1539685318914617 -0.1985826704271989 0 -0.17547527524387041 -0.1884338249559952 0 -0.16825702714884239 -0.20885775366498019 0 -0.1539685318914617 -0.1985826704271989 0 -0.17547527524387041 -0.1884338249559952 0 -0.17547527524387041 -0.1884338249559952 0 -0.18277425339256639 -0.2026996383603622 0 -0.16825702714884239 -0.20885775366498019 0 -0.17547527524387041 -0.1884338249559952 0 -0.18277425339256639 -0.2026996383603622 0 -0.1902080517791363 -0.1917922864575213 0 -0.18277425339256639 -0.2026996383603622 0 -0.16825702714884239 -0.20885775366498019 0 -0.18626938338499441 -0.22517712183416291 0 -0.14940536450650499 -0.21373664043116339 0 -0.1539685318914617 -0.1985826704271989 0 -0.16825702714884239 -0.20885775366498019 0 -0.14940536450650499 -0.21373664043116339 0 -0.16825702714884239 -0.20885775366498019 0 -0.16621803193972459 -0.22739125443424221 0 -0.16825702714884239 -0.20885775366498019 0 -0.16621803193972459 -0.22739125443424221 0 -0.18626938338499441 -0.22517712183416291 0 -0.16621803193972459 -0.22739125443424221 0 -0.18626938338499441 -0.22517712183416291 0 -0.1745260775709061 -0.24562280720632229 0 -0.18626938338499441 -0.22517712183416291 0 -0.1745260775709061 -0.24562280720632229 0 -0.19988453840298659 -0.24176205441804 0 -0.18626938338499441 -0.22517712183416291 0 -0.1745260775709061 -0.24562280720632229 0 -0.15263230708737521 -0.24356194903458239 0 -0.16621803193972459 -0.22739125443424221 0 -0.1745260775709061 -0.24562280720632229 0 -0.1689202540561075 -0.25519621835756329 0 -0.15263230708737521 -0.24356194903458239 0 -0.1745260775709061 -0.24562280720632229 0 -0.21854221021918649 -0.25236034283526498 0 -0.19988453840298659 -0.24176205441804 0 -0.21493562756427159 -0.22243862284749449 0 -0.19160736129165659 -0.25262396586623759 0 -0.1745260775709061 -0.24562280720632229 0 -0.19988453840298659 -0.24176205441804 0 -0.18626938338499441 -0.22517712183416291 0 -0.19988453840298659 -0.24176205441804 0 -0.21493562756427159 -0.22243862284749449 0 -0.21493562756427159 -0.22243862284749449 0 -0.19801268919908249 -0.2047314364620034 0 -0.21541309520260529 -0.20113031717637361 0 -0.18626938338499441 -0.22517712183416291 0 -0.19801268919908249 -0.2047314364620034 0 -0.18277425339256639 -0.2026996383603622 0 -0.18626938338499441 -0.22517712183416291 0 -0.19801268919908249 -0.2047314364620034 0 -0.18626938338499441 -0.22517712183416291 0 -0.21493562756427159 -0.22243862284749449 0 -0.19801268919908249 -0.2047314364620034 0 -0.19801268919908249 -0.2047314364620034 0 -0.1902080517791363 -0.1917922864575213 0 -0.20975599501317069 -0.18428575108984399 0 -0.18277425339256639 -0.2026996383603622 0 -0.19801268919908249 -0.2047314364620034 0 -0.1902080517791363 -0.1917922864575213 0 -0.21541309520260529 -0.20113031717637361 0 -0.20975599501317069 -0.18428575108984399 0 -0.229896455205026 -0.18225842567294781 0 -0.19801268919908249 -0.2047314364620034 0 -0.21541309520260529 -0.20113031717637361 0 -0.20975599501317069 -0.18428575108984399 0 -0.19801268919908249 -0.2047314364620034 0 -0.20975599501317069 -0.18428575108984399 0 -0.21541309520260529 -0.20113031717637361 0 -0.23384346774119599 -0.2034651679104556 0 -0.229896455205026 -0.18225842567294781 0 -0.24262172765942899 -0.19089247064050549 0 -0.25644706280453389 -0.1995927939493197 0 -0.25029992488695979 -0.1782534950292988 0 -0.24262172765942899 -0.19089247064050549 0 -0.23384346774119599 -0.2034651679104556 0 -0.25644706280453389 -0.1995927939493197 0 -0.24262172765942899 -0.19089247064050549 0 -0.23384346774119599 -0.2034651679104556 0 -0.229896455205026 -0.18225842567294781 0 -0.23384346774119599 -0.2034651679104556 0 -0.2377451423251814 -0.23136366228574551 0 -0.25674041691710447 -0.22108212323078871 0 -0.23384346774119599 -0.2034651679104556 0 -0.25674041691710447 -0.22108212323078871 0 -0.25644706280453389 -0.1995927939493197 0 -0.21493562756427159 -0.22243862284749449 0 -0.21541309520260529 -0.20113031717637361 0 -0.23384346774119599 -0.2034651679104556 0 -0.21493562756427159 -0.22243862284749449 0 -0.23384346774119599 -0.2034651679104556 0 -0.2377451423251814 -0.23136366228574551 0 -0.24465976002352091 -0.25387891845332877 0 -0.2377451423251814 -0.23136366228574551 0 -0.25992972331208369 -0.2410680052130979 0 -0.24465976002352091 -0.25387891845332877 0 -0.21854221021918649 -0.25236034283526498 0 -0.2377451423251814 -0.23136366228574551 0 -0.21854221021918649 -0.25236034283526498 0 -0.21493562756427159 -0.22243862284749449 0 -0.2377451423251814 -0.23136366228574551 0 -0.21854221021918649 -0.25236034283526498 0 -0.2377451423251814 -0.23136366228574551 0 -0.21569240293870359 -0.1466438091422006 0 -0.18947664049148261 -0.1562636999060015 0 -0.2105647825198341 -0.15627799774793921 0 -0.2105647825198341 -0.15627799774793921 0 -0.22149930082725899 -0.1638400657176845 0 -0.22047208921520459 -0.14652609931143951 0 -0.21569240293870359 -0.1466438091422006 0 -0.2105647825198341 -0.15627799774793921 0 -0.22047208921520459 -0.14652609931143951 0 -0.21569240293870359 -0.1466438091422006 0 -0.22047208921520459 -0.14652609931143951 0 -0.20228853596836749 -0.13187567246267581 0 -0.2244809527826766 -0.1321180186971766 0 -0.2129261089666101 -0.1196792574727195 0 -0.21569240293870359 -0.1466438091422006 0 -0.20228853596836749 -0.13187567246267581 0 -0.2244809527826766 -0.1321180186971766 0 -0.18633417632017751 -0.14736681724080919 0 -0.20228853596836749 -0.13187567246267581 0 -0.18400621351090571 -0.1217110611121094 0 -0.21569240293870359 -0.1466438091422006 0 -0.18947664049148261 -0.1562636999060015 0 -0.18633417632017751 -0.14736681724080919 0 -0.21569240293870359 -0.1466438091422006 0 -0.18947664049148261 -0.1562636999060015 0 -0.18633417632017751 -0.14736681724080919 0 -0.21569240293870359 -0.1466438091422006 0 -0.18633417632017751 -0.14736681724080919 0 -0.21569240293870359 -0.1466438091422006 0 -0.20228853596836749 -0.13187567246267581 0 -0.1783922457352059 -0.17293489930968209 0 -0.18947664049148261 -0.1562636999060015 0 -0.1969820185962792 -0.17828497948479149 0 -0.18947664049148261 -0.1562636999060015 0 -0.1969820185962792 -0.17828497948479149 0 -0.20568347912652049 -0.16811631466237001 0 -0.18947664049148261 -0.1562636999060015 0 -0.20568347912652049 -0.16811631466237001 0 -0.2105647825198341 -0.15627799774793921 0 -0.1902080517791363 -0.1917922864575213 0 -0.1969820185962792 -0.17828497948479149 0 -0.20975599501317069 -0.18428575108984399 0 -0.17547527524387041 -0.1884338249559952 0 -0.1902080517791363 -0.1917922864575213 0 -0.1969820185962792 -0.17828497948479149 0 -0.20975599501317069 -0.18428575108984399 0 -0.22149930082725899 -0.1638400657176845 0 -0.20975599501317069 -0.18428575108984399 0 -0.20568347912652049 -0.16811631466237001 0 -0.22149930082725899 -0.1638400657176845 0 -0.1969820185962792 -0.17828497948479149 0 -0.20975599501317069 -0.18428575108984399 0 -0.20568347912652049 -0.16811631466237001 0 -0.20568347912652049 -0.16811631466237001 0 -0.2105647825198341 -0.15627799774793921 0 -0.22149930082725899 -0.1638400657176845 0 -0.22149930082725899 -0.1638400657176845 0 -0.2402834514435094 -0.1667894474332684 0 -0.2341322288468432 -0.15422277024092529 0 -0.22149930082725899 -0.1638400657176845 0 -0.229896455205026 -0.18225842567294781 0 -0.2402834514435094 -0.1667894474332684 0 -0.20975599501317069 -0.18428575108984399 0 -0.22149930082725899 -0.1638400657176845 0 -0.229896455205026 -0.18225842567294781 0 -0.229896455205026 -0.18225842567294781 0 -0.2402834514435094 -0.1667894474332684 0 -0.25029992488695979 -0.1782534950292988 0 -0.24262172765942899 -0.19089247064050549 0 -0.229896455205026 -0.18225842567294781 0 -0.25029992488695979 -0.1782534950292988 0 -0.2402834514435094 -0.1667894474332684 0 -0.25029992488695979 -0.1782534950292988 0 -0.25761979100978533 -0.16665415002795461 0 -0.2402834514435094 -0.1667894474332684 0 -0.24825300788518309 -0.1555077779107997 0 -0.25761979100978533 -0.16665415002795461 0 -0.2402834514435094 -0.1667894474332684 0 -0.24825300788518309 -0.1555077779107997 0 -0.2341322288468432 -0.15422277024092529 0 -0.24825300788518309 -0.1555077779107997 0 -0.2405789555143194 -0.1375116727892334 0 -0.25601133851015478 -0.1487044986697981 0 -0.24825300788518309 -0.1555077779107997 0 -0.2341322288468432 -0.15422277024092529 0 -0.2405789555143194 -0.1375116727892334 0 -0.21569240293870359 -0.1466438091422006 0 -0.22047208921520459 -0.14652609931143951 0 -0.2405789555143194 -0.1375116727892334 0 -0.22149930082725899 -0.1638400657176845 0 -0.2341322288468432 -0.15422277024092529 0 -0.22047208921520459 -0.14652609931143951 0 -0.21569240293870359 -0.1466438091422006 0 -0.2405789555143194 -0.1375116727892334 0 -0.2341322288468432 -0.15422277024092529 0 -0.22047208921520459 -0.14652609931143951 0 -0.2405789555143194 -0.1375116727892334 0 -0.21569240293870359 -0.1466438091422006 0 -0.2244809527826766 -0.1321180186971766 0 -0.2405789555143194 -0.1375116727892334 0 -0.2244809527826766 -0.1321180186971766 0 -0.2405789555143194 -0.1375116727892334 0 -0.23651179230599079 -0.1199754775459997 0 -0.2405789555143194 -0.1375116727892334 0 -0.23651179230599079 -0.1199754775459997 0 -0.25054446979338107 -0.12912519928877991 0 -0.23651179230599079 -0.1199754775459997 0 -0.24959534238117709 -0.1078054475449232 0 -0.26009747564537128 -0.1202716976192799 0 -0.23651179230599079 -0.1199754775459997 0 -0.26009747564537128 -0.1202716976192799 0 -0.23651179230599079 -0.1199754775459997 0 -0.26009747564537128 -0.1202716976192799 0 -0.25054446979338107 -0.12912519928877991 0 -0.23651179230599079 -0.1199754775459997 0 -0.24959534238117709 -0.1078054475449232 0 -0.23746734258601571 -0.1067534300414448 0 -0.24098124084432149 -0.095291905336151436 0 -0.23746734258601571 -0.1067534300414448 0 -0.22473934926471251 -0.1042306158888877 0 -0.24959534238117709 -0.1078054475449232 0 -0.24098124084432149 -0.095291905336151436 0 -0.25687551172258971 -0.095275519396915032 0 -0.24959534238117709 -0.1078054475449232 0 -0.24098124084432149 -0.095291905336151436 0 -0.23746734258601571 -0.1067534300414448 0 -0.22473934926471251 -0.1042306158888877 0 -0.22774604229393439 -0.087804120453188278 0 -0.20897213189474381 -0.093424031558921927 0 -0.24098124084432149 -0.095291905336151436 0 -0.22473934926471251 -0.1042306158888877 0 -0.22774604229393439 -0.087804120453188278 0 -0.2244809527826766 -0.1321180186971766 0 -0.23651179230599079 -0.1199754775459997 0 -0.2129261089666101 -0.1196792574727195 0 -0.23651179230599079 -0.1199754775459997 0 -0.2129261089666101 -0.1196792574727195 0 -0.23651179230599079 -0.1199754775459997 0 -0.23746734258601571 -0.1067534300414448 0 -0.22473934926471251 -0.1042306158888877 0 -0.23651179230599079 -0.1199754775459997 0 -0.22473934926471251 -0.1042306158888877 0 -0.2129261089666101 -0.1196792574727195 0 -0.2466384096447127 -0.069214282175018252 0 -0.23144064811545881 -0.071679072189906365 0 -0.24006258296416741 -0.059977364163272567 0 -0.2466384096447127 -0.069214282175018252 0 -0.23867713564867771 -0.0818228939715063 0 -0.25106785873748549 -0.083001848322642804 0 -0.2466384096447127 -0.069214282175018252 0 -0.23867713564867771 -0.0818228939715063 0 -0.23144064811545881 -0.071679072189906365 0 -0.24098124084432149 -0.095291905336151436 0 -0.25106785873748549 -0.083001848322642804 0 -0.25687551172258971 -0.095275519396915032 0 -0.24098124084432149 -0.095291905336151436 0 -0.23867713564867771 -0.0818228939715063 0 -0.25106785873748549 -0.083001848322642804 0 -0.24098124084432149 -0.095291905336151436 0 -0.23867713564867771 -0.0818228939715063 0 -0.22774604229393439 -0.087804120453188278 0 -0.22048160989483939 -0.080833284582646742 0 -0.22774604229393439 -0.087804120453188278 0 -0.23144064811545881 -0.071679072189906365 0 -0.23867713564867771 -0.0818228939715063 0 -0.22774604229393439 -0.087804120453188278 0 -0.23144064811545881 -0.071679072189906365 0 -0.22048160989483939 -0.080833284582646742 0 -0.22774604229393439 -0.087804120453188278 0 -0.20897213189474381 -0.093424031558921927 0 -0.23144064811545881 -0.071679072189906365 0 -0.2137676172752207 -0.070425914128570383 0 -0.21856310265569601 -0.047427796698218422 0 -0.22048160989483939 -0.080833284582646742 0 -0.23144064811545881 -0.071679072189906365 0 -0.2137676172752207 -0.070425914128570383 0 -0.23144064811545881 -0.071679072189906365 0 -0.23092663332862359 -0.057189961691847993 0 -0.24006258296416741 -0.059977364163272567 0 -0.20335705558913081 -0.063140738221072371 0 -0.2137676172752207 -0.070425914128570383 0 -0.20224544779007569 -0.076575791796341275 0 -0.2137676172752207 -0.070425914128570383 0 -0.20897213189474381 -0.093424031558921927 0 -0.20224544779007569 -0.076575791796341275 0 -0.2137676172752207 -0.070425914128570383 0 -0.20897213189474381 -0.093424031558921927 0 -0.22048160989483939 -0.080833284582646742 0 -0.2137676172752207 -0.070425914128570383 0 -0.20897213189474381 -0.093424031558921927 0 -0.20897213189474381 -0.093424031558921927 0 -0.18864483179057751 -0.079783658531738119 0 -0.20224544779007569 -0.076575791796341275 0 -0.20897213189474381 -0.093424031558921927 0 -0.18864483179057751 -0.079783658531738119 0 -0.1843208979706715 -0.098582101900239388 0 -0.20335705558913081 -0.063140738221072371 0 -0.18864483179057751 -0.079783658531738119 0 -0.20224544779007569 -0.076575791796341275 0 -0.20335705558913081 -0.063140738221072371 0 -0.18864483179057751 -0.079783658531738119 0 -0.20335705558913081 -0.063140738221072371 0 -0.18864483179057751 -0.079783658531738119 0 -0.18476368522970901 -0.060313507398174523 0 -0.22473934926471251 -0.1042306158888877 0 -0.2129261089666101 -0.1196792574727195 0 -0.1994025973422491 -0.10829052452779669 0 -0.20228853596836749 -0.13187567246267581 0 -0.2129261089666101 -0.1196792574727195 0 -0.1994025973422491 -0.10829052452779669 0 -0.22473934926471251 -0.1042306158888877 0 -0.20897213189474381 -0.093424031558921927 0 -0.1994025973422491 -0.10829052452779669 0 -0.20897213189474381 -0.093424031558921927 0 -0.1994025973422491 -0.10829052452779669 0 -0.1843208979706715 -0.098582101900239388 0 -0.20228853596836749 -0.13187567246267581 0 -0.1994025973422491 -0.10829052452779669 0 -0.18400621351090571 -0.1217110611121094 0 -0.1994025973422491 -0.10829052452779669 0 -0.18400621351090571 -0.1217110611121094 0 -0.1843208979706715 -0.098582101900239388 0 -0.16621773075288121 -0.1295318635244681 0 -0.18400621351090571 -0.1217110611121094 0 -0.16647442841019139 -0.11035058163789351 0 -0.18400621351090571 -0.1217110611121094 0 -0.16647442841019139 -0.11035058163789351 0 -0.1843208979706715 -0.098582101900239388 0 -0.16621773075288121 -0.1295318635244681 0 -0.16647442841019139 -0.11035058163789351 0 -0.14737054533773081 -0.1208951937003558 0 -0.16647442841019139 -0.11035058163789351 0 -0.16521255597131029 -0.094363556792246006 0 -0.15171862691764881 -0.097019712797942706 0 -0.16647442841019139 -0.11035058163789351 0 -0.16521255597131029 -0.094363556792246006 0 -0.1843208979706715 -0.098582101900239388 0 -0.16521255597131029 -0.094363556792246006 0 -0.1843208979706715 -0.098582101900239388 0 -0.1718657805157274 -0.077566403117392158 0 -0.18864483179057751 -0.079783658531738119 0 -0.1843208979706715 -0.098582101900239388 0 -0.1718657805157274 -0.077566403117392158 0 -0.18864483179057751 -0.079783658531738119 0 -0.1718657805157274 -0.077566403117392158 0 -0.18476368522970901 -0.060313507398174523 0 -0.1718657805157274 -0.077566403117392158 0 -0.16766997596840549 -0.055069670457126463 0 -0.18476368522970901 -0.060313507398174523 0 -0.1718657805157274 -0.077566403117392158 0 -0.1555984100513392 -0.067553704814911478 0 -0.16766997596840549 -0.055069670457126463 0 -0.1718657805157274 -0.077566403117392158 0 -0.15451520526235171 -0.083858215916353424 0 -0.1555984100513392 -0.067553704814911478 0 -0.16521255597131029 -0.094363556792246006 0 -0.1718657805157274 -0.077566403117392158 0 -0.15451520526235171 -0.083858215916353424 0 -0.16521255597131029 -0.094363556792246006 0 -0.15451520526235171 -0.083858215916353424 0 -0.15171862691764881 -0.097019712797942706 0 -0.15451520526235171 -0.083858215916353424 0 -0.14334301715898221 -0.074859018030624863 0 -0.13903100861317999 -0.090330850909877913 0 -0.15451520526235171 -0.083858215916353424 0 -0.13903100861317999 -0.090330850909877913 0 -0.15171862691764881 -0.097019712797942706 0 -0.1377651409738101 -0.093700562061298426 0 -0.13903100861317999 -0.090330850909877913 0 -0.15171862691764881 -0.097019712797942706 0 -0.15451520526235171 -0.083858215916353424 0 -0.1555984100513392 -0.067553704814911478 0 -0.14334301715898221 -0.074859018030624863 0 -0.1555984100513392 -0.067553704814911478 0 -0.14334301715898221 -0.074859018030624863 0 -0.13945189113323761 -0.059806177835795588 0 -0.14334301715898221 -0.074859018030624863 0 -0.12930964035960699 -0.069761515268982097 0 -0.13945189113323761 -0.059806177835795588 0 -0.12930964035960699 -0.069761515268982097 0 -0.1377651409738101 -0.093700562061298426 0 -0.12930964035960699 -0.069761515268982097 0 -0.1377651409738101 -0.093700562061298426 0 -0.13903100861317999 -0.090330850909877913 0 -0.1189291253072135 -0.086669643832799348 0 -0.12930964035960699 -0.069761515268982097 0 -0.1377651409738101 -0.093700562061298426 0 -0.14334301715898221 -0.074859018030624863 0 -0.12930964035960699 -0.069761515268982097 0 -0.13903100861317999 -0.090330850909877913 0 -0.1377651409738101 -0.093700562061298426 0 -0.13903100861317999 -0.090330850909877913 0 -0.11893842975153809 -0.10446969177473921 0 -0.1377651409738101 -0.093700562061298426 0 -0.12736410167423581 -0.1213878944680517 0 -0.1377651409738101 -0.093700562061298426 0 -0.12736410167423581 -0.1213878944680517 0 -0.11893842975153809 -0.10446969177473921 0 -0.1189291253072135 -0.086669643832799348 0 -0.1377651409738101 -0.093700562061298426 0 -0.1377651409738101 -0.093700562061298426 0 -0.12736410167423581 -0.1213878944680517 0 -0.14737054533773081 -0.1208951937003558 0 -0.16647442841019139 -0.11035058163789351 0 -0.14737054533773081 -0.1208951937003558 0 -0.15171862691764881 -0.097019712797942706 0 -0.1377651409738101 -0.093700562061298426 0 -0.14737054533773081 -0.1208951937003558 0 -0.15171862691764881 -0.097019712797942706 0 -0.1377651409738101 -0.093700562061298426 0 -0.14737054533773081 -0.1208951937003558 0 -0.14925834278157041 -0.027771983247297551 0 -0.15381676672243971 -0.0048344028756085976 0 -0.16158573310271521 -0.019122381719964599 0 -0.14925834278157041 -0.027771983247297551 0 -0.15381676672243971 -0.0048344028756085976 0 -0.14925834278157041 -0.027771983247297551 0 -0.13622810944285851 -0.025664644749336048 0 -0.13728148428220571 -0.03631729474545041 0 -0.15381676672243971 -0.0048344028756085976 0 -0.13373576905839379 -0.01378162565115138 0 -0.13796817939809339 -7.5853332940862265e-05 0 -0.14925834278157041 -0.027771983247297551 0 -0.15381676672243971 -0.0048344028756085976 0 -0.13373576905839379 -0.01378162565115138 0 -0.1244522405185825 -0.00038769298458709092 0 -0.1246368416492639 -0.024787675353444869 0 -0.13373576905839379 -0.01378162565115138 0 -0.1244522405185825 -0.00038769298458709092 0 -0.13373576905839379 -0.01378162565115138 0 -0.13796817939809339 -7.5853332940862265e-05 0 -0.1244522405185825 -0.00038769298458709092 0 -0.13373576905839379 -0.01378162565115138 0 -0.1246368416492639 -0.024787675353444869 0 -0.13373576905839379 -0.01378162565115138 0 -0.13622810944285851 -0.025664644749336048 0 -0.14925834278157041 -0.027771983247297551 0 -0.13373576905839379 -0.01378162565115138 0 -0.13622810944285851 -0.025664644749336048 0 -0.1246368416492639 -0.024787675353444869 0 -0.13622810944285851 -0.025664644749336048 0 -0.13728148428220571 -0.03631729474545041 0 -0.1248214427799455 -0.0491876577223027 0 -0.1246368416492639 -0.024787675353444869 0 -0.13067566527459321 -0.039597081228004503 0 -0.1246368416492639 -0.024787675353444869 0 -0.13067566527459321 -0.039597081228004503 0 -0.13728148428220571 -0.03631729474545041 0 -0.1248214427799455 -0.0491876577223027 0 -0.13067566527459321 -0.039597081228004503 0 -0.1359628923869578 -0.048095697090820053 0 -0.13067566527459321 -0.039597081228004503 0 -0.13728148428220571 -0.03631729474545041 0 -0.1359628923869578 -0.048095697090820053 0 -0.13728148428220571 -0.03631729474545041 0 -0.1359628923869578 -0.048095697090820053 0 -0.14767594406259391 -0.049379474087132447 0 -0.1248214427799455 -0.0491876577223027 0 -0.12930964035960699 -0.069761515268982097 0 -0.13945189113323761 -0.059806177835795588 0 -0.1208541397454049 -0.045822468476665427 0 -0.12930964035960699 -0.069761515268982097 0 -0.1248214427799455 -0.0491876577223027 0 -0.1359628923869578 -0.048095697090820053 0 -0.13945189113323761 -0.059806177835795588 0 -0.1555984100513392 -0.067553704814911478 0 -0.13945189113323761 -0.059806177835795588 0 -0.14767594406259391 -0.049379474087132447 0 -0.1359628923869578 -0.048095697090820053 0 -0.13945189113323761 -0.059806177835795588 0 -0.14767594406259391 -0.049379474087132447 0 -0.14925834278157041 -0.027771983247297551 0 -0.14767594406259391 -0.049379474087132447 0 -0.16346190388351911 -0.035477368974388322 0 -0.14925834278157041 -0.027771983247297551 0 -0.13728148428220571 -0.03631729474545041 0 -0.14767594406259391 -0.049379474087132447 0 -0.14767594406259391 -0.049379474087132447 0 -0.16346190388351911 -0.035477368974388322 0 -0.16766997596840549 -0.055069670457126463 0 -0.16346190388351911 -0.035477368974388322 0 -0.16766997596840549 -0.055069670457126463 0 -0.1792130821544009 -0.041655239440509813 0 -0.1555984100513392 -0.067553704814911478 0 -0.14767594406259391 -0.049379474087132447 0 -0.16766997596840549 -0.055069670457126463 0 -0.16766997596840549 -0.055069670457126463 0 -0.18476368522970901 -0.060313507398174523 0 -0.1792130821544009 -0.041655239440509813 0 -0.18476368522970901 -0.060313507398174523 0 -0.1792130821544009 -0.041655239440509813 0 -0.19607578221694649 -0.043845816873478577 0 -0.16346190388351911 -0.035477368974388322 0 -0.1792130821544009 -0.041655239440509813 0 -0.1747539590121796 -0.02148713112583673 0 -0.1792130821544009 -0.041655239440509813 0 -0.1747539590121796 -0.02148713112583673 0 -0.18874747204970219 -0.028974905836781941 0 -0.1747539590121796 -0.02148713112583673 0 -0.18814241231787171 -0.014961103822567131 0 -0.18874747204970219 -0.028974905836781941 0 -0.14925834278157041 -0.027771983247297551 0 -0.16346190388351911 -0.035477368974388322 0 -0.16158573310271521 -0.019122381719964599 0 -0.16346190388351911 -0.035477368974388322 0 -0.1747539590121796 -0.02148713112583673 0 -0.16158573310271521 -0.019122381719964599 0 -0.1747539590121796 -0.02148713112583673 0 -0.16158573310271521 -0.019122381719964599 0 -0.1670666400728934 -0.0075955490013497832 0 -0.15381676672243971 -0.0048344028756085976 0 -0.1670666400728934 -0.0075955490013497832 0 -0.16872927738725291 0.0066655648670224509 0 -0.15381676672243971 -0.0048344028756085976 0 -0.16158573310271521 -0.019122381719964599 0 -0.1670666400728934 -0.0075955490013497832 0 -0.1670666400728934 -0.0075955490013497832 0 -0.1785064095432054 -0.0066611219507198768 0 -0.16872927738725291 0.0066655648670224509 0 -0.1747539590121796 -0.02148713112583673 0 -0.1670666400728934 -0.0075955490013497832 0 -0.1785064095432054 -0.0066611219507198768 0 -0.1747539590121796 -0.02148713112583673 0 -0.1785064095432054 -0.0066611219507198768 0 -0.18814241231787171 -0.014961103822567131 0 -0.1785064095432054 -0.0066611219507198768 0 -0.18814241231787171 -0.014961103822567131 0 -0.193034969706537 0.00064734206737222756 0 -0.20555212454711219 -0.022925237921517471 0 -0.20993853639106591 -0.0035380738047605968 0 -0.193034969706537 0.00064734206737222756 0 -0.18814241231787171 -0.014961103822567131 0 -0.20555212454711219 -0.022925237921517471 0 -0.193034969706537 0.00064734206737222756 0 -0.20555212454711219 -0.022925237921517471 0 -0.193034969706537 0.00064734206737222756 0 -0.20993853639106591 -0.0035380738047605968 0 -0.193034969706537 0.00064734206737222756 0 -0.18814241231787171 -0.014961103822567131 0 -0.18874747204970219 -0.028974905836781941 0 -0.20555212454711219 -0.022925237921517471 0 -0.20555212454711219 -0.022925237921517471 0 -0.21630961893328751 -0.01519709454307171 0 -0.22290571171937651 -0.026601576769118469 0 -0.20993853639106591 -0.0035380738047605968 0 -0.22684210307559549 -0.0077234896768903086 0 -0.21568563774484731 0.0082874278720449449 0 -0.20993853639106591 -0.0035380738047605968 0 -0.21630961893328751 -0.01519709454307171 0 -0.22684210307559549 -0.0077234896768903086 0 -0.20555212454711219 -0.022925237921517471 0 -0.20993853639106591 -0.0035380738047605968 0 -0.21630961893328751 -0.01519709454307171 0 -0.20993853639106591 -0.0035380738047605968 0 -0.22684210307559549 -0.0077234896768903086 0 -0.20335705558913081 -0.063140738221072371 0 -0.18476368522970901 -0.060313507398174523 0 -0.19607578221694649 -0.043845816873478577 0 -0.1792130821544009 -0.041655239440509813 0 -0.18874747204970219 -0.028974905836781941 0 -0.19607578221694649 -0.043845816873478577 0 -0.18874747204970219 -0.028974905836781941 0 -0.20555212454711219 -0.022925237921517471 0 -0.19607578221694649 -0.043845816873478577 0 -0.20555212454711219 -0.022925237921517471 0 -0.21856310265569601 -0.047427796698218422 0 -0.20555212454711219 -0.022925237921517471 0 -0.21856310265569601 -0.047427796698218422 0 -0.21896932036315811 -0.045479663861346789 0 -0.20555212454711219 -0.022925237921517471 0 -0.19607578221694649 -0.043845816873478577 0 -0.21856310265569601 -0.047427796698218422 0 -0.20555212454711219 -0.022925237921517471 0 -0.21896932036315811 -0.045479663861346789 0 -0.22290571171937651 -0.026601576769118469 0 -0.2137676172752207 -0.070425914128570383 0 -0.21856310265569601 -0.047427796698218422 0 -0.20335705558913081 -0.063140738221072371 0 -0.2137676172752207 -0.070425914128570383 0 -0.21856310265569601 -0.047427796698218422 0 -0.20335705558913081 -0.063140738221072371 0 -0.19607578221694649 -0.043845816873478577 0 -0.21856310265569601 -0.047427796698218422 0 -0.20335705558913081 -0.063140738221072371 0 -0.21856310265569601 -0.047427796698218422 0 -0.23144064811545881 -0.071679072189906365 0 -0.21856310265569601 -0.047427796698218422 0 -0.23092663332862359 -0.057189961691847993 0 -0.23144064811545881 -0.071679072189906365 0 -0.21856310265569601 -0.047427796698218422 0 -0.21856310265569601 -0.047427796698218422 0 -0.23092663332862359 -0.057189961691847993 0 -0.22458774444026389 -0.046948698447319907 0 -0.23092663332862359 -0.057189961691847993 0 -0.2320274706224234 -0.04981915803055513 0 -0.23892230415514151 -0.050781370399802413 0 -0.23092663332862359 -0.057189961691847993 0 -0.22458774444026389 -0.046948698447319907 0 -0.2320274706224234 -0.04981915803055513 0 -0.21896932036315811 -0.045479663861346789 0 -0.2306307955349908 -0.032287844280089482 0 -0.22290571171937651 -0.026601576769118469 0 -0.21896932036315811 -0.045479663861346789 0 -0.22290571171937651 -0.026601576769118469 0 -0.22458774444026389 -0.046948698447319907 0 -0.2320274706224234 -0.04981915803055513 0 -0.23529860714157019 -0.041169280456794459 0 -0.22458774444026389 -0.046948698447319907 0 -0.2306307955349908 -0.032287844280089482 0 -0.23529860714157019 -0.041169280456794459 0 -0.22458774444026389 -0.046948698447319907 0 -0.21896932036315811 -0.045479663861346789 0 -0.2306307955349908 -0.032287844280089482 0 -0.21856310265569601 -0.047427796698218422 0 -0.22458774444026389 -0.046948698447319907 0 -0.21896932036315811 -0.045479663861346789 0 -0.21856310265569601 -0.047427796698218422 0 -0.21896932036315811 -0.045479663861346789 0 -0.21896932036315811 -0.045479663861346789 0 -0.2306307955349908 -0.032287844280089482 0 -0.2306307955349908 -0.032287844280089482 0 -0.23529860714157019 -0.041169280456794459 0 -0.241537864008738 -0.030171217790278881 0 -0.24798951326795751 -0.035882587373858313 0 -0.23529860714157019 -0.041169280456794459 0 -0.241537864008738 -0.030171217790278881 0 -0.24798951326795751 -0.035882587373858313 0 -0.24357205858261219 -0.044359355700093257 0 -0.23529860714157019 -0.041169280456794459 0 -0.24798951326795751 -0.035882587373858313 0 -0.24357205858261219 -0.044359355700093257 0 -0.25238491957690051 -0.051022134359787842 0 -0.24357205858261219 -0.044359355700093257 0 -0.23529860714157019 -0.041169280456794459 0 -0.23892230415514151 -0.050781370399802413 0 -0.2466384096447127 -0.069214282175018252 0 -0.24006258296416741 -0.059977364163272567 0 -0.25238491957690051 -0.051022134359787842 0 -0.2320274706224234 -0.04981915803055513 0 -0.23529860714157019 -0.041169280456794459 0 -0.23892230415514151 -0.050781370399802413 0 -0.23892230415514151 -0.050781370399802413 0 -0.24006258296416741 -0.059977364163272567 0 -0.25238491957690051 -0.051022134359787842 0 -0.24357205858261219 -0.044359355700093257 0 -0.23892230415514151 -0.050781370399802413 0 -0.25238491957690051 -0.051022134359787842 0 -0.23092663332862359 -0.057189961691847993 0 -0.23892230415514151 -0.050781370399802413 0 -0.24006258296416741 -0.059977364163272567 0 -0.21630961893328751 -0.01519709454307171 0 -0.22684210307559549 -0.0077234896768903086 0 -0.22290571171937651 -0.026601576769118469 0 -0.22684210307559549 -0.0077234896768903086 0 -0.22290571171937651 -0.026601576769118469 0 -0.23226271327452069 -0.02198020745377605 0 -0.22684210307559549 -0.0077234896768903086 0 -0.22290571171937651 -0.026601576769118469 0 -0.2306307955349908 -0.032287844280089482 0 -0.22290571171937651 -0.026601576769118469 0 -0.23226271327452069 -0.02198020745377605 0 -0.22684210307559549 -0.0077234896768903086 0 -0.23226271327452069 -0.02198020745377605 0 -0.24229227070682269 -0.019096024698831499 0 -0.2306307955349908 -0.032287844280089482 0 -0.241537864008738 -0.030171217790278881 0 -0.24229227070682269 -0.019096024698831499 0 -0.2306307955349908 -0.032287844280089482 0 -0.23226271327452069 -0.02198020745377605 0 -0.24229227070682269 -0.019096024698831499 0 -0.2306307955349908 -0.032287844280089482 0 -0.24229227070682269 -0.019096024698831499 0 -0.24798951326795751 -0.035882587373858313 0 -0.241537864008738 -0.030171217790278881 0 -0.25387676547985721 -0.02452441136234379 0 -0.241537864008738 -0.030171217790278881 0 -0.24229227070682269 -0.019096024698831499 0 -0.25387676547985721 -0.02452441136234379 0 -0.24229227070682269 -0.019096024698831499 0 -0.24826461013585729 -0.013027819984466921 0 -0.25387676547985721 -0.02452441136234379 0 -0.22684210307559549 -0.0077234896768903086 0 -0.24826461013585729 -0.013027819984466921 0 -0.24598119983726671 0.0037338506766126851 0 -0.22684210307559549 -0.0077234896768903086 0 -0.24229227070682269 -0.019096024698831499 0 -0.24826461013585729 -0.013027819984466921 0 -0.22684210307559549 -0.0077234896768903086 0 -0.24826461013585729 -0.013027819984466921 0 -0.24826461013585729 -0.013027819984466921 0 -0.26003022337954462 -0.0038093911555793728 0 -0.24598119983726671 0.0037338506766126851 0 -0.24826461013585729 -0.013027819984466921 0 -0.26003022337954462 -0.0038093911555793728 0 -0.26968711719611937 -0.018332150292041979 0 -0.24826461013585729 -0.013027819984466921 0 -0.26968711719611937 -0.018332150292041979 0 -0.25387676547985721 -0.02452441136234379 0 -0.26968711719611937 -0.018332150292041979 0 -0.26155562347943467 -0.037861138146123199 0 -0.24826461013585729 -0.013027819984466921 0 -0.25387676547985721 -0.02452441136234379 0 -0.26968711719611937 -0.018332150292041979 0 -0.26968711719611937 -0.018332150292041979 0 -0.28953187906397732 -0.034281883787379987 0 -0.27524211720584768 -0.038538427260779863 0 -0.26003022337954462 -0.0038093911555793728 0 -0.26968711719611937 -0.018332150292041979 0 -0.27433688946420332 -0.0007833753365484626 0 -0.26968711719611937 -0.018332150292041979 0 -0.27433688946420332 -0.0007833753365484626 0 -0.28631392786639209 -0.0070506759659385472 0 -0.28631392786639209 -0.0070506759659385472 0 -0.29653674479957171 -0.021015146411400301 0 -0.3025805037907468 -0.0027432771802810229 0 -0.28631392786639209 -0.0070506759659385472 0 -0.3025805037907468 -0.0027432771802810229 0 -0.28842838408131971 0.0076205693905790281 0 -0.27433688946420332 -0.0007833753365484626 0 -0.28631392786639209 -0.0070506759659385472 0 -0.28842838408131971 0.0076205693905790281 0 -0.26968711719611937 -0.018332150292041979 0 -0.28631392786639209 -0.0070506759659385472 0 -0.29653674479957171 -0.021015146411400301 0 -0.26968711719611937 -0.018332150292041979 0 -0.29653674479957171 -0.021015146411400301 0 -0.28953187906397732 -0.034281883787379987 0 -0.29653674479957171 -0.021015146411400301 0 -0.28953187906397732 -0.034281883787379987 0 -0.31718310516035308 -0.038172790333745737 0 -0.29653674479957171 -0.021015146411400301 0 -0.31459326366374579 -0.01532774276474733 0 -0.31718310516035308 -0.038172790333745737 0 -0.29653674479957171 -0.021015146411400301 0 -0.3025805037907468 -0.0027432771802810229 0 -0.31459326366374579 -0.01532774276474733 0 -0.30229462048881822 -0.056161209871372138 0 -0.29850594913894141 -0.055440370537233663 0 -0.30849544073550722 -0.074776909133231664 0 -0.30229462048881822 -0.056161209871372138 0 -0.29366820665513949 -0.048519954280836622 0 -0.31370341578724742 -0.051143824177853653 0 -0.30229462048881822 -0.056161209871372138 0 -0.29850594913894141 -0.055440370537233663 0 -0.29366820665513949 -0.048519954280836622 0 -0.30229462048881822 -0.056161209871372138 0 -0.31629816603535338 -0.060261719535131632 0 -0.30229462048881822 -0.056161209871372138 0 -0.31178497446605258 -0.064623658022855565 0 -0.31629816603535338 -0.060261719535131632 0 -0.30229462048881822 -0.056161209871372138 0 -0.31370341578724742 -0.051143824177853653 0 -0.31629816603535338 -0.060261719535131632 0 -0.29366820665513949 -0.048519954280836622 0 -0.31718310516035308 -0.038172790333745737 0 -0.29366820665513949 -0.048519954280836622 0 -0.31718310516035308 -0.038172790333745737 0 -0.31370341578724742 -0.051143824177853653 0 -0.28953187906397732 -0.034281883787379987 0 -0.29366820665513949 -0.048519954280836622 0 -0.31718310516035308 -0.038172790333745737 0 -0.28953187906397732 -0.034281883787379987 0 -0.29366820665513949 -0.048519954280836622 0 -0.27524211720584768 -0.038538427260779863 0 -0.29366820665513949 -0.048519954280836622 0 -0.27015330814992611 -0.058867118227927437 0 -0.29366820665513949 -0.048519954280836622 0 -0.28660483069534037 -0.061918496488246169 0 -0.27015330814992611 -0.058867118227927437 0 -0.29850594913894141 -0.055440370537233663 0 -0.28660483069534037 -0.061918496488246169 0 -0.29557893925590151 -0.069462416794053169 0 -0.29850594913894141 -0.055440370537233663 0 -0.29366820665513949 -0.048519954280836622 0 -0.28660483069534037 -0.061918496488246169 0 -0.29366820665513949 -0.048519954280836622 0 -0.27015330814992611 -0.058867118227927437 0 -0.27524211720584768 -0.038538427260779863 0 -0.26968711719611937 -0.018332150292041979 0 -0.27524211720584768 -0.038538427260779863 0 -0.26155562347943467 -0.037861138146123199 0 -0.27015330814992611 -0.058867118227927437 0 -0.27524211720584768 -0.038538427260779863 0 -0.26155562347943467 -0.037861138146123199 0 -0.24798951326795751 -0.035882587373858313 0 -0.26155562347943467 -0.037861138146123199 0 -0.25238491957690051 -0.051022134359787842 0 -0.24798951326795751 -0.035882587373858313 0 -0.25387676547985721 -0.02452441136234379 0 -0.26155562347943467 -0.037861138146123199 0 -0.27015330814992611 -0.058867118227927437 0 -0.26155562347943467 -0.037861138146123199 0 -0.25238491957690051 -0.051022134359787842 0 -0.2466384096447127 -0.069214282175018252 0 -0.27015330814992611 -0.058867118227927437 0 -0.25238491957690051 -0.051022134359787842 0 -0.2466384096447127 -0.069214282175018252 0 -0.27015330814992611 -0.058867118227927437 0 -0.26102584033089798 -0.073534373921212107 0 -0.2466384096447127 -0.069214282175018252 0 -0.27015330814992611 -0.058867118227927437 0 -0.2466384096447127 -0.069214282175018252 0 -0.26102584033089798 -0.073534373921212107 0 -0.25106785873748549 -0.083001848322642804 0 -0.25106785873748549 -0.083001848322642804 0 -0.26431637422662529 -0.083961298504163229 0 -0.25687551172258971 -0.095275519396915032 0 -0.26431637422662529 -0.083961298504163229 0 -0.25687551172258971 -0.095275519396915032 0 -0.26922948176741379 -0.094556007429682482 0 -0.26102584033089798 -0.073534373921212107 0 -0.25106785873748549 -0.083001848322642804 0 -0.26431637422662529 -0.083961298504163229 0 -0.26431637422662529 -0.083961298504163229 0 -0.27622487875609619 -0.085738752979791055 0 -0.27411142324960069 -0.07331497732508381 0 -0.26431637422662529 -0.083961298504163229 0 -0.27622487875609619 -0.085738752979791055 0 -0.26922948176741379 -0.094556007429682482 0 -0.27622487875609619 -0.085738752979791055 0 -0.26922948176741379 -0.094556007429682482 0 -0.28208733676033698 -0.099544680508420066 0 -0.27622487875609619 -0.085738752979791055 0 -0.27411142324960069 -0.07331497732508381 0 -0.28634330733871821 -0.075869823829162894 0 -0.28660483069534037 -0.061918496488246169 0 -0.27015330814992611 -0.058867118227927437 0 -0.27411142324960069 -0.07331497732508381 0 -0.27015330814992611 -0.058867118227927437 0 -0.26102584033089798 -0.073534373921212107 0 -0.27411142324960069 -0.07331497732508381 0 -0.26102584033089798 -0.073534373921212107 0 -0.26431637422662529 -0.083961298504163229 0 -0.27411142324960069 -0.07331497732508381 0 -0.24959534238117709 -0.1078054475449232 0 -0.26009747564537128 -0.1202716976192799 0 -0.26511094786836592 -0.1069062435210571 0 -0.24959534238117709 -0.1078054475449232 0 -0.26511094786836592 -0.1069062435210571 0 -0.25687551172258971 -0.095275519396915032 0 -0.26511094786836592 -0.1069062435210571 0 -0.25687551172258971 -0.095275519396915032 0 -0.26922948176741379 -0.094556007429682482 0 -0.26511094786836592 -0.1069062435210571 0 -0.27676276389741278 -0.11052104179975 0 -0.28208733676033698 -0.099544680508420066 0 -0.26511094786836592 -0.1069062435210571 0 -0.26922948176741379 -0.094556007429682482 0 -0.28208733676033698 -0.099544680508420066 0 -0.26511094786836592 -0.1069062435210571 0 -0.28208733676033698 -0.099544680508420066 0 -0.26009747564537128 -0.1202716976192799 0 -0.28368315898475188 -0.1205679176925603 0 -0.26697405985724948 -0.1304210152969853 0 -0.26009747564537128 -0.1202716976192799 0 -0.27676276389741278 -0.11052104179975 0 -0.28368315898475188 -0.1205679176925603 0 -0.26009747564537128 -0.1202716976192799 0 -0.28368315898475188 -0.1205679176925603 0 -0.26009747564537128 -0.1202716976192799 0 -0.26511094786836592 -0.1069062435210571 0 -0.27676276389741278 -0.11052104179975 0 -0.28368315898475188 -0.1205679176925603 0 -0.30807566230962469 -0.12087427087378499 0 -0.28368315898475188 -0.1205679176925603 0 -0.29137344231852969 -0.1063755175941712 0 -0.30807566230962469 -0.12087427087378499 0 -0.27676276389741278 -0.11052104179975 0 -0.28368315898475188 -0.1205679176925603 0 -0.29137344231852969 -0.1063755175941712 0 -0.28368315898475188 -0.1205679176925603 0 -0.29137344231852969 -0.1063755175941712 0 -0.29137344231852969 -0.1063755175941712 0 -0.28208733676033698 -0.099544680508420066 0 -0.29906372565230788 -0.092183117495782341 0 -0.28208733676033698 -0.099544680508420066 0 -0.29906372565230788 -0.092183117495782341 0 -0.27676276389741278 -0.11052104179975 0 -0.29137344231852969 -0.1063755175941712 0 -0.28208733676033698 -0.099544680508420066 0 -0.29137344231852969 -0.1063755175941712 0 -0.29906372565230788 -0.092183117495782341 0 -0.30690970986333499 -0.10413412755240679 0 -0.29906372565230788 -0.092183117495782341 0 -0.31411573014289268 -0.085656035662949492 0 -0.29137344231852969 -0.1063755175941712 0 -0.30690970986333499 -0.10413412755240679 0 -0.29906372565230788 -0.092183117495782341 0 -0.28368315898475188 -0.1205679176925603 0 -0.30807566230962469 -0.12087427087378499 0 -0.30140371581860798 -0.1292511186866305 0 -0.29137344231852969 -0.1063755175941712 0 -0.30690970986333499 -0.10413412755240679 0 -0.30807566230962469 -0.12087427087378499 0 -0.29557893925590151 -0.069462416794053169 0 -0.28634330733871821 -0.075869823829162894 0 -0.29528406594296941 -0.079953964946478426 0 -0.28660483069534037 -0.061918496488246169 0 -0.29557893925590151 -0.069462416794053169 0 -0.28634330733871821 -0.075869823829162894 0 -0.28660483069534037 -0.061918496488246169 0 -0.27411142324960069 -0.07331497732508381 0 -0.28634330733871821 -0.075869823829162894 0 -0.27622487875609619 -0.085738752979791055 0 -0.28634330733871821 -0.075869823829162894 0 -0.28693891673241251 -0.08747755748016231 0 -0.28208733676033698 -0.099544680508420066 0 -0.28693891673241251 -0.08747755748016231 0 -0.29906372565230788 -0.092183117495782341 0 -0.27622487875609619 -0.085738752979791055 0 -0.28208733676033698 -0.099544680508420066 0 -0.28693891673241251 -0.08747755748016231 0 -0.28693891673241251 -0.08747755748016231 0 -0.29528406594296941 -0.079953964946478426 0 -0.29906372565230788 -0.092183117495782341 0 -0.28634330733871821 -0.075869823829162894 0 -0.28693891673241251 -0.08747755748016231 0 -0.29528406594296941 -0.079953964946478426 0 -0.29528406594296941 -0.079953964946478426 0 -0.29906372565230788 -0.092183117495782341 0 -0.30849544073550722 -0.074776909133231664 0 -0.29906372565230788 -0.092183117495782341 0 -0.30849544073550722 -0.074776909133231664 0 -0.29906372565230788 -0.092183117495782341 0 -0.30849544073550722 -0.074776909133231664 0 -0.31411573014289268 -0.085656035662949492 0 -0.29906372565230788 -0.092183117495782341 0 -0.31411573014289268 -0.085656035662949492 0 -0.30849544073550722 -0.074776909133231664 0 -0.31411573014289268 -0.085656035662949492 0 -0.30229462048881822 -0.056161209871372138 0 -0.30849544073550722 -0.074776909133231664 0 -0.31178497446605258 -0.064623658022855565 0 -0.29850594913894141 -0.055440370537233663 0 -0.29557893925590151 -0.069462416794053169 0 -0.30849544073550722 -0.074776909133231664 0 -0.30849544073550722 -0.074776909133231664 0 -0.31286059459191501 -0.066721027791507209 0 -0.29850594913894141 -0.055440370537233663 0 -0.30849544073550722 -0.074776909133231664 0 -0.29557893925590151 -0.069462416794053169 0 -0.29528406594296941 -0.079953964946478426 0 -0.30849544073550722 -0.074776909133231664 0 -0.30849544073550722 -0.074776909133231664 0 -0.31178497446605258 -0.064623658022855565 0 -0.31286059459191501 -0.066721027791507209 0 -0.31178497446605258 -0.064623658022855565 0 -0.31286059459191501 -0.066721027791507209 0 -0.31286059459191501 -0.066721027791507209 0 -0.32103296817657878 -0.082656476452658639 0 -0.31286059459191501 -0.066721027791507209 0 -0.32103296817657878 -0.082656476452658639 0 -0.32352590008436471 -0.062378140209921912 0 -0.31178497446605258 -0.064623658022855565 0 -0.31286059459191501 -0.066721027791507209 0 -0.31629816603535338 -0.060261719535131632 0 -0.30849544073550722 -0.074776909133231664 0 -0.31286059459191501 -0.066721027791507209 0 -0.32103296817657878 -0.082656476452658639 0 -0.31286059459191501 -0.066721027791507209 0 -0.31629816603535338 -0.060261719535131632 0 -0.31286059459191501 -0.066721027791507209 0 -0.31629816603535338 -0.060261719535131632 0 -0.32352590008436471 -0.062378140209921912 0 -0.32103296817657878 -0.082656476452658639 0 -0.33093834944883532 -0.101971145942244 0 -0.30849544073550722 -0.074776909133231664 0 -0.31411573014289268 -0.085656035662949492 0 -0.32103296817657878 -0.082656476452658639 0 -0.31411573014289268 -0.085656035662949492 0 -0.32103296817657878 -0.082656476452658639 0 -0.32329194788869442 -0.1034183298589804 0 -0.31411573014289268 -0.085656035662949492 0 -0.32103296817657878 -0.082656476452658639 0 -0.32103296817657878 -0.082656476452658639 0 -0.33692687914299491 -0.089632102483736459 0 -0.33093834944883532 -0.101971145942244 0 -0.32103296817657878 -0.082656476452658639 0 -0.33692687914299491 -0.089632102483736459 0 -0.3453529791357649 -0.07211045902320197 0 -0.32103296817657878 -0.082656476452658639 0 -0.3453529791357649 -0.07211045902320197 0 -0.32352590008436471 -0.062378140209921912 0 -0.34475717967991132 -0.068595070548471249 0 -0.3453529791357649 -0.07211045902320197 0 -0.32352590008436471 -0.062378140209921912 0 -0.34475717967991132 -0.068595070548471249 0 -0.32352590008436471 -0.062378140209921912 0 -0.32103296817657878 -0.082656476452658639 0 -0.3453529791357649 -0.07211045902320197 0 -0.30807566230962469 -0.12087427087378499 0 -0.32329194788869442 -0.1034183298589804 0 -0.33246816563449738 -0.1211806240550105 0 -0.30807566230962469 -0.12087427087378499 0 -0.33246816563449738 -0.1211806240550105 0 -0.30807566230962469 -0.12087427087378499 0 -0.32007374605487132 -0.12494213909402439 0 -0.33246816563449738 -0.1211806240550105 0 -0.30690970986333499 -0.10413412755240679 0 -0.30807566230962469 -0.12087427087378499 0 -0.32329194788869442 -0.1034183298589804 0 -0.32329194788869442 -0.1034183298589804 0 -0.33246816563449738 -0.1211806240550105 0 -0.32007374605487132 -0.12494213909402439 0 -0.33441303965894859 -0.1249452932850653 0 -0.30690970986333499 -0.10413412755240679 0 -0.31411573014289268 -0.085656035662949492 0 -0.32329194788869442 -0.1034183298589804 0 -0.32103296817657878 -0.082656476452658639 0 -0.32329194788869442 -0.1034183298589804 0 -0.33093834944883532 -0.101971145942244 0 -0.31411573014289268 -0.085656035662949492 0 -0.32329194788869442 -0.1034183298589804 0 -0.32329194788869442 -0.1034183298589804 0 -0.33093834944883532 -0.101971145942244 0 -0.33246816563449738 -0.1211806240550105 0 -0.33692687914299491 -0.089632102483736459 0 -0.33093834944883532 -0.101971145942244 0 -0.35038321981080389 -0.10179032851684799 0 -0.33093834944883532 -0.101971145942244 0 -0.34773438721257438 -0.1121772477149196 0 -0.35038321981080389 -0.10179032851684799 0 -0.33093834944883532 -0.101971145942244 0 -0.3408437307210912 -0.1212858154318297 0 -0.33093834944883532 -0.101971145942244 0 -0.3408437307210912 -0.1212858154318297 0 -0.33246816563449738 -0.1211806240550105 0 -0.33093834944883532 -0.101971145942244 0 -0.3408437307210912 -0.1212858154318297 0 -0.34773438721257438 -0.1121772477149196 0 -0.34272140335036932 -0.124947120862287 0 -0.3408437307210912 -0.1212858154318297 0 -0.33441303965894859 -0.1249452932850653 0 -0.3408437307210912 -0.1212858154318297 0 -0.33246816563449738 -0.1211806240550105 0 -0.34272140335036932 -0.124947120862287 0 -0.33441303965894859 -0.1249452932850653 0 -0.34272140335036932 -0.124947120862287 0 -0.3408437307210912 -0.1212858154318297 0 -0.32007374605487132 -0.12494213909402439 0 -0.33441303965894859 -0.1249452932850653 0 -0.33246816563449738 -0.1211806240550105 0 -0.3408437307210912 -0.1212858154318297 0 -0.33441303965894859 -0.1249452932850653 0 -0.33246816563449738 -0.1211806240550105 0 -0.33441303965894859 -0.1249452932850653 0 -0.33246816563449738 -0.1211806240550105 0 -0.34272140335036932 -0.124947120862287 0 -0.35433435295871402 -0.1214552484327875 0 -0.36893450279197471 -0.1249528869149899 0 -0.34272140335036932 -0.124947120862287 0 -0.36893450279197471 -0.1249528869149899 0 -0.3408437307210912 -0.1212858154318297 0 -0.35433435295871402 -0.1214552484327875 0 -0.3408437307210912 -0.1212858154318297 0 -0.35433435295871402 -0.1214552484327875 0 -0.34773438721257438 -0.1121772477149196 0 -0.34272140335036932 -0.124947120862287 0 -0.3408437307210912 -0.1212858154318297 0 -0.35433435295871402 -0.1214552484327875 0 -0.35433435295871402 -0.1214552484327875 0 -0.34773438721257438 -0.1121772477149196 0 -0.3623387343604032 -0.1125517513480446 0 -0.34773438721257438 -0.1121772477149196 0 -0.35038321981080389 -0.10179032851684799 0 -0.3623387343604032 -0.1125517513480446 0 -0.37380044498630338 -0.100392191664622 0 -0.3623387343604032 -0.1125517513480446 0 -0.3789649235099295 -0.11270856972454819 0 -0.35038321981080389 -0.10179032851684799 0 -0.37380044498630338 -0.100392191664622 0 -0.36747037526515469 -0.088210616938563927 0 -0.35038321981080389 -0.10179032851684799 0 -0.37380044498630338 -0.100392191664622 0 -0.3623387343604032 -0.1125517513480446 0 -0.3623387343604032 -0.1125517513480446 0 -0.36893450279197471 -0.1249528869149899 0 -0.3789649235099295 -0.11270856972454819 0 -0.35433435295871402 -0.1214552484327875 0 -0.3623387343604032 -0.1125517513480446 0 -0.36893450279197471 -0.1249528869149899 0 -0.34995192587724822 -0.070116192960804249 0 -0.35645509357982358 -0.081628608772215283 0 -0.36843110820579178 -0.075527255856609146 0 -0.34995192587724822 -0.070116192960804249 0 -0.36608399240098949 -0.063120758007335118 0 -0.35494834161021771 -0.06194377696909157 0 -0.34995192587724822 -0.070116192960804249 0 -0.36843110820579178 -0.075527255856609146 0 -0.34995192587724822 -0.070116192960804249 0 -0.36608399240098949 -0.063120758007335118 0 -0.34995192587724822 -0.070116192960804249 0 -0.34475717967991132 -0.068595070548471249 0 -0.35494834161021771 -0.06194377696909157 0 -0.34995192587724822 -0.070116192960804249 0 -0.34475717967991132 -0.068595070548471249 0 -0.34995192587724822 -0.070116192960804249 0 -0.34475717967991132 -0.068595070548471249 0 -0.3453529791357649 -0.07211045902320197 0 -0.34995192587724822 -0.070116192960804249 0 -0.3453529791357649 -0.07211045902320197 0 -0.34995192587724822 -0.070116192960804249 0 -0.3453529791357649 -0.07211045902320197 0 -0.35645509357982358 -0.081628608772215283 0 -0.34475717967991132 -0.068595070548471249 0 -0.3453529791357649 -0.07211045902320197 0 -0.35038321981080389 -0.10179032851684799 0 -0.35645509357982358 -0.081628608772215283 0 -0.36747037526515469 -0.088210616938563927 0 -0.35038321981080389 -0.10179032851684799 0 -0.3453529791357649 -0.07211045902320197 0 -0.35645509357982358 -0.081628608772215283 0 -0.33692687914299491 -0.089632102483736459 0 -0.35038321981080389 -0.10179032851684799 0 -0.3453529791357649 -0.07211045902320197 0 -0.35038321981080389 -0.10179032851684799 0 -0.3453529791357649 -0.07211045902320197 0 -0.36747037526515469 -0.088210616938563927 0 -0.36843110820579178 -0.075527255856609146 0 -0.38691029053433551 -0.080938318752413793 0 -0.35645509357982358 -0.081628608772215283 0 -0.36747037526515469 -0.088210616938563927 0 -0.36843110820579178 -0.075527255856609146 0 -0.34995192587724822 -0.070116192960804249 0 -0.36843110820579178 -0.075527255856609146 0 -0.36608399240098949 -0.063120758007335118 0 -0.36843110820579178 -0.075527255856609146 0 -0.36608399240098949 -0.063120758007335118 0 -0.37978412082390189 -0.068029865631836883 0 -0.36608399240098949 -0.063120758007335118 0 -0.37085155020467431 -0.050438611479832557 0 -0.38221605892473098 -0.056125323053866277 0 -0.36608399240098949 -0.063120758007335118 0 -0.38221605892473098 -0.056125323053866277 0 -0.37085155020467431 -0.050438611479832557 0 -0.36177701350261748 -0.054750595911384127 0 -0.36329546327126672 -0.041142767418341691 0 -0.36608399240098949 -0.063120758007335118 0 -0.36177701350261748 -0.054750595911384127 0 -0.35494834161021771 -0.06194377696909157 0 -0.36608399240098949 -0.063120758007335118 0 -0.37085155020467431 -0.050438611479832557 0 -0.36177701350261748 -0.054750595911384127 0 -0.36177701350261748 -0.054750595911384127 0 -0.35494834161021771 -0.06194377696909157 0 -0.35217159659032232 -0.05313626741746251 0 -0.34475717967991132 -0.068595070548471249 0 -0.35217159659032232 -0.05313626741746251 0 -0.34008173660725832 -0.04100860914713586 0 -0.36177701350261748 -0.054750595911384127 0 -0.35217159659032232 -0.05313626741746251 0 -0.36329546327126672 -0.041142767418341691 0 -0.34475717967991132 -0.068595070548471249 0 -0.35494834161021771 -0.06194377696909157 0 -0.35217159659032232 -0.05313626741746251 0 -0.35217159659032232 -0.05313626741746251 0 -0.35233090603521772 -0.034345905606361089 0 -0.36329546327126672 -0.041142767418341691 0 -0.35217159659032232 -0.05313626741746251 0 -0.35233090603521772 -0.034345905606361089 0 -0.34008173660725832 -0.04100860914713586 0 -0.35233090603521772 -0.034345905606361089 0 -0.34677261788783459 -0.022263095799622792 0 -0.34008173660725832 -0.04100860914713586 0 -0.35233090603521772 -0.034345905606361089 0 -0.36329546327126672 -0.041142767418341691 0 -0.36125368123050811 -0.029816691131076791 0 -0.36329546327126672 -0.041142767418341691 0 -0.37015544225173291 -0.03012439130571171 0 -0.36125368123050811 -0.029816691131076791 0 -0.37085155020467431 -0.050438611479832557 0 -0.36329546327126672 -0.041142767418341691 0 -0.37439980638912518 -0.038891661293645137 0 -0.36329546327126672 -0.041142767418341691 0 -0.37439980638912518 -0.038891661293645137 0 -0.37015544225173291 -0.03012439130571171 0 -0.37439980638912518 -0.038891661293645137 0 -0.37015544225173291 -0.03012439130571171 0 -0.37866743010551202 -0.02906954498465647 0 -0.37015544225173291 -0.03012439130571171 0 -0.37402384376206249 -0.023759624541515059 0 -0.37866743010551202 -0.02906954498465647 0 -0.37015544225173291 -0.03012439130571171 0 -0.37402384376206249 -0.023759624541515059 0 -0.36652472594663232 -0.022500501643346649 0 -0.37402384376206249 -0.023759624541515059 0 -0.37465439862472261 -0.016787835852634068 0 -0.36652472594663232 -0.022500501643346649 0 -0.37465439862472261 -0.016787835852634068 0 -0.36652472594663232 -0.022500501643346649 0 -0.3596530522362773 -0.017262546391789129 0 -0.36652472594663232 -0.022500501643346649 0 -0.3596530522362773 -0.017262546391789129 0 -0.35649867437881472 -0.022585523222405649 0 -0.36652472594663232 -0.022500501643346649 0 -0.36125368123050811 -0.029816691131076791 0 -0.35649867437881472 -0.022585523222405649 0 -0.37015544225173291 -0.03012439130571171 0 -0.36652472594663232 -0.022500501643346649 0 -0.36125368123050811 -0.029816691131076791 0 -0.37465439862472261 -0.016787835852634068 0 -0.3596530522362773 -0.017262546391789129 0 -0.34857824671955512 -0.007874197240844389 0 -0.37465439862472261 -0.016787835852634068 0 -0.3597652811465577 -0.0058215117475868012 0 -0.34857824671955512 -0.007874197240844389 0 -0.37465439862472261 -0.016787835852634068 0 -0.34857824671955512 -0.007874197240844389 0 -0.37126952376897032 -0.00085078512189483576 0 -0.36867541047690239 -0.006920070417115203 0 -0.36494834593608783 -0.001298186014321303 0 -0.37126952376897032 -0.00085078512189483576 0 -0.37464851222799189 -0.0076089195940836872 0 -0.37774077980655368 -0.001289555558904682 0 -0.37126952376897032 -0.00085078512189483576 0 -0.37464851222799189 -0.0076089195940836872 0 -0.36867541047690239 -0.006920070417115203 0 -0.37465439862472261 -0.016787835852634068 0 -0.36867541047690239 -0.006920070417115203 0 -0.3597652811465577 -0.0058215117475868012 0 -0.37465439862472261 -0.016787835852634068 0 -0.37464851222799189 -0.0076089195940836872 0 -0.36867541047690239 -0.006920070417115203 0 -0.36867541047690239 -0.006920070417115203 0 -0.3597652811465577 -0.0058215117475868012 0 -0.36494834593608783 -0.001298186014321303 0 -0.3597652811465577 -0.0058215117475868012 0 -0.36494834593608783 -0.001298186014321303 0 -0.35900139338342918 0.0020097317905480609 0 -0.3597652811465577 -0.0058215117475868012 0 -0.35221409618436439 -0.0049109655465913588 0 -0.34857824671955512 -0.007874197240844389 0 -0.3597652811465577 -0.0058215117475868012 0 -0.35509488683577939 -0.0004162838960613095 0 -0.35900139338342918 0.0020097317905480609 0 -0.3597652811465577 -0.0058215117475868012 0 -0.35509488683577939 -0.0004162838960613095 0 -0.35221409618436439 -0.0049109655465913588 0 -0.3596530522362773 -0.017262546391789129 0 -0.34857824671955512 -0.007874197240844389 0 -0.35200921551166209 -0.0165646739997149 0 -0.34857824671955512 -0.007874197240844389 0 -0.34618108527798752 -0.01472783018749277 0 -0.35200921551166209 -0.0165646739997149 0 -0.35233090603521772 -0.034345905606361089 0 -0.36125368123050811 -0.029816691131076791 0 -0.35649867437881472 -0.022585523222405649 0 -0.35233090603521772 -0.034345905606361089 0 -0.35649867437881472 -0.022585523222405649 0 -0.34677261788783459 -0.022263095799622792 0 -0.35649867437881472 -0.022585523222405649 0 -0.35200921551166209 -0.0165646739997149 0 -0.34677261788783459 -0.022263095799622792 0 -0.3596530522362773 -0.017262546391789129 0 -0.35649867437881472 -0.022585523222405649 0 -0.35200921551166209 -0.0165646739997149 0 -0.34618108527798752 -0.01472783018749277 0 -0.35200921551166209 -0.0165646739997149 0 -0.34677261788783459 -0.022263095799622792 0 -0.33540629353460438 -0.01342214774580049 0 -0.31718310516035308 -0.038172790333745737 0 -0.34008173660725832 -0.04100860914713586 0 -0.33540629353460438 -0.01342214774580049 0 -0.34008173660725832 -0.04100860914713586 0 -0.34677261788783459 -0.022263095799622792 0 -0.33540629353460438 -0.01342214774580049 0 -0.34008173660725832 -0.04100860914713586 0 -0.34618108527798752 -0.01472783018749277 0 -0.34677261788783459 -0.022263095799622792 0 -0.33540629353460438 -0.01342214774580049 0 -0.33540629353460438 -0.01342214774580049 0 -0.3204068892458079 -0.0014125807301150939 0 -0.33073085046195078 0.01416431365553468 0 -0.34857824671955512 -0.007874197240844389 0 -0.33540629353460438 -0.01342214774580049 0 -0.33073085046195078 0.01416431365553468 0 -0.34857824671955512 -0.007874197240844389 0 -0.34618108527798752 -0.01472783018749277 0 -0.33540629353460438 -0.01342214774580049 0 -0.3025805037907468 -0.0027432771802810229 0 -0.31459326366374579 -0.01532774276474733 0 -0.3204068892458079 -0.0014125807301150939 0 -0.33540629353460438 -0.01342214774580049 0 -0.31459326366374579 -0.01532774276474733 0 -0.3204068892458079 -0.0014125807301150939 0 -0.33540629353460438 -0.01342214774580049 0 -0.31459326366374579 -0.01532774276474733 0 -0.31718310516035308 -0.038172790333745737 0 -0.31718310516035308 -0.038172790333745737 0 -0.3268834079531176 -0.05023453433316457 0 -0.34008173660725832 -0.04100860914713586 0 -0.31718310516035308 -0.038172790333745737 0 -0.31370341578724742 -0.051143824177853653 0 -0.3268834079531176 -0.05023453433316457 0 -0.31370341578724742 -0.051143824177853653 0 -0.31629816603535338 -0.060261719535131632 0 -0.32352590008436471 -0.062378140209921912 0 -0.31629816603535338 -0.060261719535131632 0 -0.32352590008436471 -0.062378140209921912 0 -0.32352590008436471 -0.062378140209921912 0 -0.3268834079531176 -0.05023453433316457 0 -0.33381205608116321 -0.055554088559673351 0 -0.31370341578724742 -0.051143824177853653 0 -0.32352590008436471 -0.062378140209921912 0 -0.3268834079531176 -0.05023453433316457 0 -0.34475717967991132 -0.068595070548471249 0 -0.32352590008436471 -0.062378140209921912 0 -0.33381205608116321 -0.055554088559673351 0 -0.34475717967991132 -0.068595070548471249 0 -0.33381205608116321 -0.055554088559673351 0 -0.34008173660725832 -0.04100860914713586 0 -0.3268834079531176 -0.05023453433316457 0 -0.33381205608116321 -0.055554088559673351 0 -0.34008173660725832 -0.04100860914713586 0 -0.34475717967991132 -0.068595070548471249 0 -0.34008173660725832 -0.04100860914713586 0 -0.29131753467172561 -0.25675805269722002 0 -0.30769212114973271 -0.24578220261295139 0 -0.29241592956139478 -0.23974284613727589 0 -0.30769212114973271 -0.24578220261295139 0 -0.30829656048542242 -0.23127198481015249 0 -0.29241592956139478 -0.23974284613727589 0 -0.30829656048542242 -0.23127198481015249 0 -0.29279532374442052 -0.2217612167757172 0 -0.3129652712195421 -0.2114706657937139 0 -0.30829656048542242 -0.23127198481015249 0 -0.29279532374442052 -0.2217612167757172 0 -0.29241592956139478 -0.23974284613727589 0 -0.29279532374442052 -0.2217612167757172 0 -0.29241592956139478 -0.23974284613727589 0 -0.27798049023744681 -0.23352671123603991 0 -0.29279532374442052 -0.2217612167757172 0 -0.27798049023744681 -0.23352671123603991 0 -0.27449661508218531 -0.21747639879007349 0 -0.29131753467172561 -0.25675805269722002 0 -0.29241592956139478 -0.23974284613727589 0 -0.27722523139620658 -0.24922189107985179 0 -0.29241592956139478 -0.23974284613727589 0 -0.27722523139620658 -0.24922189107985179 0 -0.27798049023744681 -0.23352671123603991 0 -0.27722523139620658 -0.24922189107985179 0 -0.25992972331208369 -0.2410680052130979 0 -0.27798049023744681 -0.23352671123603991 0 -0.26398002587916253 -0.25656090854441049 0 -0.27722523139620658 -0.24922189107985179 0 -0.25992972331208369 -0.2410680052130979 0 -0.25992972331208369 -0.2410680052130979 0 -0.25674041691710447 -0.22108212323078871 0 -0.27798049023744681 -0.23352671123603991 0 -0.2377451423251814 -0.23136366228574551 0 -0.25992972331208369 -0.2410680052130979 0 -0.25674041691710447 -0.22108212323078871 0 -0.25674041691710447 -0.22108212323078871 0 -0.27798049023744681 -0.23352671123603991 0 -0.27449661508218531 -0.21747639879007349 0 -0.27449661508218531 -0.21747639879007349 0 -0.25644706280453389 -0.1995927939493197 0 -0.27817485521465529 -0.19463925610534399 0 -0.27449661508218531 -0.21747639879007349 0 -0.27817485521465529 -0.19463925610534399 0 -0.25674041691710447 -0.22108212323078871 0 -0.27449661508218531 -0.21747639879007349 0 -0.25644706280453389 -0.1995927939493197 0 -0.25644706280453389 -0.1995927939493197 0 -0.27817485521465529 -0.19463925610534399 0 -0.26629571781906192 -0.18034234132084431 0 -0.27817485521465529 -0.19463925610534399 0 -0.29367807880863189 -0.20345752952089671 0 -0.29386082525749962 -0.1848532680646672 0 -0.27449661508218531 -0.21747639879007349 0 -0.27817485521465529 -0.19463925610534399 0 -0.29367807880863189 -0.20345752952089671 0 -0.29279532374442052 -0.2217612167757172 0 -0.27449661508218531 -0.21747639879007349 0 -0.29367807880863189 -0.20345752952089671 0 -0.29279532374442052 -0.2217612167757172 0 -0.29367807880863189 -0.20345752952089671 0 -0.3129652712195421 -0.2114706657937139 0 -0.29367807880863189 -0.20345752952089671 0 -0.30717411826112789 -0.1920401195635244 0 -0.29386082525749962 -0.1848532680646672 0 -0.29367807880863189 -0.20345752952089671 0 -0.30717411826112789 -0.1920401195635244 0 -0.3129652712195421 -0.2114706657937139 0 -0.30551265723832022 -0.17938492804960809 0 -0.29677214667513702 -0.1677956617280158 0 -0.29386082525749962 -0.1848532680646672 0 -0.30717411826112789 -0.1920401195635244 0 -0.30551265723832022 -0.17938492804960809 0 -0.29386082525749962 -0.1848532680646672 0 -0.30717411826112789 -0.1920401195635244 0 -0.30551265723832022 -0.17938492804960809 0 -0.31489114071409963 -0.18333745750317351 0 -0.30551265723832022 -0.17938492804960809 0 -0.31220508881165993 -0.16846949012138551 0 -0.29677214667513702 -0.1677956617280158 0 -0.30551265723832022 -0.17938492804960809 0 -0.31220508881165993 -0.16846949012138551 0 -0.31489114071409963 -0.18333745750317351 0 -0.31220508881165993 -0.16846949012138551 0 -0.2949530938874384 -0.15245549241185349 0 -0.31498630483336881 -0.15987728715749039 0 -0.31220508881165993 -0.16846949012138551 0 -0.2949530938874384 -0.15245549241185349 0 -0.31220508881165993 -0.16846949012138551 0 -0.29677214667513702 -0.1677956617280158 0 -0.2949530938874384 -0.15245549241185349 0 -0.28185309534712533 -0.17180211342061449 0 -0.28553133547959519 -0.14896497073588499 0 -0.29677214667513702 -0.1677956617280158 0 -0.28185309534712533 -0.17180211342061449 0 -0.2949530938874384 -0.15245549241185349 0 -0.28185309534712533 -0.17180211342061449 0 -0.28553133547959519 -0.14896497073588499 0 -0.2949530938874384 -0.15245549241185349 0 -0.27817485521465529 -0.19463925610534399 0 -0.28185309534712533 -0.17180211342061449 0 -0.29386082525749962 -0.1848532680646672 0 -0.29677214667513702 -0.1677956617280158 0 -0.28185309534712533 -0.17180211342061449 0 -0.29386082525749962 -0.1848532680646672 0 -0.27817485521465529 -0.19463925610534399 0 -0.28185309534712533 -0.17180211342061449 0 -0.27817485521465529 -0.19463925610534399 0 -0.28185309534712533 -0.17180211342061449 0 -0.26629571781906192 -0.18034234132084431 0 -0.26629571781906192 -0.18034234132084431 0 -0.25029992488695979 -0.1782534950292988 0 -0.25761979100978533 -0.16665415002795461 0 -0.25644706280453389 -0.1995927939493197 0 -0.26629571781906192 -0.18034234132084431 0 -0.25029992488695979 -0.1782534950292988 0 -0.26629571781906192 -0.18034234132084431 0 -0.25761979100978533 -0.16665415002795461 0 -0.26933386928146391 -0.16300442301689841 0 -0.24825300788518309 -0.1555077779107997 0 -0.25761979100978533 -0.16665415002795461 0 -0.26108146703715113 -0.15708396540124031 0 -0.25761979100978533 -0.16665415002795461 0 -0.26108146703715113 -0.15708396540124031 0 -0.26933386928146391 -0.16300442301689841 0 -0.28185309534712533 -0.17180211342061449 0 -0.27598770130958522 -0.15333886838191951 0 -0.28553133547959519 -0.14896497073588499 0 -0.28185309534712533 -0.17180211342061449 0 -0.26629571781906192 -0.18034234132084431 0 -0.26933386928146391 -0.16300442301689841 0 -0.26108146703715113 -0.15708396540124031 0 -0.26933386928146391 -0.16300442301689841 0 -0.26726071412102442 -0.15087550168963329 0 -0.28185309534712533 -0.17180211342061449 0 -0.26933386928146391 -0.16300442301689841 0 -0.27598770130958522 -0.15333886838191951 0 -0.27598770130958522 -0.15333886838191951 0 -0.271177428866754 -0.14364721368904659 0 -0.28553133547959519 -0.14896497073588499 0 -0.271177428866754 -0.14364721368904659 0 -0.28662611268527088 -0.1421678116724244 0 -0.28553133547959519 -0.14896497073588499 0 -0.271177428866754 -0.14364721368904659 0 -0.28553133547959519 -0.14896497073588499 0 -0.271177428866754 -0.14364721368904659 0 -0.26726071412102442 -0.15087550168963329 0 -0.25891484533836889 -0.13910423861407881 0 -0.271177428866754 -0.14364721368904659 0 -0.26726071412102442 -0.15087550168963329 0 -0.27598770130958522 -0.15333886838191951 0 -0.271177428866754 -0.14364721368904659 0 -0.26726071412102442 -0.15087550168963329 0 -0.26933386928146391 -0.16300442301689841 0 -0.27598770130958522 -0.15333886838191951 0 -0.26726071412102442 -0.15087550168963329 0 -0.2405789555143194 -0.1375116727892334 0 -0.25601133851015478 -0.1487044986697981 0 -0.25891484533836889 -0.13910423861407881 0 -0.26108146703715113 -0.15708396540124031 0 -0.26726071412102442 -0.15087550168963329 0 -0.25601133851015478 -0.1487044986697981 0 -0.271177428866754 -0.14364721368904659 0 -0.25891484533836889 -0.13910423861407881 0 -0.26726071412102442 -0.15087550168963329 0 -0.25601133851015478 -0.1487044986697981 0 -0.25891484533836889 -0.13910423861407881 0 -0.24825300788518309 -0.1555077779107997 0 -0.26108146703715113 -0.15708396540124031 0 -0.25601133851015478 -0.1487044986697981 0 -0.26009747564537128 -0.1202716976192799 0 -0.25054446979338107 -0.12912519928877991 0 -0.26697405985724948 -0.1304210152969853 0 -0.25054446979338107 -0.12912519928877991 0 -0.25891484533836889 -0.13910423861407881 0 -0.26697405985724948 -0.1304210152969853 0 -0.2405789555143194 -0.1375116727892334 0 -0.25054446979338107 -0.12912519928877991 0 -0.25891484533836889 -0.13910423861407881 0 -0.28368315898475188 -0.1205679176925603 0 -0.271177428866754 -0.14364721368904659 0 -0.26697405985724948 -0.1304210152969853 0 -0.28368315898475188 -0.1205679176925603 0 -0.271177428866754 -0.14364721368904659 0 -0.28514813781506088 -0.1345929107172644 0 -0.28368315898475188 -0.1205679176925603 0 -0.271177428866754 -0.14364721368904659 0 -0.271177428866754 -0.14364721368904659 0 -0.25891484533836889 -0.13910423861407881 0 -0.26697405985724948 -0.1304210152969853 0 -0.271177428866754 -0.14364721368904659 0 -0.28514813781506088 -0.1345929107172644 0 -0.28662611268527088 -0.1421678116724244 0 -0.28368315898475188 -0.1205679176925603 0 -0.29492821592448881 -0.13453805291007029 0 -0.28514813781506088 -0.1345929107172644 0 -0.28368315898475188 -0.1205679176925603 0 -0.29492821592448881 -0.13453805291007029 0 -0.30140371581860798 -0.1292511186866305 0 -0.29492821592448881 -0.13453805291007029 0 -0.2912775948780732 -0.1389862943003273 0 -0.28514813781506088 -0.1345929107172644 0 -0.29657756063899582 -0.140013172184488 0 -0.29492821592448881 -0.13453805291007029 0 -0.2912775948780732 -0.1389862943003273 0 -0.2912775948780732 -0.1389862943003273 0 -0.28514813781506088 -0.1345929107172644 0 -0.28662611268527088 -0.1421678116724244 0 -0.28662611268527088 -0.1421678116724244 0 -0.28553133547959519 -0.14896497073588499 0 -0.28662611268527088 -0.1421678116724244 0 -0.28553133547959519 -0.14896497073588499 0 -0.28937009998544028 -0.14621975116982991 0 -0.28553133547959519 -0.14896497073588499 0 -0.2922536480049423 -0.1499497578362777 0 -0.28937009998544028 -0.14621975116982991 0 -0.28553133547959519 -0.14896497073588499 0 -0.2922536480049423 -0.1499497578362777 0 -0.2949530938874384 -0.15245549241185349 0 -0.28553133547959519 -0.14896497073588499 0 -0.2949530938874384 -0.15245549241185349 0 -0.2922536480049423 -0.1499497578362777 0 -0.2949530938874384 -0.15245549241185349 0 -0.29617843115691228 -0.14802272380236281 0 -0.2922536480049423 -0.1499497578362777 0 -0.2949530938874384 -0.15245549241185349 0 -0.2912775948780732 -0.1389862943003273 0 -0.28662611268527088 -0.1421678116724244 0 -0.29310794732654949 -0.1436195240173895 0 -0.28662611268527088 -0.1421678116724244 0 -0.28937009998544028 -0.14621975116982991 0 -0.29310794732654949 -0.1436195240173895 0 -0.2922536480049423 -0.1499497578362777 0 -0.28937009998544028 -0.14621975116982991 0 -0.29310794732654949 -0.1436195240173895 0 -0.29617843115691228 -0.14802272380236281 0 -0.29310794732654949 -0.1436195240173895 0 -0.29956135480037449 -0.14472193576336759 0 -0.2922536480049423 -0.1499497578362777 0 -0.29617843115691228 -0.14802272380236281 0 -0.29310794732654949 -0.1436195240173895 0 -0.29657756063899582 -0.140013172184488 0 -0.2912775948780732 -0.1389862943003273 0 -0.29310794732654949 -0.1436195240173895 0 -0.29657756063899582 -0.140013172184488 0 -0.29310794732654949 -0.1436195240173895 0 -0.29956135480037449 -0.14472193576336759 0 -0.29956135480037449 -0.14472193576336759 0 -0.30554397810907652 -0.146919348525368 0 -0.30456114821214081 -0.13888567554976469 0 -0.2949530938874384 -0.15245549241185349 0 -0.30620642865757891 -0.15285211384445899 0 -0.31498630483336881 -0.15987728715749039 0 -0.2949530938874384 -0.15245549241185349 0 -0.31498630483336881 -0.15987728715749039 0 -0.29657756063899582 -0.140013172184488 0 -0.29956135480037449 -0.14472193576336759 0 -0.30456114821214081 -0.13888567554976469 0 -0.29617843115691228 -0.14802272380236281 0 -0.29956135480037449 -0.14472193576336759 0 -0.30052761464898298 -0.14908162957255741 0 -0.29956135480037449 -0.14472193576336759 0 -0.30052761464898298 -0.14908162957255741 0 -0.30554397810907652 -0.146919348525368 0 -0.2949530938874384 -0.15245549241185349 0 -0.30052761464898298 -0.14908162957255741 0 -0.30620642865757891 -0.15285211384445899 0 -0.2949530938874384 -0.15245549241185349 0 -0.29617843115691228 -0.14802272380236281 0 -0.30052761464898298 -0.14908162957255741 0 -0.30052761464898298 -0.14908162957255741 0 -0.30620642865757891 -0.15285211384445899 0 -0.30554397810907652 -0.146919348525368 0 -0.30620642865757891 -0.15285211384445899 0 -0.31211863317072019 -0.1538765410016501 0 -0.31498630483336881 -0.15987728715749039 0 -0.30620642865757891 -0.15285211384445899 0 -0.31071230574427161 -0.15022116190891349 0 -0.30554397810907652 -0.146919348525368 0 -0.30620642865757891 -0.15285211384445899 0 -0.31071230574427161 -0.15022116190891349 0 -0.31211863317072019 -0.1538765410016501 0 -0.31246836027323899 -0.14497521722301901 0 -0.31246708178415561 -0.13872402753426441 0 -0.30456114821214081 -0.13888567554976469 0 -0.30554397810907652 -0.146919348525368 0 -0.31246836027323899 -0.14497521722301901 0 -0.30456114821214081 -0.13888567554976469 0 -0.31071230574427161 -0.15022116190891349 0 -0.30554397810907652 -0.146919348525368 0 -0.31246836027323899 -0.14497521722301901 0 -0.30140371581860798 -0.1292511186866305 0 -0.30456114821214081 -0.13888567554976469 0 -0.31280589771709483 -0.13181614145056869 0 -0.31246708178415561 -0.13872402753426441 0 -0.30456114821214081 -0.13888567554976469 0 -0.31280589771709483 -0.13181614145056869 0 -0.30807566230962469 -0.12087427087378499 0 -0.30140371581860798 -0.1292511186866305 0 -0.31280589771709483 -0.13181614145056869 0 -0.29657756063899582 -0.140013172184488 0 -0.29492821592448881 -0.13453805291007029 0 -0.30456114821214081 -0.13888567554976469 0 -0.29492821592448881 -0.13453805291007029 0 -0.30140371581860798 -0.1292511186866305 0 -0.30456114821214081 -0.13888567554976469 0 -0.3226930215385343 -0.13395567837890529 0 -0.31855308997834159 -0.13934265221991729 0 -0.32506280578504959 -0.14064102607364051 0 -0.3226930215385343 -0.13395567837890529 0 -0.32506280578504959 -0.14064102607364051 0 -0.33047387389575927 -0.1369340691945744 0 -0.3226930215385343 -0.13395567837890529 0 -0.32807010768985068 -0.12986880773923029 0 -0.33047387389575927 -0.1369340691945744 0 -0.32007374605487132 -0.12494213909402439 0 -0.33441303965894859 -0.1249452932850653 0 -0.32807010768985068 -0.12986880773923029 0 -0.32007374605487132 -0.12494213909402439 0 -0.3226930215385343 -0.13395567837890529 0 -0.32807010768985068 -0.12986880773923029 0 -0.32007374605487132 -0.12494213909402439 0 -0.3226930215385343 -0.13395567837890529 0 -0.31280589771709483 -0.13181614145056869 0 -0.30807566230962469 -0.12087427087378499 0 -0.32007374605487132 -0.12494213909402439 0 -0.31280589771709483 -0.13181614145056869 0 -0.3226930215385343 -0.13395567837890529 0 -0.31280589771709483 -0.13181614145056869 0 -0.31855308997834159 -0.13934265221991729 0 -0.31246708178415561 -0.13872402753426441 0 -0.31280589771709483 -0.13181614145056869 0 -0.31855308997834159 -0.13934265221991729 0 -0.31246836027323899 -0.14497521722301901 0 -0.31246708178415561 -0.13872402753426441 0 -0.31855308997834159 -0.13934265221991729 0 -0.31246836027323899 -0.14497521722301901 0 -0.31855308997834159 -0.13934265221991729 0 -0.32096396999162452 -0.14503749675666289 0 -0.31246836027323899 -0.14497521722301901 0 -0.31722412851074311 -0.15248258895007169 0 -0.32096396999162452 -0.14503749675666289 0 -0.31211863317072019 -0.1538765410016501 0 -0.31722412851074311 -0.15248258895007169 0 -0.31498630483336881 -0.15987728715749039 0 -0.31071230574427161 -0.15022116190891349 0 -0.31246836027323899 -0.14497521722301901 0 -0.31722412851074311 -0.15248258895007169 0 -0.31071230574427161 -0.15022116190891349 0 -0.31211863317072019 -0.1538765410016501 0 -0.31722412851074311 -0.15248258895007169 0 -0.32096396999162452 -0.14503749675666289 0 -0.32506280578504959 -0.14064102607364051 0 -0.33039285730051032 -0.1475567648151897 0 -0.31722412851074311 -0.15248258895007169 0 -0.32096396999162452 -0.14503749675666289 0 -0.33039285730051032 -0.1475567648151897 0 -0.31855308997834159 -0.13934265221991729 0 -0.32096396999162452 -0.14503749675666289 0 -0.32506280578504959 -0.14064102607364051 0 -0.33039285730051032 -0.1475567648151897 0 -0.33813688440009898 -0.15615522653291031 0 -0.34198145815712638 -0.1395953898376964 0 -0.32506280578504959 -0.14064102607364051 0 -0.33039285730051032 -0.1475567648151897 0 -0.33047387389575927 -0.1369340691945744 0 -0.31722412851074311 -0.15248258895007169 0 -0.33039285730051032 -0.1475567648151897 0 -0.33813688440009898 -0.15615522653291031 0 -0.33039285730051032 -0.1475567648151897 0 -0.34198145815712638 -0.1395953898376964 0 -0.33047387389575927 -0.1369340691945744 0 -0.33813688440009898 -0.15615522653291031 0 -0.34198145815712638 -0.1395953898376964 0 -0.34954987665533299 -0.15424548639031271 0 -0.34198145815712638 -0.1395953898376964 0 -0.3337346198504213 -0.1328358900141379 0 -0.33047387389575927 -0.1369340691945744 0 -0.32807010768985068 -0.12986880773923029 0 -0.3337346198504213 -0.1328358900141379 0 -0.33047387389575927 -0.1369340691945744 0 -0.33441303965894859 -0.1249452932850653 0 -0.32807010768985068 -0.12986880773923029 0 -0.3337346198504213 -0.1328358900141379 0 -0.33441303965894859 -0.1249452932850653 0 -0.34198145815712638 -0.1395953898376964 0 -0.34272140335036932 -0.124947120862287 0 -0.33441303965894859 -0.1249452932850653 0 -0.34198145815712638 -0.1395953898376964 0 -0.33441303965894859 -0.1249452932850653 0 -0.34198145815712638 -0.1395953898376964 0 -0.3337346198504213 -0.1328358900141379 0 -0.34272140335036932 -0.124947120862287 0 -0.35413341494744088 -0.14719959415449421 0 -0.34272140335036932 -0.124947120862287 0 -0.35599685079288468 -0.13305792836185981 0 -0.35413341494744088 -0.14719959415449421 0 -0.34272140335036932 -0.124947120862287 0 -0.34198145815712638 -0.1395953898376964 0 -0.35413341494744088 -0.14719959415449421 0 -0.34272140335036932 -0.124947120862287 0 -0.36893450279197471 -0.1249528869149899 0 -0.35599685079288468 -0.13305792836185981 0 -0.35599685079288468 -0.13305792836185981 0 -0.36484224068191412 -0.14157370685753851 0 -0.35413341494744088 -0.14719959415449421 0 -0.36893450279197471 -0.1249528869149899 0 -0.35599685079288468 -0.13305792836185981 0 -0.36484224068191412 -0.14157370685753851 0 -0.36893450279197471 -0.1249528869149899 0 -0.36484224068191412 -0.14157370685753851 0 -0.3777566452334315 -0.14913711856379011 0 -0.3679743334396014 -0.15408772885571331 0 -0.37696591512674532 -0.1609827341034305 0 -0.3777566452334315 -0.14913711856379011 0 -0.3679743334396014 -0.15408772885571331 0 -0.36484224068191412 -0.14157370685753851 0 -0.3777566452334315 -0.14913711856379011 0 -0.3679743334396014 -0.15408772885571331 0 -0.36484224068191412 -0.14157370685753851 0 -0.35413341494744088 -0.14719959415449421 0 -0.35413341494744088 -0.14719959415449421 0 -0.34954987665533299 -0.15424548639031271 0 -0.35445721343992059 -0.1619675590177023 0 -0.34198145815712638 -0.1395953898376964 0 -0.34954987665533299 -0.15424548639031271 0 -0.34198145815712638 -0.1395953898376964 0 -0.35413341494744088 -0.14719959415449421 0 -0.34954987665533299 -0.15424548639031271 0 -0.33813688440009898 -0.15615522653291031 0 -0.34954987665533299 -0.15424548639031271 0 -0.34648545334868369 -0.16311147615285329 0 -0.34648545334868369 -0.16311147615285329 0 -0.35788001493839611 -0.17576831496813999 0 -0.33501951577929873 -0.16729908190312789 0 -0.34954987665533299 -0.15424548639031271 0 -0.34648545334868369 -0.16311147615285329 0 -0.35445721343992059 -0.1619675590177023 0 -0.35413341494744088 -0.14719959415449421 0 -0.35445721343992059 -0.1619675590177023 0 -0.36554542654456429 -0.16945206744667471 0 -0.35788001493839611 -0.17576831496813999 0 -0.33501951577929873 -0.16729908190312789 0 -0.34648545334868369 -0.16311147615285329 0 -0.35445721343992059 -0.1619675590177023 0 -0.35788001493839611 -0.17576831496813999 0 -0.35445721343992059 -0.1619675590177023 0 -0.36554542654456429 -0.16945206744667471 0 -0.35788001493839611 -0.17576831496813999 0 -0.35413341494744088 -0.14719959415449421 0 -0.36554542654456429 -0.16945206744667471 0 -0.3679743334396014 -0.15408772885571331 0 -0.35413341494744088 -0.14719959415449421 0 -0.36554542654456429 -0.16945206744667471 0 -0.3679743334396014 -0.15408772885571331 0 -0.36554542654456429 -0.16945206744667471 0 -0.37696591512674532 -0.1609827341034305 0 -0.37016556171889331 -0.18126023377528719 0 -0.3536864721015115 -0.18284124587119119 0 -0.37235342842372432 -0.19838340983925429 0 -0.36554542654456429 -0.16945206744667471 0 -0.37016556171889331 -0.18126023377528719 0 -0.38426477739238413 -0.17192867897072969 0 -0.37016556171889331 -0.18126023377528719 0 -0.3536864721015115 -0.18284124587119119 0 -0.35788001493839611 -0.17576831496813999 0 -0.36554542654456429 -0.16945206744667471 0 -0.37016556171889331 -0.18126023377528719 0 -0.35788001493839611 -0.17576831496813999 0 -0.3536864721015115 -0.18284124587119119 0 -0.33501951577929873 -0.16729908190312789 0 -0.3536864721015115 -0.18284124587119119 0 -0.35788001493839611 -0.17576831496813999 0 -0.33501951577929873 -0.16729908190312789 0 -0.3536864721015115 -0.18284124587119119 0 -0.32945708373588178 -0.18448348783091689 0 -0.33501951577929873 -0.16729908190312789 0 -0.31722412851074311 -0.15248258895007169 0 -0.33813688440009898 -0.15615522653291031 0 -0.33501951577929873 -0.16729908190312789 0 -0.33813688440009898 -0.15615522653291031 0 -0.34648545334868369 -0.16311147615285329 0 -0.33501951577929873 -0.16729908190312789 0 -0.31722412851074311 -0.15248258895007169 0 -0.33501951577929873 -0.16729908190312789 0 -0.31722412851074311 -0.15248258895007169 0 -0.33501951577929873 -0.16729908190312789 0 -0.31498630483336881 -0.15987728715749039 0 -0.31220508881165993 -0.16846949012138551 0 -0.33501951577929873 -0.16729908190312789 0 -0.31498630483336881 -0.15987728715749039 0 -0.33501951577929873 -0.16729908190312789 0 -0.31498630483336881 -0.15987728715749039 0 -0.31220508881165993 -0.16846949012138551 0 -0.32945708373588178 -0.18448348783091689 0 -0.31489114071409963 -0.18333745750317351 0 -0.31220508881165993 -0.16846949012138551 0 -0.32945708373588178 -0.18448348783091689 0 -0.31220508881165993 -0.16846949012138551 0 -0.32945708373588178 -0.18448348783091689 0 -0.33501951577929873 -0.16729908190312789 0 -0.32945708373588178 -0.18448348783091689 0 -0.31489114071409963 -0.18333745750317351 0 -0.32010675552350842 -0.19230926195043291 0 -0.30717411826112789 -0.1920401195635244 0 -0.32010675552350842 -0.19230926195043291 0 -0.3129652712195421 -0.2114706657937139 0 -0.32945708373588178 -0.18448348783091689 0 -0.32010675552350842 -0.19230926195043291 0 -0.32566449460190838 -0.20326261146105551 0 -0.32010675552350842 -0.19230926195043291 0 -0.3129652712195421 -0.2114706657937139 0 -0.32566449460190838 -0.20326261146105551 0 -0.30717411826112789 -0.1920401195635244 0 -0.31489114071409963 -0.18333745750317351 0 -0.32010675552350842 -0.19230926195043291 0 -0.3129652712195421 -0.2114706657937139 0 -0.32566449460190838 -0.20326261146105551 0 -0.33208474862113468 -0.21873250337862821 0 -0.33208474862113468 -0.21873250337862821 0 -0.34670907866010381 -0.20049748554044841 0 -0.34896881396179619 -0.22434135344573131 0 -0.32566449460190838 -0.20326261146105551 0 -0.33208474862113468 -0.21873250337862821 0 -0.34670907866010381 -0.20049748554044841 0 -0.3536864721015115 -0.18284124587119119 0 -0.32945708373588178 -0.18448348783091689 0 -0.34670907866010381 -0.20049748554044841 0 -0.32945708373588178 -0.18448348783091689 0 -0.32566449460190838 -0.20326261146105551 0 -0.34670907866010381 -0.20049748554044841 0 -0.32945708373588178 -0.18448348783091689 0 -0.34670907866010381 -0.20049748554044841 0 -0.3536864721015115 -0.18284124587119119 0 -0.35917751319241631 -0.19955840612521841 0 -0.34670907866010381 -0.20049748554044841 0 -0.3536864721015115 -0.18284124587119119 0 -0.37235342842372432 -0.19838340983925429 0 -0.3536864721015115 -0.18284124587119119 0 -0.35917751319241631 -0.19955840612521841 0 -0.37235342842372432 -0.19838340983925429 0 -0.37235342842372432 -0.19838340983925429 0 -0.36396107358432572 -0.21651148324997979 0 -0.37772562505684643 -0.22219038377974651 0 -0.35917751319241631 -0.19955840612521841 0 -0.37235342842372432 -0.19838340983925429 0 -0.36396107358432572 -0.21651148324997979 0 -0.34670907866010381 -0.20049748554044841 0 -0.36396107358432572 -0.21651148324997979 0 -0.34896881396179619 -0.22434135344573131 0 -0.34670907866010381 -0.20049748554044841 0 -0.36396107358432572 -0.21651148324997979 0 -0.35917751319241631 -0.19955840612521841 0 -0.34670907866010381 -0.20049748554044841 0 -0.36396107358432572 -0.21651148324997979 0 -0.34896881396179619 -0.22434135344573131 0 -0.36764811873304098 -0.23322730847002751 0 -0.35305879752332059 -0.24486073726717009 0 -0.36396107358432572 -0.21651148324997979 0 -0.36764811873304098 -0.23322730847002751 0 -0.37772562505684643 -0.22219038377974651 0 -0.36396107358432572 -0.21651148324997979 0 -0.34896881396179619 -0.22434135344573131 0 -0.36764811873304098 -0.23322730847002751 0 -0.37533687834285862 -0.25417213976024849 0 -0.36764811873304098 -0.23322730847002751 0 -0.35305879752332059 -0.24486073726717009 0 -0.34896881396179619 -0.22434135344573131 0 -0.35305879752332059 -0.24486073726717009 0 -0.33568364413539042 -0.23615154195274179 0 -0.33623326073948312 -0.25365348176558788 0 -0.33568364413539042 -0.23615154195274179 0 -0.32213598881581812 -0.2442700999577708 0 -0.33623326073948312 -0.25365348176558788 0 -0.35305879752332059 -0.24486073726717009 0 -0.33568364413539042 -0.23615154195274179 0 -0.33208474862113468 -0.21873250337862821 0 -0.33568364413539042 -0.23615154195274179 0 -0.32219037366776621 -0.22897372759534659 0 -0.33208474862113468 -0.21873250337862821 0 -0.34896881396179619 -0.22434135344573131 0 -0.33568364413539042 -0.23615154195274179 0 -0.30829656048542242 -0.23127198481015249 0 -0.3129652712195421 -0.2114706657937139 0 -0.32219037366776621 -0.22897372759534659 0 -0.3129652712195421 -0.2114706657937139 0 -0.33208474862113468 -0.21873250337862821 0 -0.32219037366776621 -0.22897372759534659 0 -0.30769212114973271 -0.24578220261295139 0 -0.30829656048542242 -0.23127198481015249 0 -0.32213598881581812 -0.2442700999577708 0 -0.30829656048542242 -0.23127198481015249 0 -0.32219037366776621 -0.22897372759534659 0 -0.32213598881581812 -0.2442700999577708 0 -0.31968345090478489 -0.25798973640781447 0 -0.30769212114973271 -0.24578220261295139 0 -0.32213598881581812 -0.2442700999577708 0 -0.33568364413539042 -0.23615154195274179 0 -0.32219037366776621 -0.22897372759534659 0 -0.32213598881581812 -0.2442700999577708 0 -0.43598079583492633 -0.24721882136819351 0 -0.42311134176242837 -0.2304528026464861 0 -0.41615383063077721 -0.2466412503256647 0 -0.43598079583492633 -0.24721882136819351 0 -0.42311134176242837 -0.2304528026464861 0 -0.43908324849522451 -0.2287046610080686 0 -0.42311134176242837 -0.2304528026464861 0 -0.41411505562058892 -0.2091502018577929 0 -0.42948217154750851 -0.21815887616964899 0 -0.42311134176242837 -0.2304528026464861 0 -0.42948217154750851 -0.21815887616964899 0 -0.43908324849522451 -0.2287046610080686 0 -0.42948217154750851 -0.21815887616964899 0 -0.43955036875351089 -0.21658504913102711 0 -0.43908324849522451 -0.2287046610080686 0 -0.40619246279161347 -0.2313797712556602 0 -0.41411505562058892 -0.2091502018577929 0 -0.42311134176242837 -0.2304528026464861 0 -0.40619246279161347 -0.2313797712556602 0 -0.41411505562058892 -0.2091502018577929 0 -0.39826986996263802 -0.25360934065352753 0 -0.41615383063077721 -0.2466412503256647 0 -0.40619246279161347 -0.2313797712556602 0 -0.42311134176242837 -0.2304528026464861 0 -0.41615383063077721 -0.2466412503256647 0 -0.40619246279161347 -0.2313797712556602 0 -0.39826986996263802 -0.25360934065352753 0 -0.38632210934187061 -0.2364082567837591 0 -0.40619246279161347 -0.2313797712556602 0 -0.39826986996263802 -0.25360934065352753 0 -0.40619246279161347 -0.2313797712556602 0 -0.37533687834285862 -0.25417213976024849 0 -0.36764811873304098 -0.23322730847002751 0 -0.38632210934187061 -0.2364082567837591 0 -0.37533687834285862 -0.25417213976024849 0 -0.39826986996263802 -0.25360934065352753 0 -0.38632210934187061 -0.2364082567837591 0 -0.36764811873304098 -0.23322730847002751 0 -0.38632210934187061 -0.2364082567837591 0 -0.37772562505684643 -0.22219038377974651 0 -0.38632210934187061 -0.2364082567837591 0 -0.37772562505684643 -0.22219038377974651 0 -0.39102038474593709 -0.2139255738073175 0 -0.38632210934187061 -0.2364082567837591 0 -0.40619246279161347 -0.2313797712556602 0 -0.39102038474593709 -0.2139255738073175 0 -0.39102038474593709 -0.2139255738073175 0 -0.40351751052996843 -0.1957217498792192 0 -0.41411505562058892 -0.2091502018577929 0 -0.40619246279161347 -0.2313797712556602 0 -0.39102038474593709 -0.2139255738073175 0 -0.41411505562058892 -0.2091502018577929 0 -0.37235342842372432 -0.19838340983925429 0 -0.39102038474593709 -0.2139255738073175 0 -0.37235342842372432 -0.19838340983925429 0 -0.37772562505684643 -0.22219038377974651 0 -0.39102038474593709 -0.2139255738073175 0 -0.37016556171889331 -0.18126023377528719 0 -0.37235342842372432 -0.19838340983925429 0 -0.38726325091278008 -0.18918768555573329 0 -0.37235342842372432 -0.19838340983925429 0 -0.39102038474593709 -0.2139255738073175 0 -0.38726325091278008 -0.18918768555573329 0 -0.38726325091278008 -0.18918768555573329 0 -0.40351751052996843 -0.1957217498792192 0 -0.40315121292097328 -0.17942465571532731 0 -0.39102038474593709 -0.2139255738073175 0 -0.38726325091278008 -0.18918768555573329 0 -0.40351751052996843 -0.1957217498792192 0 -0.41411505562058892 -0.2091502018577929 0 -0.42203764844956237 -0.18692063245992491 0 -0.40351751052996843 -0.1957217498792192 0 -0.41411505562058892 -0.2091502018577929 0 -0.42203764844956237 -0.18692063245992491 0 -0.41411505562058892 -0.2091502018577929 0 -0.42948217154750851 -0.21815887616964899 0 -0.43155084310578928 -0.2059016662048701 0 -0.42948217154750851 -0.21815887616964899 0 -0.43155084310578928 -0.2059016662048701 0 -0.43955036875351089 -0.21658504913102711 0 -0.42203764844956237 -0.18692063245992491 0 -0.44484374680150301 -0.19597231310248839 0 -0.41411505562058892 -0.2091502018577929 0 -0.43155084310578928 -0.2059016662048701 0 -0.42203764844956237 -0.18692063245992491 0 -0.43155084310578928 -0.2059016662048701 0 -0.42203764844956237 -0.18692063245992491 0 -0.44484374680150301 -0.19597231310248839 0 -0.42203764844956237 -0.18692063245992491 0 -0.44134853753678083 -0.18159229851429221 0 -0.44484374680150301 -0.19597231310248839 0 -0.42203764844956237 -0.18692063245992491 0 -0.42880774722037651 -0.1679247830322266 0 -0.42203764844956237 -0.18692063245992491 0 -0.42880774722037651 -0.1679247830322266 0 -0.44134853753678083 -0.18159229851429221 0 -0.42880774722037651 -0.1679247830322266 0 -0.43557784599118871 -0.14892893360452769 0 -0.44631139980808621 -0.1631836851414229 0 -0.42880774722037651 -0.1679247830322266 0 -0.43557784599118871 -0.14892893360452769 0 -0.42880774722037651 -0.1679247830322266 0 -0.41236960909879722 -0.16540507401591409 0 -0.42079860369606048 -0.15043713941075901 0 -0.42203764844956237 -0.18692063245992491 0 -0.42880774722037651 -0.1679247830322266 0 -0.41236960909879722 -0.16540507401591409 0 -0.40351751052996843 -0.1957217498792192 0 -0.42203764844956237 -0.18692063245992491 0 -0.40315121292097328 -0.17942465571532731 0 -0.42203764844956237 -0.18692063245992491 0 -0.40315121292097328 -0.17942465571532731 0 -0.42203764844956237 -0.18692063245992491 0 -0.41236960909879722 -0.16540507401591409 0 -0.40315121292097328 -0.17942465571532731 0 -0.38726325091278008 -0.18918768555573329 0 -0.40315121292097328 -0.17942465571532731 0 -0.38426477739238413 -0.17192867897072969 0 -0.40315121292097328 -0.17942465571532731 0 -0.38426477739238413 -0.17192867897072969 0 -0.37016556171889331 -0.18126023377528719 0 -0.38726325091278008 -0.18918768555573329 0 -0.38426477739238413 -0.17192867897072969 0 -0.36554542654456429 -0.16945206744667471 0 -0.38426477739238413 -0.17192867897072969 0 -0.37696591512674532 -0.1609827341034305 0 -0.38426477739238413 -0.17192867897072969 0 -0.37696591512674532 -0.1609827341034305 0 -0.39230106084837368 -0.15838844905994759 0 -0.40315121292097328 -0.17942465571532731 0 -0.38426477739238413 -0.17192867897072969 0 -0.39230106084837368 -0.15838844905994759 0 -0.41236960909879722 -0.16540507401591409 0 -0.39230106084837368 -0.15838844905994759 0 -0.40587711449475489 -0.1449624873806776 0 -0.41236960909879722 -0.16540507401591409 0 -0.40315121292097328 -0.17942465571532731 0 -0.39230106084837368 -0.15838844905994759 0 -0.39230106084837368 -0.15838844905994759 0 -0.39162863389564362 -0.14105630786861159 0 -0.40587711449475489 -0.1449624873806776 0 -0.39230106084837368 -0.15838844905994759 0 -0.39162863389564362 -0.14105630786861159 0 -0.3777566452334315 -0.14913711856379011 0 -0.37696591512674532 -0.1609827341034305 0 -0.39230106084837368 -0.15838844905994759 0 -0.3777566452334315 -0.14913711856379011 0 -0.36893450279197471 -0.1249528869149899 0 -0.39162863389564362 -0.14105630786861159 0 -0.3777566452334315 -0.14913711856379011 0 -0.36893450279197471 -0.1249528869149899 0 -0.39162863389564362 -0.14105630786861159 0 -0.39514760223357998 -0.1249586529677193 0 -0.39162863389564362 -0.14105630786861159 0 -0.40587711449475489 -0.1449624873806776 0 -0.39514760223357998 -0.1249586529677193 0 -0.40587711449475489 -0.1449624873806776 0 -0.39514760223357998 -0.1249586529677193 0 -0.42136070167518519 -0.1249644190204488 0 -0.40587711449475489 -0.1449624873806776 0 -0.42079860369606048 -0.15043713941075901 0 -0.42136070167518519 -0.1249644190204488 0 -0.41236960909879722 -0.16540507401591409 0 -0.40587711449475489 -0.1449624873806776 0 -0.42079860369606048 -0.15043713941075901 0 -0.42079860369606048 -0.15043713941075901 0 -0.43557784599118871 -0.14892893360452769 0 -0.42136070167518519 -0.1249644190204488 0 -0.42880774722037651 -0.1679247830322266 0 -0.42079860369606048 -0.15043713941075901 0 -0.43557784599118871 -0.14892893360452769 0 -0.43557784599118871 -0.14892893360452769 0 -0.42136070167518519 -0.1249644190204488 0 -0.44757380111679052 -0.12497018507317829 0 -0.43557784599118871 -0.14892893360452769 0 -0.45596445488588 -0.14427568033770541 0 -0.44757380111679052 -0.12497018507317829 0 -0.43557784599118871 -0.14892893360452769 0 -0.45596445488588 -0.14427568033770541 0 -0.44631139980808621 -0.1631836851414229 0 -0.45596445488588 -0.14427568033770541 0 -0.46278066629215481 -0.1610158872753634 0 -0.44631139980808621 -0.1631836851414229 0 -0.45596445488588 -0.14427568033770541 0 -0.47930750267908417 -0.1480635854121114 0 -0.46278066629215481 -0.1610158872753634 0 -0.45596445488588 -0.14427568033770541 0 -0.44757380111679052 -0.12497018507317829 0 -0.47378690055839578 -0.1249759511259078 0 -0.48827360080937021 -0.13531742911399189 0 -0.47930750267908417 -0.1480635854121114 0 -0.47378690055839578 -0.1249759511259078 0 -0.45596445488588 -0.14427568033770541 0 -0.47930750267908417 -0.1480635854121114 0 -0.47378690055839578 -0.1249759511259078 0 -0.48827360080937021 -0.13531742911399189 0 -0.5 -0.14324846273931111 0 -0.50000000000000111 -0.12498171717863731 0 -0.48827360080937021 -0.13531742911399189 0 -0.47378690055839578 -0.1249759511259078 0 -0.50000000000000111 -0.12498171717863731 0 -0.5 -0.14324846273931111 0 -0.47930750267908417 -0.1480635854121114 0 -0.49999999999999961 -0.161515208299985 0 -0.48827360080937021 -0.13531742911399189 0 -0.5 -0.14324846273931111 0 -0.47930750267908417 -0.1480635854121114 0 -0.47930750267908417 -0.1480635854121114 0 -0.47738728335761421 -0.1682509267597351 0 -0.46278066629215481 -0.1610158872753634 0 -0.47738728335761421 -0.1682509267597351 0 -0.49999999999999961 -0.161515208299985 0 -0.48839409620634278 -0.18039624849769001 0 -0.49999999999999961 -0.161515208299985 0 -0.48839409620634278 -0.18039624849769001 0 -0.47930750267908417 -0.1480635854121114 0 -0.47738728335761421 -0.1682509267597351 0 -0.49999999999999961 -0.161515208299985 0 -0.49999999999999961 -0.161515208299985 0 -0.5 -0.18618779176616679 0 -0.48839409620634278 -0.18039624849769001 0 -0.5 -0.18618779176616679 0 -0.48839409620634278 -0.18039624849769001 0 -0.48957789370491162 -0.19386933705848941 0 -0.47738728335761421 -0.1682509267597351 0 -0.48839409620634278 -0.18039624849769001 0 -0.47328693949397721 -0.18411760774338479 0 -0.47738728335761421 -0.1682509267597351 0 -0.47328693949397721 -0.18411760774338479 0 -0.45860677246597031 -0.17520894370368309 0 -0.47328693949397721 -0.18411760774338479 0 -0.45860677246597031 -0.17520894370368309 0 -0.45906836497473352 -0.19043479360484361 0 -0.47738728335761421 -0.1682509267597351 0 -0.45860677246597031 -0.17520894370368309 0 -0.46278066629215481 -0.1610158872753634 0 -0.45860677246597031 -0.17520894370368309 0 -0.46278066629215481 -0.1610158872753634 0 -0.44631139980808621 -0.1631836851414229 0 -0.42880774722037651 -0.1679247830322266 0 -0.44631139980808621 -0.1631836851414229 0 -0.44134853753678083 -0.18159229851429221 0 -0.45860677246597031 -0.17520894370368309 0 -0.44631139980808621 -0.1631836851414229 0 -0.44134853753678083 -0.18159229851429221 0 -0.45860677246597031 -0.17520894370368309 0 -0.44134853753678083 -0.18159229851429221 0 -0.45906836497473352 -0.19043479360484361 0 -0.44134853753678083 -0.18159229851429221 0 -0.45906836497473352 -0.19043479360484361 0 -0.44134853753678083 -0.18159229851429221 0 -0.44484374680150301 -0.19597231310248839 0 -0.45906836497473352 -0.19043479360484361 0 -0.43155084310578928 -0.2059016662048701 0 -0.44484374680150301 -0.19597231310248839 0 -0.44343463088850471 -0.20721188330797369 0 -0.43155084310578928 -0.2059016662048701 0 -0.44343463088850471 -0.20721188330797369 0 -0.43955036875351089 -0.21658504913102711 0 -0.44343463088850471 -0.20721188330797369 0 -0.43955036875351089 -0.21658504913102711 0 -0.44966782191270221 -0.21345696714665749 0 -0.44966782191270221 -0.21345696714665749 0 -0.45691127413918359 -0.218140336649912 0 -0.44903912237987481 -0.22310222333220869 0 -0.43955036875351089 -0.21658504913102711 0 -0.44966782191270221 -0.21345696714665749 0 -0.44903912237987481 -0.22310222333220869 0 -0.44484374680150301 -0.19597231310248839 0 -0.44343463088850471 -0.20721188330797369 0 -0.45285363365211462 -0.2065344908709397 0 -0.44343463088850471 -0.20721188330797369 0 -0.44966782191270221 -0.21345696714665749 0 -0.45285363365211462 -0.2065344908709397 0 -0.45285363365211462 -0.2065344908709397 0 -0.4586721235044201 -0.2110072970525271 0 -0.46764984515344349 -0.20502399374505181 0 -0.44966782191270221 -0.21345696714665749 0 -0.45285363365211462 -0.2065344908709397 0 -0.4586721235044201 -0.2110072970525271 0 -0.44966782191270221 -0.21345696714665749 0 -0.4586721235044201 -0.2110072970525271 0 -0.45691127413918359 -0.218140336649912 0 -0.4586721235044201 -0.2110072970525271 0 -0.45691127413918359 -0.218140336649912 0 -0.46757130244775341 -0.21427176676618889 0 -0.4586721235044201 -0.2110072970525271 0 -0.46757130244775341 -0.21427176676618889 0 -0.46764984515344349 -0.20502399374505181 0 -0.44484374680150301 -0.19597231310248839 0 -0.46764984515344349 -0.20502399374505181 0 -0.45906836497473352 -0.19043479360484361 0 -0.44484374680150301 -0.19597231310248839 0 -0.45285363365211462 -0.2065344908709397 0 -0.46764984515344349 -0.20502399374505181 0 -0.45906836497473352 -0.19043479360484361 0 -0.47678819241268611 -0.1992772886953951 0 -0.44484374680150301 -0.19597231310248839 0 -0.46764984515344349 -0.20502399374505181 0 -0.46764984515344349 -0.20502399374505181 0 -0.45906836497473352 -0.19043479360484361 0 -0.47678819241268611 -0.1992772886953951 0 -0.47328693949397721 -0.18411760774338479 0 -0.45906836497473352 -0.19043479360484361 0 -0.47678819241268611 -0.1992772886953951 0 -0.48839409620634278 -0.18039624849769001 0 -0.47328693949397721 -0.18411760774338479 0 -0.47678819241268611 -0.1992772886953951 0 -0.48839409620634278 -0.18039624849769001 0 -0.47678819241268611 -0.1992772886953951 0 -0.47678819241268611 -0.1992772886953951 0 -0.48957789370491162 -0.19386933705848941 0 -0.50000000000000222 -0.21086037523234849 0 -0.48839409620634278 -0.18039624849769001 0 -0.47678819241268611 -0.1992772886953951 0 -0.48957789370491162 -0.19386933705848941 0 -0.5 -0.18618779176616679 0 -0.48957789370491162 -0.19386933705848941 0 -0.50000000000000222 -0.21086037523234849 0 -0.50000000000000222 -0.21086037523234849 0 -0.48101414991814051 -0.21220490785157131 0 -0.4775447229854059 -0.22535576830415929 0 -0.47678819241268611 -0.1992772886953951 0 -0.50000000000000222 -0.21086037523234849 0 -0.47678819241268611 -0.1992772886953951 0 -0.50000000000000222 -0.21086037523234849 0 -0.48101414991814051 -0.21220490785157131 0 -0.46757130244775341 -0.21427176676618889 0 -0.47678819241268611 -0.1992772886953951 0 -0.48101414991814051 -0.21220490785157131 0 -0.46757130244775341 -0.21427176676618889 0 -0.47678819241268611 -0.1992772886953951 0 -0.46757130244775341 -0.21427176676618889 0 -0.46764984515344349 -0.20502399374505181 0 -0.47678819241268611 -0.1992772886953951 0 -0.46757130244775341 -0.21427176676618889 0 -0.48101414991814051 -0.21220490785157131 0 -0.4775447229854059 -0.22535576830415929 0 -0.46757130244775341 -0.21427176676618889 0 -0.4775447229854059 -0.22535576830415929 0 -0.46571952953094348 -0.22577651025912229 0 -0.4775447229854059 -0.22535576830415929 0 -0.4726071657750785 -0.240360200228666 0 -0.45676275941016609 -0.23628729483617639 0 -0.50000000000000222 -0.21086037523234849 0 -0.4775447229854059 -0.22535576830415929 0 -0.48548116721245049 -0.23774912910784329 0 -0.50000000000000222 -0.21086037523234849 0 -0.5 -0.2401545466321974 0 -0.48548116721245049 -0.23774912910784329 0 -0.48050148842732221 -0.25523221810557922 0 -0.5 -0.2401545466321974 0 -0.48548116721245049 -0.23774912910784329 0 -0.48050148842732221 -0.25523221810557922 0 -0.4726071657750785 -0.240360200228666 0 -0.46267023581878858 -0.24817136713935201 0 -0.48050148842732221 -0.25523221810557922 0 -0.48548116721245049 -0.23774912910784329 0 -0.4726071657750785 -0.240360200228666 0 -0.4775447229854059 -0.22535576830415929 0 -0.48548116721245049 -0.23774912910784329 0 -0.4726071657750785 -0.240360200228666 0 -0.4726071657750785 -0.240360200228666 0 -0.46267023581878858 -0.24817136713935201 0 -0.45676275941016609 -0.23628729483617639 0 -0.46267023581878858 -0.24817136713935201 0 -0.45676275941016609 -0.23628729483617639 0 -0.45139902778349827 -0.24711062934306771 0 -0.4775447229854059 -0.22535576830415929 0 -0.45676275941016609 -0.23628729483617639 0 -0.46571952953094348 -0.22577651025912229 0 -0.4775447229854059 -0.22535576830415929 0 -0.45676275941016609 -0.23628729483617639 0 -0.46757130244775341 -0.21427176676618889 0 -0.45835441248282049 -0.22926624483698249 0 -0.45691127413918359 -0.218140336649912 0 -0.46757130244775341 -0.21427176676618889 0 -0.45835441248282049 -0.22926624483698249 0 -0.46757130244775341 -0.21427176676618889 0 -0.46571952953094348 -0.22577651025912229 0 -0.45835441248282049 -0.22926624483698249 0 -0.45691127413918359 -0.218140336649912 0 -0.45835441248282049 -0.22926624483698249 0 -0.44903912237987481 -0.22310222333220869 0 -0.45676275941016609 -0.23628729483617639 0 -0.46571952953094348 -0.22577651025912229 0 -0.45835441248282049 -0.22926624483698249 0 -0.45676275941016609 -0.23628729483617639 0 -0.45835441248282049 -0.22926624483698249 0 -0.44784406772060242 -0.23291584907632601 0 -0.45835441248282049 -0.22926624483698249 0 -0.44784406772060242 -0.23291584907632601 0 -0.44903912237987481 -0.22310222333220869 0 -0.44784406772060242 -0.23291584907632601 0 -0.44903912237987481 -0.22310222333220869 0 -0.43908324849522451 -0.2287046610080686 0 -0.43955036875351089 -0.21658504913102711 0 -0.44903912237987481 -0.22310222333220869 0 -0.43908324849522451 -0.2287046610080686 0 -0.43598079583492633 -0.24721882136819351 0 -0.44784406772060242 -0.23291584907632601 0 -0.43908324849522451 -0.2287046610080686 0 -0.43598079583492633 -0.24721882136819351 0 -0.45676275941016609 -0.23628729483617639 0 -0.45139902778349827 -0.24711062934306771 0 -0.43598079583492633 -0.24721882136819351 0 -0.45676275941016609 -0.23628729483617639 0 -0.44784406772060242 -0.23291584907632601 0 -0.43598079583492633 -0.24721882136819351 0 -0.45676275941016609 -0.23628729483617639 0 -0.41513049604948221 -0.033942569896895612 0 -0.42680670243505803 -0.034615113076212713 0 -0.40073055052989021 -0.025701474464423758 0 -0.41513049604948221 -0.033942569896895612 0 -0.42462943043776058 -0.041038039404546971 0 -0.40237332615973681 -0.030676944162886681 0 -0.42462943043776058 -0.041038039404546971 0 -0.40237332615973681 -0.030676944162886681 0 -0.41105872637709778 -0.041104419315527559 0 -0.42462943043776058 -0.041038039404546971 0 -0.40237332615973681 -0.030676944162886681 0 -0.41795689190558921 -0.046390941043723911 0 -0.41105872637709778 -0.041104419315527559 0 -0.42462943043776058 -0.041038039404546971 0 -0.41513049604948221 -0.033942569896895612 0 -0.42462943043776058 -0.041038039404546971 0 -0.4243569293735685 -0.037306081984415762 0 -0.41105872637709778 -0.041104419315527559 0 -0.4050251302254127 -0.045922345921936697 0 -0.40306291723554027 -0.039039715031688543 0 -0.41795689190558921 -0.046390941043723911 0 -0.41105872637709778 -0.041104419315527559 0 -0.41174405323292163 -0.047949206462353358 0 -0.41105872637709778 -0.041104419315527559 0 -0.41174405323292163 -0.047949206462353358 0 -0.4050251302254127 -0.045922345921936697 0 -0.41174405323292163 -0.047949206462353358 0 -0.4050251302254127 -0.045922345921936697 0 -0.40603099279739802 -0.054788986838451827 0 -0.41174405323292163 -0.047949206462353358 0 -0.4187470457232762 -0.053937065845881961 0 -0.40603099279739802 -0.054788986838451827 0 -0.4187470457232762 -0.053937065845881961 0 -0.40603099279739802 -0.054788986838451827 0 -0.41284572228237681 -0.064006668923108523 0 -0.4187470457232762 -0.053937065845881961 0 -0.41284572228237681 -0.064006668923108523 0 -0.42746868386642678 -0.066478460468227696 0 -0.41795689190558921 -0.046390941043723911 0 -0.41174405323292163 -0.047949206462353358 0 -0.4187470457232762 -0.053937065845881961 0 -0.41795689190558921 -0.046390941043723911 0 -0.4187470457232762 -0.053937065845881961 0 -0.42320145590089769 -0.048540393412862697 0 -0.42320145590089769 -0.048540393412862697 0 -0.43147245553696489 -0.05279552735729795 0 -0.42462943043776058 -0.041038039404546971 0 -0.4187470457232762 -0.053937065845881961 0 -0.42320145590089769 -0.048540393412862697 0 -0.43147245553696489 -0.05279552735729795 0 -0.43147245553696489 -0.05279552735729795 0 -0.42462943043776058 -0.041038039404546971 0 -0.44688553471578463 -0.051399134646207288 0 -0.4187470457232762 -0.053937065845881961 0 -0.43147245553696489 -0.05279552735729795 0 -0.42746868386642678 -0.066478460468227696 0 -0.43147245553696489 -0.05279552735729795 0 -0.42746868386642678 -0.066478460468227696 0 -0.43950717444435422 -0.063784996514660589 0 -0.42818951741271921 -0.038310772776573528 0 -0.43628267576141971 -0.035329403205585218 0 -0.44688553471578463 -0.051399134646207288 0 -0.42462943043776058 -0.041038039404546971 0 -0.42818951741271921 -0.038310772776573528 0 -0.44688553471578463 -0.051399134646207288 0 -0.42462943043776058 -0.041038039404546971 0 -0.44688553471578463 -0.051399134646207288 0 -0.41795689190558921 -0.046390941043723911 0 -0.42320145590089769 -0.048540393412862697 0 -0.42462943043776058 -0.041038039404546971 0 -0.41513049604948221 -0.033942569896895612 0 -0.4243569293735685 -0.037306081984415762 0 -0.42680670243505803 -0.034615113076212713 0 -0.42462943043776058 -0.041038039404546971 0 -0.4243569293735685 -0.037306081984415762 0 -0.42818951741271921 -0.038310772776573528 0 -0.42818951741271921 -0.038310772776573528 0 -0.42680670243505803 -0.034615113076212713 0 -0.4243569293735685 -0.037306081984415762 0 -0.42818951741271921 -0.038310772776573528 0 -0.42680670243505803 -0.034615113076212713 0 -0.42818951741271921 -0.038310772776573528 0 -0.42680670243505803 -0.034615113076212713 0 -0.42995577540377822 -0.032900560567165532 0 -0.42818951741271921 -0.038310772776573528 0 -0.42995577540377822 -0.032900560567165532 0 -0.43628267576141971 -0.035329403205585218 0 -0.42995577540377822 -0.032900560567165532 0 -0.43628267576141971 -0.035329403205585218 0 -0.4327931004709421 -0.029092843067932112 0 -0.42680670243505803 -0.034615113076212713 0 -0.4285090787839364 -0.025262373234060161 0 -0.41794895562780338 -0.01094222954485795 0 -0.42680670243505803 -0.034615113076212713 0 -0.41794895562780338 -0.01094222954485795 0 -0.43628267576141971 -0.035329403205585218 0 -0.4327931004709421 -0.029092843067932112 0 -0.43710875721387199 -0.026668229939385779 0 -0.42995577540377822 -0.032900560567165532 0 -0.4327931004709421 -0.029092843067932112 0 -0.4285090787839364 -0.025262373234060161 0 -0.43210921519170409 -0.025303648393463829 0 -0.43710875721387199 -0.026668229939385779 0 -0.43108579893039811 -0.01948839847471974 0 -0.4327931004709421 -0.029092843067932112 0 -0.43210921519170409 -0.025303648393463829 0 -0.4285090787839364 -0.025262373234060161 0 -0.4327931004709421 -0.029092843067932112 0 -0.43210921519170409 -0.025303648393463829 0 -0.43710875721387199 -0.026668229939385779 0 -0.43108579893039811 -0.01948839847471974 0 -0.43397544616601241 -0.014244232554068349 0 -0.43928417642389239 -0.017661557407765791 0 -0.43710875721387199 -0.026668229939385779 0 -0.43108579893039811 -0.01948839847471974 0 -0.43928417642389239 -0.017661557407765791 0 -0.43210921519170409 -0.025303648393463829 0 -0.43108579893039811 -0.01948839847471974 0 -0.4285090787839364 -0.025262373234060161 0 -0.43108579893039811 -0.01948839847471974 0 -0.4285090787839364 -0.025262373234060161 0 -0.41794895562780338 -0.01094222954485795 0 -0.42680670243505803 -0.034615113076212713 0 -0.42995577540377822 -0.032900560567165532 0 -0.4285090787839364 -0.025262373234060161 0 -0.43591977417237449 -0.008065469867085449 0 -0.42907061680018699 -0.010664914002041091 0 -0.42583279771702431 0.00046528033667210148 0 -0.43108579893039811 -0.01948839847471974 0 -0.43397544616601241 -0.014244232554068349 0 -0.42907061680018699 -0.010664914002041091 0 -0.43591977417237449 -0.008065469867085449 0 -0.43397544616601241 -0.014244232554068349 0 -0.43928417642389239 -0.017661557407765791 0 -0.43591977417237449 -0.008065469867085449 0 -0.43397544616601241 -0.014244232554068349 0 -0.42907061680018699 -0.010664914002041091 0 -0.43108579893039811 -0.01948839847471974 0 -0.42907061680018699 -0.010664914002041091 0 -0.41794895562780338 -0.01094222954485795 0 -0.42907061680018699 -0.010664914002041091 0 -0.41794895562780338 -0.01094222954485795 0 -0.42583279771702431 0.00046528033667210148 0 -0.41794895562780338 -0.01094222954485795 0 -0.4102220184461346 -0.019351118920435541 0 -0.40021295305484711 -0.013852611056198059 0 -0.41794895562780338 -0.01094222954485795 0 -0.40352261506359649 -0.001038070178381474 0 -0.40021295305484711 -0.013852611056198059 0 -0.42680670243505803 -0.034615113076212713 0 -0.41794895562780338 -0.01094222954485795 0 -0.4102220184461346 -0.019351118920435541 0 -0.42680670243505803 -0.034615113076212713 0 -0.4102220184461346 -0.019351118920435541 0 -0.40073055052989021 -0.025701474464423758 0 -0.42680670243505803 -0.034615113076212713 0 -0.40073055052989021 -0.025701474464423758 0 -0.41513049604948221 -0.033942569896895612 0 -0.40073055052989021 -0.025701474464423758 0 -0.40237332615973681 -0.030676944162886681 0 -0.40073055052989021 -0.025701474464423758 0 -0.40237332615973681 -0.030676944162886681 0 -0.38011722188171299 -0.020315848921226409 0 -0.40237332615973681 -0.030676944162886681 0 -0.38011722188171299 -0.020315848921226409 0 -0.4102220184461346 -0.019351118920435541 0 -0.40073055052989021 -0.025701474464423758 0 -0.40021295305484711 -0.013852611056198059 0 -0.40073055052989021 -0.025701474464423758 0 -0.40021295305484711 -0.013852611056198059 0 -0.38745402304870558 -0.01483805838738575 0 -0.40352261506359649 -0.001038070178381474 0 -0.40021295305484711 -0.013852611056198059 0 -0.39408165103759368 -0.0019794594859314238 0 -0.40021295305484711 -0.013852611056198059 0 -0.39408165103759368 -0.0019794594859314238 0 -0.39005949432245718 -0.0085411321607220259 0 -0.40021295305484711 -0.013852611056198059 0 -0.39005949432245718 -0.0085411321607220259 0 -0.38745402304870558 -0.01483805838738575 0 -0.39408165103759368 -0.0019794594859314238 0 -0.3848191179490616 -0.0027051675553946518 0 -0.39005949432245718 -0.0085411321607220259 0 -0.3848191179490616 -0.0027051675553946518 0 -0.38372972652207787 -0.0093303643187002475 0 -0.39005949432245718 -0.0085411321607220259 0 -0.38372972652207787 -0.0093303643187002475 0 -0.38745402304870558 -0.01483805838738575 0 -0.3791207175096093 -0.01135650732177081 0 -0.38372972652207787 -0.0093303643187002475 0 -0.39005949432245718 -0.0085411321607220259 0 -0.38745402304870558 -0.01483805838738575 0 -0.37465439862472261 -0.016787835852634068 0 -0.37464851222799189 -0.0076089195940836872 0 -0.3791207175096093 -0.01135650732177081 0 -0.37465439862472261 -0.016787835852634068 0 -0.38745402304870558 -0.01483805838738575 0 -0.3791207175096093 -0.01135650732177081 0 -0.37464851222799189 -0.0076089195940836872 0 -0.3791207175096093 -0.01135650732177081 0 -0.37960876280762101 -0.0064231604720931881 0 -0.38372972652207787 -0.0093303643187002475 0 -0.3791207175096093 -0.01135650732177081 0 -0.37960876280762101 -0.0064231604720931881 0 -0.3848191179490616 -0.0027051675553946518 0 -0.38372972652207787 -0.0093303643187002475 0 -0.37960876280762101 -0.0064231604720931881 0 -0.37464851222799189 -0.0076089195940836872 0 -0.37960876280762101 -0.0064231604720931881 0 -0.37774077980655368 -0.001289555558904682 0 -0.3848191179490616 -0.0027051675553946518 0 -0.37960876280762101 -0.0064231604720931881 0 -0.37774077980655368 -0.001289555558904682 0 -0.37465439862472261 -0.016787835852634068 0 -0.40073055052989021 -0.025701474464423758 0 -0.38745402304870558 -0.01483805838738575 0 -0.40237332615973681 -0.030676944162886681 0 -0.38781453024876661 -0.02996800237218563 0 -0.38011722188171299 -0.020315848921226409 0 -0.37465439862472261 -0.016787835852634068 0 -0.40073055052989021 -0.025701474464423758 0 -0.38011722188171299 -0.020315848921226409 0 -0.37465439862472261 -0.016787835852634068 0 -0.40073055052989021 -0.025701474464423758 0 -0.37402384376206249 -0.023759624541515059 0 -0.37465439862472261 -0.016787835852634068 0 -0.38011722188171299 -0.020315848921226409 0 -0.37402384376206249 -0.023759624541515059 0 -0.38011722188171299 -0.020315848921226409 0 -0.37866743010551202 -0.02906954498465647 0 -0.38781453024876661 -0.02996800237218563 0 -0.38011722188171299 -0.020315848921226409 0 -0.37866743010551202 -0.02906954498465647 0 -0.37439980638912518 -0.038891661293645137 0 -0.37866743010551202 -0.02906954498465647 0 -0.38394575501216083 -0.036535335565972972 0 -0.37439980638912518 -0.038891661293645137 0 -0.37993408630244868 -0.045501240077299353 0 -0.38394575501216083 -0.036535335565972972 0 -0.37085155020467431 -0.050438611479832557 0 -0.37439980638912518 -0.038891661293645137 0 -0.37993408630244868 -0.045501240077299353 0 -0.37993408630244868 -0.045501240077299353 0 -0.38895054345211377 -0.045335196083553769 0 -0.38394575501216083 -0.036535335565972972 0 -0.38895054345211377 -0.045335196083553769 0 -0.38394575501216083 -0.036535335565972972 0 -0.39396365166307989 -0.03445798481758762 0 -0.38781453024876661 -0.02996800237218563 0 -0.38394575501216083 -0.036535335565972972 0 -0.39396365166307989 -0.03445798481758762 0 -0.38781453024876661 -0.02996800237218563 0 -0.37866743010551202 -0.02906954498465647 0 -0.38394575501216083 -0.036535335565972972 0 -0.40237332615973681 -0.030676944162886681 0 -0.38781453024876661 -0.02996800237218563 0 -0.39396365166307989 -0.03445798481758762 0 -0.39396365166307989 -0.03445798481758762 0 -0.39750411751227832 -0.042292212187568533 0 -0.39928834571923882 -0.035924112998793431 0 -0.38895054345211377 -0.045335196083553769 0 -0.39396365166307989 -0.03445798481758762 0 -0.39750411751227832 -0.042292212187568533 0 -0.39750411751227832 -0.042292212187568533 0 -0.4050251302254127 -0.045922345921936697 0 -0.40306291723554027 -0.039039715031688543 0 -0.39750411751227832 -0.042292212187568533 0 -0.40306291723554027 -0.039039715031688543 0 -0.39928834571923882 -0.035924112998793431 0 -0.40237332615973681 -0.030676944162886681 0 -0.39396365166307989 -0.03445798481758762 0 -0.39928834571923882 -0.035924112998793431 0 -0.41105872637709778 -0.041104419315527559 0 -0.40237332615973681 -0.030676944162886681 0 -0.40306291723554027 -0.039039715031688543 0 -0.40237332615973681 -0.030676944162886681 0 -0.40306291723554027 -0.039039715031688543 0 -0.39928834571923882 -0.035924112998793431 0 -0.40603099279739802 -0.054788986838451827 0 -0.39527915405366182 -0.064437672488960096 0 -0.41284572228237681 -0.064006668923108523 0 -0.40603099279739802 -0.054788986838451827 0 -0.39443592701229091 -0.053019652188425637 0 -0.39527915405366182 -0.064437672488960096 0 -0.4050251302254127 -0.045922345921936697 0 -0.40603099279739802 -0.054788986838451827 0 -0.39443592701229091 -0.053019652188425637 0 -0.39750411751227832 -0.042292212187568533 0 -0.4050251302254127 -0.045922345921936697 0 -0.39443592701229091 -0.053019652188425637 0 -0.38895054345211377 -0.045335196083553769 0 -0.39750411751227832 -0.042292212187568533 0 -0.39443592701229091 -0.053019652188425637 0 -0.39443592701229091 -0.053019652188425637 0 -0.38221605892473098 -0.056125323053866277 0 -0.39527915405366182 -0.064437672488960096 0 -0.36608399240098949 -0.063120758007335118 0 -0.38221605892473098 -0.056125323053866277 0 -0.37978412082390189 -0.068029865631836883 0 -0.38895054345211377 -0.045335196083553769 0 -0.39443592701229091 -0.053019652188425637 0 -0.38221605892473098 -0.056125323053866277 0 -0.37993408630244868 -0.045501240077299353 0 -0.38895054345211377 -0.045335196083553769 0 -0.38221605892473098 -0.056125323053866277 0 -0.37085155020467431 -0.050438611479832557 0 -0.37993408630244868 -0.045501240077299353 0 -0.38221605892473098 -0.056125323053866277 0 -0.36843110820579178 -0.075527255856609146 0 -0.37978412082390189 -0.068029865631836883 0 -0.38691029053433551 -0.080938318752413793 0 -0.37978412082390189 -0.068029865631836883 0 -0.38691029053433551 -0.080938318752413793 0 -0.39527915405366182 -0.064437672488960096 0 -0.38221605892473098 -0.056125323053866277 0 -0.37978412082390189 -0.068029865631836883 0 -0.39527915405366182 -0.064437672488960096 0 -0.37380044498630338 -0.100392191664622 0 -0.36747037526515469 -0.088210616938563927 0 -0.38691029053433551 -0.080938318752413793 0 -0.36843110820579178 -0.075527255856609146 0 -0.38691029053433551 -0.080938318752413793 0 -0.40007542381043809 -0.086939242353532731 0 -0.39460333317738627 -0.1006873657273652 0 -0.41352047356827321 -0.0909948847898496 0 -0.38691029053433551 -0.080938318752413793 0 -0.40007542381043809 -0.086939242353532731 0 -0.40767355229219521 -0.074626636544090755 0 -0.38691029053433551 -0.080938318752413793 0 -0.40007542381043809 -0.086939242353532731 0 -0.39460333317738627 -0.1006873657273652 0 -0.38691029053433551 -0.080938318752413793 0 -0.39527915405366182 -0.064437672488960096 0 -0.40767355229219521 -0.074626636544090755 0 -0.39527915405366182 -0.064437672488960096 0 -0.41284572228237681 -0.064006668923108523 0 -0.40767355229219521 -0.074626636544090755 0 -0.36893450279197471 -0.1249528869149899 0 -0.3789649235099295 -0.11270856972454819 0 -0.39514760223357998 -0.1249586529677193 0 -0.36893450279197471 -0.1249528869149899 0 -0.39514760223357998 -0.1249586529677193 0 -0.3789649235099295 -0.11270856972454819 0 -0.39460333317738627 -0.1006873657273652 0 -0.39514760223357998 -0.1249586529677193 0 -0.37380044498630338 -0.100392191664622 0 -0.38691029053433551 -0.080938318752413793 0 -0.39460333317738627 -0.1006873657273652 0 -0.37380044498630338 -0.100392191664622 0 -0.3789649235099295 -0.11270856972454819 0 -0.39460333317738627 -0.1006873657273652 0 -0.39460333317738627 -0.1006873657273652 0 -0.39514760223357998 -0.1249586529677193 0 -0.4114708495464785 -0.1093321351213095 0 -0.42136070167518519 -0.1249644190204488 0 -0.4114708495464785 -0.1093321351213095 0 -0.43272213707796769 -0.1050553531011644 0 -0.39514760223357998 -0.1249586529677193 0 -0.42136070167518519 -0.1249644190204488 0 -0.39514760223357998 -0.1249586529677193 0 -0.42136070167518519 -0.1249644190204488 0 -0.4114708495464785 -0.1093321351213095 0 -0.39460333317738627 -0.1006873657273652 0 -0.4114708495464785 -0.1093321351213095 0 -0.41352047356827321 -0.0909948847898496 0 -0.4114708495464785 -0.1093321351213095 0 -0.43272213707796769 -0.1050553531011644 0 -0.41352047356827321 -0.0909948847898496 0 -0.42136070167518519 -0.1249644190204488 0 -0.43272213707796769 -0.1050553531011644 0 -0.44757380111679052 -0.12497018507317829 0 -0.42136070167518519 -0.1249644190204488 0 -0.44757380111679052 -0.12497018507317829 0 -0.42023793718526542 -0.076451056482049876 0 -0.41284572228237681 -0.064006668923108523 0 -0.42746868386642678 -0.066478460468227696 0 -0.42023793718526542 -0.076451056482049876 0 -0.41284572228237681 -0.064006668923108523 0 -0.40767355229219521 -0.074626636544090755 0 -0.42023793718526542 -0.076451056482049876 0 -0.40767355229219521 -0.074626636544090755 0 -0.41352047356827321 -0.0909948847898496 0 -0.40007542381043809 -0.086939242353532731 0 -0.40767355229219521 -0.074626636544090755 0 -0.41352047356827321 -0.0909948847898496 0 -0.42023793718526542 -0.076451056482049876 0 -0.41352047356827321 -0.0909948847898496 0 -0.43051036701793649 -0.083964229305721505 0 -0.43272213707796769 -0.1050553531011644 0 -0.41352047356827321 -0.0909948847898496 0 -0.43051036701793649 -0.083964229305721505 0 -0.43272213707796769 -0.1050553531011644 0 -0.43051036701793649 -0.083964229305721505 0 -0.44869793539396702 -0.090613631575090198 0 -0.43051036701793649 -0.083964229305721505 0 -0.42746868386642678 -0.066478460468227696 0 -0.43938561630945938 -0.075374003134316428 0 -0.42023793718526542 -0.076451056482049876 0 -0.43051036701793649 -0.083964229305721505 0 -0.42746868386642678 -0.066478460468227696 0 -0.42746868386642678 -0.066478460468227696 0 -0.43950717444435422 -0.063784996514660589 0 -0.43938561630945938 -0.075374003134316428 0 -0.43950717444435422 -0.063784996514660589 0 -0.45074392082461212 -0.072028697807882153 0 -0.43938561630945938 -0.075374003134316428 0 -0.43051036701793649 -0.083964229305721505 0 -0.43938561630945938 -0.075374003134316428 0 -0.44869793539396702 -0.090613631575090198 0 -0.45074392082461212 -0.072028697807882153 0 -0.43938561630945938 -0.075374003134316428 0 -0.44869793539396702 -0.090613631575090198 0 -0.45074392082461212 -0.072028697807882153 0 -0.44869793539396702 -0.090613631575090198 0 -0.4647336852437608 -0.080388630180202481 0 -0.44869793539396702 -0.090613631575090198 0 -0.4647336852437608 -0.080388630180202481 0 -0.47380622041468068 -0.096022360055862885 0 -0.4647336852437608 -0.080388630180202481 0 -0.46264955769922828 -0.069236149835977229 0 -0.47254815090776853 -0.069469283055039688 0 -0.45074392082461212 -0.072028697807882153 0 -0.46264955769922828 -0.069236149835977229 0 -0.44688553471578463 -0.051399134646207288 0 -0.46264955769922828 -0.069236149835977229 0 -0.47254815090776853 -0.069469283055039688 0 -0.46914163899380801 -0.061760229887868598 0 -0.45074392082461212 -0.072028697807882153 0 -0.4647336852437608 -0.080388630180202481 0 -0.46264955769922828 -0.069236149835977229 0 -0.43272213707796769 -0.1050553531011644 0 -0.44757380111679052 -0.12497018507317829 0 -0.46022938895027038 -0.10869066194517669 0 -0.43272213707796769 -0.1050553531011644 0 -0.44869793539396702 -0.090613631575090198 0 -0.46022938895027038 -0.10869066194517669 0 -0.44869793539396702 -0.090613631575090198 0 -0.46022938895027038 -0.10869066194517669 0 -0.47380622041468068 -0.096022360055862885 0 -0.44757380111679052 -0.12497018507317829 0 -0.47378690055839578 -0.1249759511259078 0 -0.44757380111679052 -0.12497018507317829 0 -0.46022938895027038 -0.10869066194517669 0 -0.47378690055839578 -0.1249759511259078 0 -0.46022938895027038 -0.10869066194517669 0 -0.47378690055839578 -0.1249759511259078 0 -0.48374478807960558 -0.1092121363906397 0 -0.46022938895027038 -0.10869066194517669 0 -0.48374478807960558 -0.1092121363906397 0 -0.47380622041468068 -0.096022360055862885 0 -0.48374478807960558 -0.1092121363906397 0 -0.47380622041468068 -0.096022360055862885 0 -0.48832582805197727 -0.092109142267116931 0 -0.48374478807960558 -0.1092121363906397 0 -0.5 -0.10055386622176241 0 -0.48832582805197727 -0.092109142267116931 0 -0.47378690055839578 -0.1249759511259078 0 -0.48374478807960558 -0.1092121363906397 0 -0.50000000000000111 -0.12498171717863731 0 -0.48374478807960558 -0.1092121363906397 0 -0.5 -0.10055386622176241 0 -0.50000000000000111 -0.12498171717863731 0 -0.47378690055839578 -0.1249759511259078 0 -0.50000000000000111 -0.12498171717863731 0 -0.47254815090776853 -0.069469283055039688 0 -0.47913967023945842 -0.082463322467565006 0 -0.48457081949690362 -0.068943122576377761 0 -0.47913967023945842 -0.082463322467565006 0 -0.48808502354595151 -0.080031310268457945 0 -0.48457081949690362 -0.068943122576377761 0 -0.48457081949690362 -0.068943122576377761 0 -0.46914163899380801 -0.061760229887868598 0 -0.48457081949690362 -0.068943122576377761 0 -0.48230491698392047 -0.057318093012348498 0 -0.46914163899380801 -0.061760229887868598 0 -0.47254815090776853 -0.069469283055039688 0 -0.48457081949690362 -0.068943122576377761 0 -0.46914163899380801 -0.061760229887868598 0 -0.47254815090776853 -0.069469283055039688 0 -0.46914163899380801 -0.061760229887868598 0 -0.4647336852437608 -0.080388630180202481 0 -0.47254815090776853 -0.069469283055039688 0 -0.47913967023945842 -0.082463322467565006 0 -0.4647336852437608 -0.080388630180202481 0 -0.47380622041468068 -0.096022360055862885 0 -0.47913967023945842 -0.082463322467565006 0 -0.47380622041468068 -0.096022360055862885 0 -0.47913967023945842 -0.082463322467565006 0 -0.48832582805197727 -0.092109142267116931 0 -0.5 -0.10055386622176241 0 -0.48832582805197727 -0.092109142267116931 0 -0.499999999999999 -0.07612601526488752 0 -0.48808502354595151 -0.080031310268457945 0 -0.48832582805197727 -0.092109142267116931 0 -0.499999999999999 -0.07612601526488752 0 -0.47913967023945842 -0.082463322467565006 0 -0.48808502354595151 -0.080031310268457945 0 -0.48832582805197727 -0.092109142267116931 0 -0.499999999999999 -0.07612601526488752 0 -0.48457081949690362 -0.068943122576377761 0 -0.499999999999999 -0.07612601526488752 0 -0.48457081949690362 -0.068943122576377761 0 -0.5 -0.055081012739928707 0 -0.48808502354595151 -0.080031310268457945 0 -0.499999999999999 -0.07612601526488752 0 -0.48457081949690362 -0.068943122576377761 0 -0.48457081949690362 -0.068943122576377761 0 -0.5 -0.055081012739928707 0 -0.48230491698392047 -0.057318093012348498 0 -0.5 -0.055081012739928707 0 -0.48157039955536241 -0.044558511477442143 0 -0.48230491698392047 -0.057318093012348498 0 -0.5 -0.055081012739928707 0 -0.500000000000004 -0.034036010214970061 0 -0.48157039955536241 -0.044558511477442143 0 -0.500000000000004 -0.034036010214970061 0 -0.48157039955536241 -0.044558511477442143 0 -0.48148290990478199 -0.029591545163434652 0 -0.48157039955536241 -0.044558511477442143 0 -0.45768975774058179 -0.035844230274481748 0 -0.48148290990478199 -0.029591545163434652 0 -0.48157039955536241 -0.044558511477442143 0 -0.46914163899380801 -0.061760229887868598 0 -0.45768975774058179 -0.035844230274481748 0 -0.48157039955536241 -0.044558511477442143 0 -0.48230491698392047 -0.057318093012348498 0 -0.46914163899380801 -0.061760229887868598 0 -0.46914163899380801 -0.061760229887868598 0 -0.45768975774058179 -0.035844230274481748 0 -0.44688553471578463 -0.051399134646207288 0 -0.46914163899380801 -0.061760229887868598 0 -0.45768975774058179 -0.035844230274481748 0 -0.46264955769922828 -0.069236149835977229 0 -0.46914163899380801 -0.061760229887868598 0 -0.44688553471578463 -0.051399134646207288 0 -0.46914163899380801 -0.061760229887868598 0 -0.44688553471578463 -0.051399134646207288 0 -0.43628267576141971 -0.035329403205585218 0 -0.44354830351403418 -0.034418653902415733 0 -0.44688553471578463 -0.051399134646207288 0 -0.45768975774058179 -0.035844230274481748 0 -0.44354830351403418 -0.034418653902415733 0 -0.44688553471578463 -0.051399134646207288 0 -0.45768975774058179 -0.035844230274481748 0 -0.44354830351403418 -0.034418653902415733 0 -0.44312252706978628 -0.024928407146411868 0 -0.43628267576141971 -0.035329403205585218 0 -0.43710875721387199 -0.026668229939385779 0 -0.44354830351403418 -0.034418653902415733 0 -0.43950717444435422 -0.063784996514660589 0 -0.45074392082461212 -0.072028697807882153 0 -0.44688553471578463 -0.051399134646207288 0 -0.43147245553696489 -0.05279552735729795 0 -0.43950717444435422 -0.063784996514660589 0 -0.44688553471578463 -0.051399134646207288 0 -0.43591977417237449 -0.008065469867085449 0 -0.44623787648735791 -0.0099282306610938807 0 -0.43740981058492812 0.01004998492246997 0 -0.43591977417237449 -0.008065469867085449 0 -0.44623787648735791 -0.0099282306610938807 0 -0.43928417642389239 -0.017661557407765791 0 -0.43591977417237449 -0.008065469867085449 0 -0.44623787648735791 -0.0099282306610938807 0 -0.43710875721387199 -0.026668229939385779 0 -0.43928417642389239 -0.017661557407765791 0 -0.44312252706978628 -0.024928407146411868 0 -0.45768975774058179 -0.035844230274481748 0 -0.44623787648735791 -0.0099282306610938807 0 -0.44312252706978628 -0.024928407146411868 0 -0.45768975774058179 -0.035844230274481748 0 -0.44623787648735791 -0.0099282306610938807 0 -0.44623787648735791 -0.0099282306610938807 0 -0.43928417642389239 -0.017661557407765791 0 -0.44312252706978628 -0.024928407146411868 0 -0.43710875721387199 -0.026668229939385779 0 -0.44354830351403418 -0.034418653902415733 0 -0.44312252706978628 -0.024928407146411868 0 -0.45768975774058179 -0.035844230274481748 0 -0.44623787648735791 -0.0099282306610938807 0 -0.47146408957177099 -0.01448240150379307 0 -0.44623787648735791 -0.0099282306610938807 0 -0.47146408957177099 -0.01448240150379307 0 -0.44623787648735791 -0.0099282306610938807 0 -0.47146408957177099 -0.01448240150379307 0 -0.46048772545436639 0.0043098071123656434 0 -0.47146408957177099 -0.01448240150379307 0 -0.47882554305316488 -0.0018417715126103191 0 -0.46048772545436639 0.0043098071123656434 0 -0.47146408957177099 -0.01448240150379307 0 -0.47882554305316488 -0.0018417715126103191 0 -0.49669030265618502 -0.01903657234648758 0 -0.47146408957177099 -0.01448240150379307 0 -0.49669030265618502 -0.01903657234648758 0 -0.47146408957177099 -0.01448240150379307 0 -0.48148290990478199 -0.029591545163434652 0 -0.49669030265618502 -0.01903657234648758 0 -0.45768975774058179 -0.035844230274481748 0 -0.47146408957177099 -0.01448240150379307 0 -0.48148290990478199 -0.029591545163434652 0 -0.500000000000004 -0.034036010214970061 0 -0.48148290990478199 -0.029591545163434652 0 -0.49669030265618502 -0.01903657234648758 0 -0.49669030265618502 -0.01903657234648758 0 -0.50000000000000056 -0.019634082844440681 0 -0.500000000000004 -0.034036010214970061 0 -0.49669030265618502 -0.01903657234648758 0 -0.500000000000004 -0.034036010214970061 0 -0.49669030265618502 -0.01903657234648758 0 -0.50000000000000056 -0.019634082844440681 0 -0.47882554305316488 -0.0018417715126103191 0 -0.49669030265618502 -0.01903657234648758 0 -0.49160980924365538 0.0039880541876541054 0 -0.49669030265618502 -0.01903657234648758 0 -0.49160980924365538 0.0039880541876541054 0 -0.49669030265618502 -0.01903657234648758 0 -0.50000000000000056 -0.019634082844440681 0 -0.49160980924365538 0.0039880541876541054 0 -0.50000000000000056 -0.019634082844440681 0 -0.49160980924365538 0.0039880541876541054 0 -0.50000000000000033 0.009303662189531537 0 -0.49160980924365538 0.0039880541876541054 0 -0.48652931583112352 0.027012680721795381 0 -0.49160980924365538 0.0039880541876541054 0 -0.50000000000000033 0.009303662189531537 0 -0.48652931583112352 0.027012680721795381 0 -0.50000000000000033 0.009303662189531537 0 -0.5 0.03611151152349279 0 -0.49175907743105379 0.031398254416965428 0 -0.50000000000000033 0.009303662189531537 0 -0.49175907743105379 0.031398254416965428 0 -0.50000000000000033 0.009303662189531537 0 -0.48652931583112352 0.027012680721795381 0 -0.49175907743105379 0.031398254416965428 0 -0.48652931583112352 0.027012680721795381 0 -0.47387578833984401 0.016012254987208822 0 -0.46815351836101687 0.031449839152918539 0 -0.49160980924365538 0.0039880541876541054 0 -0.48652931583112352 0.027012680721795381 0 -0.47387578833984401 0.016012254987208822 0 -0.47882554305316488 -0.0018417715126103191 0 -0.49160980924365538 0.0039880541876541054 0 -0.47387578833984401 0.016012254987208822 0 -0.47882554305316488 -0.0018417715126103191 0 -0.47387578833984401 0.016012254987208822 0 -0.46048772545436639 0.0043098071123656434 0 -0.49282352307895688 0.045257754500502748 0 -0.5 0.03611151152349279 0 -0.5 0.062919360857453976 0 -0.49282352307895688 0.045257754500502748 0 -0.48351815486210709 0.053492846644399093 0 -0.5 0.062919360857453976 0 -0.49175907743105379 0.031398254416965428 0 -0.48144882241859149 0.050037307255936581 0 -0.48351815486210709 0.053492846644399093 0 -0.48652931583112352 0.027012680721795381 0 -0.49175907743105379 0.031398254416965428 0 -0.48144882241859149 0.050037307255936581 0 -0.49175907743105379 0.031398254416965428 0 -0.48351815486210709 0.053492846644399093 0 -0.49282352307895688 0.045257754500502748 0 -0.49175907743105379 0.031398254416965428 0 -0.48351815486210709 0.053492846644399093 0 -0.49282352307895688 0.045257754500502748 0 -0.5 0.03611151152349279 0 -0.49175907743105379 0.031398254416965428 0 -0.48144882241859149 0.050037307255936581 0 -0.4639696453013944 0.043374392403556838 0 -0.46815351836101687 0.031449839152918539 0 -0.48652931583112352 0.027012680721795381 0 -0.48144882241859149 0.050037307255936581 0 -0.48652931583112352 0.027012680721795381 0 -0.48144882241859149 0.050037307255936581 0 -0.46815351836101687 0.031449839152918539 0 -0.48144882241859149 0.050037307255936581 0 -0.45709786057011947 0.055708105081253657 0 -0.47636832900606041 0.073061933790077832 0 -0.48144882241859149 0.050037307255936581 0 -0.48351815486210709 0.053492846644399093 0 -0.47636832900606041 0.073061933790077832 0 -0.48144882241859149 0.050037307255936581 0 -0.47636832900606041 0.073061933790077832 0 -0.48144882241859149 0.050037307255936581 0 -0.45709786057011947 0.055708105081253657 0 -0.4639696453013944 0.043374392403556838 0 -0.45709786057011947 0.055708105081253657 0 -0.4639696453013944 0.043374392403556838 0 -0.45299045524759751 0.034902057762674861 0 -0.4639696453013944 0.043374392403556838 0 -0.46815351836101687 0.031449839152918539 0 -0.45299045524759751 0.034902057762674861 0 -0.46815351836101687 0.031449839152918539 0 -0.45299045524759751 0.034902057762674861 0 -0.45709786057011947 0.055708105081253657 0 -0.45299045524759751 0.034902057762674861 0 -0.43782739213417787 0.038354276372430232 0 -0.45299045524759751 0.034902057762674861 0 -0.43782739213417787 0.038354276372430232 0 -0.45299045524759751 0.034902057762674861 0 -0.43782739213417787 0.038354276372430232 0 -0.44297011017848281 0.02707887027054981 0 -0.45709786057011947 0.055708105081253657 0 -0.43782739213417787 0.038354276372430232 0 -0.43187248081207541 0.055496176207803817 0 -0.45709786057011947 0.055708105081253657 0 -0.43782739213417787 0.038354276372430232 0 -0.45709786057011947 0.055708105081253657 0 -0.43187248081207541 0.055496176207803817 0 -0.43763284036668942 0.072255399145110422 0 -0.47387578833984401 0.016012254987208822 0 -0.46048772545436639 0.0043098071123656434 0 -0.45598123469437257 0.020633802368031268 0 -0.47387578833984401 0.016012254987208822 0 -0.46815351836101687 0.031449839152918539 0 -0.45598123469437257 0.020633802368031268 0 -0.46815351836101687 0.031449839152918539 0 -0.45299045524759751 0.034902057762674861 0 -0.45598123469437257 0.020633802368031268 0 -0.45598123469437257 0.020633802368031268 0 -0.44297011017848281 0.02707887027054981 0 -0.43740981058492812 0.01004998492246997 0 -0.45299045524759751 0.034902057762674861 0 -0.45598123469437257 0.020633802368031268 0 -0.44297011017848281 0.02707887027054981 0 -0.46048772545436639 0.0043098071123656434 0 -0.45598123469437257 0.020633802368031268 0 -0.43740981058492812 0.01004998492246997 0 -0.44623787648735791 -0.0099282306610938807 0 -0.46048772545436639 0.0043098071123656434 0 -0.43740981058492812 0.01004998492246997 0 -0.44623787648735791 -0.0099282306610938807 0 -0.43740981058492812 0.01004998492246997 0 -0.43591977417237449 -0.008065469867085449 0 -0.43740981058492812 0.01004998492246997 0 -0.42583279771702431 0.00046528033667210148 0 -0.43740981058492812 0.01004998492246997 0 -0.42292027786463471 0.01349413118407828 0 -0.42583279771702431 0.00046528033667210148 0 -0.41794895562780338 -0.01094222954485795 0 -0.40909120882054839 0.01273065398649661 0 -0.41794895562780338 -0.01094222954485795 0 -0.40352261506359649 -0.001038070178381474 0 -0.40909120882054839 0.01273065398649661 0 -0.42292027786463471 0.01349413118407828 0 -0.42583279771702431 0.00046528033667210148 0 -0.40909120882054839 0.01273065398649661 0 -0.41794895562780338 -0.01094222954485795 0 -0.42583279771702431 0.00046528033667210148 0 -0.40909120882054839 0.01273065398649661 0 -0.40909120882054839 0.01273065398649661 0 -0.41494363987246979 0.023236645495722939 0 -0.40023346201329341 0.036403537517851137 0 -0.41494363987246979 0.023236645495722939 0 -0.41436175989852531 0.033604495869393458 0 -0.40023346201329341 0.036403537517851137 0 -0.42292027786463471 0.01349413118407828 0 -0.41494363987246979 0.023236645495722939 0 -0.424969395700869 0.026775135554755129 0 -0.42292027786463471 0.01349413118407828 0 -0.40909120882054839 0.01273065398649661 0 -0.41494363987246979 0.023236645495722939 0 -0.41494363987246979 0.023236645495722939 0 -0.41896391809246269 0.029132761591660509 0 -0.41436175989852531 0.033604495869393458 0 -0.41494363987246979 0.023236645495722939 0 -0.41896391809246269 0.029132761591660509 0 -0.424969395700869 0.026775135554755129 0 -0.41896391809246269 0.029132761591660509 0 -0.424969395700869 0.026775135554755129 0 -0.42158087689798668 0.032914769446770492 0 -0.424969395700869 0.026775135554755129 0 -0.42858174468249838 0.030028200506033911 0 -0.42158087689798668 0.032914769446770492 0 -0.44297011017848281 0.02707887027054981 0 -0.43740981058492812 0.01004998492246997 0 -0.42858174468249838 0.030028200506033911 0 -0.43740981058492812 0.01004998492246997 0 -0.42292027786463471 0.01349413118407828 0 -0.424969395700869 0.026775135554755129 0 -0.43740981058492812 0.01004998492246997 0 -0.42858174468249838 0.030028200506033911 0 -0.43740981058492812 0.01004998492246997 0 -0.424969395700869 0.026775135554755129 0 -0.42858174468249838 0.030028200506033911 0 -0.424969395700869 0.026775135554755129 0 -0.42858174468249838 0.030028200506033911 0 -0.43782739213417787 0.038354276372430232 0 -0.44297011017848281 0.02707887027054981 0 -0.42858174468249838 0.030028200506033911 0 -0.43782739213417787 0.038354276372430232 0 -0.42858174468249838 0.030028200506033911 0 -0.42345682706553001 0.041626064651069543 0 -0.43782739213417787 0.038354276372430232 0 -0.42345682706553001 0.041626064651069543 0 -0.43187248081207541 0.055496176207803817 0 -0.43782739213417787 0.038354276372430232 0 -0.42858174468249838 0.030028200506033911 0 -0.43782739213417787 0.038354276372430232 0 -0.42345682706553001 0.041626064651069543 0 -0.42858174468249838 0.030028200506033911 0 -0.42345682706553001 0.041626064651069543 0 -0.42158087689798668 0.032914769446770492 0 -0.42858174468249838 0.030028200506033911 0 -0.42345682706553001 0.041626064651069543 0 -0.42345682706553001 0.041626064651069543 0 -0.43187248081207541 0.055496176207803817 0 -0.4177568865966339 0.054525225210098782 0 -0.43187248081207541 0.055496176207803817 0 -0.4177568865966339 0.054525225210098782 0 -0.41753301535116211 0.067129086497859855 0 -0.42345682706553001 0.041626064651069543 0 -0.4177568865966339 0.054525225210098782 0 -0.40276573021624068 0.046336866753853997 0 -0.4177568865966339 0.054525225210098782 0 -0.40750332447406851 0.057375884956624552 0 -0.41753301535116211 0.067129086497859855 0 -0.42345682706553001 0.041626064651069543 0 -0.4177568865966339 0.054525225210098782 0 -0.4177568865966339 0.054525225210098782 0 -0.40750332447406851 0.057375884956624552 0 -0.40276573021624068 0.046336866753853997 0 -0.42345682706553001 0.041626064651069543 0 -0.40276573021624068 0.046336866753853997 0 -0.42345682706553001 0.041626064651069543 0 -0.41020444479839763 0.039492741198042178 0 -0.40276573021624068 0.046336866753853997 0 -0.42345682706553001 0.041626064651069543 0 -0.41436175989852531 0.033604495869393458 0 -0.42158087689798668 0.032914769446770492 0 -0.42345682706553001 0.041626064651069543 0 -0.41436175989852531 0.033604495869393458 0 -0.41020444479839763 0.039492741198042178 0 -0.41896391809246269 0.029132761591660509 0 -0.41436175989852531 0.033604495869393458 0 -0.42158087689798668 0.032914769446770492 0 -0.41436175989852531 0.033604495869393458 0 -0.41020444479839763 0.039492741198042178 0 -0.40023346201329341 0.036403537517851137 0 -0.40276573021624068 0.046336866753853997 0 -0.38207463336695202 0.051047668856640811 0 -0.38772007791329738 0.03985096685417347 0 -0.41020444479839763 0.039492741198042178 0 -0.40023346201329341 0.036403537517851137 0 -0.40276573021624068 0.046336866753853997 0 -0.40023346201329341 0.036403537517851137 0 -0.40276573021624068 0.046336866753853997 0 -0.38772007791329738 0.03985096685417347 0 -0.40023346201329341 0.036403537517851137 0 -0.38772007791329738 0.03985096685417347 0 -0.38925836826538629 0.030805614435688099 0 -0.40276573021624068 0.046336866753853997 0 -0.38207463336695202 0.051047668856640811 0 -0.40276573021624068 0.046336866753853997 0 -0.39689466156197101 0.057407184083191301 0 -0.38207463336695202 0.051047668856640811 0 -0.40750332447406851 0.057375884956624552 0 -0.39689466156197101 0.057407184083191301 0 -0.40210564328563447 0.066115584712721373 0 -0.40750332447406851 0.057375884956624552 0 -0.40276573021624068 0.046336866753853997 0 -0.39689466156197101 0.057407184083191301 0 -0.38207463336695202 0.051047668856640811 0 -0.38848633305814179 0.065600711414542545 0 -0.36891219827968119 0.060077996683558232 0 -0.39689466156197101 0.057407184083191301 0 -0.38207463336695202 0.051047668856640811 0 -0.38848633305814179 0.065600711414542545 0 -0.38772007791329738 0.03985096685417347 0 -0.37937813184432773 0.031366277704107569 0 -0.38925836826538629 0.030805614435688099 0 -0.38207463336695202 0.051047668856640811 0 -0.38772007791329738 0.03985096685417347 0 -0.37261014177358448 0.043145835856899219 0 -0.38772007791329738 0.03985096685417347 0 -0.37937813184432773 0.031366277704107569 0 -0.37261014177358448 0.043145835856899219 0 -0.37937813184432773 0.031366277704107569 0 -0.38391758338059062 0.022870450659759161 0 -0.37479293228070759 0.022502646493578662 0 -0.37937813184432773 0.031366277704107569 0 -0.38925836826538629 0.030805614435688099 0 -0.38391758338059062 0.022870450659759161 0 -0.38925836826538629 0.030805614435688099 0 -0.38391758338059062 0.022870450659759161 0 -0.3946160130735708 0.021551959563878339 0 -0.38391758338059062 0.022870450659759161 0 -0.38667067902898572 0.013842153393714489 0 -0.3946160130735708 0.021551959563878339 0 -0.38391758338059062 0.022870450659759161 0 -0.3778438638662554 0.014761087644765769 0 -0.38667067902898572 0.013842153393714489 0 -0.38391758338059062 0.022870450659759161 0 -0.3778438638662554 0.014761087644765769 0 -0.37479293228070759 0.022502646493578662 0 -0.3778438638662554 0.014761087644765769 0 -0.38165634421242611 0.0056742618597281089 0 -0.38667067902898572 0.013842153393714489 0 -0.3778438638662554 0.014761087644765769 0 -0.38165634421242611 0.0056742618597281089 0 -0.37464316483836829 0.0066416053135349984 0 -0.37774077980655368 -0.001289555558904682 0 -0.38165634421242611 0.0056742618597281089 0 -0.37464316483836829 0.0066416053135349984 0 -0.3848191179490616 -0.0027051675553946518 0 -0.37774077980655368 -0.001289555558904682 0 -0.38165634421242611 0.0056742618597281089 0 -0.3848191179490616 -0.0027051675553946518 0 -0.38165634421242611 0.0056742618597281089 0 -0.38845980705381639 0.0057813395070211177 0 -0.39408165103759368 -0.0019794594859314238 0 -0.3848191179490616 -0.0027051675553946518 0 -0.38845980705381639 0.0057813395070211177 0 -0.38845980705381639 0.0057813395070211177 0 -0.38667067902898572 0.013842153393714489 0 -0.39627830677719 0.008853295208583448 0 -0.38165634421242611 0.0056742618597281089 0 -0.38845980705381639 0.0057813395070211177 0 -0.38667067902898572 0.013842153393714489 0 -0.38667067902898572 0.013842153393714489 0 -0.39627830677719 0.008853295208583448 0 -0.3946160130735708 0.021551959563878339 0 -0.39408165103759368 -0.0019794594859314238 0 -0.38845980705381639 0.0057813395070211177 0 -0.39627830677719 0.008853295208583448 0 -0.40352261506359649 -0.001038070178381474 0 -0.39408165103759368 -0.0019794594859314238 0 -0.39627830677719 0.008853295208583448 0 -0.40352261506359649 -0.001038070178381474 0 -0.40909120882054839 0.01273065398649661 0 -0.39627830677719 0.008853295208583448 0 -0.40909120882054839 0.01273065398649661 0 -0.39627830677719 0.008853295208583448 0 -0.3946160130735708 0.021551959563878339 0 -0.40909120882054839 0.01273065398649661 0 -0.40023346201329341 0.036403537517851137 0 -0.3946160130735708 0.021551959563878339 0 -0.40909120882054839 0.01273065398649661 0 -0.40023346201329341 0.036403537517851137 0 -0.40023346201329341 0.036403537517851137 0 -0.38925836826538629 0.030805614435688099 0 -0.3946160130735708 0.021551959563878339 0 -0.38696142946532958 0.1003701901717608 0 -0.40164011277457379 0.081352107660276216 0 -0.40864304721671202 0.1107171055473533 0 -0.38750957741872682 0.11885909540365321 0 -0.40864304721671202 0.1107171055473533 0 -0.39401402549175851 0.1361747599337243 0 -0.38750957741872682 0.11885909540365321 0 -0.38696142946532958 0.1003701901717608 0 -0.40864304721671202 0.1107171055473533 0 -0.38750957741872682 0.11885909540365321 0 -0.38696142946532958 0.1003701901717608 0 -0.36904533532088801 0.1177582563576956 0 -0.38696142946532958 0.1003701901717608 0 -0.37090825683648998 0.098456277756480637 0 -0.36904533532088801 0.1177582563576956 0 -0.37929074908003868 0.077603726490867345 0 -0.40164011277457379 0.081352107660276216 0 -0.38696142946532958 0.1003701901717608 0 -0.37929074908003868 0.077603726490867345 0 -0.40164011277457379 0.081352107660276216 0 -0.38696142946532958 0.1003701901717608 0 -0.37929074908003868 0.077603726490867345 0 -0.37090825683648998 0.098456277756480637 0 -0.37929074908003868 0.077603726490867345 0 -0.38848633305814179 0.065600711414542545 0 -0.36891219827968119 0.060077996683558232 0 -0.37929074908003868 0.077603726490867345 0 -0.38848633305814179 0.065600711414542545 0 -0.40164011277457379 0.081352107660276216 0 -0.38848633305814179 0.065600711414542545 0 -0.40210564328563447 0.066115584712721373 0 -0.40164011277457379 0.081352107660276216 0 -0.39689466156197101 0.057407184083191301 0 -0.38848633305814179 0.065600711414542545 0 -0.40210564328563447 0.066115584712721373 0 -0.40164011277457379 0.081352107660276216 0 -0.42398947646910912 0.085100488829685086 0 -0.40164011277457379 0.081352107660276216 0 -0.42398947646910912 0.085100488829685086 0 -0.40864304721671202 0.1107171055473533 0 -0.40210564328563447 0.066115584712721373 0 -0.40164011277457379 0.081352107660276216 0 -0.41753301535116211 0.067129086497859855 0 -0.40164011277457379 0.081352107660276216 0 -0.41753301535116211 0.067129086497859855 0 -0.42398947646910912 0.085100488829685086 0 -0.40750332447406851 0.057375884956624552 0 -0.40210564328563447 0.066115584712721373 0 -0.41753301535116211 0.067129086497859855 0 -0.41753301535116211 0.067129086497859855 0 -0.42398947646910912 0.085100488829685086 0 -0.43763284036668942 0.072255399145110422 0 -0.43187248081207541 0.055496176207803817 0 -0.41753301535116211 0.067129086497859855 0 -0.43763284036668942 0.072255399145110422 0 -0.42398947646910912 0.085100488829685086 0 -0.44633884016364428 0.088848869999093971 0 -0.42398947646910912 0.085100488829685086 0 -0.43763284036668942 0.072255399145110422 0 -0.44633884016364428 0.088848869999093971 0 -0.42398947646910912 0.085100488829685086 0 -0.42906186480059683 0.10519001099972999 0 -0.44633884016364428 0.088848869999093971 0 -0.42398947646910912 0.085100488829685086 0 -0.42906186480059683 0.10519001099972999 0 -0.40864304721671202 0.1107171055473533 0 -0.40864304721671202 0.1107171055473533 0 -0.43267942878230348 0.12559175737704789 0 -0.42906186480059683 0.10519001099972999 0 -0.40864304721671202 0.1107171055473533 0 -0.43267942878230348 0.12559175737704789 0 -0.42906186480059683 0.10519001099972999 0 -0.4489383204882843 0.11104189391905871 0 -0.43267942878230348 0.12559175737704789 0 -0.4489383204882843 0.11104189391905871 0 -0.45289828098281221 0.1241297055338681 0 -0.43267942878230348 0.12559175737704789 0 -0.4489383204882843 0.11104189391905871 0 -0.43267942878230348 0.12559175737704789 0 -0.42906186480059683 0.10519001099972999 0 -0.4489383204882843 0.11104189391905871 0 -0.44633884016364428 0.088848869999093971 0 -0.4489383204882843 0.11104189391905871 0 -0.44633884016364428 0.088848869999093971 0 -0.47121921728662652 0.096397536200283296 0 -0.46607010556719342 0.11973313861048911 0 -0.47121921728662652 0.096397536200283296 0 -0.4489383204882843 0.11104189391905871 0 -0.46607010556719342 0.11973313861048911 0 -0.47121921728662652 0.096397536200283296 0 -0.4489383204882843 0.11104189391905871 0 -0.45289828098281221 0.1241297055338681 0 -0.46607010556719342 0.11973313861048911 0 -0.45709786057011947 0.055708105081253657 0 -0.43763284036668942 0.072255399145110422 0 -0.45544766770060358 0.07348919590478746 0 -0.43763284036668942 0.072255399145110422 0 -0.44633884016364428 0.088848869999093971 0 -0.45544766770060358 0.07348919590478746 0 -0.44633884016364428 0.088848869999093971 0 -0.45544766770060358 0.07348919590478746 0 -0.47121921728662652 0.096397536200283296 0 -0.45544766770060358 0.07348919590478746 0 -0.47636832900606041 0.073061933790077832 0 -0.47121921728662652 0.096397536200283296 0 -0.45709786057011947 0.055708105081253657 0 -0.47636832900606041 0.073061933790077832 0 -0.45709786057011947 0.055708105081253657 0 -0.45544766770060358 0.07348919590478746 0 -0.47636832900606041 0.073061933790077832 0 -0.48351815486210709 0.053492846644399093 0 -0.47636832900606041 0.073061933790077832 0 -0.49140909277123612 0.074197219851226057 0 -0.47636832900606041 0.073061933790077832 0 -0.48274454235378189 0.091705374172880549 0 -0.47121921728662652 0.096397536200283296 0 -0.47636832900606041 0.073061933790077832 0 -0.47121921728662652 0.096397536200283296 0 -0.47636832900606041 0.073061933790077832 0 -0.49715897998801373 0.091784747772784503 0 -0.5 0.089727210191415163 0 -0.49715897998801373 0.091784747772784503 0 -0.49140909277123612 0.074197219851226057 0 -0.47636832900606041 0.073061933790077832 0 -0.48274454235378189 0.091705374172880549 0 -0.49715897998801373 0.091784747772784503 0 -0.47636832900606041 0.073061933790077832 0 -0.49715897998801373 0.091784747772784503 0 -0.49140909277123612 0.074197219851226057 0 -0.5 0.089727210191415163 0 -0.5 0.062919360857453976 0 -0.49140909277123612 0.074197219851226057 0 -0.48351815486210709 0.053492846644399093 0 -0.5 0.062919360857453976 0 -0.49140909277123612 0.074197219851226057 0 -0.46607010556719342 0.11973313861048911 0 -0.48623164313442779 0.1055772789283768 0 -0.48453668432005692 0.123143207324586 0 -0.46607010556719342 0.11973313861048911 0 -0.47121921728662652 0.096397536200283296 0 -0.48623164313442779 0.1055772789283768 0 -0.48274454235378189 0.091705374172880549 0 -0.47121921728662652 0.096397536200283296 0 -0.48623164313442779 0.1055772789283768 0 -0.5 0.089727210191415163 0 -0.49715897998801373 0.091784747772784503 0 -0.5 0.1165350595253765 0 -0.49715897998801373 0.091784747772784503 0 -0.48623164313442779 0.1055772789283768 0 -0.5 0.1165350595253765 0 -0.48274454235378189 0.091705374172880549 0 -0.49715897998801373 0.091784747772784503 0 -0.48623164313442779 0.1055772789283768 0 -0.48623164313442779 0.1055772789283768 0 -0.5 0.1165350595253765 0 -0.48453668432005692 0.123143207324586 0 -0.5 0.1165350595253765 0 -0.48453668432005692 0.123143207324586 0 -0.5 0.1433429088593379 0 -0.48453668432005692 0.123143207324586 0 -0.48049738108946538 0.1379484740379 0 -0.5 0.1433429088593379 0 -0.46607010556719342 0.11973313861048911 0 -0.48453668432005692 0.123143207324586 0 -0.48049738108946538 0.1379484740379 0 -0.46607010556719342 0.11973313861048911 0 -0.48049738108946538 0.1379484740379 0 -0.46092099384776192 0.14306874102069511 0 -0.48464943840857888 0.15775282940309851 0 -0.46990863904630059 0.1670362475492525 0 -0.46092099384776192 0.14306874102069511 0 -0.48464943840857888 0.15775282940309851 0 -0.46092099384776192 0.14306874102069511 0 -0.48049738108946538 0.1379484740379 0 -0.48464943840857888 0.15775282940309851 0 -0.46092099384776192 0.14306874102069511 0 -0.48049738108946538 0.1379484740379 0 -0.5 0.1433429088593379 0 -0.48464943840857888 0.15775282940309851 0 -0.48464943840857888 0.15775282940309851 0 -0.5 0.17015075819329931 0 -0.4898809761324775 0.17912292006808481 0 -0.5 0.1433429088593379 0 -0.48464943840857888 0.15775282940309851 0 -0.5 0.17015075819329931 0 -0.48464943840857888 0.15775282940309851 0 -0.4898809761324775 0.17912292006808481 0 -0.47865635922375932 0.17909963177513319 0 -0.5 0.17015075819329931 0 -0.4898809761324775 0.17912292006808481 0 -0.5 0.19695860752726069 0 -0.4898809761324775 0.17912292006808481 0 -0.47865635922375932 0.17909963177513319 0 -0.48609908303004917 0.1916527734416324 0 -0.47865635922375932 0.17909963177513319 0 -0.47279817792341111 0.1948006201282925 0 -0.47865635922375932 0.17909963177513319 0 -0.46589335310649882 0.18744802338852329 0 -0.47279817792341111 0.1948006201282925 0 -0.47865635922375932 0.17909963177513319 0 -0.46927870962167312 0.17493875400548389 0 -0.46990863904630059 0.1670362475492525 0 -0.47865635922375932 0.17909963177513319 0 -0.46927870962167312 0.17493875400548389 0 -0.46555461593459269 0.18128722400797501 0 -0.47865635922375932 0.17909963177513319 0 -0.46589335310649882 0.18744802338852329 0 -0.46555461593459269 0.18128722400797501 0 -0.48464943840857888 0.15775282940309851 0 -0.47865635922375932 0.17909963177513319 0 -0.46990863904630059 0.1670362475492525 0 -0.45742932361540911 0.15889287394486271 0 -0.45393765338305497 0.17471700686903011 0 -0.46990863904630059 0.1670362475492525 0 -0.45742932361540911 0.15889287394486271 0 -0.46092099384776192 0.14306874102069511 0 -0.45742932361540911 0.15889287394486271 0 -0.46299522428203971 0.17233191268957501 0 -0.45393765338305497 0.17471700686903011 0 -0.46927870962167312 0.17493875400548389 0 -0.46990863904630059 0.1670362475492525 0 -0.46299522428203971 0.17233191268957501 0 -0.46990863904630059 0.1670362475492525 0 -0.45742932361540911 0.15889287394486271 0 -0.46299522428203971 0.17233191268957501 0 -0.46589335310649882 0.18744802338852329 0 -0.46555461593459269 0.18128722400797501 0 -0.45393765338305497 0.17471700686903011 0 -0.46589335310649882 0.18744802338852329 0 -0.46555461593459269 0.18128722400797501 0 -0.46927870962167312 0.17493875400548389 0 -0.46555461593459269 0.18128722400797501 0 -0.46299522428203971 0.17233191268957501 0 -0.46555461593459269 0.18128722400797501 0 -0.46299522428203971 0.17233191268957501 0 -0.45393765338305497 0.17471700686903011 0 -0.46589335310649882 0.18744802338852329 0 -0.45393765338305497 0.17471700686903011 0 -0.45393765338305497 0.17471700686903011 0 -0.44047241453070329 0.18324079402305421 0 -0.44820564853932793 0.20069426145875721 0 -0.45393765338305497 0.17471700686903011 0 -0.44047241453070329 0.18324079402305421 0 -0.44174290600336708 0.16173144065936321 0 -0.45742932361540911 0.15889287394486271 0 -0.44174290600336708 0.16173144065936321 0 -0.44616928685712581 0.1494742970518641 0 -0.45742932361540911 0.15889287394486271 0 -0.45393765338305497 0.17471700686903011 0 -0.44174290600336708 0.16173144065936321 0 -0.45393765338305497 0.17471700686903011 0 -0.44174290600336708 0.16173144065936321 0 -0.44174290600336708 0.16173144065936321 0 -0.44616928685712581 0.1494742970518641 0 -0.43187713239064979 0.1573343508491826 0 -0.44616928685712581 0.1494742970518641 0 -0.43700896048386301 0.14249666109927989 0 -0.43187713239064979 0.1573343508491826 0 -0.44616928685712581 0.1494742970518641 0 -0.44680021131503311 0.13433024919887079 0 -0.46092099384776192 0.14306874102069511 0 -0.44616928685712581 0.1494742970518641 0 -0.44680021131503311 0.13433024919887079 0 -0.43700896048386301 0.14249666109927989 0 -0.45289828098281221 0.1241297055338681 0 -0.44680021131503311 0.13433024919887079 0 -0.43267942878230348 0.12559175737704789 0 -0.44680021131503311 0.13433024919887079 0 -0.43267942878230348 0.12559175737704789 0 -0.43700896048386301 0.14249666109927989 0 -0.44680021131503311 0.13433024919887079 0 -0.43267942878230348 0.12559175737704789 0 -0.45289828098281221 0.1241297055338681 0 -0.44680021131503311 0.13433024919887079 0 -0.46092099384776192 0.14306874102069511 0 -0.46607010556719342 0.11973313861048911 0 -0.46092099384776192 0.14306874102069511 0 -0.45289828098281221 0.1241297055338681 0 -0.46607010556719342 0.11973313861048911 0 -0.46092099384776192 0.14306874102069511 0 -0.44680021131503311 0.13433024919887079 0 -0.46092099384776192 0.14306874102069511 0 -0.45742932361540911 0.15889287394486271 0 -0.46092099384776192 0.14306874102069511 0 -0.45742932361540911 0.15889287394486271 0 -0.44616928685712581 0.1494742970518641 0 -0.46092099384776192 0.14306874102069511 0 -0.46853242371352971 0.23544625301742969 0 -0.46993231893463527 0.26090691788180947 0 -0.48177750529808522 0.24619974485466931 0 -0.46853242371352971 0.23544625301742969 0 -0.46993231893463527 0.26090691788180947 0 -0.48177750529808522 0.24619974485466931 0 -0.48375626182904402 0.22755154475287301 0 -0.46853242371352971 0.23544625301742969 0 -0.48177750529808522 0.24619974485466931 0 -0.5 0.2461359573144368 0 -0.48375626182904402 0.22755154475287301 0 -0.5 0.2461359573144368 0 -0.48375626182904402 0.22755154475287301 0 -0.49999999999999978 0.22376645686122221 0 -0.48375626182904402 0.22755154475287301 0 -0.48639908896170481 0.20928353849475789 0 -0.5 0.2461359573144368 0 -0.49999999999999978 0.22376645686122221 0 -0.48375626182904402 0.22755154475287301 0 -0.47173343442327142 0.22048762952866541 0 -0.46713252849242448 0.20998558815304991 0 -0.46853242371352971 0.23544625301742969 0 -0.48375626182904402 0.22755154475287301 0 -0.47173343442327142 0.22048762952866541 0 -0.4670472636537164 0.20843482960316059 0 -0.48375626182904402 0.22755154475287301 0 -0.47173343442327142 0.22048762952866541 0 -0.46853242371352971 0.23544625301742969 0 -0.48375626182904402 0.22755154475287301 0 -0.4670472636537164 0.20843482960316059 0 -0.48639908896170481 0.20928353849475789 0 -0.47279817792341111 0.1948006201282925 0 -0.4670472636537164 0.20843482960316059 0 -0.48375626182904402 0.22755154475287301 0 -0.48639908896170481 0.20928353849475789 0 -0.4670472636537164 0.20843482960316059 0 -0.49999999999999978 0.22376645686122221 0 -0.48639908896170481 0.20928353849475789 0 -0.5 0.19695860752726069 0 -0.49999999999999978 0.22376645686122221 0 -0.48639908896170481 0.20928353849475789 0 -0.48639908896170481 0.20928353849475789 0 -0.5 0.19695860752726069 0 -0.48609908303004917 0.1916527734416324 0 -0.4898809761324775 0.17912292006808481 0 -0.5 0.19695860752726069 0 -0.48609908303004917 0.1916527734416324 0 -0.48639908896170481 0.20928353849475789 0 -0.48609908303004917 0.1916527734416324 0 -0.47279817792341111 0.1948006201282925 0 -0.47865635922375932 0.17909963177513319 0 -0.48609908303004917 0.1916527734416324 0 -0.47279817792341111 0.1948006201282925 0 -0.48639908896170481 0.20928353849475789 0 -0.47279817792341111 0.1948006201282925 0 -0.47279817792341111 0.1948006201282925 0 -0.4670472636537164 0.20843482960316059 0 -0.46589335310649882 0.18744802338852329 0 -0.47279817792341111 0.1948006201282925 0 -0.46589335310649882 0.18744802338852329 0 -0.4603250720810298 0.20074399020462361 0 -0.4670472636537164 0.20843482960316059 0 -0.46589335310649882 0.18744802338852329 0 -0.45393765338305497 0.17471700686903011 0 -0.44820564853932793 0.20069426145875721 0 -0.46589335310649882 0.18744802338852329 0 -0.4603250720810298 0.20074399020462361 0 -0.44820564853932793 0.20069426145875721 0 -0.46589335310649882 0.18744802338852329 0 -0.47279817792341111 0.1948006201282925 0 -0.4670472636537164 0.20843482960316059 0 -0.46589335310649882 0.18744802338852329 0 -0.4670472636537164 0.20843482960316059 0 -0.45393765338305497 0.17471700686903011 0 -0.44820564853932793 0.20069426145875721 0 -0.44820564853932793 0.20069426145875721 0 -0.45427794118362658 0.21265328965042851 0 -0.44247364369559788 0.22667151604848371 0 -0.44820564853932793 0.20069426145875721 0 -0.44247364369559788 0.22667151604848371 0 -0.44820564853932793 0.20069426145875721 0 -0.44247364369559788 0.22667151604848371 0 -0.42336320141575168 0.21609666274764849 0 -0.45880341375183131 0.2186303689721085 0 -0.45427794118362658 0.21265328965042851 0 -0.46188137931700068 0.21002659871962689 0 -0.45880341375183131 0.2186303689721085 0 -0.45427794118362658 0.21265328965042851 0 -0.4536201791639074 0.2236252940046442 0 -0.4603250720810298 0.20074399020462361 0 -0.45427794118362658 0.21265328965042851 0 -0.46188137931700068 0.21002659871962689 0 -0.4603250720810298 0.20074399020462361 0 -0.44820564853932793 0.20069426145875721 0 -0.45427794118362658 0.21265328965042851 0 -0.4603250720810298 0.20074399020462361 0 -0.46188137931700068 0.21002659871962689 0 -0.4670472636537164 0.20843482960316059 0 -0.4603250720810298 0.20074399020462361 0 -0.4670472636537164 0.20843482960316059 0 -0.46188137931700068 0.21002659871962689 0 -0.4670472636537164 0.20843482960316059 0 -0.46713252849242448 0.20998558815304991 0 -0.4670472636537164 0.20843482960316059 0 -0.46713252849242448 0.20998558815304991 0 -0.47173343442327142 0.22048762952866541 0 -0.4670472636537164 0.20843482960316059 0 -0.46713252849242448 0.20998558815304991 0 -0.45880341375183131 0.2186303689721085 0 -0.46188137931700068 0.21002659871962689 0 -0.46713252849242448 0.20998558815304991 0 -0.46713252849242448 0.20998558815304991 0 -0.45710504060219709 0.23686107433279269 0 -0.46713252849242448 0.20998558815304991 0 -0.45710504060219709 0.23686107433279269 0 -0.46853242371352971 0.23544625301742969 0 -0.45880341375183131 0.2186303689721085 0 -0.46713252849242448 0.20998558815304991 0 -0.45710504060219709 0.23686107433279269 0 -0.45880341375183131 0.2186303689721085 0 -0.4536201791639074 0.2236252940046442 0 -0.45710504060219709 0.23686107433279269 0 -0.46713252849242448 0.20998558815304991 0 -0.46853242371352971 0.23544625301742969 0 -0.45427794118362658 0.21265328965042851 0 -0.4536201791639074 0.2236252940046442 0 -0.44247364369559788 0.22667151604848371 0 -0.4536201791639074 0.2236252940046442 0 -0.44247364369559788 0.22667151604848371 0 -0.45710504060219709 0.23686107433279269 0 -0.44247364369559788 0.22667151604848371 0 -0.4367416388518679 0.25264877063821017 0 -0.44247364369559788 0.22667151604848371 0 -0.45710504060219709 0.23686107433279269 0 -0.4367416388518679 0.25264877063821017 0 -0.45710504060219709 0.23686107433279269 0 -0.46853242371352971 0.23544625301742969 0 -0.46993231893463527 0.26090691788180947 0 -0.41931835140954682 0.23739665832436521 0 -0.40367044579520373 0.24132688110038639 0 -0.41175872593851298 0.2549478601346914 0 -0.41931835140954682 0.23739665832436521 0 -0.40790513800462019 0.22799805468035339 0 -0.40367044579520373 0.24132688110038639 0 -0.41931835140954682 0.23739665832436521 0 -0.4367416388518679 0.25264877063821017 0 -0.41175872593851298 0.2549478601346914 0 -0.44247364369559788 0.22667151604848371 0 -0.41931835140954682 0.23739665832436521 0 -0.4367416388518679 0.25264877063821017 0 -0.44247364369559788 0.22667151604848371 0 -0.41931835140954682 0.23739665832436521 0 -0.42336320141575168 0.21609666274764849 0 -0.41931835140954682 0.23739665832436521 0 -0.40790513800462019 0.22799805468035339 0 -0.42336320141575168 0.21609666274764849 0 -0.40790513800462019 0.22799805468035339 0 -0.42336320141575168 0.21609666274764849 0 -0.40538393777915788 0.2123952851453417 0 -0.42336320141575168 0.21609666274764849 0 -0.42071240458675369 0.1920614743917832 0 -0.40538393777915788 0.2123952851453417 0 -0.44820564853932793 0.20069426145875721 0 -0.42336320141575168 0.21609666274764849 0 -0.42071240458675369 0.1920614743917832 0 -0.44047241453070329 0.18324079402305421 0 -0.44820564853932793 0.20069426145875721 0 -0.42071240458675369 0.1920614743917832 0 -0.42071240458675369 0.1920614743917832 0 -0.40538393777915788 0.2123952851453417 0 -0.42071240458675369 0.1920614743917832 0 -0.4022878927449296 0.1970928012265635 0 -0.40298680868332198 0.18508216307238631 0 -0.42071240458675369 0.1920614743917832 0 -0.4022878927449296 0.1970928012265635 0 -0.40538393777915788 0.2123952851453417 0 -0.4022878927449296 0.1970928012265635 0 -0.39286614404695941 0.1920732104686422 0 -0.40298680868332198 0.18508216307238631 0 -0.4022878927449296 0.1970928012265635 0 -0.39286614404695941 0.1920732104686422 0 -0.39380007669083689 0.206464460861051 0 -0.38422654444444693 0.2008322729754812 0 -0.38088029112643113 0.1825210369279657 0 -0.38422654444444693 0.2008322729754812 0 -0.38088029112643113 0.1825210369279657 0 -0.36802074197771562 0.19700904511440151 0 -0.38422654444444693 0.2008322729754812 0 -0.37368745339656201 0.20924711939208951 0 -0.36802074197771562 0.19700904511440151 0 -0.39286614404695941 0.1920732104686422 0 -0.38422654444444693 0.2008322729754812 0 -0.38088029112643113 0.1825210369279657 0 -0.39286614404695941 0.1920732104686422 0 -0.38422654444444693 0.2008322729754812 0 -0.39380007669083689 0.206464460861051 0 -0.38422654444444693 0.2008322729754812 0 -0.38757279776246373 0.21914350902299659 0 -0.38757279776246373 0.21914350902299659 0 -0.36800338097472479 0.22147713987588341 0 -0.37368745339656201 0.20924711939208951 0 -0.38422654444444693 0.2008322729754812 0 -0.39380007669083689 0.206464460861051 0 -0.38757279776246373 0.21914350902299659 0 -0.38422654444444693 0.2008322729754812 0 -0.38757279776246373 0.21914350902299659 0 -0.37368745339656201 0.20924711939208951 0 -0.39141353052387118 0.2186855059784025 0 -0.39380007669083689 0.206464460861051 0 -0.38757279776246373 0.21914350902299659 0 -0.39141353052387118 0.2186855059784025 0 -0.39380007669083689 0.206464460861051 0 -0.40538393777915788 0.2123952851453417 0 -0.4022878927449296 0.1970928012265635 0 -0.39380007669083689 0.206464460861051 0 -0.40538393777915788 0.2123952851453417 0 -0.40790513800462019 0.22799805468035339 0 -0.39005547097156312 0.23272909589890109 0 -0.40367044579520373 0.24132688110038639 0 -0.39141353052387118 0.2186855059784025 0 -0.40538393777915788 0.2123952851453417 0 -0.39005547097156312 0.23272909589890109 0 -0.40790513800462019 0.22799805468035339 0 -0.40538393777915788 0.2123952851453417 0 -0.39005547097156312 0.23272909589890109 0 -0.40538393777915788 0.2123952851453417 0 -0.39005547097156312 0.23272909589890109 0 -0.38757279776246373 0.21914350902299659 0 -0.39005547097156312 0.23272909589890109 0 -0.38757279776246373 0.21914350902299659 0 -0.36800338097472479 0.22147713987588341 0 -0.39141353052387118 0.2186855059784025 0 -0.38757279776246373 0.21914350902299659 0 -0.39005547097156312 0.23272909589890109 0 -0.38757279776246373 0.21914350902299659 0 -0.37939186114838758 0.22424627805714001 0 -0.36800338097472479 0.22147713987588341 0 -0.38757279776246373 0.21914350902299659 0 -0.37939186114838758 0.22424627805714001 0 -0.39005547097156312 0.23272909589890109 0 -0.39141353052387118 0.2186855059784025 0 -0.38757279776246373 0.21914350902299659 0 -0.37939186114838758 0.22424627805714001 0 -0.37477717689163992 0.25299635056682518 0 -0.39005547097156312 0.23272909589890109 0 -0.39384597734802013 0.25347135609337229 0 -0.37477717689163992 0.25299635056682518 0 -0.37939186114838758 0.22424627805714001 0 -0.39005547097156312 0.23272909589890109 0 -0.37477717689163992 0.25299635056682518 0 -0.39005547097156312 0.23272909589890109 0 -0.37477717689163992 0.25299635056682518 0 -0.40367044579520373 0.24132688110038639 0 -0.41175872593851298 0.2549478601346914 0 -0.39384597734802013 0.25347135609337229 0 -0.39005547097156312 0.23272909589890109 0 -0.39384597734802013 0.25347135609337229 0 -0.39005547097156312 0.23272909589890109 0 -0.40367044579520373 0.24132688110038639 0 -0.39384597734802013 0.25347135609337229 0 -0.41485942150404181 0.14153864215909739 0 -0.41553858058260518 0.15317901213210369 0 -0.42574561826610652 0.14613969243370301 0 -0.41553858058260518 0.15317901213210369 0 -0.42574561826610652 0.14613969243370301 0 -0.42127399236650492 0.15770626544657529 0 -0.41485942150404181 0.14153864215909739 0 -0.41553858058260518 0.15317901213210369 0 -0.4044664398419977 0.15594807455379561 0 -0.40864304721671202 0.1107171055473533 0 -0.41485942150404181 0.14153864215909739 0 -0.43267942878230348 0.12559175737704789 0 -0.41485942150404181 0.14153864215909739 0 -0.43267942878230348 0.12559175737704789 0 -0.42574561826610652 0.14613969243370301 0 -0.43267942878230348 0.12559175737704789 0 -0.43700896048386301 0.14249666109927989 0 -0.42574561826610652 0.14613969243370301 0 -0.41485942150404181 0.14153864215909739 0 -0.43267942878230348 0.12559175737704789 0 -0.42574561826610652 0.14613969243370301 0 -0.43187713239064979 0.1573343508491826 0 -0.42127399236650492 0.15770626544657529 0 -0.43700896048386301 0.14249666109927989 0 -0.42574561826610652 0.14613969243370301 0 -0.43187713239064979 0.1573343508491826 0 -0.43187713239064979 0.1573343508491826 0 -0.42946357341586749 0.17496324995209989 0 -0.4216380035134229 0.16659483191912641 0 -0.44174290600336708 0.16173144065936321 0 -0.43187713239064979 0.1573343508491826 0 -0.42946357341586749 0.17496324995209989 0 -0.43187713239064979 0.1573343508491826 0 -0.42127399236650492 0.15770626544657529 0 -0.4216380035134229 0.16659483191912641 0 -0.44047241453070329 0.18324079402305421 0 -0.44174290600336708 0.16173144065936321 0 -0.42946357341586749 0.17496324995209989 0 -0.44047241453070329 0.18324079402305421 0 -0.42071240458675369 0.1920614743917832 0 -0.42946357341586749 0.17496324995209989 0 -0.42071240458675369 0.1920614743917832 0 -0.42946357341586749 0.17496324995209989 0 -0.41235879422937732 0.17543682721938669 0 -0.42071240458675369 0.1920614743917832 0 -0.41235879422937732 0.17543682721938669 0 -0.40298680868332198 0.18508216307238631 0 -0.42946357341586749 0.17496324995209989 0 -0.41235879422937732 0.17543682721938669 0 -0.4216380035134229 0.16659483191912641 0 -0.41553858058260518 0.15317901213210369 0 -0.42127399236650492 0.15770626544657529 0 -0.41302135350813218 0.1630654313638546 0 -0.42127399236650492 0.15770626544657529 0 -0.4216380035134229 0.16659483191912641 0 -0.41302135350813218 0.1630654313638546 0 -0.41235879422937732 0.17543682721938669 0 -0.4216380035134229 0.16659483191912641 0 -0.41302135350813218 0.1630654313638546 0 -0.41235879422937732 0.17543682721938669 0 -0.41302135350813218 0.1630654313638546 0 -0.40449990094882532 0.16792382984329149 0 -0.41302135350813218 0.1630654313638546 0 -0.40449990094882532 0.16792382984329149 0 -0.4044664398419977 0.15594807455379561 0 -0.41553858058260518 0.15317901213210369 0 -0.41302135350813218 0.1630654313638546 0 -0.4044664398419977 0.15594807455379561 0 -0.3926733654842145 0.1692345557408807 0 -0.4044664398419977 0.15594807455379561 0 -0.40449990094882532 0.16792382984329149 0 -0.3926733654842145 0.1692345557408807 0 -0.40078474618547688 0.17571320347163299 0 -0.40449990094882532 0.16792382984329149 0 -0.3926733654842145 0.1692345557408807 0 -0.4044664398419977 0.15594807455379561 0 -0.3926733654842145 0.1692345557408807 0 -0.39703941422577987 0.15748552694114659 0 -0.4044664398419977 0.15594807455379561 0 -0.40298680868332198 0.18508216307238631 0 -0.40078474618547688 0.17571320347163299 0 -0.39301525059178999 0.18044652774840561 0 -0.41235879422937732 0.17543682721938669 0 -0.40298680868332198 0.18508216307238631 0 -0.40078474618547688 0.17571320347163299 0 -0.41235879422937732 0.17543682721938669 0 -0.40449990094882532 0.16792382984329149 0 -0.40078474618547688 0.17571320347163299 0 -0.3926733654842145 0.1692345557408807 0 -0.40078474618547688 0.17571320347163299 0 -0.39301525059178999 0.18044652774840561 0 -0.39286614404695941 0.1920732104686422 0 -0.40298680868332198 0.18508216307238631 0 -0.39301525059178999 0.18044652774840561 0 -0.39286614404695941 0.1920732104686422 0 -0.39301525059178999 0.18044652774840561 0 -0.38088029112643113 0.1825210369279657 0 -0.3926733654842145 0.1692345557408807 0 -0.38088029112643113 0.1825210369279657 0 -0.3926733654842145 0.1692345557408807 0 -0.39301525059178999 0.18044652774840561 0 -0.38088029112643113 0.1825210369279657 0 -0.3926733654842145 0.1692345557408807 0 -0.37921940694751782 0.17343241172319571 0 -0.38088029112643113 0.1825210369279657 0 -0.37921940694751782 0.17343241172319571 0 -0.38088029112643113 0.1825210369279657 0 -0.37921940694751782 0.17343241172319571 0 -0.38088029112643113 0.1825210369279657 0 -0.37283571032282492 0.1791450959532255 0 -0.3784015845151173 0.16895715591276281 0 -0.37283571032282492 0.1791450959532255 0 -0.37921940694751782 0.17343241172319571 0 -0.3784015845151173 0.16895715591276281 0 -0.37283571032282492 0.1791450959532255 0 -0.37921940694751782 0.17343241172319571 0 -0.37283571032282492 0.1791450959532255 0 -0.39703941422577987 0.15748552694114659 0 -0.37921940694751782 0.17343241172319571 0 -0.38193020105096481 0.16249827228531991 0 -0.3784015845151173 0.16895715591276281 0 -0.38193020105096481 0.16249827228531991 0 -0.37372345991800282 0.14335770613522919 0 -0.39703941422577987 0.15748552694114659 0 -0.37921940694751782 0.17343241172319571 0 -0.3926733654842145 0.1692345557408807 0 -0.39703941422577987 0.15748552694114659 0 -0.37921940694751782 0.17343241172319571 0 -0.39703941422577987 0.15748552694114659 0 -0.38193020105096481 0.16249827228531991 0 -0.38598126975628672 0.1494316781992327 0 -0.37921940694751782 0.17343241172319571 0 -0.3784015845151173 0.16895715591276281 0 -0.38193020105096481 0.16249827228531991 0 -0.3784015845151173 0.16895715591276281 0 -0.38193020105096481 0.16249827228531991 0 -0.37921940694751782 0.17343241172319571 0 -0.3784015845151173 0.16895715591276281 0 -0.38598126975628672 0.1494316781992327 0 -0.39401402549175851 0.1361747599337243 0 -0.37372345991800282 0.14335770613522919 0 -0.38193020105096481 0.16249827228531991 0 -0.38598126975628672 0.1494316781992327 0 -0.37372345991800282 0.14335770613522919 0 -0.3784015845151173 0.16895715591276281 0 -0.37372345991800282 0.14335770613522919 0 -0.39703941422577987 0.15748552694114659 0 -0.38598126975628672 0.1494316781992327 0 -0.39401402549175851 0.1361747599337243 0 -0.41485942150404181 0.14153864215909739 0 -0.39703941422577987 0.15748552694114659 0 -0.39401402549175851 0.1361747599337243 0 -0.41485942150404181 0.14153864215909739 0 -0.39703941422577987 0.15748552694114659 0 -0.4044664398419977 0.15594807455379561 0 -0.41485942150404181 0.14153864215909739 0 -0.39703941422577987 0.15748552694114659 0 -0.40864304721671202 0.1107171055473533 0 -0.41485942150404181 0.14153864215909739 0 -0.39401402549175851 0.1361747599337243 0 -0.38750957741872682 0.11885909540365321 0 -0.37372345991800282 0.14335770613522919 0 -0.36904533532088801 0.1177582563576956 0 -0.38750957741872682 0.11885909540365321 0 -0.39401402549175851 0.1361747599337243 0 -0.37372345991800282 0.14335770613522919 0 -0.35823941519022368 0.13573745574644491 0 -0.37372345991800282 0.14335770613522919 0 -0.36904533532088801 0.1177582563576956 0 -0.37372345991800282 0.14335770613522919 0 -0.36904533532088801 0.1177582563576956 0 -0.35823941519022368 0.13573745574644491 0 -0.34455851703438989 0.13305210298766909 0 -0.35158166360451942 0.11704707172714621 0 -0.35823941519022368 0.13573745574644491 0 -0.34455851703438989 0.13305210298766909 0 -0.34873147585397152 0.15030858297792049 0 -0.35823941519022368 0.13573745574644491 0 -0.34873147585397152 0.15030858297792049 0 -0.36179603940957061 0.15290101429300901 0 -0.34873147585397152 0.15030858297792049 0 -0.34720568730415252 0.1616956217090188 0 -0.33647431770126862 0.14798842126345041 0 -0.34873147585397152 0.15030858297792049 0 -0.36179603940957061 0.15290101429300901 0 -0.35552330674067661 0.16014073544654131 0 -0.35823941519022368 0.13573745574644491 0 -0.36179603940957061 0.15290101429300901 0 -0.37372345991800282 0.14335770613522919 0 -0.3784015845151173 0.16895715591276281 0 -0.36179603940957061 0.15290101429300901 0 -0.37372345991800282 0.14335770613522919 0 -0.3784015845151173 0.16895715591276281 0 -0.36179603940957061 0.15290101429300901 0 -0.3628088848288224 0.16705289795690309 0 -0.3784015845151173 0.16895715591276281 0 -0.3628088848288224 0.16705289795690309 0 -0.36959790597703868 0.17377317275203899 0 -0.36179603940957061 0.15290101429300901 0 -0.3628088848288224 0.16705289795690309 0 -0.35552330674067661 0.16014073544654131 0 -0.38088029112643113 0.1825210369279657 0 -0.37283571032282492 0.1791450959532255 0 -0.36802074197771562 0.19700904511440151 0 -0.37283571032282492 0.1791450959532255 0 -0.36399845157591232 0.19532107462703119 0 -0.37283571032282492 0.1791450959532255 0 -0.36261880381503758 0.18828806813974089 0 -0.3784015845151173 0.16895715591276281 0 -0.36959790597703868 0.17377317275203899 0 -0.37283571032282492 0.1791450959532255 0 -0.36959790597703868 0.17377317275203899 0 -0.37283571032282492 0.1791450959532255 0 -0.36409588864576692 0.17933358541092431 0 -0.3628088848288224 0.16705289795690309 0 -0.36959790597703868 0.17377317275203899 0 -0.36409588864576692 0.17933358541092431 0 -0.3628088848288224 0.16705289795690309 0 -0.36409588864576692 0.17933358541092431 0 -0.35614161380151321 0.17761165346375071 0 -0.36409588864576692 0.17933358541092431 0 -0.35797279878738592 0.18411861580098379 0 -0.35614161380151321 0.17761165346375071 0 -0.36409588864576692 0.17933358541092431 0 -0.35797279878738592 0.18411861580098379 0 -0.36261880381503758 0.18828806813974089 0 -0.37283571032282492 0.1791450959532255 0 -0.36409588864576692 0.17933358541092431 0 -0.36261880381503758 0.18828806813974089 0 -0.35797279878738592 0.18411861580098379 0 -0.35614161380151321 0.17761165346375071 0 -0.35065229879255438 0.18593262723135329 0 -0.35797279878738592 0.18411861580098379 0 -0.35065229879255438 0.18593262723135329 0 -0.35645772166264922 0.19211102842263869 0 -0.35614161380151321 0.17761165346375071 0 -0.34811061985946878 0.17434540014992381 0 -0.35436851446084039 0.1683048517912053 0 -0.35614161380151321 0.17761165346375071 0 -0.34811061985946878 0.17434540014992381 0 -0.35065229879255438 0.18593262723135329 0 -0.35065229879255438 0.18593262723135329 0 -0.34227569468909552 0.1811403169530669 0 -0.33993633525554889 0.19055096072852831 0 -0.34811061985946878 0.17434540014992381 0 -0.35065229879255438 0.18593262723135329 0 -0.34227569468909552 0.1811403169530669 0 -0.35552330674067661 0.16014073544654131 0 -0.35436851446084039 0.1683048517912053 0 -0.34720568730415252 0.1616956217090188 0 -0.3628088848288224 0.16705289795690309 0 -0.35614161380151321 0.17761165346375071 0 -0.35436851446084039 0.1683048517912053 0 -0.3628088848288224 0.16705289795690309 0 -0.35552330674067661 0.16014073544654131 0 -0.35436851446084039 0.1683048517912053 0 -0.34811061985946878 0.17434540014992381 0 -0.34720568730415252 0.1616956217090188 0 -0.33801991010865667 0.17138732975114751 0 -0.34811061985946878 0.17434540014992381 0 -0.35436851446084039 0.1683048517912053 0 -0.34720568730415252 0.1616956217090188 0 -0.34873147585397152 0.15030858297792049 0 -0.35552330674067661 0.16014073544654131 0 -0.34720568730415252 0.1616956217090188 0 -0.34720568730415252 0.1616956217090188 0 -0.33801991010865667 0.17138732975114751 0 -0.33092539158612982 0.1609515407851054 0 -0.34720568730415252 0.1616956217090188 0 -0.33092539158612982 0.1609515407851054 0 -0.33647431770126862 0.14798842126345041 0 -0.33801991010865667 0.17138732975114751 0 -0.33092539158612982 0.1609515407851054 0 -0.3265778886375873 0.17202186172735501 0 -0.34227569468909552 0.1811403169530669 0 -0.33183788287013261 0.1831818366374682 0 -0.33993633525554889 0.19055096072852831 0 -0.34811061985946878 0.17434540014992381 0 -0.33801991010865667 0.17138732975114751 0 -0.34227569468909552 0.1811403169530669 0 -0.33801991010865667 0.17138732975114751 0 -0.34227569468909552 0.1811403169530669 0 -0.33183788287013261 0.1831818366374682 0 -0.33801991010865667 0.17138732975114751 0 -0.33183788287013261 0.1831818366374682 0 -0.3265778886375873 0.17202186172735501 0 -0.3265778886375873 0.17202186172735501 0 -0.31632076704925127 0.18575639557221951 0 -0.3167678101826048 0.16359462978275929 0 -0.33183788287013261 0.1831818366374682 0 -0.3265778886375873 0.17202186172735501 0 -0.31632076704925127 0.18575639557221951 0 -0.33092539158612982 0.1609515407851054 0 -0.3167678101826048 0.16359462978275929 0 -0.32050673558250908 0.1490213804769015 0 -0.33092539158612982 0.1609515407851054 0 -0.3265778886375873 0.17202186172735501 0 -0.3167678101826048 0.16359462978275929 0 -0.32050673558250908 0.1490213804769015 0 -0.30739524272803709 0.15185112365938391 0 -0.31211500736378339 0.1240031522641292 0 -0.3167678101826048 0.16359462978275929 0 -0.32050673558250908 0.1490213804769015 0 -0.30739524272803709 0.15185112365938391 0 -0.32050673558250908 0.1490213804769015 0 -0.30739524272803709 0.15185112365938391 0 -0.32919359534549508 0.13424827028365749 0 -0.31211500736378339 0.1240031522641292 0 -0.33231339904552459 0.1171762944261375 0 -0.32050673558250908 0.1490213804769015 0 -0.32919359534549508 0.13424827028365749 0 -0.31211500736378339 0.1240031522641292 0 -0.34455851703438989 0.13305210298766909 0 -0.32919359534549508 0.13424827028365749 0 -0.33231339904552459 0.1171762944261375 0 -0.34455851703438989 0.13305210298766909 0 -0.32919359534549508 0.13424827028365749 0 -0.33647431770126862 0.14798842126345041 0 -0.32050673558250908 0.1490213804769015 0 -0.32919359534549508 0.13424827028365749 0 -0.33647431770126862 0.14798842126345041 0 -0.33092539158612982 0.1609515407851054 0 -0.32050673558250908 0.1490213804769015 0 -0.33647431770126862 0.14798842126345041 0 -0.34455851703438989 0.13305210298766909 0 -0.34873147585397152 0.15030858297792049 0 -0.33647431770126862 0.14798842126345041 0 -0.35416421148584648 0.23888623464626721 0 -0.34843396418698602 0.22381077072877051 0 -0.33845336435013867 0.242079554605789 0 -0.35416421148584648 0.23888623464626721 0 -0.33845336435013867 0.242079554605789 0 -0.35464358931248319 0.25491115920099722 0 -0.37939186114838758 0.22424627805714001 0 -0.37013679196984273 0.23750613219799629 0 -0.37477717689163992 0.25299635056682518 0 -0.37013679196984273 0.23750613219799629 0 -0.35464358931248319 0.25491115920099722 0 -0.37477717689163992 0.25299635056682518 0 -0.35416421148584648 0.23888623464626721 0 -0.37013679196984273 0.23750613219799629 0 -0.35464358931248319 0.25491115920099722 0 -0.35416421148584648 0.23888623464626721 0 -0.37013679196984273 0.23750613219799629 0 -0.36148561266771267 0.2305011068434443 0 -0.36148561266771267 0.2305011068434443 0 -0.36975441169016687 0.228432664243616 0 -0.36800338097472479 0.22147713987588341 0 -0.37013679196984273 0.23750613219799629 0 -0.36148561266771267 0.2305011068434443 0 -0.36975441169016687 0.228432664243616 0 -0.37939186114838758 0.22424627805714001 0 -0.37013679196984273 0.23750613219799629 0 -0.36975441169016687 0.228432664243616 0 -0.37939186114838758 0.22424627805714001 0 -0.36975441169016687 0.228432664243616 0 -0.36800338097472479 0.22147713987588341 0 -0.36800338097472479 0.22147713987588341 0 -0.34843396418698602 0.22381077072877051 0 -0.35516119282899983 0.21149705330083701 0 -0.36148561266771267 0.2305011068434443 0 -0.36800338097472479 0.22147713987588341 0 -0.34843396418698602 0.22381077072877051 0 -0.36800338097472479 0.22147713987588341 0 -0.34843396418698602 0.22381077072877051 0 -0.35416421148584648 0.23888623464626721 0 -0.36148561266771267 0.2305011068434443 0 -0.34843396418698602 0.22381077072877051 0 -0.34843396418698602 0.22381077072877051 0 -0.34802604401402371 0.21953575615482759 0 -0.33982416592956399 0.21665757569738961 0 -0.34802604401402371 0.21953575615482759 0 -0.34581283434165899 0.20861347152532789 0 -0.33982416592956399 0.21665757569738961 0 -0.34802604401402371 0.21953575615482759 0 -0.34581283434165899 0.20861347152532789 0 -0.35516119282899983 0.21149705330083701 0 -0.34843396418698602 0.22381077072877051 0 -0.34802604401402371 0.21953575615482759 0 -0.35516119282899983 0.21149705330083701 0 -0.34581283434165899 0.20861347152532789 0 -0.35516119282899983 0.21149705330083701 0 -0.35389383475621161 0.20092716755479181 0 -0.34802604401402371 0.21953575615482759 0 -0.35516119282899983 0.21149705330083701 0 -0.34843396418698602 0.22381077072877051 0 -0.35516119282899983 0.21149705330083701 0 -0.36800338097472479 0.22147713987588341 0 -0.35516119282899983 0.21149705330083701 0 -0.37368745339656201 0.20924711939208951 0 -0.35516119282899983 0.21149705330083701 0 -0.37368745339656201 0.20924711939208951 0 -0.36802074197771562 0.19700904511440151 0 -0.35516119282899983 0.21149705330083701 0 -0.36399845157591232 0.19532107462703119 0 -0.35516119282899983 0.21149705330083701 0 -0.36802074197771562 0.19700904511440151 0 -0.37283571032282492 0.1791450959532255 0 -0.36399845157591232 0.19532107462703119 0 -0.36261880381503758 0.18828806813974089 0 -0.37283571032282492 0.1791450959532255 0 -0.36399845157591232 0.19532107462703119 0 -0.36802074197771562 0.19700904511440151 0 -0.35516119282899983 0.21149705330083701 0 -0.36399845157591232 0.19532107462703119 0 -0.36802074197771562 0.19700904511440151 0 -0.38088029112643113 0.1825210369279657 0 -0.36802074197771562 0.19700904511440151 0 -0.36399845157591232 0.19532107462703119 0 -0.36261880381503758 0.18828806813974089 0 -0.35645772166264922 0.19211102842263869 0 -0.35797279878738592 0.18411861580098379 0 -0.36261880381503758 0.18828806813974089 0 -0.35645772166264922 0.19211102842263869 0 -0.35065229879255438 0.18593262723135329 0 -0.35645772166264922 0.19211102842263869 0 -0.34803897337183792 0.19709320989812409 0 -0.35516119282899983 0.21149705330083701 0 -0.36399845157591232 0.19532107462703119 0 -0.35389383475621161 0.20092716755479181 0 -0.35645772166264922 0.19211102842263869 0 -0.35389383475621161 0.20092716755479181 0 -0.34803897337183792 0.19709320989812409 0 -0.36399845157591232 0.19532107462703119 0 -0.35645772166264922 0.19211102842263869 0 -0.35389383475621161 0.20092716755479181 0 -0.34581283434165899 0.20861347152532789 0 -0.35389383475621161 0.20092716755479181 0 -0.34803897337183792 0.19709320989812409 0 -0.34581283434165899 0.20861347152532789 0 -0.34803897337183792 0.19709320989812409 0 -0.33933674095816863 0.19971543786353729 0 -0.35065229879255438 0.18593262723135329 0 -0.34803897337183792 0.19709320989812409 0 -0.33993633525554889 0.19055096072852831 0 -0.33993633525554889 0.19055096072852831 0 -0.33933674095816863 0.19971543786353729 0 -0.33069942903629101 0.19625725860753851 0 -0.34803897337183792 0.19709320989812409 0 -0.33993633525554889 0.19055096072852831 0 -0.33933674095816863 0.19971543786353729 0 -0.33933674095816863 0.19971543786353729 0 -0.33069942903629101 0.19625725860753851 0 -0.33422481296465362 0.2080963853910347 0 -0.33183788287013261 0.1831818366374682 0 -0.33993633525554889 0.19055096072852831 0 -0.33069942903629101 0.19625725860753851 0 -0.31632076704925127 0.18575639557221951 0 -0.33069942903629101 0.19625725860753851 0 -0.32036655352850157 0.2095523693350691 0 -0.33183788287013261 0.1831818366374682 0 -0.31632076704925127 0.18575639557221951 0 -0.33069942903629101 0.19625725860753851 0 -0.32036655352850157 0.2095523693350691 0 -0.32458589997660492 0.2266546254550818 0 -0.30779163400160159 0.21927945841494459 0 -0.32036655352850157 0.2095523693350691 0 -0.32934906837639222 0.21536895119528529 0 -0.32458589997660492 0.2266546254550818 0 -0.32036655352850157 0.2095523693350691 0 -0.32934906837639222 0.21536895119528529 0 -0.33422481296465362 0.2080963853910347 0 -0.32934906837639222 0.21536895119528529 0 -0.33422481296465362 0.2080963853910347 0 -0.33982416592956399 0.21665757569738961 0 -0.33069942903629101 0.19625725860753851 0 -0.32036655352850157 0.2095523693350691 0 -0.33422481296465362 0.2080963853910347 0 -0.34581283434165899 0.20861347152532789 0 -0.33933674095816863 0.19971543786353729 0 -0.33422481296465362 0.2080963853910347 0 -0.34581283434165899 0.20861347152532789 0 -0.33422481296465362 0.2080963853910347 0 -0.33982416592956399 0.21665757569738961 0 -0.34843396418698602 0.22381077072877051 0 -0.33982416592956399 0.21665757569738961 0 -0.32458589997660492 0.2266546254550818 0 -0.34843396418698602 0.22381077072877051 0 -0.32458589997660492 0.2266546254550818 0 -0.34843396418698602 0.22381077072877051 0 -0.32458589997660492 0.2266546254550818 0 -0.33845336435013867 0.242079554605789 0 -0.34843396418698602 0.22381077072877051 0 -0.33845336435013867 0.242079554605789 0 -0.32934906837639222 0.21536895119528529 0 -0.33982416592956399 0.21665757569738961 0 -0.32458589997660492 0.2266546254550818 0 -0.32458589997660492 0.2266546254550818 0 -0.30073783576622393 0.22949848018139329 0 -0.32458589997660492 0.2266546254550818 0 -0.32455092720978362 0.24357057421839101 0 -0.31122576982003303 0.23714335435801151 0 -0.32455092720978362 0.24357057421839101 0 -0.311575650220281 0.24878047680599949 0 -0.31122576982003303 0.23714335435801151 0 -0.32458589997660492 0.2266546254550818 0 -0.32455092720978362 0.24357057421839101 0 -0.33845336435013867 0.242079554605789 0 -0.32455092720978362 0.24357057421839101 0 -0.33845336435013867 0.242079554605789 0 -0.32847276451329022 0.26034833848280681 0 -0.29310990672191722 0.23613872254877591 0 -0.29467853592727078 0.23721261512919359 0 -0.28985028671148488 0.25537141990030859 0 -0.29310990672191722 0.23613872254877591 0 -0.27131573767068418 0.22826101281380451 0 -0.28058301219108422 0.24181621635705669 0 -0.29310990672191722 0.23613872254877591 0 -0.28985028671148488 0.25537141990030859 0 -0.29310990672191722 0.23613872254877591 0 -0.28058301219108422 0.24181621635705669 0 -0.28985028671148488 0.25537141990030859 0 -0.28058301219108422 0.24181621635705669 0 -0.28985028671148488 0.25537141990030859 0 -0.29310990672191722 0.23613872254877591 0 -0.29467853592727078 0.23721261512919359 0 -0.29467853592727078 0.23721261512919359 0 -0.31122576982003303 0.23714335435801151 0 -0.30073783576622393 0.22949848018139329 0 -0.29467853592727078 0.23721261512919359 0 -0.311575650220281 0.24878047680599949 0 -0.31122576982003303 0.23714335435801151 0 -0.29467853592727078 0.23721261512919359 0 -0.311575650220281 0.24878047680599949 0 -0.29467853592727078 0.23721261512919359 0 -0.311575650220281 0.24878047680599949 0 -0.29523766041035199 0.26325150879709891 0 -0.32458589997660492 0.2266546254550818 0 -0.30073783576622393 0.22949848018139329 0 -0.30779163400160159 0.21927945841494459 0 -0.32458589997660492 0.2266546254550818 0 -0.31122576982003303 0.23714335435801151 0 -0.30073783576622393 0.22949848018139329 0 -0.30073783576622393 0.22949848018139329 0 -0.30779163400160159 0.21927945841494459 0 -0.29448167989639912 0.22804486553003031 0 -0.29310990672191722 0.23613872254877591 0 -0.29448167989639912 0.22804486553003031 0 -0.27369133376421262 0.22284465576077489 0 -0.29448167989639912 0.22804486553003031 0 -0.2838712618875629 0.21479465795795599 0 -0.27369133376421262 0.22284465576077489 0 -0.29448167989639912 0.22804486553003031 0 -0.29413635243235581 0.21196267741475219 0 -0.29310990672191722 0.23613872254877591 0 -0.27369133376421262 0.22284465576077489 0 -0.29467853592727078 0.23721261512919359 0 -0.30073783576622393 0.22949848018139329 0 -0.29448167989639912 0.22804486553003031 0 -0.29310990672191722 0.23613872254877591 0 -0.29467853592727078 0.23721261512919359 0 -0.29448167989639912 0.22804486553003031 0 -0.29467853592727078 0.23721261512919359 0 -0.29448167989639912 0.22804486553003031 0 -0.29310990672191722 0.23613872254877591 0 -0.29448167989639912 0.22804486553003031 0 -0.29413635243235581 0.21196267741475219 0 -0.29878620084027852 0.20264695157314819 0 -0.29379102496831272 0.19588048929947419 0 -0.29448167989639912 0.22804486553003031 0 -0.29413635243235581 0.21196267741475219 0 -0.29878620084027852 0.20264695157314819 0 -0.29448167989639912 0.22804486553003031 0 -0.29878620084027852 0.20264695157314819 0 -0.29413635243235581 0.21196267741475219 0 -0.29379102496831272 0.19588048929947419 0 -0.28522308967114912 0.20452327137286261 0 -0.29413635243235581 0.21196267741475219 0 -0.29379102496831272 0.19588048929947419 0 -0.29448167989639912 0.22804486553003031 0 -0.2838712618875629 0.21479465795795599 0 -0.29413635243235581 0.21196267741475219 0 -0.2838712618875629 0.21479465795795599 0 -0.28522308967114912 0.20452327137286261 0 -0.29413635243235581 0.21196267741475219 0 -0.32036655352850157 0.2095523693350691 0 -0.30779163400160159 0.21927945841494459 0 -0.29878620084027852 0.20264695157314819 0 -0.30779163400160159 0.21927945841494459 0 -0.29448167989639912 0.22804486553003031 0 -0.29878620084027852 0.20264695157314819 0 -0.29878620084027852 0.20264695157314819 0 -0.29379102496831272 0.19588048929947419 0 -0.30309072178415769 0.17724903761626601 0 -0.31632076704925127 0.18575639557221951 0 -0.29878620084027852 0.20264695157314819 0 -0.30309072178415769 0.17724903761626601 0 -0.31632076704925127 0.18575639557221951 0 -0.32036655352850157 0.2095523693350691 0 -0.29878620084027852 0.20264695157314819 0 -0.29878620084027852 0.20264695157314819 0 -0.30309072178415769 0.17724903761626601 0 -0.28522308967114912 0.20452327137286261 0 -0.29379102496831272 0.19588048929947419 0 -0.28124953787461371 0.1935735916895788 0 -0.29379102496831272 0.19588048929947419 0 -0.28124953787461371 0.1935735916895788 0 -0.28752446549241689 0.1832489647230989 0 -0.28124953787461371 0.1935735916895788 0 -0.2659766044530758 0.19238405035351089 0 -0.27494974420821611 0.1793112011395637 0 -0.28522308967114912 0.20452327137286261 0 -0.28124953787461371 0.1935735916895788 0 -0.27431068871210279 0.20621206129374381 0 -0.28124953787461371 0.1935735916895788 0 -0.2659766044530758 0.19238405035351089 0 -0.27431068871210279 0.20621206129374381 0 -0.25427276080650663 0.20955058897277601 0 -0.24947341468037071 0.1874691479585941 0 -0.2659766044530758 0.19238405035351089 0 -0.25427276080650663 0.20955058897277601 0 -0.24947341468037071 0.1874691479585941 0 -0.2659766044530758 0.19238405035351089 0 -0.25427276080650663 0.20955058897277601 0 -0.27431068871210279 0.20621206129374381 0 -0.25427276080650663 0.20955058897277601 0 -0.27369133376421262 0.22284465576077489 0 -0.25427276080650663 0.20955058897277601 0 -0.25977281016601761 0.2185578892770178 0 -0.27369133376421262 0.22284465576077489 0 -0.25427276080650663 0.20955058897277601 0 -0.25561524088587501 0.21572724177218369 0 -0.25977281016601761 0.2185578892770178 0 -0.25427276080650663 0.20955058897277601 0 -0.25561524088587501 0.21572724177218369 0 -0.24333230173327219 0.21221501244476959 0 -0.25427276080650663 0.20955058897277601 0 -0.25561524088587501 0.21572724177218369 0 -0.25427276080650663 0.20955058897277601 0 -0.27431068871210279 0.20621206129374381 0 -0.27369133376421262 0.22284465576077489 0 -0.2838712618875629 0.21479465795795599 0 -0.27431068871210279 0.20621206129374381 0 -0.27369133376421262 0.22284465576077489 0 -0.2838712618875629 0.21479465795795599 0 -0.28522308967114912 0.20452327137286261 0 -0.27431068871210279 0.20621206129374381 0 -0.29310990672191722 0.23613872254877591 0 -0.27369133376421262 0.22284465576077489 0 -0.27131573767068418 0.22826101281380451 0 -0.27131573767068418 0.22826101281380451 0 -0.26439065681250729 0.2289784260688752 0 -0.26819560602517328 0.23507842756581021 0 -0.27131573767068418 0.22826101281380451 0 -0.26675876456119929 0.22568570462696191 0 -0.26439065681250729 0.2289784260688752 0 -0.27369133376421262 0.22284465576077489 0 -0.26675876456119929 0.22568570462696191 0 -0.26371349664181459 0.22286429712754721 0 -0.25977281016601761 0.2185578892770178 0 -0.27369133376421262 0.22284465576077489 0 -0.26371349664181459 0.22286429712754721 0 -0.27369133376421262 0.22284465576077489 0 -0.27131573767068418 0.22826101281380451 0 -0.26675876456119929 0.22568570462696191 0 -0.26675876456119929 0.22568570462696191 0 -0.26371349664181459 0.22286429712754721 0 -0.26068259791677789 0.22548013136380779 0 -0.26068259791677789 0.22548013136380779 0 -0.25678634991227811 0.22260498734460241 0 -0.2574101570832959 0.22971939663687391 0 -0.26371349664181459 0.22286429712754721 0 -0.26068259791677789 0.22548013136380779 0 -0.25678634991227811 0.22260498734460241 0 -0.25977281016601761 0.2185578892770178 0 -0.26371349664181459 0.22286429712754721 0 -0.25678634991227811 0.22260498734460241 0 -0.25561524088587501 0.21572724177218369 0 -0.25977281016601761 0.2185578892770178 0 -0.25678634991227811 0.22260498734460241 0 -0.25678634991227811 0.22260498734460241 0 -0.249817319625419 0.2274340479663062 0 -0.24904636230289101 0.22050689045355901 0 -0.25561524088587501 0.21572724177218369 0 -0.25678634991227811 0.22260498734460241 0 -0.24904636230289101 0.22050689045355901 0 -0.25109603964961891 0.234366577265785 0 -0.2574101570832959 0.22971939663687391 0 -0.249817319625419 0.2274340479663062 0 -0.25678634991227811 0.22260498734460241 0 -0.2574101570832959 0.22971939663687391 0 -0.249817319625419 0.2274340479663062 0 -0.2574101570832959 0.22971939663687391 0 -0.26439065681250729 0.2289784260688752 0 -0.26193406046231932 0.2344272911270443 0 -0.26068259791677789 0.22548013136380779 0 -0.2574101570832959 0.22971939663687391 0 -0.26439065681250729 0.2289784260688752 0 -0.26675876456119929 0.22568570462696191 0 -0.26068259791677789 0.22548013136380779 0 -0.26439065681250729 0.2289784260688752 0 -0.26439065681250729 0.2289784260688752 0 -0.26193406046231932 0.2344272911270443 0 -0.26819560602517328 0.23507842756581021 0 -0.26193406046231932 0.2344272911270443 0 -0.26614348890836192 0.24293385421211869 0 -0.26819560602517328 0.23507842756581021 0 -0.2574101570832959 0.22971939663687391 0 -0.26193406046231932 0.2344272911270443 0 -0.25699538715464082 0.23905233796863981 0 -0.26193406046231932 0.2344272911270443 0 -0.25699538715464082 0.23905233796863981 0 -0.26614348890836192 0.24293385421211869 0 -0.25109603964961891 0.234366577265785 0 -0.25699538715464082 0.23905233796863981 0 -0.2470081454867771 0.2422065880623451 0 -0.25109603964961891 0.234366577265785 0 -0.2574101570832959 0.22971939663687391 0 -0.25699538715464082 0.23905233796863981 0 -0.25699538715464082 0.23905233796863981 0 -0.25693865295534157 0.25278860643768353 0 -0.2470081454867771 0.2422065880623451 0 -0.25699538715464082 0.23905233796863981 0 -0.26614348890836192 0.24293385421211869 0 -0.25693865295534157 0.25278860643768353 0 -0.26614348890836192 0.24293385421211869 0 -0.2724296921133022 0.25217156250687062 0 -0.25693865295534157 0.25278860643768353 0 -0.26614348890836192 0.24293385421211869 0 -0.28058301219108422 0.24181621635705669 0 -0.2724296921133022 0.25217156250687062 0 -0.28058301219108422 0.24181621635705669 0 -0.28985028671148488 0.25537141990030859 0 -0.2724296921133022 0.25217156250687062 0 -0.26614348890836192 0.24293385421211869 0 -0.26819560602517328 0.23507842756581021 0 -0.28058301219108422 0.24181621635705669 0 -0.27131573767068418 0.22826101281380451 0 -0.26819560602517328 0.23507842756581021 0 -0.28058301219108422 0.24181621635705669 0 -0.27131573767068418 0.22826101281380451 0 -0.28058301219108422 0.24181621635705669 0 -0.29326612220823411 0.13512644163735801 0 -0.28648818467010168 0.15636331808772699 0 -0.27141175194646833 0.1445184244171912 0 -0.29326612220823411 0.13512644163735801 0 -0.30739524272803709 0.15185112365938391 0 -0.28648818467010168 0.15636331808772699 0 -0.30739524272803709 0.15185112365938391 0 -0.31211500736378339 0.1240031522641292 0 -0.29326612220823411 0.13512644163735801 0 -0.30739524272803709 0.15185112365938391 0 -0.31211500736378339 0.1240031522641292 0 -0.30739524272803709 0.15185112365938391 0 -0.28648818467010168 0.15636331808772699 0 -0.30739524272803709 0.15185112365938391 0 -0.30309072178415769 0.17724903761626601 0 -0.3167678101826048 0.16359462978275929 0 -0.30739524272803709 0.15185112365938391 0 -0.30309072178415769 0.17724903761626601 0 -0.30739524272803709 0.15185112365938391 0 -0.30309072178415769 0.17724903761626601 0 -0.28648818467010168 0.15636331808772699 0 -0.31632076704925127 0.18575639557221951 0 -0.3167678101826048 0.16359462978275929 0 -0.30309072178415769 0.17724903761626601 0 -0.30309072178415769 0.17724903761626601 0 -0.28752446549241689 0.1832489647230989 0 -0.28381669143151822 0.17107272026056419 0 -0.29379102496831272 0.19588048929947419 0 -0.30309072178415769 0.17724903761626601 0 -0.28752446549241689 0.1832489647230989 0 -0.28752446549241689 0.1832489647230989 0 -0.28381669143151822 0.17107272026056419 0 -0.27494974420821611 0.1793112011395637 0 -0.30309072178415769 0.17724903761626601 0 -0.28648818467010168 0.15636331808772699 0 -0.28381669143151822 0.17107272026056419 0 -0.28648818467010168 0.15636331808772699 0 -0.28381669143151822 0.17107272026056419 0 -0.26558112661216632 0.16087551251606999 0 -0.28381669143151822 0.17107272026056419 0 -0.27494974420821611 0.1793112011395637 0 -0.26558112661216632 0.16087551251606999 0 -0.28648818467010168 0.15636331808772699 0 -0.26558112661216632 0.16087551251606999 0 -0.27494974420821611 0.1793112011395637 0 -0.26084394980388648 0.17618123618614701 0 -0.26558112661216632 0.16087551251606999 0 -0.2659766044530758 0.19238405035351089 0 -0.27494974420821611 0.1793112011395637 0 -0.26084394980388648 0.17618123618614701 0 -0.28124953787461371 0.1935735916895788 0 -0.28752446549241689 0.1832489647230989 0 -0.27494974420821611 0.1793112011395637 0 -0.2659766044530758 0.19238405035351089 0 -0.26084394980388648 0.17618123618614701 0 -0.24947341468037071 0.1874691479585941 0 -0.26084394980388648 0.17618123618614701 0 -0.24467406855423091 0.1653877069444131 0 -0.24947341468037071 0.1874691479585941 0 -0.26558112661216632 0.16087551251606999 0 -0.24467406855423091 0.1653877069444131 0 -0.26558112661216632 0.16087551251606999 0 -0.2543915534089356 0.15018751405662761 0 -0.24467406855423091 0.1653877069444131 0 -0.26084394980388648 0.17618123618614701 0 -0.26558112661216632 0.16087551251606999 0 -0.24467406855423091 0.1653877069444131 0 -0.26558112661216632 0.16087551251606999 0 -0.2543915534089356 0.15018751405662761 0 -0.27141175194646833 0.1445184244171912 0 -0.2543915534089356 0.15018751405662761 0 -0.27141175194646833 0.1445184244171912 0 -0.25477231595188199 0.13792181725732239 0 -0.28648818467010168 0.15636331808772699 0 -0.26558112661216632 0.16087551251606999 0 -0.27141175194646833 0.1445184244171912 0 -0.29326612220823411 0.13512644163735801 0 -0.27141175194646833 0.1445184244171912 0 -0.27545980130109921 0.1239996051278405 0 -0.27141175194646833 0.1445184244171912 0 -0.25477231595188199 0.13792181725732239 0 -0.27545980130109921 0.1239996051278405 0 -0.25477231595188199 0.13792181725732239 0 -0.27545980130109921 0.1239996051278405 0 -0.25477231595188199 0.13792181725732239 0 -0.27545980130109921 0.1239996051278405 0 -0.2495823492922267 0.12121763785839371 0 -0.25610310449345419 0.1041046972302731 0 -0.27545980130109921 0.1239996051278405 0 -0.2495823492922267 0.12121763785839371 0 -0.25610310449345419 0.1041046972302731 0 -0.25413031243694739 0.089521027236778197 0 -0.2427234934652894 0.090762762990284518 0 -0.25610310449345419 0.1041046972302731 0 -0.26471001572300679 0.091779207982481292 0 -0.25413031243694739 0.089521027236778197 0 -0.25610310449345419 0.1041046972302731 0 -0.27632390472144541 0.10600366135062909 0 -0.26471001572300679 0.091779207982481292 0 -0.27632390472144541 0.10600366135062909 0 -0.27815219556391091 0.091433986845849968 0 -0.26471001572300679 0.091779207982481292 0 -0.27632390472144541 0.10600366135062909 0 -0.28783094919658059 0.096999283795453681 0 -0.27815219556391091 0.091433986845849968 0 -0.25610310449345419 0.1041046972302731 0 -0.27632390472144541 0.10600366135062909 0 -0.27545980130109921 0.1239996051278405 0 -0.27545980130109921 0.1239996051278405 0 -0.29614728665031642 0.1100773929983587 0 -0.29326612220823411 0.13512644163735801 0 -0.27545980130109921 0.1239996051278405 0 -0.29614728665031642 0.1100773929983587 0 -0.27632390472144541 0.10600366135062909 0 -0.27545980130109921 0.1239996051278405 0 -0.29614728665031642 0.1100773929983587 0 -0.27632390472144541 0.10600366135062909 0 -0.29614728665031642 0.1100773929983587 0 -0.28783094919658059 0.096999283795453681 0 -0.29614728665031642 0.1100773929983587 0 -0.28783094919658059 0.096999283795453681 0 -0.29903425758953422 0.090155638130954882 0 -0.29614728665031642 0.1100773929983587 0 -0.29903425758953422 0.090155638130954882 0 -0.31683477199953253 0.096155180868875256 0 -0.29614728665031642 0.1100773929983587 0 -0.31683477199953253 0.096155180868875256 0 -0.29614728665031642 0.1100773929983587 0 -0.31211500736378339 0.1240031522641292 0 -0.31683477199953253 0.096155180868875256 0 -0.29326612220823411 0.13512644163735801 0 -0.29614728665031642 0.1100773929983587 0 -0.31211500736378339 0.1240031522641292 0 -0.30635830999651792 0.07761242167179265 0 -0.30189037325813839 0.060543452134012458 0 -0.32146679815367007 0.068824891797761426 0 -0.30635830999651792 0.07761242167179265 0 -0.29256534898171721 0.072382945427359638 0 -0.30189037325813839 0.060543452134012458 0 -0.30635830999651792 0.07761242167179265 0 -0.29903425758953422 0.090155638130954882 0 -0.29256534898171721 0.072382945427359638 0 -0.30635830999651792 0.07761242167179265 0 -0.29903425758953422 0.090155638130954882 0 -0.31683477199953253 0.096155180868875256 0 -0.29903425758953422 0.090155638130954882 0 -0.28572263353681682 0.08337299634339973 0 -0.29256534898171721 0.072382945427359638 0 -0.28783094919658059 0.096999283795453681 0 -0.29903425758953422 0.090155638130954882 0 -0.28572263353681682 0.08337299634339973 0 -0.28783094919658059 0.096999283795453681 0 -0.28572263353681682 0.08337299634339973 0 -0.27815219556391091 0.091433986845849968 0 -0.28572263353681682 0.08337299634339973 0 -0.29256534898171721 0.072382945427359638 0 -0.28059357561043269 0.073644623599786935 0 -0.29256534898171721 0.072382945427359638 0 -0.29088471103165969 0.062671374321780771 0 -0.30189037325813839 0.060543452134012458 0 -0.29256534898171721 0.072382945427359638 0 -0.29088471103165969 0.062671374321780771 0 -0.28261649390190829 0.064291953838756216 0 -0.29256534898171721 0.072382945427359638 0 -0.28261649390190829 0.064291953838756216 0 -0.28059357561043269 0.073644623599786935 0 -0.28261649390190829 0.064291953838756216 0 -0.27678196032587499 0.069585006034529676 0 -0.27195195811963518 0.06635492754641531 0 -0.26855373331756138 0.063547936276670339 0 -0.27195195811963518 0.06635492754641531 0 -0.25743728825439521 0.07924270920583569 0 -0.28261649390190829 0.064291953838756216 0 -0.27678196032587499 0.069585006034529676 0 -0.28059357561043269 0.073644623599786935 0 -0.27678196032587499 0.069585006034529676 0 -0.27196581367152378 0.074048519153160283 0 -0.27195195811963518 0.06635492754641531 0 -0.27678196032587499 0.069585006034529676 0 -0.28059357561043269 0.073644623599786935 0 -0.27196581367152378 0.074048519153160283 0 -0.28059357561043269 0.073644623599786935 0 -0.27196581367152378 0.074048519153160283 0 -0.27303575277029413 0.081855029780232597 0 -0.27196581367152378 0.074048519153160283 0 -0.27195195811963518 0.06635492754641531 0 -0.25743728825439521 0.07924270920583569 0 -0.28572263353681682 0.08337299634339973 0 -0.27815219556391091 0.091433986845849968 0 -0.27303575277029413 0.081855029780232597 0 -0.28572263353681682 0.08337299634339973 0 -0.28059357561043269 0.073644623599786935 0 -0.27303575277029413 0.081855029780232597 0 -0.27196581367152378 0.074048519153160283 0 -0.27303575277029413 0.081855029780232597 0 -0.25743728825439521 0.07924270920583569 0 -0.27815219556391091 0.091433986845849968 0 -0.27303575277029413 0.081855029780232597 0 -0.26471001572300679 0.091779207982481292 0 -0.26471001572300679 0.091779207982481292 0 -0.25743728825439521 0.07924270920583569 0 -0.25413031243694739 0.089521027236778197 0 -0.27303575277029413 0.081855029780232597 0 -0.26471001572300679 0.091779207982481292 0 -0.25743728825439521 0.07924270920583569 0 -0.25743728825439521 0.07924270920583569 0 -0.25064083865024739 0.073628726666345984 0 -0.24857020570659841 0.081659589420377987 0 -0.25743728825439521 0.07924270920583569 0 -0.25413031243694739 0.089521027236778197 0 -0.24857020570659841 0.081659589420377987 0 -0.26855373331756138 0.063547936276670339 0 -0.25743728825439521 0.07924270920583569 0 -0.25064083865024739 0.073628726666345984 0 -0.26855373331756138 0.063547936276670339 0 -0.25064083865024739 0.073628726666345984 0 -0.2562734301216873 0.062061687155910393 0 -0.26855373331756138 0.063547936276670339 0 -0.25064083865024739 0.073628726666345984 0 -0.27195195811963518 0.06635492754641531 0 -0.25743728825439521 0.07924270920583569 0 -0.25064083865024739 0.073628726666345984 0 -0.2562734301216873 0.062061687155910393 0 -0.24829977196364941 0.065213336215906109 0 -0.2623477931936597 0.053657636987073307 0 -0.25116276906762952 0.054241108780248931 0 -0.26153642505613889 0.036367366133998442 0 -0.2562734301216873 0.062061687155910393 0 -0.2623477931936597 0.053657636987073307 0 -0.25116276906762952 0.054241108780248931 0 -0.2562734301216873 0.062061687155910393 0 -0.25116276906762952 0.054241108780248931 0 -0.24829977196364941 0.065213336215906109 0 -0.26855373331756138 0.063547936276670339 0 -0.2562734301216873 0.062061687155910393 0 -0.2623477931936597 0.053657636987073307 0 -0.25116276906762952 0.054241108780248931 0 -0.26153642505613889 0.036367366133998442 0 -0.239388393447095 0.04766651035075449 0 -0.2623477931936597 0.053657636987073307 0 -0.26153642505613889 0.036367366133998442 0 -0.27323710809808138 0.049716314049096537 0 -0.26153642505613889 0.036367366133998442 0 -0.28732673365434691 0.040933413293477772 0 -0.26153642505613889 0.036367366133998442 0 -0.2825074511423824 0.030310297232740709 0 -0.28732673365434691 0.040933413293477772 0 -0.26153642505613889 0.036367366133998442 0 -0.27323710809808138 0.049716314049096537 0 -0.28732673365434691 0.040933413293477772 0 -0.26855373331756138 0.063547936276670339 0 -0.27195195811963518 0.06635492754641531 0 -0.28646662798487532 0.053467145886994819 0 -0.26855373331756138 0.063547936276670339 0 -0.28646662798487532 0.053467145886994819 0 -0.26855373331756138 0.063547936276670339 0 -0.27323710809808138 0.049716314049096537 0 -0.28646662798487532 0.053467145886994819 0 -0.27195195811963518 0.06635492754641531 0 -0.28646662798487532 0.053467145886994819 0 -0.28261649390190829 0.064291953838756216 0 -0.27195195811963518 0.06635492754641531 0 -0.28646662798487532 0.053467145886994819 0 -0.26855373331756138 0.063547936276670339 0 -0.2623477931936597 0.053657636987073307 0 -0.27323710809808138 0.049716314049096537 0 -0.26176261374782622 0.0098260211376069873 0 -0.24854849079604721 0.020569936005881421 0 -0.24598119983726671 0.0037338506766126851 0 -0.26003022337954462 -0.0038093911555793728 0 -0.26176261374782622 0.0098260211376069873 0 -0.24598119983726671 0.0037338506766126851 0 -0.26003022337954462 -0.0038093911555793728 0 -0.27433688946420332 -0.0007833753365484626 0 -0.26176261374782622 0.0098260211376069873 0 -0.26153642505613889 0.036367366133998442 0 -0.26176261374782622 0.0098260211376069873 0 -0.24854849079604721 0.020569936005881421 0 -0.26153642505613889 0.036367366133998442 0 -0.26176261374782622 0.0098260211376069873 0 -0.27684491432135683 0.017453585025194441 0 -0.26153642505613889 0.036367366133998442 0 -0.27684491432135683 0.017453585025194441 0 -0.2825074511423824 0.030310297232740709 0 -0.27433688946420332 -0.0007833753365484626 0 -0.26176261374782622 0.0098260211376069873 0 -0.27684491432135683 0.017453585025194441 0 -0.27433688946420332 -0.0007833753365484626 0 -0.27684491432135683 0.017453585025194441 0 -0.28842838408131971 0.0076205693905790281 0 -0.28842838408131971 0.0076205693905790281 0 -0.29131927560690712 0.022062190579302341 0 -0.29989828236451899 0.011495108916467369 0 -0.27684491432135683 0.017453585025194441 0 -0.29131927560690712 0.022062190579302341 0 -0.2825074511423824 0.030310297232740709 0 -0.27684491432135683 0.017453585025194441 0 -0.28842838408131971 0.0076205693905790281 0 -0.29131927560690712 0.022062190579302341 0 -0.29131927560690712 0.022062190579302341 0 -0.2825074511423824 0.030310297232740709 0 -0.29550990707316249 0.034734931131730561 0 -0.29131927560690712 0.022062190579302341 0 -0.30587597075389272 0.02137954460474218 0 -0.29550990707316249 0.034734931131730561 0 -0.30587597075389272 0.02137954460474218 0 -0.29550990707316249 0.034734931131730561 0 -0.30859873922341308 0.03381572977126493 0 -0.29131927560690712 0.022062190579302341 0 -0.30587597075389272 0.02137954460474218 0 -0.29989828236451899 0.011495108916467369 0 -0.3025805037907468 -0.0027432771802810229 0 -0.3204068892458079 -0.0014125807301150939 0 -0.31128727758972891 0.0091565171879943417 0 -0.30587597075389272 0.02137954460474218 0 -0.29989828236451899 0.011495108916467369 0 -0.31128727758972891 0.0091565171879943417 0 -0.3025805037907468 -0.0027432771802810229 0 -0.29989828236451899 0.011495108916467369 0 -0.31128727758972891 0.0091565171879943417 0 -0.3025805037907468 -0.0027432771802810229 0 -0.28842838408131971 0.0076205693905790281 0 -0.29989828236451899 0.011495108916467369 0 -0.28646662798487532 0.053467145886994819 0 -0.304010183261538 0.043594207608826187 0 -0.29088471103165969 0.062671374321780771 0 -0.28646662798487532 0.053467145886994819 0 -0.30189037325813839 0.060543452134012458 0 -0.29088471103165969 0.062671374321780771 0 -0.28261649390190829 0.064291953838756216 0 -0.28646662798487532 0.053467145886994819 0 -0.27323710809808138 0.049716314049096537 0 -0.28646662798487532 0.053467145886994819 0 -0.28732673365434691 0.040933413293477772 0 -0.28646662798487532 0.053467145886994819 0 -0.29550990707316249 0.034734931131730561 0 -0.30859873922341308 0.03381572977126493 0 -0.28646662798487532 0.053467145886994819 0 -0.28732673365434691 0.040933413293477772 0 -0.29550990707316249 0.034734931131730561 0 -0.2825074511423824 0.030310297232740709 0 -0.28732673365434691 0.040933413293477772 0 -0.29550990707316249 0.034734931131730561 0 -0.28646662798487532 0.053467145886994819 0 -0.30859873922341308 0.03381572977126493 0 -0.28646662798487532 0.053467145886994819 0 -0.304010183261538 0.043594207608826187 0 -0.30859873922341308 0.03381572977126493 0 -0.304010183261538 0.043594207608826187 0 -0.30859873922341308 0.03381572977126493 0 -0.32155373853820057 0.033721269330657687 0 -0.304010183261538 0.043594207608826187 0 -0.3137915997446068 0.051476736654279882 0 -0.31549181974187701 0.042926529004151233 0 -0.28646662798487532 0.053467145886994819 0 -0.304010183261538 0.043594207608826187 0 -0.30189037325813839 0.060543452134012458 0 -0.30189037325813839 0.060543452134012458 0 -0.3137915997446068 0.051476736654279882 0 -0.32146679815367007 0.068824891797761426 0 -0.304010183261538 0.043594207608826187 0 -0.30189037325813839 0.060543452134012458 0 -0.3137915997446068 0.051476736654279882 0 -0.3137915997446068 0.051476736654279882 0 -0.32609882430781029 0.041494602726648067 0 -0.32146679815367007 0.068824891797761426 0 -0.32609882430781029 0.041494602726648067 0 -0.32146679815367007 0.068824891797761426 0 -0.3137915997446068 0.051476736654279882 0 -0.31549181974187701 0.042926529004151233 0 -0.32609882430781029 0.041494602726648067 0 -0.304010183261538 0.043594207608826187 0 -0.31549181974187701 0.042926529004151233 0 -0.32155373853820057 0.033721269330657687 0 -0.304010183261538 0.043594207608826187 0 -0.32155373853820057 0.033721269330657687 0 -0.31549181974187701 0.042926529004151233 0 -0.32155373853820057 0.033721269330657687 0 -0.32609882430781029 0.041494602726648067 0 -0.32609882430781029 0.041494602726648067 0 -0.34385517732675519 0.031131612817745031 0 -0.35163198926140088 0.046228739452983239 0 -0.32609882430781029 0.041494602726648067 0 -0.338272543408071 0.060603673933957783 0 -0.32146679815367007 0.068824891797761426 0 -0.32609882430781029 0.041494602726648067 0 -0.338272543408071 0.060603673933957783 0 -0.35163198926140088 0.046228739452983239 0 -0.3204068892458079 -0.0014125807301150939 0 -0.31128727758972891 0.0091565171879943417 0 -0.33073085046195078 0.01416431365553468 0 -0.30587597075389272 0.02137954460474218 0 -0.31128727758972891 0.0091565171879943417 0 -0.33073085046195078 0.01416431365553468 0 -0.30859873922341308 0.03381572977126493 0 -0.33073085046195078 0.01416431365553468 0 -0.30587597075389272 0.02137954460474218 0 -0.30859873922341308 0.03381572977126493 0 -0.33073085046195078 0.01416431365553468 0 -0.32155373853820057 0.033721269330657687 0 -0.32609882430781029 0.041494602726648067 0 -0.33073085046195078 0.01416431365553468 0 -0.30859873922341308 0.03381572977126493 0 -0.32155373853820057 0.033721269330657687 0 -0.33073085046195078 0.01416431365553468 0 -0.32609882430781029 0.041494602726648067 0 -0.33073085046195078 0.01416431365553468 0 -0.33073085046195078 0.01416431365553468 0 -0.34385517732675519 0.031131612817745031 0 -0.35381837275022032 0.01853105722209741 0 -0.32609882430781029 0.041494602726648067 0 -0.33073085046195078 0.01416431365553468 0 -0.34385517732675519 0.031131612817745031 0 -0.33540629353460438 -0.01342214774580049 0 -0.33073085046195078 0.01416431365553468 0 -0.35221409618436439 -0.0049109655465913588 0 -0.33073085046195078 0.01416431365553468 0 -0.35221409618436439 -0.0049109655465913588 0 -0.34857824671955512 -0.007874197240844389 0 -0.33073085046195078 0.01416431365553468 0 -0.35221409618436439 -0.0049109655465913588 0 -0.33073085046195078 0.01416431365553468 0 -0.34939877662876639 0.0070576099193848619 0 -0.33073085046195078 0.01416431365553468 0 -0.34939877662876639 0.0070576099193848619 0 -0.35381837275022032 0.01853105722209741 0 -0.35900139338342918 0.0020097317905480609 0 -0.34939877662876639 0.0070576099193848619 0 -0.35834074471334648 0.0096788928264882005 0 -0.35509488683577939 -0.0004162838960613095 0 -0.35900139338342918 0.0020097317905480609 0 -0.34939877662876639 0.0070576099193848619 0 -0.35509488683577939 -0.0004162838960613095 0 -0.35221409618436439 -0.0049109655465913588 0 -0.34939877662876639 0.0070576099193848619 0 -0.34939877662876639 0.0070576099193848619 0 -0.35834074471334648 0.0096788928264882005 0 -0.35381837275022032 0.01853105722209741 0 -0.34385517732675519 0.031131612817745031 0 -0.35381837275022032 0.01853105722209741 0 -0.36551724687399623 0.028318485711261141 0 -0.37937813184432773 0.031366277704107569 0 -0.36551724687399623 0.028318485711261141 0 -0.37479293228070759 0.022502646493578662 0 -0.36551724687399623 0.028318485711261141 0 -0.37479293228070759 0.022502646493578662 0 -0.36730783543836809 0.01519693074799966 0 -0.3778438638662554 0.014761087644765769 0 -0.37479293228070759 0.022502646493578662 0 -0.36730783543836809 0.01519693074799966 0 -0.35381837275022032 0.01853105722209741 0 -0.36551724687399623 0.028318485711261141 0 -0.36730783543836809 0.01519693074799966 0 -0.35834074471334648 0.0096788928264882005 0 -0.36730783543836809 0.01519693074799966 0 -0.36603012090457948 0.0050917054244422654 0 -0.35834074471334648 0.0096788928264882005 0 -0.35381837275022032 0.01853105722209741 0 -0.36730783543836809 0.01519693074799966 0 -0.36730783543836809 0.01519693074799966 0 -0.37464316483836829 0.0066416053135349984 0 -0.36603012090457948 0.0050917054244422654 0 -0.3778438638662554 0.014761087644765769 0 -0.36730783543836809 0.01519693074799966 0 -0.37464316483836829 0.0066416053135349984 0 -0.37126952376897032 -0.00085078512189483576 0 -0.37774077980655368 -0.001289555558904682 0 -0.37464316483836829 0.0066416053135349984 0 -0.37126952376897032 -0.00085078512189483576 0 -0.37464316483836829 0.0066416053135349984 0 -0.36603012090457948 0.0050917054244422654 0 -0.37126952376897032 -0.00085078512189483576 0 -0.36494834593608783 -0.001298186014321303 0 -0.36603012090457948 0.0050917054244422654 0 -0.36494834593608783 -0.001298186014321303 0 -0.35900139338342918 0.0020097317905480609 0 -0.36603012090457948 0.0050917054244422654 0 -0.35900139338342918 0.0020097317905480609 0 -0.35834074471334648 0.0096788928264882005 0 -0.36603012090457948 0.0050917054244422654 0 -0.35163198926140088 0.046228739452983239 0 -0.36891219827968119 0.060077996683558232 0 -0.35298131256760962 0.063034912088641357 0 -0.338272543408071 0.060603673933957783 0 -0.35163198926140088 0.046228739452983239 0 -0.35298131256760962 0.063034912088641357 0 -0.34385517732675519 0.031131612817745031 0 -0.36551724687399623 0.028318485711261141 0 -0.35163198926140088 0.046228739452983239 0 -0.36551724687399623 0.028318485711261141 0 -0.35163198926140088 0.046228739452983239 0 -0.37261014177358448 0.043145835856899219 0 -0.37937813184432773 0.031366277704107569 0 -0.36551724687399623 0.028318485711261141 0 -0.37261014177358448 0.043145835856899219 0 -0.35163198926140088 0.046228739452983239 0 -0.37261014177358448 0.043145835856899219 0 -0.36891219827968119 0.060077996683558232 0 -0.38207463336695202 0.051047668856640811 0 -0.37261014177358448 0.043145835856899219 0 -0.36891219827968119 0.060077996683558232 0 -0.37929074908003868 0.077603726490867345 0 -0.35694138538550352 0.073855345321458488 0 -0.37929074908003868 0.077603726490867345 0 -0.36891219827968119 0.060077996683558232 0 -0.35694138538550352 0.073855345321458488 0 -0.36891219827968119 0.060077996683558232 0 -0.35298131256760962 0.063034912088641357 0 -0.35694138538550352 0.073855345321458488 0 -0.35298131256760962 0.063034912088641357 0 -0.35694138538550352 0.073855345321458488 0 -0.34914844650339177 0.074408805051249083 0 -0.35694138538550352 0.073855345321458488 0 -0.34914844650339177 0.074408805051249083 0 -0.35387282561504041 0.085789381247760657 0 -0.338272543408071 0.060603673933957783 0 -0.35298131256760962 0.063034912088641357 0 -0.34914844650339177 0.074408805051249083 0 -0.34914844650339177 0.074408805051249083 0 -0.35387282561504041 0.085789381247760657 0 -0.33299160925146271 0.085281992960062933 0 -0.35694138538550352 0.073855345321458488 0 -0.35387282561504041 0.085789381247760657 0 -0.36438159895332511 0.085691586513687634 0 -0.35387282561504041 0.085789381247760657 0 -0.36438159895332511 0.085691586513687634 0 -0.35579278546844412 0.098564625017930646 0 -0.37929074908003868 0.077603726490867345 0 -0.35694138538550352 0.073855345321458488 0 -0.36438159895332511 0.085691586513687634 0 -0.37929074908003868 0.077603726490867345 0 -0.36438159895332511 0.085691586513687634 0 -0.37090825683648998 0.098456277756480637 0 -0.37090825683648998 0.098456277756480637 0 -0.36904533532088801 0.1177582563576956 0 -0.35579278546844412 0.098564625017930646 0 -0.36438159895332511 0.085691586513687634 0 -0.37090825683648998 0.098456277756480637 0 -0.35579278546844412 0.098564625017930646 0 -0.35823941519022368 0.13573745574644491 0 -0.36904533532088801 0.1177582563576956 0 -0.35158166360451942 0.11704707172714621 0 -0.36904533532088801 0.1177582563576956 0 -0.35158166360451942 0.11704707172714621 0 -0.35579278546844412 0.098564625017930646 0 -0.35158166360451942 0.11704707172714621 0 -0.35579278546844412 0.098564625017930646 0 -0.34047962299512569 0.099373871294989508 0 -0.35387282561504041 0.085789381247760657 0 -0.35579278546844412 0.098564625017930646 0 -0.34047962299512569 0.099373871294989508 0 -0.34047962299512569 0.099373871294989508 0 -0.33231339904552459 0.1171762944261375 0 -0.31683477199953253 0.096155180868875256 0 -0.34455851703438989 0.13305210298766909 0 -0.35158166360451942 0.11704707172714621 0 -0.33231339904552459 0.1171762944261375 0 -0.35158166360451942 0.11704707172714621 0 -0.34047962299512569 0.099373871294989508 0 -0.33231339904552459 0.1171762944261375 0 -0.31211500736378339 0.1240031522641292 0 -0.31683477199953253 0.096155180868875256 0 -0.31211500736378339 0.1240031522641292 0 -0.33231339904552459 0.1171762944261375 0 -0.31683477199953253 0.096155180868875256 0 -0.30635830999651792 0.07761242167179265 0 -0.31683477199953253 0.096155180868875256 0 -0.32146679815367007 0.068824891797761426 0 -0.31683477199953253 0.096155180868875256 0 -0.32146679815367007 0.068824891797761426 0 -0.33299160925146271 0.085281992960062933 0 -0.31683477199953253 0.096155180868875256 0 -0.32146679815367007 0.068824891797761426 0 -0.31683477199953253 0.096155180868875256 0 -0.33299160925146271 0.085281992960062933 0 -0.338272543408071 0.060603673933957783 0 -0.32146679815367007 0.068824891797761426 0 -0.33576809196089219 0.072507027900731907 0 -0.32146679815367007 0.068824891797761426 0 -0.33576809196089219 0.072507027900731907 0 -0.33299160925146271 0.085281992960062933 0 -0.34914844650339177 0.074408805051249083 0 -0.33576809196089219 0.072507027900731907 0 -0.33299160925146271 0.085281992960062933 0 -0.338272543408071 0.060603673933957783 0 -0.34914844650339177 0.074408805051249083 0 -0.33576809196089219 0.072507027900731907 0 -0.35387282561504041 0.085789381247760657 0 -0.34047962299512569 0.099373871294989508 0 -0.33299160925146271 0.085281992960062933 0 -0.34914844650339177 0.074408805051249083 0 -0.33299160925146271 0.085281992960062933 0 -0.34047962299512569 0.099373871294989508 0 -0.31683477199953253 0.096155180868875256 0 -0.33299160925146271 0.085281992960062933 0 -0.3938434845513461 0.48000301234504228 0 -0.4154786193197833 0.47000451851756458 0 -0.40908183102320411 0.4845696213484928 0 -0.3938434845513461 0.48000301234504228 0 -0.40110135887996978 0.47332954189399812 0 -0.4154786193197833 0.47000451851756458 0 -0.3938434845513461 0.48000301234504228 0 -0.4154786193197833 0.47000451851756458 0 -0.3938434845513461 0.48000301234504228 0 -0.40110135887996978 0.47332954189399812 0 -0.38930270813857232 0.46778113184491188 0 -0.3938434845513461 0.48000301234504228 0 -0.39546946259238258 0.49128185561313598 0 -0.40908183102320411 0.4845696213484928 0 -0.40521342881326272 0.5 0 -0.39546946259238258 0.49128185561313598 0 -0.37789332191386737 0.5 0 -0.40521342881326272 0.5 0 -0.39546946259238258 0.49128185561313598 0 -0.40908183102320411 0.4845696213484928 0 -0.3938434845513461 0.48000301234504228 0 -0.39546946259238258 0.49128185561313598 0 -0.38517353549973538 0.49039659604947999 0 -0.3938434845513461 0.48000301234504228 0 -0.37220834978290879 0.49000150617251997 0 -0.39546946259238258 0.49128185561313598 0 -0.38517353549973538 0.49039659604947999 0 -0.37789332191386737 0.5 0 -0.3938434845513461 0.48000301234504228 0 -0.38517353549973538 0.49039659604947999 0 -0.37220834978290879 0.49000150617251997 0 -0.38517353549973538 0.49039659604947999 0 -0.37789332191386737 0.5 0 -0.37220834978290879 0.49000150617251997 0 -0.3938434845513461 0.48000301234504228 0 -0.37805640255927542 0.47903421333972468 0 -0.3842367001720054 0.47454362448235632 0 -0.3938434845513461 0.48000301234504228 0 -0.37805640255927542 0.47903421333972468 0 -0.37220834978290879 0.49000150617251997 0 -0.3842367001720054 0.47454362448235632 0 -0.37701653082709469 0.46900635458093531 0 -0.38930270813857232 0.46778113184491188 0 -0.3938434845513461 0.48000301234504228 0 -0.3842367001720054 0.47454362448235632 0 -0.38930270813857232 0.46778113184491188 0 -0.37805640255927542 0.47903421333972468 0 -0.3842367001720054 0.47454362448235632 0 -0.37701653082709469 0.46900635458093531 0 -0.37701653082709469 0.46900635458093531 0 -0.38677844954541418 0.45747132953460651 0 -0.37376195539900242 0.45249759326054367 0 -0.37701653082709469 0.46900635458093531 0 -0.38677844954541418 0.45747132953460651 0 -0.38930270813857232 0.46778113184491188 0 -0.38473584783684761 0.44354080077547992 0 -0.36778315087773072 0.43214877602771662 0 -0.37376195539900242 0.45249759326054367 0 -0.38677844954541418 0.45747132953460651 0 -0.38473584783684761 0.44354080077547992 0 -0.37376195539900242 0.45249759326054367 0 -0.38677844954541418 0.45747132953460651 0 -0.38473584783684761 0.44354080077547992 0 -0.39843898125590987 0.45231631840454728 0 -0.39843898125590987 0.45231631840454728 0 -0.4072920944712265 0.44499890251068641 0 -0.39856520721893041 0.43647578570475237 0 -0.38473584783684761 0.44354080077547992 0 -0.39843898125590987 0.45231631840454728 0 -0.39856520721893041 0.43647578570475237 0 -0.39843898125590987 0.45231631840454728 0 -0.39841490533913748 0.46178879282826651 0 -0.41709791082295028 0.45456801136960878 0 -0.40110135887996978 0.47332954189399812 0 -0.39841490533913748 0.46178879282826651 0 -0.41709791082295028 0.45456801136960878 0 -0.38677844954541418 0.45747132953460651 0 -0.38930270813857232 0.46778113184491188 0 -0.39841490533913748 0.46178879282826651 0 -0.40110135887996978 0.47332954189399812 0 -0.38930270813857232 0.46778113184491188 0 -0.39841490533913748 0.46178879282826651 0 -0.38677844954541418 0.45747132953460651 0 -0.39843898125590987 0.45231631840454728 0 -0.39841490533913748 0.46178879282826651 0 -0.40110135887996978 0.47332954189399812 0 -0.41709791082295028 0.45456801136960878 0 -0.4154786193197833 0.47000451851756458 0 -0.40110135887996978 0.47332954189399812 0 -0.41709791082295028 0.45456801136960878 0 -0.41709791082295028 0.45456801136960878 0 -0.42692569345801529 0.46340213249295897 0 -0.4154786193197833 0.47000451851756458 0 -0.41709791082295028 0.45456801136960878 0 -0.43309446276593089 0.43580648084521972 0 -0.41506627858711548 0.4366354945638371 0 -0.39843898125590987 0.45231631840454728 0 -0.41709791082295028 0.45456801136960878 0 -0.4072920944712265 0.44499890251068641 0 -0.4072920944712265 0.44499890251068641 0 -0.41506627858711548 0.4366354945638371 0 -0.39856520721893041 0.43647578570475237 0 -0.41709791082295028 0.45456801136960878 0 -0.4072920944712265 0.44499890251068641 0 -0.41506627858711548 0.4366354945638371 0 -0.41709791082295028 0.45456801136960878 0 -0.43251943231727258 0.45189802077753072 0 -0.43309446276593089 0.43580648084521972 0 -0.41709791082295028 0.45456801136960878 0 -0.43309446276593089 0.43580648084521972 0 -0.43251943231727258 0.45189802077753072 0 -0.44285055445462801 0.44408738363144917 0 -0.43309446276593089 0.43580648084521972 0 -0.43251943231727258 0.45189802077753072 0 -0.42692569345801529 0.46340213249295897 0 -0.44262854008483871 0.46162609554841733 0 -0.42692569345801529 0.46340213249295897 0 -0.43014133963940671 0.47900644757454591 0 -0.44262854008483871 0.46162609554841733 0 -0.41709791082295028 0.45456801136960878 0 -0.43251943231727258 0.45189802077753072 0 -0.42692569345801529 0.46340213249295897 0 -0.42692569345801529 0.46340213249295897 0 -0.43014133963940671 0.47900644757454591 0 -0.4154786193197833 0.47000451851756458 0 -0.43014133963940671 0.47900644757454591 0 -0.4154786193197833 0.47000451851756458 0 -0.40908183102320411 0.4845696213484928 0 -0.40521342881326272 0.5 0 -0.40908183102320411 0.4845696213484928 0 -0.43253353571265801 0.5 0 -0.43014133963940671 0.47900644757454591 0 -0.40908183102320411 0.4845696213484928 0 -0.43253353571265801 0.5 0 -0.43014133963940671 0.47900644757454591 0 -0.43253353571265801 0.5 0 -0.44984012809851409 0.48033494727474779 0 -0.43253353571265801 0.5 0 -0.44984012809851409 0.48033494727474779 0 -0.45985364261205308 0.50000000000000111 0 -0.43014133963940671 0.47900644757454591 0 -0.44984012809851409 0.48033494727474779 0 -0.44262854008483871 0.46162609554841733 0 -0.44984012809851409 0.48033494727474779 0 -0.47312811744354261 0.47395110078869013 0 -0.45820768181792781 0.46325373185340701 0 -0.45985364261205308 0.50000000000000111 0 -0.47312811744354261 0.47395110078869013 0 -0.44984012809851409 0.48033494727474779 0 -0.45985364261205308 0.50000000000000111 0 -0.47312811744354261 0.47395110078869013 0 -0.5 0.5 0 -0.47312811744354261 0.47395110078869013 0 -0.49999999999999972 0.44664233614409321 0 -0.45985364261205308 0.50000000000000111 0 -0.5 0.5 0 -0.47312811744354261 0.47395110078869013 0 -0.48640259227503152 0.44790220157737892 0 -0.49999999999999972 0.44664233614409321 0 -0.47883616718389621 0.43347798499105172 0 -0.49999999999999972 0.44664233614409321 0 -0.47883616718389621 0.43347798499105172 0 -0.47312811744354261 0.47395110078869013 0 -0.48640259227503152 0.44790220157737892 0 -0.49999999999999972 0.44664233614409321 0 -0.47312811744354261 0.47395110078869013 0 -0.48640259227503152 0.44790220157737892 0 -0.47312811744354261 0.47395110078869013 0 -0.48640259227503152 0.44790220157737892 0 -0.46932328621444303 0.45009797021529852 0 -0.46932328621444303 0.45009797021529852 0 -0.46288197751253979 0.435741310408158 0 -0.47883616718389621 0.43347798499105172 0 -0.48640259227503152 0.44790220157737892 0 -0.46932328621444303 0.45009797021529852 0 -0.47883616718389621 0.43347798499105172 0 -0.46932328621444303 0.45009797021529852 0 -0.45653044061400749 0.44574373859450739 0 -0.46288197751253979 0.435741310408158 0 -0.46932328621444303 0.45009797021529852 0 -0.45653044061400749 0.44574373859450739 0 -0.45820768181792781 0.46325373185340701 0 -0.45653044061400749 0.44574373859450739 0 -0.44988321330808601 0.43264183945635343 0 -0.46288197751253979 0.435741310408158 0 -0.47312811744354261 0.47395110078869013 0 -0.46932328621444303 0.45009797021529852 0 -0.45820768181792781 0.46325373185340701 0 -0.45653044061400749 0.44574373859450739 0 -0.45820768181792781 0.46325373185340701 0 -0.44262854008483871 0.46162609554841733 0 -0.44984012809851409 0.48033494727474779 0 -0.45820768181792781 0.46325373185340701 0 -0.44262854008483871 0.46162609554841733 0 -0.43251943231727258 0.45189802077753072 0 -0.44262854008483871 0.46162609554841733 0 -0.44285055445462801 0.44408738363144917 0 -0.45653044061400749 0.44574373859450739 0 -0.44262854008483871 0.46162609554841733 0 -0.44285055445462801 0.44408738363144917 0 -0.44285055445462801 0.44408738363144917 0 -0.44988321330808601 0.43264183945635343 0 -0.43309446276593089 0.43580648084521972 0 -0.45653044061400749 0.44574373859450739 0 -0.44285055445462801 0.44408738363144917 0 -0.44988321330808601 0.43264183945635343 0 -0.44909101470891138 0.41704495032083061 0 -0.43309446276593089 0.43580648084521972 0 -0.44988321330808601 0.43264183945635343 0 -0.44909101470891138 0.41704495032083061 0 -0.43309446276593089 0.43580648084521972 0 -0.44988321330808601 0.43264183945635343 0 -0.44909101470891138 0.41704495032083061 0 -0.45767233436779298 0.42031363383801013 0 -0.44909101470891138 0.41704495032083061 0 -0.43642708593841462 0.41129790334070748 0 -0.43309446276593089 0.43580648084521972 0 -0.44909101470891138 0.41704495032083061 0 -0.44923652684218601 0.40651161443480333 0 -0.43642708593841462 0.41129790334070748 0 -0.44909101470891138 0.41704495032083061 0 -0.46310762304278369 0.4136785712167641 0 -0.46508756665189233 0.39828341979644161 0 -0.44909101470891138 0.41704495032083061 0 -0.46508756665189233 0.39828341979644161 0 -0.44909101470891138 0.41704495032083061 0 -0.44923652684218601 0.40651161443480333 0 -0.46508756665189233 0.39828341979644161 0 -0.44909101470891138 0.41704495032083061 0 -0.45767233436779298 0.42031363383801013 0 -0.46310762304278369 0.4136785712167641 0 -0.45767233436779298 0.42031363383801013 0 -0.46310762304278369 0.4136785712167641 0 -0.4689935185142321 0.42014913325858988 0 -0.46310762304278369 0.4136785712167641 0 -0.47635794946245552 0.41312634298853379 0 -0.46508756665189233 0.39828341979644161 0 -0.45767233436779298 0.42031363383801013 0 -0.47883616718389621 0.43347798499105172 0 -0.4689935185142321 0.42014913325858988 0 -0.45767233436779298 0.42031363383801013 0 -0.46288197751253979 0.435741310408158 0 -0.47883616718389621 0.43347798499105172 0 -0.45767233436779298 0.42031363383801013 0 -0.47883616718389621 0.43347798499105172 0 -0.44988321330808601 0.43264183945635343 0 -0.45767233436779298 0.42031363383801013 0 -0.46288197751253979 0.435741310408158 0 -0.47883616718389621 0.43347798499105172 0 -0.47635794946245552 0.41312634298853379 0 -0.48714440641974271 0.42351608680749347 0 -0.47883616718389621 0.43347798499105172 0 -0.4689935185142321 0.42014913325858988 0 -0.47635794946245552 0.41312634298853379 0 -0.46310762304278369 0.4136785712167641 0 -0.4689935185142321 0.42014913325858988 0 -0.47635794946245552 0.41312634298853379 0 -0.47635794946245552 0.41312634298853379 0 -0.48901457958177968 0.41012265573874179 0 -0.48254378332594611 0.39722493186941499 0 -0.47635794946245552 0.41312634298853379 0 -0.48901457958177968 0.41012265573874179 0 -0.48714440641974271 0.42351608680749347 0 -0.48901457958177968 0.41012265573874179 0 -0.5 0.42140439004324071 0 -0.49999999999999978 0.39616644394238798 0 -0.48901457958177968 0.41012265573874179 0 -0.5 0.42140439004324071 0 -0.48714440641974271 0.42351608680749347 0 -0.49999999999999972 0.44664233614409321 0 -0.47883616718389621 0.43347798499105172 0 -0.48714440641974271 0.42351608680749347 0 -0.49999999999999972 0.44664233614409321 0 -0.5 0.42140439004324071 0 -0.48714440641974271 0.42351608680749347 0 -0.49007778645481631 0.38142997617552599 0 -0.49999999999999978 0.39616644394238798 0 -0.50000000000000311 0.3685517992903854 0 -0.49007778645481631 0.38142997617552599 0 -0.47611467569506138 0.38535029247959018 0 -0.48714178473823078 0.37241716516273898 0 -0.49999999999999978 0.39616644394238798 0 -0.48254378332594611 0.39722493186941499 0 -0.48901457958177968 0.41012265573874179 0 -0.49999999999999978 0.39616644394238798 0 -0.48254378332594611 0.39722493186941499 0 -0.49007778645481631 0.38142997617552599 0 -0.49999999999999978 0.39616644394238798 0 -0.48254378332594611 0.39722493186941499 0 -0.48254378332594611 0.39722493186941499 0 -0.46508756665189233 0.39828341979644161 0 -0.47635794946245552 0.41312634298853379 0 -0.48254378332594611 0.39722493186941499 0 -0.46508756665189233 0.39828341979644161 0 -0.48254378332594611 0.39722493186941499 0 -0.47611467569506138 0.38535029247959018 0 -0.46508756665189233 0.39828341979644161 0 -0.47611467569506138 0.38535029247959018 0 -0.46508756665189233 0.39828341979644161 0 -0.49007778645481631 0.38142997617552599 0 -0.48254378332594611 0.39722493186941499 0 -0.47611467569506138 0.38535029247959018 0 -0.47611467569506138 0.38535029247959018 0 -0.47397397291215421 0.37493689296344251 0 -0.48714178473823078 0.37241716516273898 0 -0.47611467569506138 0.38535029247959018 0 -0.48714178473823078 0.37241716516273898 0 -0.46871814716203669 0.37906981455344119 0 -0.46360543106569913 0.37231654924431878 0 -0.47397397291215421 0.37493689296344251 0 -0.47611467569506138 0.38535029247959018 0 -0.46871814716203669 0.37906981455344119 0 -0.47397397291215421 0.37493689296344251 0 -0.46871814716203669 0.37906981455344119 0 -0.46117850897523233 0.38367552352641338 0 -0.46360543106569913 0.37231654924431878 0 -0.47611467569506138 0.38535029247959018 0 -0.46871814716203669 0.37906981455344119 0 -0.46117850897523233 0.38367552352641338 0 -0.47611467569506138 0.38535029247959018 0 -0.46117850897523233 0.38367552352641338 0 -0.46508756665189233 0.39828341979644161 0 -0.46117850897523233 0.38367552352641338 0 -0.45400385251667602 0.39093091030285698 0 -0.45110956684876158 0.38402681738971201 0 -0.46117850897523233 0.38367552352641338 0 -0.45110956684876158 0.38402681738971201 0 -0.44813402172652672 0.37354371539476261 0 -0.46117850897523233 0.38367552352641338 0 -0.44813402172652672 0.37354371539476261 0 -0.46360543106569913 0.37231654924431878 0 -0.44923652684218601 0.40651161443480333 0 -0.46508756665189233 0.39828341979644161 0 -0.44634044006952572 0.39942018428123321 0 -0.46508756665189233 0.39828341979644161 0 -0.45400385251667602 0.39093091030285698 0 -0.44634044006952572 0.39942018428123321 0 -0.46508756665189233 0.39828341979644161 0 -0.44634044006952572 0.39942018428123321 0 -0.46117850897523233 0.38367552352641338 0 -0.46508756665189233 0.39828341979644161 0 -0.45400385251667602 0.39093091030285698 0 -0.45400385251667602 0.39093091030285698 0 -0.44634044006952572 0.39942018428123321 0 -0.44518347515021223 0.38837251913440451 0 -0.44634044006952572 0.39942018428123321 0 -0.44518347515021223 0.38837251913440451 0 -0.43728617553129168 0.39370672697544878 0 -0.44923652684218601 0.40651161443480333 0 -0.44634044006952572 0.39942018428123321 0 -0.43642708593841462 0.41129790334070748 0 -0.45110956684876158 0.38402681738971201 0 -0.44480856609964842 0.38185924381796288 0 -0.44813402172652672 0.37354371539476261 0 -0.45400385251667602 0.39093091030285698 0 -0.45110956684876158 0.38402681738971201 0 -0.44518347515021223 0.38837251913440451 0 -0.45110956684876158 0.38402681738971201 0 -0.44518347515021223 0.38837251913440451 0 -0.44480856609964842 0.38185924381796288 0 -0.44518347515021223 0.38837251913440451 0 -0.43913693036841173 0.38484964203092692 0 -0.43002747341826991 0.3864772557201327 0 -0.44518347515021223 0.38837251913440451 0 -0.43002747341826991 0.3864772557201327 0 -0.44518347515021223 0.38837251913440451 0 -0.43913693036841173 0.38484964203092692 0 -0.44480856609964842 0.38185924381796288 0 -0.44480856609964842 0.38185924381796288 0 -0.4393591315165738 0.37762743775392832 0 -0.44813402172652672 0.37354371539476261 0 -0.43913693036841173 0.38484964203092692 0 -0.44480856609964842 0.38185924381796288 0 -0.4393591315165738 0.37762743775392832 0 -0.43913693036841173 0.38484964203092692 0 -0.43173797726570751 0.37658334167695551 0 -0.43913693036841173 0.38484964203092692 0 -0.43173797726570751 0.37658334167695551 0 -0.43002747341826991 0.3864772557201327 0 -0.43913693036841173 0.38484964203092692 0 -0.4393591315165738 0.37762743775392832 0 -0.43173797726570751 0.37658334167695551 0 -0.4393591315165738 0.37762743775392832 0 -0.43173797726570751 0.37658334167695551 0 -0.4325639091043616 0.37180597819459837 0 -0.43173797726570751 0.37658334167695551 0 -0.43002747341826991 0.3864772557201327 0 -0.44518347515021223 0.38837251913440451 0 -0.43002747341826991 0.3864772557201327 0 -0.43728617553129168 0.39370672697544878 0 -0.43002747341826991 0.3864772557201327 0 -0.41472776448615789 0.38456402166930481 0 -0.42117367656598032 0.39254991666010941 0 -0.43002747341826991 0.3864772557201327 0 -0.41472776448615789 0.38456402166930481 0 -0.43002747341826991 0.3864772557201327 0 -0.42328890360694349 0.38021744503538613 0 -0.41472776448615789 0.38456402166930481 0 -0.43173797726570751 0.37658334167695551 0 -0.43002747341826991 0.3864772557201327 0 -0.42328890360694349 0.38021744503538613 0 -0.43173797726570751 0.37658334167695551 0 -0.42328890360694349 0.38021744503538613 0 -0.42689564018809201 0.37117335838025439 0 -0.40881671944059661 0.37920357314115732 0 -0.42689564018809201 0.37117335838025439 0 -0.42328890360694349 0.38021744503538613 0 -0.40881671944059661 0.37920357314115732 0 -0.42689564018809201 0.37117335838025439 0 -0.42328890360694349 0.38021744503538613 0 -0.41472776448615789 0.38456402166930481 0 -0.40881671944059661 0.37920357314115732 0 -0.41472776448615789 0.38456402166930481 0 -0.40724106840129259 0.39428871981441299 0 -0.42117367656598032 0.39254991666010941 0 -0.41472776448615789 0.38456402166930481 0 -0.40826438028753348 0.3817067557430866 0 -0.39942805555404642 0.38265078761847338 0 -0.41472776448615789 0.38456402166930481 0 -0.40724106840129259 0.39428871981441299 0 -0.39942805555404642 0.38265078761847338 0 -0.41472776448615789 0.38456402166930481 0 -0.39942805555404642 0.38265078761847338 0 -0.40881671944059661 0.37920357314115732 0 -0.39942805555404642 0.38265078761847338 0 -0.41098055992701871 0.3693971202961519 0 -0.40826438028753348 0.3817067557430866 0 -0.40881671944059661 0.37920357314115732 0 -0.41472776448615789 0.38456402166930481 0 -0.40826438028753348 0.3817067557430866 0 -0.40881671944059661 0.37920357314115732 0 -0.40724106840129259 0.39428871981441299 0 -0.4157685575788832 0.40127396331749671 0 -0.40157856791931718 0.40704460823596672 0 -0.42117367656598032 0.39254991666010941 0 -0.4157685575788832 0.40127396331749671 0 -0.42759331348715912 0.40055694876602499 0 -0.40724106840129259 0.39428871981441299 0 -0.42117367656598032 0.39254991666010941 0 -0.4157685575788832 0.40127396331749671 0 -0.4157685575788832 0.40127396331749671 0 -0.42759331348715912 0.40055694876602499 0 -0.44634044006952572 0.39942018428123321 0 -0.42759331348715912 0.40055694876602499 0 -0.44634044006952572 0.39942018428123321 0 -0.42759331348715912 0.40055694876602499 0 -0.43728617553129168 0.39370672697544878 0 -0.44634044006952572 0.39942018428123321 0 -0.42759331348715912 0.40055694876602499 0 -0.43642708593841462 0.41129790334070748 0 -0.43002747341826991 0.3864772557201327 0 -0.42117367656598032 0.39254991666010941 0 -0.42759331348715912 0.40055694876602499 0 -0.43002747341826991 0.3864772557201327 0 -0.42759331348715912 0.40055694876602499 0 -0.43002747341826991 0.3864772557201327 0 -0.42759331348715912 0.40055694876602499 0 -0.43728617553129168 0.39370672697544878 0 -0.43642708593841462 0.41129790334070748 0 -0.42449994900394461 0.41844961959922572 0 -0.43309446276593089 0.43580648084521972 0 -0.42759331348715912 0.40055694876602499 0 -0.43642708593841462 0.41129790334070748 0 -0.42449994900394461 0.41844961959922572 0 -0.4157685575788832 0.40127396331749671 0 -0.42759331348715912 0.40055694876602499 0 -0.42449994900394461 0.41844961959922572 0 -0.42759331348715912 0.40055694876602499 0 -0.42449994900394461 0.41844961959922572 0 -0.42449994900394461 0.41844961959922572 0 -0.43309446276593089 0.43580648084521972 0 -0.41506627858711548 0.4366354945638371 0 -0.42449994900394461 0.41844961959922572 0 -0.41506627858711548 0.4366354945638371 0 -0.40746949035714619 0.42222882353716701 0 -0.41506627858711548 0.4366354945638371 0 -0.40746949035714619 0.42222882353716701 0 -0.39856520721893041 0.43647578570475237 0 -0.42449994900394461 0.41844961959922572 0 -0.40746949035714619 0.42222882353716701 0 -0.41232914121482278 0.41224925367246401 0 -0.4157685575788832 0.40127396331749671 0 -0.42449994900394461 0.41844961959922572 0 -0.41232914121482278 0.41224925367246401 0 -0.4157685575788832 0.40127396331749671 0 -0.41232914121482278 0.41224925367246401 0 -0.40157856791931718 0.40704460823596672 0 -0.40746949035714619 0.42222882353716701 0 -0.41232914121482278 0.41224925367246401 0 -0.40157856791931718 0.40704460823596672 0 -0.40746949035714619 0.42222882353716701 0 -0.40157856791931718 0.40704460823596672 0 -0.39298749241221759 0.42119507937603923 0 -0.40746949035714619 0.42222882353716701 0 -0.39298749241221759 0.42119507937603923 0 -0.39856520721893041 0.43647578570475237 0 -0.39298749241221759 0.42119507937603923 0 -0.39856520721893041 0.43647578570475237 0 -0.38373994498284608 0.43043669407259588 0 -0.38373994498284608 0.43043669407259588 0 -0.37668454372729859 0.41206883315114529 0 -0.36778315087773072 0.43214877602771662 0 -0.38473584783684761 0.44354080077547992 0 -0.38373994498284608 0.43043669407259588 0 -0.36778315087773072 0.43214877602771662 0 -0.38473584783684761 0.44354080077547992 0 -0.39856520721893041 0.43647578570475237 0 -0.38373994498284608 0.43043669407259588 0 -0.40157856791931718 0.40704460823596672 0 -0.39298749241221759 0.42119507937603923 0 -0.37668454372729859 0.41206883315114529 0 -0.39298749241221759 0.42119507937603923 0 -0.38373994498284608 0.43043669407259588 0 -0.37668454372729859 0.41206883315114529 0 -0.40157856791931718 0.40704460823596672 0 -0.37668454372729859 0.41206883315114529 0 -0.37668454372729859 0.41206883315114529 0 -0.37844474563582792 0.390355182046278 0 -0.39076978830337122 0.39764902138512792 0 -0.40157856791931718 0.40704460823596672 0 -0.37668454372729859 0.41206883315114529 0 -0.39076978830337122 0.39764902138512792 0 -0.38141148745950948 0.38039780936179463 0 -0.39942805555404642 0.38265078761847338 0 -0.37844474563582792 0.390355182046278 0 -0.39942805555404642 0.38265078761847338 0 -0.38141148745950948 0.38039780936179463 0 -0.37844474563582792 0.390355182046278 0 -0.39942805555404642 0.38265078761847338 0 -0.37844474563582792 0.390355182046278 0 -0.39942805555404642 0.38265078761847338 0 -0.39076978830337122 0.39764902138512792 0 -0.38141148745950948 0.38039780936179463 0 -0.39942805555404642 0.38265078761847338 0 -0.39128338495032239 0.36719877308275878 0 -0.40826438028753348 0.3817067557430866 0 -0.40881671944059661 0.37920357314115732 0 -0.39942805555404642 0.38265078761847338 0 -0.40881671944059661 0.37920357314115732 0 -0.39942805555404642 0.38265078761847338 0 -0.40724106840129259 0.39428871981441299 0 -0.40157856791931718 0.40704460823596672 0 -0.39076978830337122 0.39764902138512792 0 -0.40724106840129259 0.39428871981441299 0 -0.39942805555404642 0.38265078761847338 0 -0.39076978830337122 0.39764902138512792 0 -0.39259889148010241 0.34864188780489069 0 -0.39999637464883392 0.35559476271013252 0 -0.38966798311544332 0.35610238881872369 0 -0.39259889148010241 0.34864188780489069 0 -0.39999637464883392 0.35559476271013252 0 -0.40046159691170069 0.34164056661102238 0 -0.39999637464883392 0.35559476271013252 0 -0.40046159691170069 0.34164056661102238 0 -0.41381361947694889 0.35655778899711688 0 -0.39999637464883392 0.35559476271013252 0 -0.40397412088998857 0.3623881668075713 0 -0.41381361947694889 0.35655778899711688 0 -0.39128338495032239 0.36719877308275878 0 -0.41098055992701871 0.3693971202961519 0 -0.40397412088998857 0.3623881668075713 0 -0.39128338495032239 0.36719877308275878 0 -0.41098055992701871 0.3693971202961519 0 -0.39942805555404642 0.38265078761847338 0 -0.39128338495032239 0.36719877308275878 0 -0.41098055992701871 0.3693971202961519 0 -0.39999637464883392 0.35559476271013252 0 -0.39128338495032239 0.36719877308275878 0 -0.38966798311544332 0.35610238881872369 0 -0.39999637464883392 0.35559476271013252 0 -0.40397412088998857 0.3623881668075713 0 -0.39128338495032239 0.36719877308275878 0 -0.39128338495032239 0.36719877308275878 0 -0.38070440212728118 0.35956436367519867 0 -0.38966798311544332 0.35610238881872369 0 -0.39128338495032239 0.36719877308275878 0 -0.38070440212728118 0.35956436367519867 0 -0.37158620997362618 0.36500042586936587 0 -0.39128338495032239 0.36719877308275878 0 -0.37158620997362618 0.36500042586936587 0 -0.38141148745950948 0.38039780936179463 0 -0.39128338495032239 0.36719877308275878 0 -0.37158620997362618 0.36500042586936587 0 -0.38070440212728118 0.35956436367519867 0 -0.38259242285128608 0.34975193996759602 0 -0.36960199921418602 0.35731180584905542 0 -0.38259242285128608 0.34975193996759602 0 -0.37580907906339922 0.33647878059299557 0 -0.36960199921418602 0.35731180584905542 0 -0.38070440212728118 0.35956436367519867 0 -0.38966798311544332 0.35610238881872369 0 -0.38259242285128608 0.34975193996759602 0 -0.39259889148010241 0.34864188780489069 0 -0.38966798311544332 0.35610238881872369 0 -0.38259242285128608 0.34975193996759602 0 -0.39259889148010241 0.34864188780489069 0 -0.38259242285128608 0.34975193996759602 0 -0.38794720083446621 0.34059934721089508 0 -0.38259242285128608 0.34975193996759602 0 -0.37580907906339922 0.33647878059299557 0 -0.38794720083446621 0.34059934721089508 0 -0.37580907906339922 0.33647878059299557 0 -0.38794720083446621 0.34059934721089508 0 -0.38710957434645199 0.32672334422492838 0 -0.37580907906339922 0.33647878059299557 0 -0.38201615891261242 0.31564575533693578 0 -0.38201615891261242 0.31564575533693578 0 -0.38336946241093189 0.30974931290420182 0 -0.36531193472093021 0.32454274932608829 0 -0.37580907906339922 0.33647878059299557 0 -0.38201615891261242 0.31564575533693578 0 -0.38710957434645199 0.32672334422492838 0 -0.38201615891261242 0.31564575533693578 0 -0.39350880394476312 0.31593875705230262 0 -0.38336946241093189 0.30974931290420182 0 -0.38201615891261242 0.31564575533693578 0 -0.38710957434645199 0.32672334422492838 0 -0.39350880394476312 0.31593875705230262 0 -0.38710957434645199 0.32672334422492838 0 -0.39350880394476312 0.31593875705230262 0 -0.39921774374196328 0.327754485124091 0 -0.39350880394476312 0.31593875705230262 0 -0.39921774374196328 0.327754485124091 0 -0.40602554896887638 0.32011992980008452 0 -0.39921774374196328 0.327754485124091 0 -0.40602554896887638 0.32011992980008452 0 -0.40814721749945931 0.33505042297199122 0 -0.38794720083446621 0.34059934721089508 0 -0.38710957434645199 0.32672334422492838 0 -0.40046159691170069 0.34164056661102238 0 -0.39259889148010241 0.34864188780489069 0 -0.38794720083446621 0.34059934721089508 0 -0.40046159691170069 0.34164056661102238 0 -0.38710957434645199 0.32672334422492838 0 -0.39921774374196328 0.327754485124091 0 -0.40046159691170069 0.34164056661102238 0 -0.38710957434645199 0.32672334422492838 0 -0.40046159691170069 0.34164056661102238 0 -0.39921774374196328 0.327754485124091 0 -0.40046159691170069 0.34164056661102238 0 -0.40814721749945931 0.33505042297199122 0 -0.40814721749945931 0.33505042297199122 0 -0.41954562432067788 0.33058053440738988 0 -0.41381361947694889 0.35655778899711688 0 -0.41954562432067788 0.33058053440738988 0 -0.41381361947694889 0.35655778899711688 0 -0.40602554896887638 0.32011992980008452 0 -0.40814721749945931 0.33505042297199122 0 -0.41954562432067788 0.33058053440738988 0 -0.40602554896887638 0.32011992980008452 0 -0.41954562432067788 0.33058053440738988 0 -0.42527762916440792 0.30460327981766322 0 -0.41954562432067788 0.33058053440738988 0 -0.42527762916440792 0.30460327981766322 0 -0.41954562432067788 0.33058053440738988 0 -0.44001701522470671 0.31606260091672289 0 -0.42527762916440792 0.30460327981766322 0 -0.41954562432067788 0.33058053440738988 0 -0.42420657124029282 0.3485159257420361 0 -0.43843079740841773 0.33787066219507811 0 -0.41954562432067788 0.33058053440738988 0 -0.43843079740841773 0.33787066219507811 0 -0.44001701522470671 0.31606260091672289 0 -0.42420657124029282 0.3485159257420361 0 -0.43459164588172849 0.36007712215754689 0 -0.43843079740841773 0.33787066219507811 0 -0.42420657124029282 0.3485159257420361 0 -0.41381361947694889 0.35655778899711688 0 -0.43459164588172849 0.36007712215754689 0 -0.41381361947694889 0.35655778899711688 0 -0.43459164588172849 0.36007712215754689 0 -0.43459164588172849 0.36007712215754689 0 -0.43843079740841773 0.33787066219507811 0 -0.40046159691170069 0.34164056661102238 0 -0.40814721749945931 0.33505042297199122 0 -0.41381361947694889 0.35655778899711688 0 -0.41954562432067788 0.33058053440738988 0 -0.42420657124029282 0.3485159257420361 0 -0.41381361947694889 0.35655778899711688 0 -0.39999637464883392 0.35559476271013252 0 -0.41381361947694889 0.35655778899711688 0 -0.40046159691170069 0.34164056661102238 0 -0.41381361947694889 0.35655778899711688 0 -0.41381361947694889 0.35655778899711688 0 -0.41098055992701871 0.3693971202961519 0 -0.42689564018809201 0.37117335838025439 0 -0.41098055992701871 0.3693971202961519 0 -0.42689564018809201 0.37117335838025439 0 -0.40881671944059661 0.37920357314115732 0 -0.41098055992701871 0.3693971202961519 0 -0.42689564018809201 0.37117335838025439 0 -0.40881671944059661 0.37920357314115732 0 -0.41098055992701871 0.3693971202961519 0 -0.40397412088998857 0.3623881668075713 0 -0.41381361947694889 0.35655778899711688 0 -0.41098055992701871 0.3693971202961519 0 -0.41381361947694889 0.35655778899711688 0 -0.41098055992701871 0.3693971202961519 0 -0.41381361947694889 0.35655778899711688 0 -0.42689564018809201 0.37117335838025439 0 -0.41381361947694889 0.35655778899711688 0 -0.42907199843085347 0.36486274908666949 0 -0.43459164588172849 0.36007712215754689 0 -0.42689564018809201 0.37117335838025439 0 -0.42907199843085347 0.36486274908666949 0 -0.42980351636605002 0.37149789839679431 0 -0.43173797726570751 0.37658334167695551 0 -0.42689564018809201 0.37117335838025439 0 -0.43173797726570751 0.37658334167695551 0 -0.42689564018809201 0.37117335838025439 0 -0.42980351636605002 0.37149789839679431 0 -0.42689564018809201 0.37117335838025439 0 -0.42980351636605002 0.37149789839679431 0 -0.41381361947694889 0.35655778899711688 0 -0.42689564018809201 0.37117335838025439 0 -0.42907199843085347 0.36486274908666949 0 -0.43459164588172849 0.36007712215754689 0 -0.4325639091043616 0.37180597819459837 0 -0.42907199843085347 0.36486274908666949 0 -0.43459164588172849 0.36007712215754689 0 -0.4325639091043616 0.37180597819459837 0 -0.43173797726570751 0.37658334167695551 0 -0.4325639091043616 0.37180597819459837 0 -0.43173797726570751 0.37658334167695551 0 -0.4325639091043616 0.37180597819459837 0 -0.42980351636605002 0.37149789839679431 0 -0.4325639091043616 0.37180597819459837 0 -0.42980351636605002 0.37149789839679431 0 -0.42907199843085347 0.36486274908666949 0 -0.4325639091043616 0.37180597819459837 0 -0.42980351636605002 0.37149789839679431 0 -0.4393591315165738 0.37762743775392832 0 -0.4325639091043616 0.37180597819459837 0 -0.44813402172652672 0.37354371539476261 0 -0.4325639091043616 0.37180597819459837 0 -0.44813402172652672 0.37354371539476261 0 -0.4325639091043616 0.37180597819459837 0 -0.44813402172652672 0.37354371539476261 0 -0.45404419213644692 0.3625975043188554 0 -0.43459164588172849 0.36007712215754689 0 -0.45404419213644692 0.3625975043188554 0 -0.43459164588172849 0.36007712215754689 0 -0.4325639091043616 0.37180597819459837 0 -0.45404419213644692 0.3625975043188554 0 -0.4325639091043616 0.37180597819459837 0 -0.45404419213644692 0.3625975043188554 0 -0.43459164588172849 0.36007712215754689 0 -0.44549025602952702 0.35300777224981977 0 -0.45404419213644692 0.3625975043188554 0 -0.44549025602952702 0.35300777224981977 0 -0.45575207180717081 0.34762579988211101 0 -0.43843079740841773 0.33787066219507811 0 -0.43459164588172849 0.36007712215754689 0 -0.44549025602952702 0.35300777224981977 0 -0.43843079740841773 0.33787066219507811 0 -0.44549025602952702 0.35300777224981977 0 -0.45575207180717081 0.34762579988211101 0 -0.45404419213644692 0.3625975043188554 0 -0.45575207180717081 0.34762579988211101 0 -0.46674234051517471 0.35793515390827568 0 -0.45404419213644692 0.3625975043188554 0 -0.45575207180717081 0.34762579988211101 0 -0.46674234051517471 0.35793515390827568 0 -0.46933267881425472 0.34565439271282838 0 -0.45404419213644692 0.3625975043188554 0 -0.47441064506165659 0.36523629740895902 0 -0.46674234051517471 0.35793515390827568 0 -0.45404419213644692 0.3625975043188554 0 -0.47441064506165659 0.36523629740895902 0 -0.45404419213644692 0.3625975043188554 0 -0.46360543106569913 0.37231654924431878 0 -0.47441064506165659 0.36523629740895902 0 -0.44813402172652672 0.37354371539476261 0 -0.45404419213644692 0.3625975043188554 0 -0.46360543106569913 0.37231654924431878 0 -0.46674234051517471 0.35793515390827568 0 -0.45404419213644692 0.3625975043188554 0 -0.46360543106569913 0.37231654924431878 0 -0.47397397291215421 0.37493689296344251 0 -0.47441064506165659 0.36523629740895902 0 -0.47441064506165659 0.36523629740895902 0 -0.48058358620238051 0.35168401037216412 0 -0.49477709798686631 0.36787509049906381 0 -0.47397397291215421 0.37493689296344251 0 -0.47441064506165659 0.36523629740895902 0 -0.48714178473823078 0.37241716516273898 0 -0.46674234051517471 0.35793515390827568 0 -0.47441064506165659 0.36523629740895902 0 -0.48058358620238051 0.35168401037216412 0 -0.46674234051517471 0.35793515390827568 0 -0.46933267881425472 0.34565439271282838 0 -0.48058358620238051 0.35168401037216412 0 -0.46933267881425472 0.34565439271282838 0 -0.48058358620238051 0.35168401037216412 0 -0.48121002056386808 0.3369363626790518 0 -0.48058358620238051 0.35168401037216412 0 -0.49703354506598713 0.34759711953555122 0 -0.48121002056386808 0.3369363626790518 0 -0.49703354506598713 0.34759711953555122 0 -0.5 0.34812631329607491 0 -0.49477709798686631 0.36787509049906381 0 -0.48058358620238051 0.35168401037216412 0 -0.49703354506598713 0.34759711953555122 0 -0.49477709798686631 0.36787509049906381 0 -0.49703354506598713 0.34759711953555122 0 -0.49477709798686631 0.36787509049906381 0 -0.5 0.34812631329607491 0 -0.50000000000000311 0.3685517992903854 0 -0.49477709798686631 0.36787509049906381 0 -0.47441064506165659 0.36523629740895902 0 -0.49477709798686631 0.36787509049906381 0 -0.48714178473823078 0.37241716516273898 0 -0.47441064506165659 0.36523629740895902 0 -0.49477709798686631 0.36787509049906381 0 -0.49007778645481631 0.38142997617552599 0 -0.50000000000000311 0.3685517992903854 0 -0.49477709798686631 0.36787509049906381 0 -0.50000000000000311 0.3685517992903854 0 -0.49477709798686631 0.36787509049906381 0 -0.49007778645481631 0.38142997617552599 0 -0.49477709798686631 0.36787509049906381 0 -0.48714178473823078 0.37241716516273898 0 -0.4992899921451075 0.32731914857203848 0 -0.47890896772952718 0.31636292681222472 0 -0.4992899921451075 0.32731914857203848 0 -0.48121002056386808 0.3369363626790518 0 -0.47890896772952718 0.31636292681222472 0 -0.49999999999999989 0.32093853419885771 0 -0.47890896772952718 0.31636292681222472 0 -0.48920120729889771 0.30786362236022019 0 -0.49999999999999989 0.32093853419885771 0 -0.4992899921451075 0.32731914857203848 0 -0.47890896772952718 0.31636292681222472 0 -0.49999999999999989 0.32093853419885771 0 -0.4992899921451075 0.32731914857203848 0 -0.49703354506598713 0.34759711953555122 0 -0.4992899921451075 0.32731914857203848 0 -0.49703354506598713 0.34759711953555122 0 -0.4992899921451075 0.32731914857203848 0 -0.48121002056386808 0.3369363626790518 0 -0.49703354506598713 0.34759711953555122 0 -0.5 0.34812631329607491 0 -0.4992899921451075 0.32731914857203848 0 -0.46933267881425472 0.34565439271282838 0 -0.48121002056386808 0.3369363626790518 0 -0.46237537498267961 0.3340906367225393 0 -0.48121002056386808 0.3369363626790518 0 -0.47890896772952718 0.31636292681222472 0 -0.46237537498267961 0.3340906367225393 0 -0.47890896772952718 0.31636292681222472 0 -0.45636509730576869 0.32029680939338251 0 -0.45852794331394758 0.30540670505240958 0 -0.47890896772952718 0.31636292681222472 0 -0.45636509730576869 0.32029680939338251 0 -0.46237537498267961 0.3340906367225393 0 -0.45575207180717081 0.34762579988211101 0 -0.46933267881425472 0.34565439271282838 0 -0.46237537498267961 0.3340906367225393 0 -0.45575207180717081 0.34762579988211101 0 -0.46237537498267961 0.3340906367225393 0 -0.43843079740841773 0.33787066219507811 0 -0.45636509730576869 0.32029680939338251 0 -0.46237537498267961 0.3340906367225393 0 -0.43843079740841773 0.33787066219507811 0 -0.45636509730576869 0.32029680939338251 0 -0.43843079740841773 0.33787066219507811 0 -0.44001701522470671 0.31606260091672289 0 -0.45636509730576869 0.32029680939338251 0 -0.44001701522470671 0.31606260091672289 0 -0.45852794331394758 0.30540670505240958 0 -0.4381469188983681 0.2944504832925946 0 -0.45852794331394758 0.30540670505240958 0 -0.44001701522470671 0.31606260091672289 0 -0.4381469188983681 0.2944504832925946 0 -0.45852794331394758 0.30540670505240958 0 -0.4381469188983681 0.2944504832925946 0 -0.4447805513699985 0.27737231294201392 0 -0.43100963400813791 0.27862602522793672 0 -0.4381469188983681 0.2944504832925946 0 -0.45724976864254441 0.28334965182257721 0 -0.4447805513699985 0.27737231294201392 0 -0.4381469188983681 0.2944504832925946 0 -0.45724976864254441 0.28334965182257721 0 -0.45852794331394758 0.30540670505240958 0 -0.45724976864254441 0.28334965182257721 0 -0.45852794331394758 0.30540670505240958 0 -0.47789586146606378 0.29814868652574811 0 -0.47890896772952718 0.31636292681222472 0 -0.45852794331394758 0.30540670505240958 0 -0.47890896772952718 0.31636292681222472 0 -0.47789586146606378 0.29814868652574811 0 -0.48920120729889771 0.30786362236022019 0 -0.47890896772952718 0.31636292681222472 0 -0.45852794331394758 0.30540670505240958 0 -0.47789586146606378 0.29814868652574811 0 -0.45724976864254441 0.28334965182257721 0 -0.47789586146606378 0.29814868652574811 0 -0.48102565218130672 0.27929705551177292 0 -0.5 0.29600434190405073 0 -0.5 0.27107014960924369 0 -0.48102565218130672 0.27929705551177292 0 -0.47789586146606378 0.29814868652574811 0 -0.5 0.29600434190405073 0 -0.48102565218130672 0.27929705551177292 0 -0.47789586146606378 0.29814868652574811 0 -0.5 0.29600434190405073 0 -0.48920120729889771 0.30786362236022019 0 -0.49999999999999989 0.32093853419885771 0 -0.5 0.29600434190405073 0 -0.48920120729889771 0.30786362236022019 0 -0.48177750529808522 0.24619974485466931 0 -0.5 0.2461359573144368 0 -0.48654709528280549 0.26072196503438649 0 -0.5 0.2461359573144368 0 -0.48654709528280549 0.26072196503438649 0 -0.5 0.27107014960924369 0 -0.48654709528280549 0.26072196503438649 0 -0.5 0.27107014960924369 0 -0.48102565218130672 0.27929705551177292 0 -0.48654709528280549 0.26072196503438649 0 -0.48102565218130672 0.27929705551177292 0 -0.46993231893463527 0.26090691788180947 0 -0.45724976864254441 0.28334965182257721 0 -0.48102565218130672 0.27929705551177292 0 -0.46993231893463527 0.26090691788180947 0 -0.48177750529808522 0.24619974485466931 0 -0.48654709528280549 0.26072196503438649 0 -0.46993231893463527 0.26090691788180947 0 -0.45710504060219709 0.23686107433279269 0 -0.46993231893463527 0.26090691788180947 0 -0.44707755271196942 0.2637365605125353 0 -0.45724976864254441 0.28334965182257721 0 -0.46993231893463527 0.26090691788180947 0 -0.44707755271196942 0.2637365605125353 0 -0.45724976864254441 0.28334965182257721 0 -0.4447805513699985 0.27737231294201392 0 -0.44707755271196942 0.2637365605125353 0 -0.4447805513699985 0.27737231294201392 0 -0.44707755271196942 0.2637365605125353 0 -0.43100963400813791 0.27862602522793672 0 -0.45710504060219709 0.23686107433279269 0 -0.44707755271196942 0.2637365605125353 0 -0.44707755271196942 0.2637365605125353 0 -0.4367416388518679 0.25264877063821017 0 -0.43100963400813791 0.27862602522793672 0 -0.45710504060219709 0.23686107433279269 0 -0.44707755271196942 0.2637365605125353 0 -0.4367416388518679 0.25264877063821017 0 -0.4367416388518679 0.25264877063821017 0 -0.41175872593851298 0.2549478601346914 0 -0.41885046316002428 0.26850948483906401 0 -0.41175872593851298 0.2549478601346914 0 -0.41885046316002428 0.26850948483906401 0 -0.3976364837244763 0.27421361628784369 0 -0.41885046316002428 0.26850948483906401 0 -0.41710583327712653 0.28211115190663788 0 -0.3976364837244763 0.27421361628784369 0 -0.41885046316002428 0.26850948483906401 0 -0.43100963400813791 0.27862602522793672 0 -0.41710583327712653 0.28211115190663788 0 -0.4367416388518679 0.25264877063821017 0 -0.43100963400813791 0.27862602522793672 0 -0.4367416388518679 0.25264877063821017 0 -0.41885046316002428 0.26850948483906401 0 -0.43100963400813791 0.27862602522793672 0 -0.4381469188983681 0.2944504832925946 0 -0.43100963400813791 0.27862602522793672 0 -0.42527762916440792 0.30460327981766322 0 -0.43100963400813791 0.27862602522793672 0 -0.42527762916440792 0.30460327981766322 0 -0.41710583327712653 0.28211115190663788 0 -0.43100963400813791 0.27862602522793672 0 -0.42527762916440792 0.30460327981766322 0 -0.44001701522470671 0.31606260091672289 0 -0.4381469188983681 0.2944504832925946 0 -0.42527762916440792 0.30460327981766322 0 -0.40602554896887638 0.32011992980008452 0 -0.42527762916440792 0.30460327981766322 0 -0.4014269901009333 0.29495587648231503 0 -0.41710583327712653 0.28211115190663788 0 -0.4014269901009333 0.29495587648231503 0 -0.42527762916440792 0.30460327981766322 0 -0.41710583327712653 0.28211115190663788 0 -0.4014269901009333 0.29495587648231503 0 -0.41710583327712653 0.28211115190663788 0 -0.4014269901009333 0.29495587648231503 0 -0.3976364837244763 0.27421361628784369 0 -0.4014269901009333 0.29495587648231503 0 -0.38389766901197209 0.2919764357376447 0 -0.3976364837244763 0.27421361628784369 0 -0.4014269901009333 0.29495587648231503 0 -0.3976364837244763 0.27421361628784369 0 -0.39350880394476312 0.31593875705230262 0 -0.40602554896887638 0.32011992980008452 0 -0.4014269901009333 0.29495587648231503 0 -0.4014269901009333 0.29495587648231503 0 -0.38336946241093189 0.30974931290420182 0 -0.40602554896887638 0.32011992980008452 0 -0.4014269901009333 0.29495587648231503 0 -0.39350880394476312 0.31593875705230262 0 -0.4014269901009333 0.29495587648231503 0 -0.38336946241093189 0.30974931290420182 0 -0.38336946241093189 0.30974931290420182 0 -0.38389766901197209 0.2919764357376447 0 -0.36596935852520629 0.30787018431111951 0 -0.4014269901009333 0.29495587648231503 0 -0.38336946241093189 0.30974931290420182 0 -0.38389766901197209 0.2919764357376447 0 -0.38389766901197209 0.2919764357376447 0 -0.3839238193794226 0.27871888045260418 0 -0.3976364837244763 0.27421361628784369 0 -0.38389766901197209 0.2919764357376447 0 -0.3839238193794226 0.27871888045260418 0 -0.3703732677084236 0.2804332674389724 0 -0.3839238193794226 0.27871888045260418 0 -0.38378785707281859 0.2682522023459562 0 -0.3703732677084236 0.2804332674389724 0 -0.38378785707281859 0.2682522023459562 0 -0.37477717689163992 0.25299635056682518 0 -0.3703732677084236 0.2804332674389724 0 -0.3839238193794226 0.27871888045260418 0 -0.38378785707281859 0.2682522023459562 0 -0.3976364837244763 0.27421361628784369 0 -0.38378785707281859 0.2682522023459562 0 -0.39384597734802013 0.25347135609337229 0 -0.37477717689163992 0.25299635056682518 0 -0.39384597734802013 0.25347135609337229 0 -0.3976364837244763 0.27421361628784369 0 -0.41175872593851298 0.2549478601346914 0 -0.39384597734802013 0.25347135609337229 0 -0.3976364837244763 0.27421361628784369 0 -0.38378785707281859 0.2682522023459562 0 -0.39384597734802013 0.25347135609337229 0 -0.3976364837244763 0.27421361628784369 0 -0.35834524103505527 0.27479395617319979 0 -0.34490227433735798 0.27909378963084902 0 -0.35045174428906722 0.28677843618767362 0 -0.35834524103505527 0.27479395617319979 0 -0.34490227433735798 0.27909378963084902 0 -0.34728570068091402 0.2661688508290645 0 -0.34728570068091402 0.2661688508290645 0 -0.35464358931248319 0.25491115920099722 0 -0.34150965816976359 0.25817059719828012 0 -0.33845336435013867 0.242079554605789 0 -0.35464358931248319 0.25491115920099722 0 -0.34150965816976359 0.25817059719828012 0 -0.35834524103505527 0.27479395617319979 0 -0.34728570068091402 0.2661688508290645 0 -0.35464358931248319 0.25491115920099722 0 -0.35834524103505527 0.27479395617319979 0 -0.37477717689163992 0.25299635056682518 0 -0.35834524103505527 0.27479395617319979 0 -0.35464358931248319 0.25491115920099722 0 -0.37477717689163992 0.25299635056682518 0 -0.37477717689163992 0.25299635056682518 0 -0.3703732677084236 0.2804332674389724 0 -0.35834524103505527 0.27479395617319979 0 -0.37477717689163992 0.25299635056682518 0 -0.3703732677084236 0.2804332674389724 0 -0.3703732677084236 0.2804332674389724 0 -0.36596935852520629 0.30787018431111951 0 -0.38389766901197209 0.2919764357376447 0 -0.3703732677084236 0.2804332674389724 0 -0.36596935852520629 0.30787018431111951 0 -0.35834524103505527 0.27479395617319979 0 -0.3703732677084236 0.2804332674389724 0 -0.35925388220638338 0.290827281626163 0 -0.3703732677084236 0.2804332674389724 0 -0.36596935852520629 0.30787018431111951 0 -0.35925388220638338 0.290827281626163 0 -0.36596935852520629 0.30787018431111951 0 -0.35645499353340299 0.30154574554434233 0 -0.35925388220638338 0.290827281626163 0 -0.36596935852520629 0.30787018431111951 0 -0.35645499353340299 0.30154574554434233 0 -0.35774913989266272 0.31391262040183171 0 -0.35645499353340299 0.30154574554434233 0 -0.35013945535461871 0.3105838988596446 0 -0.35774913989266272 0.31391262040183171 0 -0.35645499353340299 0.30154574554434233 0 -0.34780240298166087 0.30288468022079579 0 -0.35285886900803182 0.29452238055293539 0 -0.34780240298166087 0.30288468022079579 0 -0.34622635383862083 0.29383585221412489 0 -0.33932813284697128 0.29730713825443927 0 -0.34780240298166087 0.30288468022079579 0 -0.35285886900803182 0.29452238055293539 0 -0.34622635383862083 0.29383585221412489 0 -0.34780240298166087 0.30288468022079579 0 -0.34514961405368982 0.30758965292055213 0 -0.33997231501418312 0.30473657218964828 0 -0.35645499353340299 0.30154574554434233 0 -0.34780240298166087 0.30288468022079579 0 -0.35013945535461871 0.3105838988596446 0 -0.34780240298166087 0.30288468022079579 0 -0.34514961405368982 0.30758965292055213 0 -0.35013945535461871 0.3105838988596446 0 -0.34514961405368982 0.30758965292055213 0 -0.35013945535461871 0.3105838988596446 0 -0.34268428286429659 0.31215346041211978 0 -0.35834524103505527 0.27479395617319979 0 -0.35925388220638338 0.290827281626163 0 -0.35045174428906722 0.28677843618767362 0 -0.35645499353340299 0.30154574554434233 0 -0.35925388220638338 0.290827281626163 0 -0.35285886900803182 0.29452238055293539 0 -0.35925388220638338 0.290827281626163 0 -0.35285886900803182 0.29452238055293539 0 -0.35045174428906722 0.28677843618767362 0 -0.35285886900803182 0.29452238055293539 0 -0.34622635383862083 0.29383585221412489 0 -0.35045174428906722 0.28677843618767362 0 -0.34622635383862083 0.29383585221412489 0 -0.35045174428906722 0.28677843618767362 0 -0.34088660642111013 0.2879281286912172 0 -0.34490227433735798 0.27909378963084902 0 -0.35045174428906722 0.28677843618767362 0 -0.34088660642111013 0.2879281286912172 0 -0.34490227433735798 0.27909378963084902 0 -0.34088660642111013 0.2879281286912172 0 -0.33262910378125132 0.278293493462413 0 -0.34088660642111013 0.2879281286912172 0 -0.33227483086849752 0.29261385498347509 0 -0.33932813284697128 0.29730713825443927 0 -0.34622635383862083 0.29383585221412489 0 -0.34088660642111013 0.2879281286912172 0 -0.33932813284697128 0.29730713825443927 0 -0.33227483086849752 0.29261385498347509 0 -0.32398535199451511 0.28524421774589648 0 -0.33262910378125132 0.278293493462413 0 -0.34088660642111013 0.2879281286912172 0 -0.33227483086849752 0.29261385498347509 0 -0.33262910378125132 0.278293493462413 0 -0.33718535734333338 0.30882123026638569 0 -0.34268428286429659 0.31215346041211978 0 -0.33477104767585758 0.31524888829805342 0 -0.33718535734333338 0.30882123026638569 0 -0.34268428286429659 0.31215346041211978 0 -0.33997231501418312 0.30473657218964828 0 -0.34514961405368982 0.30758965292055213 0 -0.34268428286429659 0.31215346041211978 0 -0.33997231501418312 0.30473657218964828 0 -0.33718535734333338 0.30882123026638569 0 -0.33997231501418312 0.30473657218964828 0 -0.33396296217470239 0.30554582684384218 0 -0.33997231501418312 0.30473657218964828 0 -0.33932813284697128 0.29730713825443927 0 -0.33396296217470239 0.30554582684384218 0 -0.34780240298166087 0.30288468022079579 0 -0.33997231501418312 0.30473657218964828 0 -0.33932813284697128 0.29730713825443927 0 -0.33227483086849752 0.29261385498347509 0 -0.33396296217470239 0.30554582684384218 0 -0.32251037119006698 0.3031431883822347 0 -0.33227483086849752 0.29261385498347509 0 -0.33932813284697128 0.29730713825443927 0 -0.33396296217470239 0.30554582684384218 0 -0.33718535734333338 0.30882123026638569 0 -0.33396296217470239 0.30554582684384218 0 -0.33477104767585758 0.31524888829805342 0 -0.33396296217470239 0.30554582684384218 0 -0.32251037119006698 0.3031431883822347 0 -0.33219148171911272 0.31730370811833031 0 -0.32251037119006698 0.3031431883822347 0 -0.31456388983813333 0.31636814557902659 0 -0.33219148171911272 0.31730370811833031 0 -0.32251037119006698 0.3031431883822347 0 -0.31282926066102218 0.28898266864613842 0 -0.30402337591517081 0.3051012194244167 0 -0.32251037119006698 0.3031431883822347 0 -0.30402337591517081 0.3051012194244167 0 -0.31456388983813333 0.31636814557902659 0 -0.32251037119006698 0.3031431883822347 0 -0.33219148171911272 0.31730370811833031 0 -0.33227483086849752 0.29261385498347509 0 -0.32251037119006698 0.3031431883822347 0 -0.32398535199451511 0.28524421774589648 0 -0.32251037119006698 0.3031431883822347 0 -0.32398535199451511 0.28524421774589648 0 -0.31282926066102218 0.28898266864613842 0 -0.32251037119006698 0.3031431883822347 0 -0.31282926066102218 0.28898266864613842 0 -0.31282926066102218 0.28898266864613842 0 -0.32065101258715689 0.274665503564473 0 -0.32398535199451511 0.28524421774589648 0 -0.31282926066102218 0.28898266864613842 0 -0.32065101258715689 0.274665503564473 0 -0.32065101258715689 0.274665503564473 0 -0.32847276451329022 0.26034833848280681 0 -0.31199410965335322 0.26463258327439948 0 -0.32065101258715689 0.274665503564473 0 -0.33262910378125132 0.278293493462413 0 -0.32847276451329022 0.26034833848280681 0 -0.31282926066102218 0.28898266864613842 0 -0.32065101258715689 0.274665503564473 0 -0.30403346053568642 0.27611708872161922 0 -0.32065101258715689 0.274665503564473 0 -0.32847276451329022 0.26034833848280681 0 -0.32398535199451511 0.28524421774589648 0 -0.32065101258715689 0.274665503564473 0 -0.33262910378125132 0.278293493462413 0 -0.33262910378125132 0.278293493462413 0 -0.33869287199199061 0.26734508287274228 0 -0.32847276451329022 0.26034833848280681 0 -0.34490227433735798 0.27909378963084902 0 -0.34728570068091402 0.2661688508290645 0 -0.33869287199199061 0.26734508287274228 0 -0.34490227433735798 0.27909378963084902 0 -0.33262910378125132 0.278293493462413 0 -0.33869287199199061 0.26734508287274228 0 -0.33845336435013867 0.242079554605789 0 -0.34150965816976359 0.25817059719828012 0 -0.32847276451329022 0.26034833848280681 0 -0.33845336435013867 0.242079554605789 0 -0.32847276451329022 0.26034833848280681 0 -0.34728570068091402 0.2661688508290645 0 -0.33869287199199061 0.26734508287274228 0 -0.34150965816976359 0.25817059719828012 0 -0.33869287199199061 0.26734508287274228 0 -0.34150965816976359 0.25817059719828012 0 -0.32847276451329022 0.26034833848280681 0 -0.33869287199199061 0.26734508287274228 0 -0.32847276451329022 0.26034833848280681 0 -0.311575650220281 0.24878047680599949 0 -0.32847276451329022 0.26034833848280681 0 -0.311575650220281 0.24878047680599949 0 -0.32847276451329022 0.26034833848280681 0 -0.31199410965335322 0.26463258327439948 0 -0.32455092720978362 0.24357057421839101 0 -0.311575650220281 0.24878047680599949 0 -0.32847276451329022 0.26034833848280681 0 -0.311575650220281 0.24878047680599949 0 -0.31199410965335322 0.26463258327439948 0 -0.29523766041035199 0.26325150879709891 0 -0.30403346053568642 0.27611708872161922 0 -0.29523766041035199 0.26325150879709891 0 -0.29574151564778611 0.28671646758259889 0 -0.31199410965335322 0.26463258327439948 0 -0.30403346053568642 0.27611708872161922 0 -0.29523766041035199 0.26325150879709891 0 -0.32065101258715689 0.274665503564473 0 -0.31199410965335322 0.26463258327439948 0 -0.30403346053568642 0.27611708872161922 0 -0.30403346053568642 0.27611708872161922 0 -0.29523766041035199 0.26325150879709891 0 -0.28985028671148488 0.25537141990030859 0 -0.26863301980023729 0.26794771562718522 0 -0.28534189936007232 0.28197220440765719 0 -0.29523766041035199 0.26325150879709891 0 -0.29574151564778611 0.28671646758259889 0 -0.29523766041035199 0.26325150879709891 0 -0.29574151564778611 0.28671646758259889 0 -0.28534189936007232 0.28197220440765719 0 -0.28985028671148488 0.25537141990030859 0 -0.29523766041035199 0.26325150879709891 0 -0.28534189936007232 0.28197220440765719 0 -0.28985028671148488 0.25537141990030859 0 -0.28534189936007232 0.28197220440765719 0 -0.29467853592727078 0.23721261512919359 0 -0.29523766041035199 0.26325150879709891 0 -0.29467853592727078 0.23721261512919359 0 -0.28985028671148488 0.25537141990030859 0 -0.29523766041035199 0.26325150879709891 0 -0.28985028671148488 0.25537141990030859 0 -0.29523766041035199 0.26325150879709891 0 -0.28985028671148488 0.25537141990030859 0 -0.2724296921133022 0.25217156250687062 0 -0.26863301980023729 0.26794771562718522 0 -0.2724296921133022 0.25217156250687062 0 -0.26863301980023729 0.26794771562718522 0 -0.25693865295534157 0.25278860643768353 0 -0.26863301980023729 0.26794771562718522 0 -0.26277913973510902 0.29023342414179659 0 -0.28534189936007232 0.28197220440765719 0 -0.26277913973510902 0.29023342414179659 0 -0.2447247674615598 0.2718938593685879 0 -0.26863301980023729 0.26794771562718522 0 -0.26277913973510902 0.29023342414179659 0 -0.2447247674615598 0.2718938593685879 0 -0.26863301980023729 0.26794771562718522 0 -0.25693865295534157 0.25278860643768353 0 -0.2447247674615598 0.2718938593685879 0 -0.26277913973510902 0.29023342414179659 0 -0.25757488899104952 0.31786411623381933 0 -0.2366570207200871 0.30010935915934539 0 -0.26277913973510902 0.29023342414179659 0 -0.28083351200865853 0.30857298891500562 0 -0.28534189936007232 0.28197220440765719 0 -0.26277913973510902 0.29023342414179659 0 -0.28083351200865853 0.30857298891500562 0 -0.26277913973510902 0.29023342414179659 0 -0.28083351200865853 0.30857298891500562 0 -0.25757488899104952 0.31786411623381933 0 -0.28083351200865853 0.30857298891500562 0 -0.29574151564778611 0.28671646758259889 0 -0.30402337591517081 0.3051012194244167 0 -0.28083351200865853 0.30857298891500562 0 -0.29574151564778611 0.28671646758259889 0 -0.28534189936007232 0.28197220440765719 0 -0.28083351200865853 0.30857298891500562 0 -0.28534189936007232 0.28197220440765719 0 -0.31282926066102218 0.28898266864613842 0 -0.29574151564778611 0.28671646758259889 0 -0.30402337591517081 0.3051012194244167 0 -0.31282926066102218 0.28898266864613842 0 -0.30403346053568642 0.27611708872161922 0 -0.29574151564778611 0.28671646758259889 0 -0.31282926066102218 0.28898266864613842 0 -0.30403346053568642 0.27611708872161922 0 -0.31282926066102218 0.28898266864613842 0 -0.30402337591517081 0.3051012194244167 0 -0.30402337591517081 0.3051012194244167 0 -0.29932851783868691 0.32736014762988469 0 -0.31456388983813333 0.31636814557902659 0 -0.29932851783868691 0.32736014762988469 0 -0.31400963374603508 0.33178692824556621 0 -0.31456388983813333 0.31636814557902659 0 -0.29582778577295937 0.3462701483728044 0 -0.31354931950312093 0.34747342072874071 0 -0.31400963374603508 0.33178692824556621 0 -0.29582778577295937 0.3462701483728044 0 -0.31400963374603508 0.33178692824556621 0 -0.29932851783868691 0.32736014762988469 0 -0.29582778577295937 0.3462701483728044 0 -0.31400963374603508 0.33178692824556621 0 -0.29932851783868691 0.32736014762988469 0 -0.27670802547122531 0.33291454828341721 0 -0.29582778577295937 0.3462701483728044 0 -0.27670802547122531 0.33291454828341721 0 -0.29582778577295937 0.3462701483728044 0 -0.28186865011063378 0.34863084123191301 0 -0.28083351200865853 0.30857298891500562 0 -0.30402337591517081 0.3051012194244167 0 -0.29932851783868691 0.32736014762988469 0 -0.28083351200865853 0.30857298891500562 0 -0.29932851783868691 0.32736014762988469 0 -0.28083351200865853 0.30857298891500562 0 -0.29932851783868691 0.32736014762988469 0 -0.27670802547122531 0.33291454828341721 0 -0.28083351200865853 0.30857298891500562 0 -0.27670802547122531 0.33291454828341721 0 -0.25757488899104952 0.31786411623381933 0 -0.28083351200865853 0.30857298891500562 0 -0.27670802547122531 0.33291454828341721 0 -0.27670802547122531 0.33291454828341721 0 -0.25757488899104952 0.31786411623381933 0 -0.25368472498167011 0.34420349485172652 0 -0.2613799420943046 0.36179346951182628 0 -0.25453646971320443 0.37462232419521813 0 -0.26689531734350652 0.36931705260985792 0 -0.2613799420943046 0.36179346951182628 0 -0.25453646971320443 0.37462232419521813 0 -0.24822911175635759 0.36217347122335058 0 -0.25368472498167011 0.34420349485172652 0 -0.27258253893379292 0.35725610765182902 0 -0.2613799420943046 0.36179346951182628 0 -0.25368472498167011 0.34420349485172652 0 -0.24822911175635759 0.36217347122335058 0 -0.2613799420943046 0.36179346951182628 0 -0.25368472498167011 0.34420349485172652 0 -0.27258253893379292 0.35725610765182902 0 -0.27670802547122531 0.33291454828341721 0 -0.27258253893379292 0.35725610765182902 0 -0.27670802547122531 0.33291454828341721 0 -0.27258253893379292 0.35725610765182902 0 -0.28186865011063378 0.34863084123191301 0 -0.27670802547122531 0.33291454828341721 0 -0.25368472498167011 0.34420349485172652 0 -0.27258253893379292 0.35725610765182902 0 -0.27258253893379292 0.35725610765182902 0 -0.27764593779988228 0.36075336850004069 0 -0.28186865011063378 0.34863084123191301 0 -0.27258253893379292 0.35725610765182902 0 -0.27764593779988228 0.36075336850004069 0 -0.27764593779988228 0.36075336850004069 0 -0.27110701654299552 0.36596211494311248 0 -0.28943519450698252 0.3688961411714532 0 -0.27110701654299552 0.36596211494311248 0 -0.28943519450698252 0.3688961411714532 0 -0.27110701654299552 0.36596211494311248 0 -0.28943519450698252 0.3688961411714532 0 -0.28084635904778937 0.37544065550995409 0 -0.27258253893379292 0.35725610765182902 0 -0.27764593779988228 0.36075336850004069 0 -0.27110701654299552 0.36596211494311248 0 -0.27764593779988228 0.36075336850004069 0 -0.27110701654299552 0.36596211494311248 0 -0.2613799420943046 0.36179346951182628 0 -0.27258253893379292 0.35725610765182902 0 -0.27110701654299552 0.36596211494311248 0 -0.2613799420943046 0.36179346951182628 0 -0.27110701654299552 0.36596211494311248 0 -0.26689531734350652 0.36931705260985792 0 -0.27258253893379292 0.35725610765182902 0 -0.27110701654299552 0.36596211494311248 0 -0.27110701654299552 0.36596211494311248 0 -0.26689531734350652 0.36931705260985792 0 -0.27110701654299552 0.36596211494311248 0 -0.28084635904778937 0.37544065550995409 0 -0.27663284499009211 0.37939207802828528 0 -0.28943519450698252 0.3688961411714532 0 -0.28685204816290072 0.37621819500323123 0 -0.28084635904778937 0.37544065550995409 0 -0.27764593779988228 0.36075336850004069 0 -0.28943519450698252 0.3688961411714532 0 -0.29551252006441958 0.37309371542857861 0 -0.28943519450698252 0.3688961411714532 0 -0.28685204816290072 0.37621819500323123 0 -0.29551252006441958 0.37309371542857861 0 -0.28943519450698252 0.3688961411714532 0 -0.27764593779988228 0.36075336850004069 0 -0.29582778577295937 0.3462701483728044 0 -0.27764593779988228 0.36075336850004069 0 -0.29582778577295937 0.3462701483728044 0 -0.28186865011063378 0.34863084123191301 0 -0.28943519450698252 0.3688961411714532 0 -0.29582778577295937 0.3462701483728044 0 -0.30300283950081008 0.36051339397403093 0 -0.27764593779988228 0.36075336850004069 0 -0.28943519450698252 0.3688961411714532 0 -0.29582778577295937 0.3462701483728044 0 -0.29582778577295937 0.3462701483728044 0 -0.30300283950081008 0.36051339397403093 0 -0.31354931950312093 0.34747342072874071 0 -0.28943519450698252 0.3688961411714532 0 -0.31408843612631249 0.37197903781600761 0 -0.28943519450698252 0.3688961411714532 0 -0.30300283950081008 0.36051339397403093 0 -0.31408843612631249 0.37197903781600761 0 -0.29551252006441958 0.37309371542857861 0 -0.28943519450698252 0.3688961411714532 0 -0.31408843612631249 0.37197903781600761 0 -0.30300283950081008 0.36051339397403093 0 -0.31408843612631249 0.37197903781600761 0 -0.32472866683278162 0.35786931268145811 0 -0.31408843612631249 0.37197903781600761 0 -0.32472866683278162 0.35786931268145811 0 -0.33874167774564268 0.3750619344605613 0 -0.31408843612631249 0.37197903781600761 0 -0.33874167774564268 0.3750619344605613 0 -0.33942470910854639 0.36092010030626542 0 -0.32472866683278162 0.35786931268145811 0 -0.33874167774564268 0.3750619344605613 0 -0.33942470910854639 0.36092010030626542 0 -0.3497530714632448 0.36534695126967459 0 -0.33874167774564268 0.3750619344605613 0 -0.33815763529499693 0.35089104021064632 0 -0.32472866683278162 0.35786931268145811 0 -0.33017767166301859 0.34092732036984391 0 -0.33815763529499693 0.35089104021064632 0 -0.33017767166301859 0.34092732036984391 0 -0.34251680356524339 0.34321741671518669 0 -0.33815763529499693 0.35089104021064632 0 -0.3460879504978186 0.35511096805544279 0 -0.34556584107983002 0.34849125976349993 0 -0.33815763529499693 0.35089104021064632 0 -0.34251680356524339 0.34321741671518669 0 -0.34556584107983002 0.34849125976349993 0 -0.33942470910854639 0.36092010030626542 0 -0.33815763529499693 0.35089104021064632 0 -0.3460879504978186 0.35511096805544279 0 -0.33942470910854639 0.36092010030626542 0 -0.33815763529499693 0.35089104021064632 0 -0.32472866683278162 0.35786931268145811 0 -0.31354931950312093 0.34747342072874071 0 -0.32472866683278162 0.35786931268145811 0 -0.33017767166301859 0.34092732036984391 0 -0.30300283950081008 0.36051339397403093 0 -0.31354931950312093 0.34747342072874071 0 -0.32472866683278162 0.35786931268145811 0 -0.31400963374603508 0.33178692824556621 0 -0.33219148171911272 0.31730370811833031 0 -0.33017767166301859 0.34092732036984391 0 -0.31354931950312093 0.34747342072874071 0 -0.31400963374603508 0.33178692824556621 0 -0.33017767166301859 0.34092732036984391 0 -0.31400963374603508 0.33178692824556621 0 -0.33219148171911272 0.31730370811833031 0 -0.31400963374603508 0.33178692824556621 0 -0.31456388983813333 0.31636814557902659 0 -0.33219148171911272 0.31730370811833031 0 -0.33477104767585758 0.31524888829805342 0 -0.33219148171911272 0.31730370811833031 0 -0.34795343649956839 0.3209401758966518 0 -0.33219148171911272 0.31730370811833031 0 -0.34725440703092858 0.33933618574797492 0 -0.34795343649956839 0.3209401758966518 0 -0.33396296217470239 0.30554582684384218 0 -0.33477104767585758 0.31524888829805342 0 -0.33219148171911272 0.31730370811833031 0 -0.33477104767585758 0.31524888829805342 0 -0.33219148171911272 0.31730370811833031 0 -0.34268428286429659 0.31215346041211978 0 -0.33477104767585758 0.31524888829805342 0 -0.34795343649956839 0.3209401758966518 0 -0.33219148171911272 0.31730370811833031 0 -0.34725440703092858 0.33933618574797492 0 -0.33219148171911272 0.31730370811833031 0 -0.33017767166301859 0.34092732036984391 0 -0.34725440703092858 0.33933618574797492 0 -0.33017767166301859 0.34092732036984391 0 -0.34251680356524339 0.34321741671518669 0 -0.34725440703092858 0.33933618574797492 0 -0.34725440703092858 0.33933618574797492 0 -0.34795343649956839 0.3209401758966518 0 -0.36531193472093021 0.32454274932608829 0 -0.34251680356524339 0.34321741671518669 0 -0.35002774160894051 0.34339273059465159 0 -0.34725440703092858 0.33933618574797492 0 -0.34725440703092858 0.33933618574797492 0 -0.35848812135385522 0.33902175933596412 0 -0.36531193472093021 0.32454274932608829 0 -0.34725440703092858 0.33933618574797492 0 -0.36531193472093021 0.32454274932608829 0 -0.34251680356524339 0.34321741671518669 0 -0.34725440703092858 0.33933618574797492 0 -0.35002774160894051 0.34339273059465159 0 -0.34725440703092858 0.33933618574797492 0 -0.35002774160894051 0.34339273059465159 0 -0.35848812135385522 0.33902175933596412 0 -0.35712059876301439 0.34740413424876382 0 -0.35002774160894051 0.34339273059465159 0 -0.34725440703092858 0.33933618574797492 0 -0.35848812135385522 0.33902175933596412 0 -0.34795343649956839 0.3209401758966518 0 -0.35774913989266272 0.31391262040183171 0 -0.36531193472093021 0.32454274932608829 0 -0.35013945535461871 0.3105838988596446 0 -0.34268428286429659 0.31215346041211978 0 -0.34795343649956839 0.3209401758966518 0 -0.35013945535461871 0.3105838988596446 0 -0.34795343649956839 0.3209401758966518 0 -0.35774913989266272 0.31391262040183171 0 -0.38336946241093189 0.30974931290420182 0 -0.36596935852520629 0.30787018431111951 0 -0.36531193472093021 0.32454274932608829 0 -0.36596935852520629 0.30787018431111951 0 -0.35774913989266272 0.31391262040183171 0 -0.36531193472093021 0.32454274932608829 0 -0.37580907906339922 0.33647878059299557 0 -0.38201615891261242 0.31564575533693578 0 -0.36531193472093021 0.32454274932608829 0 -0.38336946241093189 0.30974931290420182 0 -0.36531193472093021 0.32454274932608829 0 -0.35848812135385522 0.33902175933596412 0 -0.36629538785756799 0.33494858662202331 0 -0.36491865814174967 0.34450616947628299 0 -0.35848812135385522 0.33902175933596412 0 -0.36491865814174967 0.34450616947628299 0 -0.35712059876301439 0.34740413424876382 0 -0.35848812135385522 0.33902175933596412 0 -0.36531193472093021 0.32454274932608829 0 -0.36629538785756799 0.33494858662202331 0 -0.37580907906339922 0.33647878059299557 0 -0.36531193472093021 0.32454274932608829 0 -0.36629538785756799 0.33494858662202331 0 -0.37580907906339922 0.33647878059299557 0 -0.36629538785756799 0.33494858662202331 0 -0.36491865814174967 0.34450616947628299 0 -0.37580907906339922 0.33647878059299557 0 -0.36491865814174967 0.34450616947628299 0 -0.36960199921418602 0.35731180584905542 0 -0.37580907906339922 0.33647878059299557 0 -0.36960199921418602 0.35731180584905542 0 -0.36491865814174967 0.34450616947628299 0 -0.36204010283369881 0.35293053614415609 0 -0.35712059876301439 0.34740413424876382 0 -0.36491865814174967 0.34450616947628299 0 -0.36204010283369881 0.35293053614415609 0 -0.36960199921418602 0.35731180584905542 0 -0.36231373349064938 0.3583368008115923 0 -0.36204010283369881 0.35293053614415609 0 -0.35577634304253192 0.35617190760009498 0 -0.36231373349064938 0.3583368008115923 0 -0.36204010283369881 0.35293053614415609 0 -0.36960199921418602 0.35731180584905542 0 -0.36960199921418602 0.35731180584905542 0 -0.36339491936497281 0.37814483110511521 0 -0.36960199921418602 0.35731180584905542 0 -0.37158620997362618 0.36500042586936587 0 -0.36339491936497281 0.37814483110511521 0 -0.36960199921418602 0.35731180584905542 0 -0.36108579844600058 0.36545797327707619 0 -0.36339491936497281 0.37814483110511521 0 -0.38141148745950948 0.38039780936179463 0 -0.37158620997362618 0.36500042586936587 0 -0.36339491936497281 0.37814483110511521 0 -0.38070440212728118 0.35956436367519867 0 -0.36960199921418602 0.35731180584905542 0 -0.37158620997362618 0.36500042586936587 0 -0.36231373349064938 0.3583368008115923 0 -0.36108579844600058 0.36545797327707619 0 -0.35577634304253192 0.35617190760009498 0 -0.36231373349064938 0.3583368008115923 0 -0.36960199921418602 0.35731180584905542 0 -0.36108579844600058 0.36545797327707619 0 -0.36108579844600058 0.36545797327707619 0 -0.3497530714632448 0.36534695126967459 0 -0.35577634304253192 0.35617190760009498 0 -0.3497530714632448 0.36534695126967459 0 -0.36339491936497281 0.37814483110511521 0 -0.33874167774564268 0.3750619344605613 0 -0.36108579844600058 0.36545797327707619 0 -0.3497530714632448 0.36534695126967459 0 -0.36339491936497281 0.37814483110511521 0 -0.33942470910854639 0.36092010030626542 0 -0.3497530714632448 0.36534695126967459 0 -0.3460879504978186 0.35511096805544279 0 -0.3497530714632448 0.36534695126967459 0 -0.3460879504978186 0.35511096805544279 0 -0.35577634304253192 0.35617190760009498 0 -0.3460879504978186 0.35511096805544279 0 -0.35103907443215082 0.34984414324157243 0 -0.35577634304253192 0.35617190760009498 0 -0.3460879504978186 0.35511096805544279 0 -0.34556584107983002 0.34849125976349993 0 -0.35103907443215082 0.34984414324157243 0 -0.34251680356524339 0.34321741671518669 0 -0.35002774160894051 0.34339273059465159 0 -0.34556584107983002 0.34849125976349993 0 -0.35002774160894051 0.34339273059465159 0 -0.34556584107983002 0.34849125976349993 0 -0.35103907443215082 0.34984414324157243 0 -0.35103907443215082 0.34984414324157243 0 -0.35712059876301439 0.34740413424876382 0 -0.35577634304253192 0.35617190760009498 0 -0.35002774160894051 0.34339273059465159 0 -0.35103907443215082 0.34984414324157243 0 -0.35712059876301439 0.34740413424876382 0 -0.36204010283369881 0.35293053614415609 0 -0.35712059876301439 0.34740413424876382 0 -0.35577634304253192 0.35617190760009498 0 -0.35746143571760969 0.39805957647408341 0 -0.33700984602307921 0.4055687403903776 0 -0.35746143571760969 0.39805957647408341 0 -0.36339491936497281 0.37814483110511521 0 -0.33874167774564268 0.3750619344605613 0 -0.36339491936497281 0.37814483110511521 0 -0.33874167774564268 0.3750619344605613 0 -0.38141148745950948 0.38039780936179463 0 -0.37844474563582792 0.390355182046278 0 -0.36339491936497281 0.37814483110511521 0 -0.37844474563582792 0.390355182046278 0 -0.35746143571760969 0.39805957647408341 0 -0.36339491936497281 0.37814483110511521 0 -0.35746143571760969 0.39805957647408341 0 -0.36339491936497281 0.37814483110511521 0 -0.38141148745950948 0.38039780936179463 0 -0.36339491936497281 0.37814483110511521 0 -0.37668454372729859 0.41206883315114529 0 -0.37844474563582792 0.390355182046278 0 -0.35746143571760969 0.39805957647408341 0 -0.37844474563582792 0.390355182046278 0 -0.35746143571760969 0.39805957647408341 0 -0.37668454372729859 0.41206883315114529 0 -0.36778315087773072 0.43214877602771662 0 -0.35179051953527918 0.41709305806631919 0 -0.37668454372729859 0.41206883315114529 0 -0.35746143571760969 0.39805957647408341 0 -0.35179051953527918 0.41709305806631919 0 -0.37668454372729859 0.41206883315114529 0 -0.35179051953527918 0.41709305806631919 0 -0.36778315087773072 0.43214877602771662 0 -0.35179051953527918 0.41709305806631919 0 -0.34355933144160938 0.44471966407244162 0 -0.35179051953527918 0.41709305806631919 0 -0.34355933144160938 0.44471966407244162 0 -0.35746143571760969 0.39805957647408341 0 -0.35179051953527918 0.41709305806631919 0 -0.33700984602307921 0.4055687403903776 0 -0.35746143571760969 0.39805957647408341 0 -0.35179051953527918 0.41709305806631919 0 -0.35179051953527918 0.41709305806631919 0 -0.33092261172728182 0.42130471390500562 0 -0.33700984602307921 0.4055687403903776 0 -0.35179051953527918 0.41709305806631919 0 -0.33092261172728182 0.42130471390500562 0 -0.33092261172728182 0.42130471390500562 0 -0.31655825632854873 0.41307790430667191 0 -0.33700984602307921 0.4055687403903776 0 -0.35179051953527918 0.41709305806631919 0 -0.33092261172728182 0.42130471390500562 0 -0.34355933144160938 0.44471966407244162 0 -0.33092261172728182 0.42130471390500562 0 -0.32304151796324199 0.43794530689545591 0 -0.34355933144160938 0.44471966407244162 0 -0.33092261172728182 0.42130471390500562 0 -0.31005470391928353 0.42551636974368717 0 -0.32304151796324199 0.43794530689545591 0 -0.33092261172728182 0.42130471390500562 0 -0.31005470391928353 0.42551636974368717 0 -0.31005470391928353 0.42551636974368717 0 -0.30636015846579262 0.44081646755455739 0 -0.32304151796324199 0.43794530689545591 0 -0.31655825632854873 0.41307790430667191 0 -0.32178824989383492 0.40044082628072353 0 -0.33700984602307921 0.4055687403903776 0 -0.33092261172728182 0.42130471390500562 0 -0.31655825632854873 0.41307790430667191 0 -0.31005470391928353 0.42551636974368717 0 -0.31655825632854873 0.41307790430667191 0 -0.33700984602307921 0.4055687403903776 0 -0.31655825632854873 0.41307790430667191 0 -0.32178824989383492 0.40044082628072353 0 -0.30820761894760612 0.40180007281058999 0 -0.31589124725359768 0.39098578459502642 0 -0.32178824989383492 0.40044082628072353 0 -0.30820761894760612 0.40180007281058999 0 -0.31589124725359768 0.39098578459502642 0 -0.32178824989383492 0.40044082628072353 0 -0.33127428091634248 0.39077162930095188 0 -0.35746143571760969 0.39805957647408341 0 -0.33127428091634248 0.39077162930095188 0 -0.33700984602307921 0.4055687403903776 0 -0.32178824989383492 0.40044082628072353 0 -0.33127428091634248 0.39077162930095188 0 -0.33700984602307921 0.4055687403903776 0 -0.35746143571760969 0.39805957647408341 0 -0.33127428091634248 0.39077162930095188 0 -0.33874167774564268 0.3750619344605613 0 -0.31408843612631249 0.37197903781600761 0 -0.33127428091634248 0.39077162930095188 0 -0.33874167774564268 0.3750619344605613 0 -0.31408843612631249 0.37197903781600761 0 -0.31589124725359768 0.39098578459502642 0 -0.33127428091634248 0.39077162930095188 0 -0.29551252006441958 0.37309371542857861 0 -0.31408843612631249 0.37197903781600761 0 -0.30568017353146049 0.38157918508743732 0 -0.31408843612631249 0.37197903781600761 0 -0.31589124725359768 0.39098578459502642 0 -0.30568017353146049 0.38157918508743732 0 -0.31589124725359768 0.39098578459502642 0 -0.30568017353146049 0.38157918508743732 0 -0.30603649680964828 0.39194203915736708 0 -0.30568017353146049 0.38157918508743732 0 -0.29743858983336929 0.38628170497916159 0 -0.30603649680964828 0.39194203915736708 0 -0.29551252006441958 0.37309371542857861 0 -0.30568017353146049 0.38157918508743732 0 -0.29743858983336929 0.38628170497916159 0 -0.31589124725359768 0.39098578459502642 0 -0.30820761894760612 0.40180007281058999 0 -0.30603649680964828 0.39194203915736708 0 -0.30820761894760612 0.40180007281058999 0 -0.30603649680964828 0.39194203915736708 0 -0.29604813782321171 0.40003827384795049 0 -0.29743858983336929 0.38628170497916159 0 -0.30603649680964828 0.39194203915736708 0 -0.29604813782321171 0.40003827384795049 0 -0.30820761894760612 0.40180007281058999 0 -0.29604813782321171 0.40003827384795049 0 -0.2987408814332651 0.40933989620534528 0 -0.29604813782321171 0.40003827384795049 0 -0.28905057763704689 0.40562835892549581 0 -0.28392778011776681 0.39892722844600809 0 -0.29604813782321171 0.40003827384795049 0 -0.28905057763704689 0.40562835892549581 0 -0.2987408814332651 0.40933989620534528 0 -0.29604813782321171 0.40003827384795049 0 -0.28980128107673031 0.39400368344191522 0 -0.28392778011776681 0.39892722844600809 0 -0.29743858983336929 0.38628170497916159 0 -0.29604813782321171 0.40003827384795049 0 -0.28980128107673031 0.39400368344191522 0 -0.28980128107673031 0.39400368344191522 0 -0.28179061653257348 0.3907675264945405 0 -0.28392778011776681 0.39892722844600809 0 -0.28905057763704689 0.40562835892549581 0 -0.28392778011776681 0.39892722844600809 0 -0.27817781655911977 0.40726136879628272 0 -0.29743858983336929 0.38628170497916159 0 -0.28980128107673031 0.39400368344191522 0 -0.28179061653257348 0.3907675264945405 0 -0.29743858983336929 0.38628170497916159 0 -0.28179061653257348 0.3907675264945405 0 -0.28819376848868639 0.38228739672622841 0 -0.29743858983336929 0.38628170497916159 0 -0.28179061653257348 0.3907675264945405 0 -0.29551252006441958 0.37309371542857861 0 -0.29743858983336929 0.38628170497916159 0 -0.28819376848868639 0.38228739672622841 0 -0.29551252006441958 0.37309371542857861 0 -0.28819376848868639 0.38228739672622841 0 -0.28685204816290072 0.37621819500323123 0 -0.28179061653257348 0.3907675264945405 0 -0.28158428542699082 0.38279668863870758 0 -0.28819376848868639 0.38228739672622841 0 -0.28158428542699082 0.38279668863870758 0 -0.28819376848868639 0.38228739672622841 0 -0.28685204816290072 0.37621819500323123 0 -0.28158428542699082 0.38279668863870758 0 -0.28685204816290072 0.37621819500323123 0 -0.28084635904778937 0.37544065550995409 0 -0.27110701654299552 0.36596211494311248 0 -0.26614264323177789 0.39525334800991979 0 -0.27110701654299552 0.36596211494311248 0 -0.27663284499009211 0.37939207802828528 0 -0.27229768174870289 0.38438446135480281 0 -0.27110701654299552 0.36596211494311248 0 -0.27229768174870289 0.38438446135480281 0 -0.26614264323177789 0.39525334800991979 0 -0.27110701654299552 0.36596211494311248 0 -0.26689531734350652 0.36931705260985792 0 -0.26614264323177789 0.39525334800991979 0 -0.28158428542699082 0.38279668863870758 0 -0.28084635904778937 0.37544065550995409 0 -0.27663284499009211 0.37939207802828528 0 -0.27229768174870289 0.38438446135480281 0 -0.27641046434025379 0.38710393959788297 0 -0.26614264323177789 0.39525334800991979 0 -0.28179061653257348 0.3907675264945405 0 -0.28158428542699082 0.38279668863870758 0 -0.27641046434025379 0.38710393959788297 0 -0.27663284499009211 0.37939207802828528 0 -0.27229768174870289 0.38438446135480281 0 -0.27641046434025379 0.38710393959788297 0 -0.28158428542699082 0.38279668863870758 0 -0.27663284499009211 0.37939207802828528 0 -0.27641046434025379 0.38710393959788297 0 -0.28179061653257348 0.3907675264945405 0 -0.27641046434025379 0.38710393959788297 0 -0.26614264323177789 0.39525334800991979 0 -0.28179061653257348 0.3907675264945405 0 -0.27661435207820328 0.39472461325581981 0 -0.26614264323177789 0.39525334800991979 0 -0.28179061653257348 0.3907675264945405 0 -0.28392778011776681 0.39892722844600809 0 -0.27661435207820328 0.39472461325581981 0 -0.28179061653257348 0.3907675264945405 0 -0.26614264323177789 0.39525334800991979 0 -0.28392778011776681 0.39892722844600809 0 -0.27661435207820328 0.39472461325581981 0 -0.27572094251528112 0.40196054452149499 0 -0.28392778011776681 0.39892722844600809 0 -0.27572094251528112 0.40196054452149499 0 -0.27817781655911977 0.40726136879628272 0 -0.27572094251528112 0.40196054452149499 0 -0.26416382130603389 0.40692896758786917 0 -0.27817781655911977 0.40726136879628272 0 -0.27661435207820328 0.39472461325581981 0 -0.27572094251528112 0.40196054452149499 0 -0.26416382130603389 0.40692896758786917 0 -0.27661435207820328 0.39472461325581981 0 -0.26614264323177789 0.39525334800991979 0 -0.26416382130603389 0.40692896758786917 0 -0.27661435207820328 0.39472461325581981 0 -0.26416382130603389 0.40692896758786917 0 -0.26614264323177789 0.39525334800991979 0 -0.24781733580734391 0.38604582424895789 0 -0.24388213391773941 0.40163479241199579 0 -0.26614264323177789 0.39525334800991979 0 -0.25157066981256843 0.40894445920752592 0 -0.24388213391773941 0.40163479241199579 0 -0.26614264323177789 0.39525334800991979 0 -0.24388213391773941 0.40163479241199579 0 -0.26614264323177789 0.39525334800991979 0 -0.26416382130603389 0.40692896758786917 0 -0.26614264323177789 0.39525334800991979 0 -0.25157066981256843 0.40894445920752592 0 -0.26416382130603389 0.40692896758786917 0 -0.25453646971320443 0.37462232419521813 0 -0.26614264323177789 0.39525334800991979 0 -0.24781733580734391 0.38604582424895789 0 -0.25453646971320443 0.37462232419521813 0 -0.26689531734350652 0.36931705260985792 0 -0.26614264323177789 0.39525334800991979 0 -0.26107936510946472 0.42512814796255138 0 -0.25799490891289278 0.4433273283372331 0 -0.26107936510946472 0.42512814796255138 0 -0.27138668263498972 0.43431468825499642 0 -0.25799490891289278 0.4433273283372331 0 -0.26107936510946472 0.42512814796255138 0 -0.25799490891289278 0.4433273283372331 0 -0.24263019791012411 0.42803682032005991 0 -0.25799490891289278 0.4433273283372331 0 -0.24263019791012411 0.42803682032005991 0 -0.26107936510946472 0.42512814796255138 0 -0.26416382130603389 0.40692896758786917 0 -0.26107936510946472 0.42512814796255138 0 -0.26416382130603389 0.40692896758786917 0 -0.24263019791012411 0.42803682032005991 0 -0.26416382130603389 0.40692896758786917 0 -0.24263019791012411 0.42803682032005991 0 -0.25157066981256843 0.40894445920752592 0 -0.26416382130603389 0.40692896758786917 0 -0.24263019791012411 0.42803682032005991 0 -0.26107936510946472 0.42512814796255138 0 -0.26416382130603389 0.40692896758786917 0 -0.27370875903762831 0.41905129137381081 0 -0.26416382130603389 0.40692896758786917 0 -0.27817781655911977 0.40726136879628272 0 -0.27370875903762831 0.41905129137381081 0 -0.27817781655911977 0.40726136879628272 0 -0.27370875903762831 0.41905129137381081 0 -0.28647403122915938 0.41490769911839809 0 -0.27370875903762831 0.41905129137381081 0 -0.27138668263498972 0.43431468825499642 0 -0.28359142860916292 0.42646623900898489 0 -0.26107936510946472 0.42512814796255138 0 -0.27370875903762831 0.41905129137381081 0 -0.27138668263498972 0.43431468825499642 0 -0.27138668263498972 0.43431468825499642 0 -0.28359142860916292 0.42646623900898489 0 -0.28426041238301858 0.43930471826406531 0 -0.28359142860916292 0.42646623900898489 0 -0.29576073289665422 0.43347565529899762 0 -0.28426041238301858 0.43930471826406531 0 -0.28359142860916292 0.42646623900898489 0 -0.29576073289665422 0.43347565529899762 0 -0.29610666663401819 0.4205870682229661 0 -0.28905057763704689 0.40562835892549581 0 -0.27817781655911977 0.40726136879628272 0 -0.28647403122915938 0.41490769911839809 0 -0.27370875903762831 0.41905129137381081 0 -0.28359142860916292 0.42646623900898489 0 -0.28647403122915938 0.41490769911839809 0 -0.28359142860916292 0.42646623900898489 0 -0.28647403122915938 0.41490769911839809 0 -0.29610666663401819 0.4205870682229661 0 -0.28647403122915938 0.41490769911839809 0 -0.29610666663401819 0.4205870682229661 0 -0.2987408814332651 0.40933989620534528 0 -0.28905057763704689 0.40562835892549581 0 -0.28647403122915938 0.41490769911839809 0 -0.2987408814332651 0.40933989620534528 0 -0.31655825632854873 0.41307790430667191 0 -0.29610666663401819 0.4205870682229661 0 -0.2987408814332651 0.40933989620534528 0 -0.31655825632854873 0.41307790430667191 0 -0.29610666663401819 0.4205870682229661 0 -0.31005470391928353 0.42551636974368717 0 -0.31655825632854873 0.41307790430667191 0 -0.29610666663401819 0.4205870682229661 0 -0.31655825632854873 0.41307790430667191 0 -0.30820761894760612 0.40180007281058999 0 -0.2987408814332651 0.40933989620534528 0 -0.29576073289665422 0.43347565529899762 0 -0.31005470391928353 0.42551636974368717 0 -0.30636015846579262 0.44081646755455739 0 -0.29576073289665422 0.43347565529899762 0 -0.29610666663401819 0.4205870682229661 0 -0.31005470391928353 0.42551636974368717 0 -0.29576073289665422 0.43347565529899762 0 -0.30636015846579262 0.44081646755455739 0 -0.2944743431310044 0.45228094752776682 0 -0.30636015846579262 0.44081646755455739 0 -0.30512100021830008 0.46490456032657962 0 -0.30636015846579262 0.44081646755455739 0 -0.30512100021830008 0.46490456032657962 0 -0.2944743431310044 0.45228094752776682 0 -0.30636015846579262 0.44081646755455739 0 -0.30512100021830008 0.46490456032657962 0 -0.32381548421637429 0.45642326981327008 0 -0.30512100021830008 0.46490456032657962 0 -0.2944743431310044 0.45228094752776682 0 -0.28858619761816889 0.47377087817814589 0 -0.2944743431310044 0.45228094752776682 0 -0.27329055326553048 0.45854910325768988 0 -0.28858619761816889 0.47377087817814589 0 -0.2944743431310044 0.45228094752776682 0 -0.28426041238301858 0.43930471826406531 0 -0.27329055326553048 0.45854910325768988 0 -0.29576073289665422 0.43347565529899762 0 -0.2944743431310044 0.45228094752776682 0 -0.28426041238301858 0.43930471826406531 0 -0.27138668263498972 0.43431468825499642 0 -0.28426041238301858 0.43930471826406531 0 -0.27329055326553048 0.45854910325768988 0 -0.27138668263498972 0.43431468825499642 0 -0.27329055326553048 0.45854910325768988 0 -0.25799490891289278 0.4433273283372331 0 -0.27329055326553048 0.45854910325768988 0 -0.25799490891289278 0.4433273283372331 0 -0.27329055326553048 0.45854910325768988 0 -0.28858619761816889 0.47377087817814589 0 -0.27329055326553048 0.45854910325768988 0 -0.25438198006151169 0.46464464965965441 0 -0.25799490891289278 0.4433273283372331 0 -0.27329055326553048 0.45854910325768988 0 -0.25438198006151169 0.46464464965965441 0 -0.26859377699614329 0.4811575177290362 0 -0.25438198006151169 0.46464464965965441 0 -0.25799490891289278 0.4433273283372331 0 -0.25438198006151169 0.46464464965965441 0 -0.25799490891289278 0.4433273283372331 0 -0.24356894722331929 0.44821508210096461 0 -0.25080144613104921 0.5 0 -0.26859377699614329 0.4811575177290362 0 -0.2467553297522557 0.48147402383551691 0 -0.25080144613104921 0.5 0 -0.26859377699614329 0.4811575177290362 0 -0.27705851983630159 0.5 0 -0.25438198006151169 0.46464464965965441 0 -0.26859377699614329 0.4811575177290362 0 -0.2467553297522557 0.48147402383551691 0 -0.27329055326553048 0.45854910325768988 0 -0.26859377699614329 0.4811575177290362 0 -0.28858619761816889 0.47377087817814589 0 -0.26859377699614329 0.4811575177290362 0 -0.27705851983630159 0.5 0 -0.28830299895955541 0.48893487857068268 0 -0.27705851983630159 0.5 0 -0.28830299895955541 0.48893487857068268 0 -0.30331559354155391 0.49999999999999939 0 -0.26859377699614329 0.4811575177290362 0 -0.28830299895955541 0.48893487857068268 0 -0.28858619761816889 0.47377087817814589 0 -0.28830299895955541 0.48893487857068268 0 -0.28858619761816889 0.47377087817814589 0 -0.30388184197080759 0.48899265309860168 0 -0.28858619761816889 0.47377087817814589 0 -0.30388184197080759 0.48899265309860168 0 -0.30512100021830008 0.46490456032657962 0 -0.30388184197080759 0.48899265309860168 0 -0.30512100021830008 0.46490456032657962 0 -0.30388184197080759 0.48899265309860168 0 -0.31654611508668351 0.48621885406126381 0 -0.30512100021830008 0.46490456032657962 0 -0.28858619761816889 0.47377087817814589 0 -0.30388184197080759 0.48899265309860168 0 -0.30331559354155391 0.49999999999999939 0 -0.30388184197080759 0.48899265309860168 0 -0.28830299895955541 0.48893487857068268 0 -0.30331559354155391 0.49999999999999939 0 -0.30388184197080759 0.48899265309860168 0 -0.30388184197080759 0.48899265309860168 0 -0.31494260619507058 0.500000000000002 0 -0.31654611508668351 0.48621885406126381 0 -0.30331559354155391 0.49999999999999939 0 -0.30388184197080759 0.48899265309860168 0 -0.31494260619507058 0.500000000000002 0 -0.30388184197080759 0.48899265309860168 0 -0.31494260619507058 0.500000000000002 0 -0.31654611508668351 0.48621885406126381 0 -0.33275791060477139 0.5 0 -0.32602721644446891 0.47719705688113462 0 -0.31494260619507058 0.500000000000002 0 -0.31654611508668351 0.48621885406126381 0 -0.33275791060477139 0.5 0 -0.33275791060477139 0.5 0 -0.34200011506365208 0.48331572161184322 0 -0.32602721644446891 0.47719705688113462 0 -0.33275791060477139 0.5 0 -0.34200011506365208 0.48331572161184322 0 -0.35057321501447208 0.49999999999999872 0 -0.34200011506365208 0.48331572161184322 0 -0.32602721644446891 0.47719705688113462 0 -0.33593075250063148 0.46750731867274542 0 -0.34200011506365208 0.48331572161184322 0 -0.33593075250063148 0.46750731867274542 0 -0.35201810675435108 0.4676562019538536 0 -0.30512100021830008 0.46490456032657962 0 -0.31654611508668351 0.48621885406126381 0 -0.32602721644446891 0.47719705688113462 0 -0.30512100021830008 0.46490456032657962 0 -0.32602721644446891 0.47719705688113462 0 -0.32381548421637429 0.45642326981327008 0 -0.30636015846579262 0.44081646755455739 0 -0.32381548421637429 0.45642326981327008 0 -0.32304151796324199 0.43794530689545591 0 -0.32381548421637429 0.45642326981327008 0 -0.32304151796324199 0.43794530689545591 0 -0.34355933144160938 0.44471966407244162 0 -0.32381548421637429 0.45642326981327008 0 -0.34355933144160938 0.44471966407244162 0 -0.33593075250063148 0.46750731867274542 0 -0.32602721644446891 0.47719705688113462 0 -0.32381548421637429 0.45642326981327008 0 -0.33593075250063148 0.46750731867274542 0 -0.35201810675435108 0.4676562019538536 0 -0.36028404822733179 0.44939908513577981 0 -0.36566353784044697 0.46257036423753561 0 -0.34355933144160938 0.44471966407244162 0 -0.35201810675435108 0.4676562019538536 0 -0.36028404822733179 0.44939908513577981 0 -0.34355933144160938 0.44471966407244162 0 -0.33593075250063148 0.46750731867274542 0 -0.35201810675435108 0.4676562019538536 0 -0.36778315087773072 0.43214877602771662 0 -0.34355933144160938 0.44471966407244162 0 -0.36028404822733179 0.44939908513577981 0 -0.36778315087773072 0.43214877602771662 0 -0.36028404822733179 0.44939908513577981 0 -0.37376195539900242 0.45249759326054367 0 -0.37701653082709469 0.46900635458093531 0 -0.37376195539900242 0.45249759326054367 0 -0.36566353784044697 0.46257036423753561 0 -0.36028404822733179 0.44939908513577981 0 -0.37376195539900242 0.45249759326054367 0 -0.36566353784044697 0.46257036423753561 0 -0.36552159823955549 0.47691699748014749 0 -0.37220834978290879 0.49000150617251997 0 -0.35595833756876799 0.48470827593500232 0 -0.37701653082709469 0.46900635458093531 0 -0.36566353784044697 0.46257036423753561 0 -0.36552159823955549 0.47691699748014749 0 -0.37805640255927542 0.47903421333972468 0 -0.37701653082709469 0.46900635458093531 0 -0.36552159823955549 0.47691699748014749 0 -0.35201810675435108 0.4676562019538536 0 -0.36566353784044697 0.46257036423753561 0 -0.36552159823955549 0.47691699748014749 0 -0.37805640255927542 0.47903421333972468 0 -0.36552159823955549 0.47691699748014749 0 -0.37220834978290879 0.49000150617251997 0 -0.37220834978290879 0.49000150617251997 0 -0.35057321501447208 0.49999999999999872 0 -0.35595833756876799 0.48470827593500232 0 -0.37789332191386737 0.5 0 -0.37220834978290879 0.49000150617251997 0 -0.35057321501447208 0.49999999999999872 0 -0.37220834978290879 0.49000150617251997 0 -0.35057321501447208 0.49999999999999872 0 -0.34200011506365208 0.48331572161184322 0 -0.35057321501447208 0.49999999999999872 0 -0.35595833756876799 0.48470827593500232 0 -0.34200011506365208 0.48331572161184322 0 -0.35201810675435108 0.4676562019538536 0 -0.35595833756876799 0.48470827593500232 0 -0.35201810675435108 0.4676562019538536 0 -0.36552159823955549 0.47691699748014749 0 -0.35595833756876799 0.48470827593500232 0 -0.142080771754234 0.48212662116497451 0 -0.14744519938683801 0.47523243684594829 0 -0.1380962150490555 0.47248515407185221 0 -0.142080771754234 0.48212662116497451 0 -0.14744519938683801 0.47523243684594829 0 -0.15313912830386001 0.48632871978955722 0 -0.14744519938683801 0.47523243684594829 0 -0.1380962150490555 0.47248515407185221 0 -0.1446941887002707 0.46454185114692792 0 -0.14744519938683801 0.47523243684594829 0 -0.1446941887002707 0.46454185114692792 0 -0.15815775643206659 0.473198332503178 0 -0.14744519938683801 0.47523243684594829 0 -0.15313912830386001 0.48632871978955722 0 -0.15815775643206659 0.473198332503178 0 -0.142080771754234 0.48212662116497451 0 -0.15313912830386001 0.48632871978955722 0 -0.13803845513632401 0.5 0 -0.15313912830386001 0.48632871978955722 0 -0.13803845513632401 0.5 0 -0.1663114266205577 0.50000000000000011 0 -0.142080771754234 0.48212662116497451 0 -0.13803845513632401 0.5 0 -0.12908554574303099 0.47755934496718438 0 -0.13803845513632401 0.5 0 -0.12908554574303099 0.47755934496718438 0 -0.1160402402672886 0.48503019582547341 0 -0.142080771754234 0.48212662116497451 0 -0.12908554574303099 0.47755934496718438 0 -0.1380962150490555 0.47248515407185221 0 -0.12908554574303099 0.47755934496718438 0 -0.1380962150490555 0.47248515407185221 0 -0.13097929143795109 0.46459511115351071 0 -0.12908554574303099 0.47755934496718438 0 -0.13097929143795109 0.46459511115351071 0 -0.1176294132596279 0.46872710166108278 0 -0.13097929143795109 0.46459511115351071 0 -0.1351896940807357 0.45304119368279389 0 -0.1204057133641486 0.45504160574272429 0 -0.13097929143795109 0.46459511115351071 0 -0.1351896940807357 0.45304119368279389 0 -0.1446941887002707 0.46454185114692792 0 -0.1380962150490555 0.47248515407185221 0 -0.13097929143795109 0.46459511115351071 0 -0.1446941887002707 0.46454185114692792 0 -0.1351896940807357 0.45304119368279389 0 -0.13889501351409689 0.43598263237980822 0 -0.1242648033483075 0.43981492828754482 0 -0.1351896940807357 0.45304119368279389 0 -0.1242648033483075 0.43981492828754482 0 -0.1204057133641486 0.45504160574272429 0 -0.15017718620881049 0.45777983735391498 0 -0.13889501351409689 0.43598263237980822 0 -0.1351896940807357 0.45304119368279389 0 -0.15017718620881049 0.45777983735391498 0 -0.13889501351409689 0.43598263237980822 0 -0.15995177900170021 0.44572512983606088 0 -0.15376963845050121 0.4328235067909087 0 -0.13889501351409689 0.43598263237980822 0 -0.15017718620881049 0.45777983735391498 0 -0.15995177900170021 0.44572512983606088 0 -0.13889501351409689 0.43598263237980822 0 -0.15017718620881049 0.45777983735391498 0 -0.15995177900170021 0.44572512983606088 0 -0.1446941887002707 0.46454185114692792 0 -0.15017718620881049 0.45777983735391498 0 -0.1351896940807357 0.45304119368279389 0 -0.1446941887002707 0.46454185114692792 0 -0.15017718620881049 0.45777983735391498 0 -0.1446941887002707 0.46454185114692792 0 -0.15017718620881049 0.45777983735391498 0 -0.15815775643206659 0.473198332503178 0 -0.15017718620881049 0.45777983735391498 0 -0.15868634814382429 0.46531473325554851 0 -0.15815775643206659 0.473198332503178 0 -0.15017718620881049 0.45777983735391498 0 -0.15815775643206659 0.473198332503178 0 -0.160558198289461 0.46047642425523388 0 -0.1655661766345953 0.45099185016729298 0 -0.16585225164495951 0.46980433890986678 0 -0.1655661766345953 0.45099185016729298 0 -0.17867327812258871 0.46114583139567922 0 -0.16585225164495951 0.46980433890986678 0 -0.1655661766345953 0.45099185016729298 0 -0.16585225164495951 0.46980433890986678 0 -0.15868634814382429 0.46531473325554851 0 -0.160558198289461 0.46047642425523388 0 -0.16585225164495951 0.46980433890986678 0 -0.15017718620881049 0.45777983735391498 0 -0.15868634814382429 0.46531473325554851 0 -0.160558198289461 0.46047642425523388 0 -0.15017718620881049 0.45777983735391498 0 -0.160558198289461 0.46047642425523388 0 -0.15995177900170021 0.44572512983606088 0 -0.15995177900170021 0.44572512983606088 0 -0.1655661766345953 0.45099185016729298 0 -0.1697263717945888 0.43367042231820602 0 -0.160558198289461 0.46047642425523388 0 -0.15995177900170021 0.44572512983606088 0 -0.1655661766345953 0.45099185016729298 0 -0.15995177900170021 0.44572512983606088 0 -0.1697263717945888 0.43367042231820602 0 -0.1655661766345953 0.45099185016729298 0 -0.1926513277646352 0.45119866261047992 0 -0.1697263717945888 0.43367042231820602 0 -0.1926513277646352 0.45119866261047992 0 -0.1697263717945888 0.43367042231820602 0 -0.1926513277646352 0.45119866261047992 0 -0.18693863061853061 0.43491447939059907 0 -0.1697263717945888 0.43367042231820602 0 -0.1655661766345953 0.45099185016729298 0 -0.17867327812258871 0.46114583139567922 0 -0.1926513277646352 0.45119866261047992 0 -0.17867327812258871 0.46114583139567922 0 -0.17876854714149509 0.47093865696285842 0 -0.16585225164495951 0.46980433890986678 0 -0.17867327812258871 0.46114583139567922 0 -0.1899884502156329 0.46461586120334353 0 -0.1926513277646352 0.45119866261047992 0 -0.17867327812258871 0.46114583139567922 0 -0.17876854714149509 0.47093865696285842 0 -0.1899884502156329 0.46461586120334353 0 -0.17876854714149509 0.47093865696285842 0 -0.19138341924764241 0.47827032896460842 0 -0.1899884502156329 0.46461586120334353 0 -0.1757986315986971 0.48088398659212228 0 -0.17876854714149509 0.47093865696285842 0 -0.19138341924764241 0.47827032896460842 0 -0.1757986315986971 0.48088398659212228 0 -0.17876854714149509 0.47093865696285842 0 -0.16585225164495951 0.46980433890986678 0 -0.16585225164495951 0.46980433890986678 0 -0.16613832665532341 0.48861682765244069 0 -0.16585225164495951 0.46980433890986678 0 -0.15815775643206659 0.473198332503178 0 -0.16613832665532341 0.48861682765244069 0 -0.1757986315986971 0.48088398659212228 0 -0.16585225164495951 0.46980433890986678 0 -0.16613832665532341 0.48861682765244069 0 -0.15313912830386001 0.48632871978955722 0 -0.15815775643206659 0.473198332503178 0 -0.16613832665532341 0.48861682765244069 0 -0.15815775643206659 0.473198332503178 0 -0.16613832665532341 0.48861682765244069 0 -0.15868634814382429 0.46531473325554851 0 -0.16585225164495951 0.46980433890986678 0 -0.15815775643206659 0.473198332503178 0 -0.15313912830386001 0.48632871978955722 0 -0.16613832665532341 0.48861682765244069 0 -0.1663114266205577 0.50000000000000011 0 -0.16613832665532341 0.48861682765244069 0 -0.1720302250152923 0.50000000000000022 0 -0.16613832665532341 0.48861682765244069 0 -0.1663114266205577 0.50000000000000011 0 -0.1720302250152923 0.50000000000000022 0 -0.16613832665532341 0.48861682765244069 0 -0.1663114266205577 0.50000000000000011 0 -0.16613832665532341 0.48861682765244069 0 -0.17430115969348189 0.49501483184612438 0 -0.1720302250152923 0.50000000000000022 0 -0.17430115969348189 0.49501483184612438 0 -0.1720302250152923 0.50000000000000022 0 -0.1982872987205446 0.5 0 -0.1757986315986971 0.48088398659212228 0 -0.17430115969348189 0.49501483184612438 0 -0.19138341924764241 0.47827032896460842 0 -0.17430115969348189 0.49501483184612438 0 -0.19138341924764241 0.47827032896460842 0 -0.1757986315986971 0.48088398659212228 0 -0.16613832665532341 0.48861682765244069 0 -0.17430115969348189 0.49501483184612438 0 -0.17430115969348189 0.49501483184612438 0 -0.1982872987205446 0.5 0 -0.19138341924764241 0.47827032896460842 0 -0.1982872987205446 0.5 0 -0.19138341924764241 0.47827032896460842 0 -0.21217809917650449 0.48030286392854288 0 -0.19138341924764241 0.47827032896460842 0 -0.208465678801803 0.46152582608309223 0 -0.19138341924764241 0.47827032896460842 0 -0.21217809917650449 0.48030286392854288 0 -0.208465678801803 0.46152582608309223 0 -0.1982872987205446 0.5 0 -0.21217809917650449 0.48030286392854288 0 -0.22454437242579681 0.5 0 -0.22454437242579681 0.5 0 -0.2288960980978284 0.47674808914996208 0 -0.2467553297522557 0.48147402383551691 0 -0.21217809917650449 0.48030286392854288 0 -0.22454437242579681 0.5 0 -0.2288960980978284 0.47674808914996208 0 -0.21217809917650449 0.48030286392854288 0 -0.2288960980978284 0.47674808914996208 0 -0.22325063631842021 0.46203708915627778 0 -0.25438198006151169 0.46464464965965441 0 -0.2467553297522557 0.48147402383551691 0 -0.2372897108761052 0.46028528898629889 0 -0.2288960980978284 0.47674808914996208 0 -0.2467553297522557 0.48147402383551691 0 -0.2372897108761052 0.46028528898629889 0 -0.25080144613104921 0.5 0 -0.22454437242579681 0.5 0 -0.2467553297522557 0.48147402383551691 0 -0.24356894722331929 0.44821508210096461 0 -0.22554793835596351 0.44478132320157598 0 -0.24263019791012411 0.42803682032005991 0 -0.24356894722331929 0.44821508210096461 0 -0.2372897108761052 0.46028528898629889 0 -0.22554793835596351 0.44478132320157598 0 -0.25799490891289278 0.4433273283372331 0 -0.24356894722331929 0.44821508210096461 0 -0.24263019791012411 0.42803682032005991 0 -0.25438198006151169 0.46464464965965441 0 -0.24356894722331929 0.44821508210096461 0 -0.2372897108761052 0.46028528898629889 0 -0.2288960980978284 0.47674808914996208 0 -0.2372897108761052 0.46028528898629889 0 -0.22325063631842021 0.46203708915627778 0 -0.2372897108761052 0.46028528898629889 0 -0.22325063631842021 0.46203708915627778 0 -0.22554793835596351 0.44478132320157598 0 -0.22325063631842021 0.46203708915627778 0 -0.22554793835596351 0.44478132320157598 0 -0.208465678801803 0.46152582608309223 0 -0.22554793835596351 0.44478132320157598 0 -0.20785557032720109 0.44518798724498809 0 -0.21437917226951189 0.43588067273166847 0 -0.22554793835596351 0.44478132320157598 0 -0.20785557032720109 0.44518798724498809 0 -0.208465678801803 0.46152582608309223 0 -0.22554793835596351 0.44478132320157598 0 -0.208465678801803 0.46152582608309223 0 -0.21217809917650449 0.48030286392854288 0 -0.22325063631842021 0.46203708915627778 0 -0.208465678801803 0.46152582608309223 0 -0.19138341924764241 0.47827032896460842 0 -0.208465678801803 0.46152582608309223 0 -0.1899884502156329 0.46461586120334353 0 -0.208465678801803 0.46152582608309223 0 -0.1899884502156329 0.46461586120334353 0 -0.1926513277646352 0.45119866261047992 0 -0.20785557032720109 0.44518798724498809 0 -0.1926513277646352 0.45119866261047992 0 -0.18693863061853061 0.43491447939059907 0 -0.20785557032720109 0.44518798724498809 0 -0.208465678801803 0.46152582608309223 0 -0.1926513277646352 0.45119866261047992 0 -0.19176926968858449 0.42488004754311998 0 -0.20430089696141959 0.42856004989685992 0 -0.18693863061853061 0.43491447939059907 0 -0.20785557032720109 0.44518798724498809 0 -0.20430089696141959 0.42856004989685992 0 -0.18693863061853061 0.43491447939059907 0 -0.19176926968858449 0.42488004754311998 0 -0.19667758679306771 0.41738623802377928 0 -0.20430089696141959 0.42856004989685992 0 -0.19667758679306771 0.41738623802377928 0 -0.19460267291041519 0.40299123798476227 0 -0.182164522352502 0.41833083015148409 0 -0.19460267291041519 0.40299123798476227 0 -0.182164522352502 0.41833083015148409 0 -0.19176926968858449 0.42488004754311998 0 -0.19667758679306771 0.41738623802377928 0 -0.182164522352502 0.41833083015148409 0 -0.19667758679306771 0.41738623802377928 0 -0.2074030129404133 0.4163894186605448 0 -0.20430089696141959 0.42856004989685992 0 -0.19667758679306771 0.41738623802377928 0 -0.2074030129404133 0.4163894186605448 0 -0.19460267291041519 0.40299123798476227 0 -0.2074030129404133 0.4163894186605448 0 -0.21981228343346321 0.42499333058324978 0 -0.22162162460370111 0.40801623681407218 0 -0.2074030129404133 0.4163894186605448 0 -0.22162162460370111 0.40801623681407218 0 -0.19460267291041519 0.40299123798476227 0 -0.20785557032720109 0.44518798724498809 0 -0.20430089696141959 0.42856004989685992 0 -0.21437917226951189 0.43588067273166847 0 -0.2074030129404133 0.4163894186605448 0 -0.20430089696141959 0.42856004989685992 0 -0.21981228343346321 0.42499333058324978 0 -0.20430089696141959 0.42856004989685992 0 -0.21437917226951189 0.43588067273166847 0 -0.21981228343346321 0.42499333058324978 0 -0.22554793835596351 0.44478132320157598 0 -0.24263019791012411 0.42803682032005991 0 -0.22554793835596351 0.44478132320157598 0 -0.2313941741476824 0.42795323546389102 0 -0.24263019791012411 0.42803682032005991 0 -0.22554793835596351 0.44478132320157598 0 -0.21437917226951189 0.43588067273166847 0 -0.21981228343346321 0.42499333058324978 0 -0.22554793835596351 0.44478132320157598 0 -0.2313941741476824 0.42795323546389102 0 -0.21981228343346321 0.42499333058324978 0 -0.2313941741476824 0.42795323546389102 0 -0.21981228343346321 0.42499333058324978 0 -0.2301621318308705 0.41771135234831969 0 -0.2313941741476824 0.42795323546389102 0 -0.2301621318308705 0.41771135234831969 0 -0.23881831920799079 0.42424335086624981 0 -0.21981228343346321 0.42499333058324978 0 -0.22162162460370111 0.40801623681407218 0 -0.2301621318308705 0.41771135234831969 0 -0.22162162460370111 0.40801623681407218 0 -0.2301621318308705 0.41771135234831969 0 -0.241034552697166 0.41286836770778501 0 -0.25157066981256843 0.40894445920752592 0 -0.241034552697166 0.41286836770778501 0 -0.24263019791012411 0.42803682032005991 0 -0.241034552697166 0.41286836770778501 0 -0.24263019791012411 0.42803682032005991 0 -0.23881831920799079 0.42424335086624981 0 -0.22162162460370111 0.40801623681407218 0 -0.241034552697166 0.41286836770778501 0 -0.24388213391773941 0.40163479241199579 0 -0.2301621318308705 0.41771135234831969 0 -0.241034552697166 0.41286836770778501 0 -0.23881831920799079 0.42424335086624981 0 -0.25157066981256843 0.40894445920752592 0 -0.241034552697166 0.41286836770778501 0 -0.24388213391773941 0.40163479241199579 0 -0.2313941741476824 0.42795323546389102 0 -0.24263019791012411 0.42803682032005991 0 -0.23881831920799079 0.42424335086624981 0 -0.24263019791012411 0.42803682032005991 0 -0.23881831920799079 0.42424335086624981 0 -0.25453646971320443 0.37462232419521813 0 -0.24781733580734391 0.38604582424895789 0 -0.23735930512057779 0.37349779701461089 0 -0.2365264908337599 0.38834162546439549 0 -0.24781733580734391 0.38604582424895789 0 -0.23735930512057779 0.37349779701461089 0 -0.2365264908337599 0.38834162546439549 0 -0.24781733580734391 0.38604582424895789 0 -0.24388213391773941 0.40163479241199579 0 -0.22162162460370111 0.40801623681407218 0 -0.24388213391773941 0.40163479241199579 0 -0.22162162460370111 0.40801623681407218 0 -0.2365264908337599 0.38834162546439549 0 -0.2225569648072106 0.38059728391652659 0 -0.22162162460370111 0.40801623681407218 0 -0.2365264908337599 0.38834162546439549 0 -0.24388213391773941 0.40163479241199579 0 -0.2365264908337599 0.38834162546439549 0 -0.2225569648072106 0.38059728391652659 0 -0.23735930512057779 0.37349779701461089 0 -0.2225569648072106 0.38059728391652659 0 -0.20545957084956781 0.38789926664213359 0 -0.1994770785436861 0.36691897370504389 0 -0.22162162460370111 0.40801623681407218 0 -0.2225569648072106 0.38059728391652659 0 -0.20545957084956781 0.38789926664213359 0 -0.22162162460370111 0.40801623681407218 0 -0.20545957084956781 0.38789926664213359 0 -0.19460267291041519 0.40299123798476227 0 -0.20545957084956781 0.38789926664213359 0 -0.19460267291041519 0.40299123798476227 0 -0.18736095772118591 0.3836472042370111 0 -0.20545957084956781 0.38789926664213359 0 -0.18736095772118591 0.3836472042370111 0 -0.1994770785436861 0.36691897370504389 0 -0.18736095772118591 0.3836472042370111 0 -0.16248792359233191 0.38534127627451031 0 -0.17644948136236779 0.3976803029940168 0 -0.18736095772118591 0.3836472042370111 0 -0.16248792359233191 0.38534127627451031 0 -0.1741500565645078 0.37123080613525078 0 -0.16248792359233191 0.38534127627451031 0 -0.16330635783110381 0.4038062271485704 0 -0.14438589058212131 0.3948348353259919 0 -0.16248792359233191 0.38534127627451031 0 -0.16330635783110381 0.4038062271485704 0 -0.17644948136236779 0.3976803029940168 0 -0.19460267291041519 0.40299123798476227 0 -0.17644948136236779 0.3976803029940168 0 -0.17778078602166139 0.40821888849324761 0 -0.19460267291041519 0.40299123798476227 0 -0.18736095772118591 0.3836472042370111 0 -0.17644948136236779 0.3976803029940168 0 -0.16330635783110381 0.4038062271485704 0 -0.17644948136236779 0.3976803029940168 0 -0.17778078602166139 0.40821888849324761 0 -0.19460267291041519 0.40299123798476227 0 -0.182164522352502 0.41833083015148409 0 -0.17778078602166139 0.40821888849324761 0 -0.182164522352502 0.41833083015148409 0 -0.1723808956519178 0.41828584418740389 0 -0.17778078602166139 0.40821888849324761 0 -0.19176926968858449 0.42488004754311998 0 -0.182164522352502 0.41833083015148409 0 -0.18693863061853061 0.43491447939059907 0 -0.182164522352502 0.41833083015148409 0 -0.18693863061853061 0.43491447939059907 0 -0.1697263717945888 0.43367042231820602 0 -0.182164522352502 0.41833083015148409 0 -0.1697263717945888 0.43367042231820602 0 -0.182164522352502 0.41833083015148409 0 -0.1723808956519178 0.41828584418740389 0 -0.1697263717945888 0.43367042231820602 0 -0.15995177900170021 0.44572512983606088 0 -0.1697263717945888 0.43367042231820602 0 -0.15376963845050121 0.4328235067909087 0 -0.1697263717945888 0.43367042231820602 0 -0.14650538949161929 0.41591584262955861 0 -0.15376963845050121 0.4328235067909087 0 -0.1697263717945888 0.43367042231820602 0 -0.14650538949161929 0.41591584262955861 0 -0.1723808956519178 0.41828584418740389 0 -0.1697263717945888 0.43367042231820602 0 -0.14650538949161929 0.41591584262955861 0 -0.1723808956519178 0.41828584418740389 0 -0.14650538949161929 0.41591584262955861 0 -0.16330635783110381 0.4038062271485704 0 -0.1723808956519178 0.41828584418740389 0 -0.14650538949161929 0.41591584262955861 0 -0.16330635783110381 0.4038062271485704 0 -0.1723808956519178 0.41828584418740389 0 -0.17778078602166139 0.40821888849324761 0 -0.14650538949161929 0.41591584262955861 0 -0.15376963845050121 0.4328235067909087 0 -0.13889501351409689 0.43598263237980822 0 -0.13889501351409689 0.43598263237980822 0 -0.12761284081938409 0.41418542740570108 0 -0.14650538949161929 0.41591584262955861 0 -0.13889501351409689 0.43598263237980822 0 -0.12761284081938409 0.41418542740570108 0 -0.13889501351409689 0.43598263237980822 0 -0.12761284081938409 0.41418542740570108 0 -0.1242648033483075 0.43981492828754482 0 -0.14650538949161929 0.41591584262955861 0 -0.12761284081938409 0.41418542740570108 0 -0.12644786621320531 0.40058001872868543 0 -0.14650538949161929 0.41591584262955861 0 -0.12644786621320531 0.40058001872868543 0 -0.14650538949161929 0.41591584262955861 0 -0.12761284081938409 0.41418542740570108 0 -0.14650538949161929 0.41591584262955861 0 -0.12644786621320531 0.40058001872868543 0 -0.14438589058212131 0.3948348353259919 0 -0.12644786621320531 0.40058001872868543 0 -0.12826940643264259 0.38638828685515292 0 -0.14438589058212131 0.3948348353259919 0 -0.1399268433138337 0.37661104245066729 0 -0.12826940643264259 0.38638828685515292 0 -0.1198206075896991 0.37069234566290138 0 -0.1399268433138337 0.37661104245066729 0 -0.12826940643264259 0.38638828685515292 0 -0.14438589058212131 0.3948348353259919 0 -0.16248792359233191 0.38534127627451031 0 -0.1399268433138337 0.37661104245066729 0 -0.1571746455416145 0.36408416689185819 0 -0.16248792359233191 0.38534127627451031 0 -0.1399268433138337 0.37661104245066729 0 -0.14438589058212131 0.3948348353259919 0 -0.16330635783110381 0.4038062271485704 0 -0.14650538949161929 0.41591584262955861 0 -0.14438589058212131 0.3948348353259919 0 -0.1367685514822152 0.35851885971508118 0 -0.13367478836053351 0.33932016938713638 0 -0.15331730601663701 0.3395623532820784 0 -0.1367685514822152 0.35851885971508118 0 -0.15331730601663701 0.3395623532820784 0 -0.1571746455416145 0.36408416689185819 0 -0.1399268433138337 0.37661104245066729 0 -0.1367685514822152 0.35851885971508118 0 -0.1571746455416145 0.36408416689185819 0 -0.1399268433138337 0.37661104245066729 0 -0.1367685514822152 0.35851885971508118 0 -0.1198206075896991 0.37069234566290138 0 -0.1367685514822152 0.35851885971508118 0 -0.13367478836053351 0.33932016938713638 0 -0.1173066256070304 0.35104950557859033 0 -0.13367478836053351 0.33932016938713638 0 -0.1262409447270301 0.3211703831111522 0 -0.1175879007316586 0.33497855513245622 0 -0.13367478836053351 0.33932016938713638 0 -0.1262409447270301 0.3211703831111522 0 -0.14995133854557879 0.31573290008088639 0 -0.1262409447270301 0.3211703831111522 0 -0.14995133854557879 0.31573290008088639 0 -0.13170636281121431 0.30540396541675668 0 -0.13367478836053351 0.33932016938713638 0 -0.14995133854557879 0.31573290008088639 0 -0.15331730601663701 0.3395623532820784 0 -0.15331730601663701 0.3395623532820784 0 -0.17079439025487569 0.32494122108339912 0 -0.1763971922801616 0.3532406634935612 0 -0.14995133854557879 0.31573290008088639 0 -0.17079439025487569 0.32494122108339912 0 -0.167164841548782 0.29891422322321631 0 -0.14995133854557879 0.31573290008088639 0 -0.15331730601663701 0.3395623532820784 0 -0.17079439025487569 0.32494122108339912 0 -0.17079439025487569 0.32494122108339912 0 -0.19256976679114979 0.33165381796875049 0 -0.19699128312530151 0.30504565645142051 0 -0.17079439025487569 0.32494122108339912 0 -0.1763971922801616 0.3532406634935612 0 -0.19256976679114979 0.33165381796875049 0 -0.15331730601663701 0.3395623532820784 0 -0.1763971922801616 0.3532406634935612 0 -0.1571746455416145 0.36408416689185819 0 -0.15331730601663701 0.3395623532820784 0 -0.1763971922801616 0.3532406634935612 0 -0.1763971922801616 0.3532406634935612 0 -0.1571746455416145 0.36408416689185819 0 -0.1741500565645078 0.37123080613525078 0 -0.16248792359233191 0.38534127627451031 0 -0.1571746455416145 0.36408416689185819 0 -0.1741500565645078 0.37123080613525078 0 -0.18736095772118591 0.3836472042370111 0 -0.1741500565645078 0.37123080613525078 0 -0.1994770785436861 0.36691897370504389 0 -0.1763971922801616 0.3532406634935612 0 -0.1741500565645078 0.37123080613525078 0 -0.1994770785436861 0.36691897370504389 0 -0.1763971922801616 0.3532406634935612 0 -0.1994770785436861 0.36691897370504389 0 -0.1763971922801616 0.3532406634935612 0 -0.20127160642404629 0.34878804965207372 0 -0.19256976679114979 0.33165381796875049 0 -0.1763971922801616 0.3532406634935612 0 -0.1994770785436861 0.36691897370504389 0 -0.20127160642404629 0.34878804965207372 0 -0.1994770785436861 0.36691897370504389 0 -0.20127160642404629 0.34878804965207372 0 -0.22480168799342179 0.35512276170724633 0 -0.20127160642404629 0.34878804965207372 0 -0.22480168799342179 0.35512276170724633 0 -0.2131123065118124 0.33700403138576668 0 -0.2225569648072106 0.38059728391652659 0 -0.1994770785436861 0.36691897370504389 0 -0.2225569648072106 0.38059728391652659 0 -0.1994770785436861 0.36691897370504389 0 -0.22480168799342179 0.35512276170724633 0 -0.2225569648072106 0.38059728391652659 0 -0.22480168799342179 0.35512276170724633 0 -0.23735930512057779 0.37349779701461089 0 -0.25368472498167011 0.34420349485172652 0 -0.22480168799342179 0.35512276170724633 0 -0.24822911175635759 0.36217347122335058 0 -0.22480168799342179 0.35512276170724633 0 -0.24822911175635759 0.36217347122335058 0 -0.23735930512057779 0.37349779701461089 0 -0.25453646971320443 0.37462232419521813 0 -0.24822911175635759 0.36217347122335058 0 -0.23735930512057779 0.37349779701461089 0 -0.25757488899104952 0.31786411623381933 0 -0.23478691102954721 0.33115088205162452 0 -0.2366570207200871 0.30010935915934539 0 -0.25368472498167011 0.34420349485172652 0 -0.22480168799342179 0.35512276170724633 0 -0.23478691102954721 0.33115088205162452 0 -0.25368472498167011 0.34420349485172652 0 -0.23478691102954721 0.33115088205162452 0 -0.25757488899104952 0.31786411623381933 0 -0.25368472498167011 0.34420349485172652 0 -0.23478691102954721 0.33115088205162452 0 -0.23478691102954721 0.33115088205162452 0 -0.2158890970774244 0.31809826925152251 0 -0.2131123065118124 0.33700403138576668 0 -0.22480168799342179 0.35512276170724633 0 -0.23478691102954721 0.33115088205162452 0 -0.2131123065118124 0.33700403138576668 0 -0.23478691102954721 0.33115088205162452 0 -0.2158890970774244 0.31809826925152251 0 -0.2366570207200871 0.30010935915934539 0 -0.23478691102954721 0.33115088205162452 0 -0.2158890970774244 0.31809826925152251 0 -0.2158890970774244 0.31809826925152251 0 -0.2131123065118124 0.33700403138576668 0 -0.19256976679114979 0.33165381796875049 0 -0.20127160642404629 0.34878804965207372 0 -0.2131123065118124 0.33700403138576668 0 -0.19256976679114979 0.33165381796875049 0 -0.2158890970774244 0.31809826925152251 0 -0.19256976679114979 0.33165381796875049 0 -0.19699128312530151 0.30504565645142051 0 -0.19699128312530151 0.30504565645142051 0 -0.2044220976180971 0.2747921468301005 0 -0.18537993383704029 0.28397978744787411 0 -0.19699128312530151 0.30504565645142051 0 -0.21636901433909059 0.29447561219915308 0 -0.2044220976180971 0.2747921468301005 0 -0.2158890970774244 0.31809826925152251 0 -0.19699128312530151 0.30504565645142051 0 -0.21636901433909059 0.29447561219915308 0 -0.2158890970774244 0.31809826925152251 0 -0.19699128312530151 0.30504565645142051 0 -0.2158890970774244 0.31809826925152251 0 -0.21636901433909059 0.29447561219915308 0 -0.2366570207200871 0.30010935915934539 0 -0.21636901433909059 0.29447561219915308 0 -0.2366570207200871 0.30010935915934539 0 -0.2235041758045673 0.27405874977876837 0 -0.26277913973510902 0.29023342414179659 0 -0.2366570207200871 0.30010935915934539 0 -0.2447247674615598 0.2718938593685879 0 -0.2366570207200871 0.30010935915934539 0 -0.2447247674615598 0.2718938593685879 0 -0.2235041758045673 0.27405874977876837 0 -0.25693865295534157 0.25278860643768353 0 -0.2416444700809012 0.25186566196455601 0 -0.2447247674615598 0.2718938593685879 0 -0.2416444700809012 0.25186566196455601 0 -0.2447247674615598 0.2718938593685879 0 -0.22667039518801041 0.25355429459537898 0 -0.2447247674615598 0.2718938593685879 0 -0.22667039518801041 0.25355429459537898 0 -0.2447247674615598 0.2718938593685879 0 -0.2235041758045673 0.27405874977876837 0 -0.22667039518801041 0.25355429459537898 0 -0.2235041758045673 0.27405874977876837 0 -0.22667039518801041 0.25355429459537898 0 -0.21218175950055909 0.24952722652004439 0 -0.2044220976180971 0.2747921468301005 0 -0.1929026130837673 0.25762258695206858 0 -0.21218175950055909 0.24952722652004439 0 -0.2044220976180971 0.2747921468301005 0 -0.21218175950055909 0.24952722652004439 0 -0.2235041758045673 0.27405874977876837 0 -0.2044220976180971 0.2747921468301005 0 -0.21218175950055909 0.24952722652004439 0 -0.21636901433909059 0.29447561219915308 0 -0.2235041758045673 0.27405874977876837 0 -0.2044220976180971 0.2747921468301005 0 -0.2044220976180971 0.2747921468301005 0 -0.1929026130837673 0.25762258695206858 0 -0.18537993383704029 0.28397978744787411 0 -0.1929026130837673 0.25762258695206858 0 -0.16582228118094081 0.26466105519565358 0 -0.18651378479530609 0.23505073182760211 0 -0.1929026130837673 0.25762258695206858 0 -0.16582228118094081 0.26466105519565358 0 -0.18537993383704029 0.28397978744787411 0 -0.16582228118094081 0.26466105519565358 0 -0.167164841548782 0.29891422322321631 0 -0.14136362158270599 0.28508793949713551 0 -0.16582228118094081 0.26466105519565358 0 -0.18537993383704029 0.28397978744787411 0 -0.167164841548782 0.29891422322321631 0 -0.19699128312530151 0.30504565645142051 0 -0.18537993383704029 0.28397978744787411 0 -0.167164841548782 0.29891422322321631 0 -0.17079439025487569 0.32494122108339912 0 -0.19699128312530151 0.30504565645142051 0 -0.167164841548782 0.29891422322321631 0 -0.167164841548782 0.29891422322321631 0 -0.14136362158270599 0.28508793949713551 0 -0.14995133854557879 0.31573290008088639 0 -0.167164841548782 0.29891422322321631 0 -0.14136362158270599 0.28508793949713551 0 -0.14995133854557879 0.31573290008088639 0 -0.14136362158270599 0.28508793949713551 0 -0.13170636281121431 0.30540396541675668 0 -0.1262409447270301 0.3211703831111522 0 -0.13170636281121431 0.30540396541675668 0 -0.1173504618646501 0.30916380798395637 0 -0.14136362158270599 0.28508793949713551 0 -0.13170636281121431 0.30540396541675668 0 -0.1202787732923796 0.29457691953651272 0 -0.14136362158270599 0.28508793949713551 0 -0.1196693143642453 0.28329908912575552 0 -0.1202787732923796 0.29457691953651272 0 -0.14136362158270599 0.28508793949713551 0 -0.1155624016166297 0.27126165577105521 0 -0.1196693143642453 0.28329908912575552 0 -0.14136362158270599 0.28508793949713551 0 -0.1155624016166297 0.27126165577105521 0 -0.12872708527658799 0.25991420809329241 0 -0.1416417428525672 0.26777243923482702 0 -0.1155624016166297 0.27126165577105521 0 -0.14136362158270599 0.28508793949713551 0 -0.1416417428525672 0.26777243923482702 0 -0.1155624016166297 0.27126165577105521 0 -0.12872708527658799 0.25991420809329241 0 -0.14534546737678511 0.25129379472131641 0 -0.1416417428525672 0.26777243923482702 0 -0.12872708527658799 0.25991420809329241 0 -0.14534546737678511 0.25129379472131641 0 -0.12470300375741469 0.2457033751303839 0 -0.16582228118094081 0.26466105519565358 0 -0.14534546737678511 0.25129379472131641 0 -0.1416417428525672 0.26777243923482702 0 -0.16582228118094081 0.26466105519565358 0 -0.14136362158270599 0.28508793949713551 0 -0.1416417428525672 0.26777243923482702 0 -0.1083690905562489 0.27746201143443072 0 -0.10470287070229969 0.27376422074294909 0 -0.09206590757372593 0.27740472432850488 0 -0.099741497972773749 0.27068482051400677 0 -0.1098053558875477 0.27272524579145851 0 -0.092391857727521592 0.25884509119311472 0 -0.1155624016166297 0.27126165577105521 0 -0.1098053558875477 0.27272524579145851 0 -0.092391857727521592 0.25884509119311472 0 -0.099741497972773749 0.27068482051400677 0 -0.09206590757372593 0.27740472432850488 0 -0.092391857727521592 0.25884509119311472 0 -0.10470287070229969 0.27376422074294909 0 -0.099741497972773749 0.27068482051400677 0 -0.1098053558875477 0.27272524579145851 0 -0.1083690905562489 0.27746201143443072 0 -0.1098053558875477 0.27272524579145851 0 -0.1083690905562489 0.27746201143443072 0 -0.10470287070229969 0.27376422074294909 0 -0.1098053558875477 0.27272524579145851 0 -0.10470287070229969 0.27376422074294909 0 -0.099741497972773749 0.27068482051400677 0 -0.09206590757372593 0.27740472432850488 0 -0.1155624016166297 0.27126165577105521 0 -0.092391857727521592 0.25884509119311472 0 -0.11076524853809321 0.25238606884059173 0 -0.1155624016166297 0.27126165577105521 0 -0.092391857727521592 0.25884509119311472 0 -0.11076524853809321 0.25238606884059173 0 -0.1199394347971814 0.25731632695883078 0 -0.1155624016166297 0.27126165577105521 0 -0.12872708527658799 0.25991420809329241 0 -0.1199394347971814 0.25731632695883078 0 -0.12470300375741469 0.2457033751303839 0 -0.11076524853809321 0.25238606884059173 0 -0.1199394347971814 0.25731632695883078 0 -0.12470300375741469 0.2457033751303839 0 -0.12872708527658799 0.25991420809329241 0 -0.1199394347971814 0.25731632695883078 0 -0.1155624016166297 0.27126165577105521 0 -0.12872708527658799 0.25991420809329241 0 -0.1155624016166297 0.27126165577105521 0 -0.1083690905562489 0.27746201143443072 0 -0.1155624016166297 0.27126165577105521 0 -0.1196693143642453 0.28329908912575552 0 -0.1083690905562489 0.27746201143443072 0 -0.1155624016166297 0.27126165577105521 0 -0.1098053558875477 0.27272524579145851 0 -0.1083690905562489 0.27746201143443072 0 -0.1155624016166297 0.27126165577105521 0 -0.1083690905562489 0.27746201143443072 0 -0.1202787732923796 0.29457691953651272 0 -0.1003457715998239 0.30392270831765028 0 -0.1083690905562489 0.27746201143443072 0 -0.1196693143642453 0.28329908912575552 0 -0.1202787732923796 0.29457691953651272 0 -0.1202787732923796 0.29457691953651272 0 -0.1173504618646501 0.30916380798395637 0 -0.1003457715998239 0.30392270831765028 0 -0.13170636281121431 0.30540396541675668 0 -0.1202787732923796 0.29457691953651272 0 -0.1173504618646501 0.30916380798395637 0 -0.1173504618646501 0.30916380798395637 0 -0.1003457715998239 0.30392270831765028 0 -0.1081804568928026 0.32074506353771021 0 -0.1083690905562489 0.27746201143443072 0 -0.08834593029567378 0.29472120043351602 0 -0.09206590757372593 0.27740472432850488 0 -0.1083690905562489 0.27746201143443072 0 -0.1003457715998239 0.30392270831765028 0 -0.08834593029567378 0.29472120043351602 0 -0.1083690905562489 0.27746201143443072 0 -0.1003457715998239 0.30392270831765028 0 -0.1083690905562489 0.27746201143443072 0 -0.08834593029567378 0.29472120043351602 0 -0.08834593029567378 0.29472120043351602 0 -0.079344374197139078 0.28508182268507098 0 -0.09206590757372593 0.27740472432850488 0 -0.08834593029567378 0.29472120043351602 0 -0.072463929930227558 0.29930610977545041 0 -0.077617967212061698 0.29366907382828078 0 -0.08834593029567378 0.29472120043351602 0 -0.079344374197139078 0.28508182268507098 0 -0.077617967212061698 0.29366907382828078 0 -0.08834593029567378 0.29472120043351602 0 -0.087527931766016032 0.31235393694025021 0 -0.08121949171140587 0.31012908581564408 0 -0.08834593029567378 0.29472120043351602 0 -0.068322770035098762 0.31198038943260148 0 -0.1003457715998239 0.30392270831765028 0 -0.08834593029567378 0.29472120043351602 0 -0.087527931766016032 0.31235393694025021 0 -0.08834593029567378 0.29472120043351602 0 -0.08121949171140587 0.31012908581564408 0 -0.069852456288818351 0.31207980665071 0 -0.08834593029567378 0.29472120043351602 0 -0.068322770035098762 0.31198038943260148 0 -0.069852456288818351 0.31207980665071 0 -0.08834593029567378 0.29472120043351602 0 -0.072463929930227558 0.29930610977545041 0 -0.068322770035098762 0.31198038943260148 0 -0.072463929930227558 0.29930610977545041 0 -0.064179569528432873 0.29754197169583518 0 -0.063962500348327456 0.30379626580195229 0 -0.072463929930227558 0.29930610977545041 0 -0.063962500348327456 0.30379626580195229 0 -0.068322770035098762 0.31198038943260148 0 -0.068322770035098762 0.31198038943260148 0 -0.069852456288818351 0.31207980665071 0 -0.079344374197139078 0.28508182268507098 0 -0.070510141993048517 0.29225124769799787 0 -0.067485792004003509 0.28106498521306011 0 -0.079344374197139078 0.28508182268507098 0 -0.077617967212061698 0.29366907382828078 0 -0.070510141993048517 0.29225124769799787 0 -0.072463929930227558 0.29930610977545041 0 -0.077617967212061698 0.29366907382828078 0 -0.070510141993048517 0.29225124769799787 0 -0.064179569528432873 0.29754197169583518 0 -0.070510141993048517 0.29225124769799787 0 -0.059799020663136082 0.29068729405280619 0 -0.072463929930227558 0.29930610977545041 0 -0.064179569528432873 0.29754197169583518 0 -0.070510141993048517 0.29225124769799787 0 -0.070510141993048517 0.29225124769799787 0 -0.067485792004003509 0.28106498521306011 0 -0.059799020663136082 0.29068729405280619 0 -0.079344374197139078 0.28508182268507098 0 -0.077112635008727601 0.26938653581869981 0 -0.067485792004003509 0.28106498521306011 0 -0.077112635008727601 0.26938653581869981 0 -0.067485792004003509 0.28106498521306011 0 -0.060296114269721542 0.26705395206363342 0 -0.079344374197139078 0.28508182268507098 0 -0.077112635008727601 0.26938653581869981 0 -0.09206590757372593 0.27740472432850488 0 -0.077112635008727601 0.26938653581869981 0 -0.09206590757372593 0.27740472432850488 0 -0.092391857727521592 0.25884509119311472 0 -0.092391857727521592 0.25884509119311472 0 -0.069221313838413207 0.24642852661517459 0 -0.077112635008727601 0.26938653581869981 0 -0.092391857727521592 0.25884509119311472 0 -0.069221313838413207 0.24642852661517459 0 -0.077112635008727601 0.26938653581869981 0 -0.060296114269721542 0.26705395206363342 0 -0.069221313838413207 0.24642852661517459 0 -0.048126263350958612 0.25465777805589501 0 -0.060296114269721542 0.26705395206363342 0 -0.069221313838413207 0.24642852661517459 0 -0.048126263350958612 0.25465777805589501 0 -0.060296114269721542 0.26705395206363342 0 -0.041784573477856593 0.2719242686623195 0 -0.055384127889045079 0.27986410773994991 0 -0.060296114269721542 0.26705395206363342 0 -0.041784573477856593 0.2719242686623195 0 -0.055384127889045079 0.27986410773994991 0 -0.041784573477856593 0.2719242686623195 0 -0.044370237993260717 0.29032640624232281 0 -0.067485792004003509 0.28106498521306011 0 -0.055384127889045079 0.27986410773994991 0 -0.060296114269721542 0.26705395206363342 0 -0.041784573477856593 0.2719242686623195 0 -0.028053557715267439 0.25838243531431121 0 -0.02550209953536561 0.27186686885002359 0 -0.041784573477856593 0.2719242686623195 0 -0.02550209953536561 0.27186686885002359 0 -0.031040102747703489 0.28267752730564011 0 -0.048126263350958612 0.25465777805589501 0 -0.041784573477856593 0.2719242686623195 0 -0.028053557715267439 0.25838243531431121 0 -0.048126263350958612 0.25465777805589501 0 -0.028053557715267439 0.25838243531431121 0 -0.033382390283993792 0.24359412621706661 0 -0.028053557715267439 0.25838243531431121 0 -0.01504563196256534 0.26333196488375049 0 -0.01778818590069102 0.2421293126167848 0 -0.01504563196256534 0.26333196488375049 0 -0.01778818590069102 0.2421293126167848 0 -0.028053557715267439 0.25838243531431121 0 -0.02550209953536561 0.27186686885002359 0 -0.01504563196256534 0.26333196488375049 0 -0.028053557715267439 0.25838243531431121 0 -0.01504563196256534 0.26333196488375049 0 -0.02550209953536561 0.27186686885002359 0 -0.01214761008608776 0.28573653795517551 0 -0.031040102747703489 0.28267752730564011 0 -0.02550209953536561 0.27186686885002359 0 -0.01504563196256534 0.26333196488375049 0 -0.01214761008608776 0.28573653795517551 0 -0.001267499687089951 0.2776013217203892 0 -0.01504563196256534 0.26333196488375049 0 -0.01214761008608776 0.28573653795517551 0 -0.01504563196256534 0.26333196488375049 0 -0.01214761008608776 0.28573653795517551 0 -0.00067809962666212902 0.26216505597133072 0 -0.01504563196256534 0.26333196488375049 0 0.010965700908337589 0.27322930467739909 0 -0.001267499687089951 0.2776013217203892 0 -0.01504563196256534 0.26333196488375049 0 0.010965700908337589 0.27322930467739909 0 -0.01504563196256534 0.26333196488375049 0 0.010965700908337589 0.27322930467739909 0 -0.0087132352456033638 0.25173417187717928 0 -0.01504563196256534 0.26333196488375049 0 -0.01778818590069102 0.2421293126167848 0 -0.00067809962666212902 0.26216505597133072 0 -0.0087132352456033638 0.25173417187717928 0 0.0027594708259384838 0.25829047161104352 0 -0.00067809962666212902 0.26216505597133072 0 -0.0087132352456033638 0.25173417187717928 0 -0.01504563196256534 0.26333196488375049 0 -0.009249588209606344 0.30814111102660002 0 -0.01214761008608776 0.28573653795517551 0 0.0038021096493471361 0.29689124930627131 0 -0.009249588209606344 0.30814111102660002 0 -0.01214761008608776 0.28573653795517551 0 -0.01214761008608776 0.28573653795517551 0 0.002380999114604244 0.28599596302517022 0 0.0038021096493471361 0.29689124930627131 0 -0.001267499687089951 0.2776013217203892 0 -0.01214761008608776 0.28573653795517551 0 0.002380999114604244 0.28599596302517022 0 -0.009249588209606344 0.30814111102660002 0 -0.01214761008608776 0.28573653795517551 0 -0.02711874363180217 0.2953884665518679 0 -0.01214761008608776 0.28573653795517551 0 -0.031040102747703489 0.28267752730564011 0 -0.02711874363180217 0.2953884665518679 0 -0.009249588209606344 0.30814111102660002 0 -0.02711874363180217 0.2953884665518679 0 -0.038786179122352507 0.31006075022960111 0 -0.009249588209606344 0.30814111102660002 0 -0.038786179122352507 0.31006075022960111 0 -0.02711874363180217 0.2953884665518679 0 -0.038786179122352507 0.31006075022960111 0 -0.044370237993260717 0.29032640624232281 0 -0.038786179122352507 0.31006075022960111 0 -0.044370237993260717 0.29032640624232281 0 -0.054162254707424723 0.30166894115096898 0 -0.031040102747703489 0.28267752730564011 0 -0.02711874363180217 0.2953884665518679 0 -0.044370237993260717 0.29032640624232281 0 -0.041784573477856593 0.2719242686623195 0 -0.031040102747703489 0.28267752730564011 0 -0.044370237993260717 0.29032640624232281 0 -0.055384127889045079 0.27986410773994991 0 -0.044370237993260717 0.29032640624232281 0 -0.059799020663136082 0.29068729405280619 0 -0.044370237993260717 0.29032640624232281 0 -0.059799020663136082 0.29068729405280619 0 -0.054162254707424723 0.30166894115096898 0 -0.064179569528432873 0.29754197169583518 0 -0.059799020663136082 0.29068729405280619 0 -0.054162254707424723 0.30166894115096898 0 -0.067485792004003509 0.28106498521306011 0 -0.055384127889045079 0.27986410773994991 0 -0.059799020663136082 0.29068729405280619 0 -0.068322770035098762 0.31198038943260148 0 -0.038786179122352507 0.31006075022960111 0 -0.068322770035098762 0.31198038943260148 0 -0.038786179122352507 0.31006075022960111 0 -0.054162254707424723 0.30166894115096898 0 -0.064179569528432873 0.29754197169583518 0 -0.063962500348327456 0.30379626580195229 0 -0.054162254707424723 0.30166894115096898 0 -0.063962500348327456 0.30379626580195229 0 -0.068322770035098762 0.31198038943260148 0 -0.054162254707424723 0.30166894115096898 0 -0.068322770035098762 0.31198038943260148 0 -0.038786179122352507 0.31006075022960111 0 -0.053879496619987192 0.32442993198196868 0 -0.068322770035098762 0.31198038943260148 0 -0.053879496619987192 0.32442993198196868 0 -0.059045099567240703 0.33862263320968672 0 -0.059976501396798443 0.34640013057040159 0 -0.068046633572776155 0.34513696516333192 0 -0.053879496619987192 0.32442993198196868 0 -0.059045099567240703 0.33862263320968672 0 -0.06815446288386498 0.3263880450875648 0 -0.053879496619987192 0.32442993198196868 0 -0.059045099567240703 0.33862263320968672 0 -0.049717572699208172 0.33977374392884352 0 -0.053879496619987192 0.32442993198196868 0 -0.049717572699208172 0.33977374392884352 0 -0.039436223204876379 0.33687947453133682 0 -0.059045099567240703 0.33862263320968672 0 -0.049717572699208172 0.33977374392884352 0 -0.052933118771744558 0.34753778728834739 0 -0.049717572699208172 0.33977374392884352 0 -0.039436223204876379 0.33687947453133682 0 -0.045752302425533672 0.34929255203680049 0 -0.053879496619987192 0.32442993198196868 0 -0.039436223204876379 0.33687947453133682 0 -0.039359444206513459 0.32419621080282812 0 -0.053879496619987192 0.32442993198196868 0 -0.039436223204876379 0.33687947453133682 0 -0.039436223204876379 0.33687947453133682 0 -0.039359444206513459 0.32419621080282812 0 -0.02531264429424256 0.33765677836634578 0 -0.039436223204876379 0.33687947453133682 0 -0.02531264429424256 0.33765677836634578 0 -0.034795741464765127 0.3466441775467104 0 -0.038786179122352507 0.31006075022960111 0 -0.053879496619987192 0.32442993198196868 0 -0.039359444206513459 0.32419621080282812 0 -0.038786179122352507 0.31006075022960111 0 -0.039359444206513459 0.32419621080282812 0 -0.024068293084679539 0.32272721199300619 0 -0.009249588209606344 0.30814111102660002 0 -0.038786179122352507 0.31006075022960111 0 -0.024068293084679539 0.32272721199300619 0 -0.024068293084679539 0.32272721199300619 0 -0.02531264429424256 0.33765677836634578 0 -0.005758602284471958 0.33512988219008361 0 -0.039359444206513459 0.32419621080282812 0 -0.024068293084679539 0.32272721199300619 0 -0.02531264429424256 0.33765677836634578 0 -0.005758602284471958 0.33512988219008361 0 -0.0077202170519437719 0.34710906184019069 0 0.0082446038140756572 0.34376242611402219 0 -0.02531264429424256 0.33765677836634578 0 -0.005758602284471958 0.33512988219008361 0 -0.0077202170519437719 0.34710906184019069 0 -0.009249588209606344 0.30814111102660002 0 -0.005758602284471958 0.33512988219008361 0 0.0094307060340404689 0.32376070079746733 0 -0.009249588209606344 0.30814111102660002 0 -0.005758602284471958 0.33512988219008361 0 -0.009249588209606344 0.30814111102660002 0 -0.024068293084679539 0.32272721199300619 0 -0.005758602284471958 0.33512988219008361 0 -0.0045677851665312944 0.36532665559408428 0 -0.0087141207398781558 0.37710904293520409 0 0.0077169544749549623 0.36306791211952738 0 -0.0045677851665312944 0.36532665559408428 0 -0.019623601183504629 0.35541479533684739 0 -0.0087141207398781558 0.37710904293520409 0 -0.0087141207398781558 0.37710904293520409 0 0.0077169544749549623 0.36306791211952738 0 -0.0077202170519437719 0.34710906184019069 0 -0.019623601183504629 0.35541479533684739 0 0.0038095970876644218 0.35606187191015221 0 -0.019623601183504629 0.35541479533684739 0 0.0038095970876644218 0.35606187191015221 0 -0.0045677851665312944 0.36532665559408428 0 -0.019623601183504629 0.35541479533684739 0 0.0038095970876644218 0.35606187191015221 0 -0.02531264429424256 0.33765677836634578 0 -0.019623601183504629 0.35541479533684739 0 -0.034795741464765127 0.3466441775467104 0 -0.02531264429424256 0.33765677836634578 0 -0.0077202170519437719 0.34710906184019069 0 -0.019623601183504629 0.35541479533684739 0 -0.019623601183504629 0.35541479533684739 0 -0.034100997704691827 0.37295894625721099 0 -0.0087141207398781558 0.37710904293520409 0 -0.019623601183504629 0.35541479533684739 0 -0.034100997704691827 0.37295894625721099 0 -0.043056799454673583 0.35476771876354157 0 -0.034100997704691827 0.37295894625721099 0 -0.047131069669461997 0.36807368878450081 0 -0.054593457040109393 0.3822816536988497 0 -0.034100997704691827 0.37295894625721099 0 -0.043056799454673583 0.35476771876354157 0 -0.034100997704691827 0.37295894625721099 0 -0.043056799454673583 0.35476771876354157 0 -0.047131069669461997 0.36807368878450081 0 -0.019623601183504629 0.35541479533684739 0 -0.043056799454673583 0.35476771876354157 0 -0.019623601183504629 0.35541479533684739 0 -0.034795741464765127 0.3466441775467104 0 -0.043056799454673583 0.35476771876354157 0 -0.043056799454673583 0.35476771876354157 0 -0.045752302425533672 0.34929255203680049 0 -0.039436223204876379 0.33687947453133682 0 -0.034795741464765127 0.3466441775467104 0 -0.045752302425533672 0.34929255203680049 0 -0.034795741464765127 0.3466441775467104 0 -0.043056799454673583 0.35476771876354157 0 -0.045752302425533672 0.34929255203680049 0 -0.043056799454673583 0.35476771876354157 0 -0.052933118771744558 0.34753778728834739 0 -0.059881153675432383 0.35430313662024071 0 -0.043056799454673583 0.35476771876354157 0 -0.059881153675432383 0.35430313662024071 0 -0.051828064233363932 0.36038047858465339 0 -0.043056799454673583 0.35476771876354157 0 -0.059881153675432383 0.35430313662024071 0 -0.043056799454673583 0.35476771876354157 0 -0.045752302425533672 0.34929255203680049 0 -0.052933118771744558 0.34753778728834739 0 -0.049717572699208172 0.33977374392884352 0 -0.045752302425533672 0.34929255203680049 0 -0.052933118771744558 0.34753778728834739 0 -0.059881153675432383 0.35430313662024071 0 -0.051828064233363932 0.36038047858465339 0 -0.058626870601395778 0.36023180910453118 0 -0.059045099567240703 0.33862263320968672 0 -0.052933118771744558 0.34753778728834739 0 -0.059976501396798443 0.34640013057040159 0 -0.052933118771744558 0.34753778728834739 0 -0.059881153675432383 0.35430313662024071 0 -0.059976501396798443 0.34640013057040159 0 -0.047131069669461997 0.36807368878450081 0 -0.054116187566776573 0.36544526432200969 0 -0.058148679921659119 0.37186744297544022 0 -0.047131069669461997 0.36807368878450081 0 -0.058148679921659119 0.37186744297544022 0 -0.054593457040109393 0.3822816536988497 0 -0.043056799454673583 0.35476771876354157 0 -0.047131069669461997 0.36807368878450081 0 -0.051828064233363932 0.36038047858465339 0 -0.047131069669461997 0.36807368878450081 0 -0.051828064233363932 0.36038047858465339 0 -0.054116187566776573 0.36544526432200969 0 -0.054116187566776573 0.36544526432200969 0 -0.058626870601395778 0.36023180910453118 0 -0.058148679921659119 0.37186744297544022 0 -0.051828064233363932 0.36038047858465339 0 -0.054116187566776573 0.36544526432200969 0 -0.058626870601395778 0.36023180910453118 0 -0.058626870601395778 0.36023180910453118 0 -0.058148679921659119 0.37186744297544022 0 -0.076275814730551866 0.38330479896731001 0 -0.058626870601395778 0.36023180910453118 0 -0.071157696118109362 0.36170448025062218 0 -0.076275814730551866 0.38330479896731001 0 -0.071157696118109362 0.36170448025062218 0 -0.084299133686975572 0.35684410208409001 0 -0.076275814730551866 0.38330479896731001 0 -0.058626870601395778 0.36023180910453118 0 -0.076275814730551866 0.38330479896731001 0 -0.084299133686975572 0.35684410208409001 0 -0.089436666146690338 0.3774527594588406 0 -0.076275814730551866 0.38330479896731001 0 -0.084299133686975572 0.35684410208409001 0 -0.076275814730551866 0.38330479896731001 0 -0.093494049974744503 0.36523362229143391 0 -0.084299133686975572 0.35684410208409001 0 -0.089436666146690338 0.3774527594588406 0 -0.084299133686975572 0.35684410208409001 0 -0.076705507896191183 0.35383855447693902 0 -0.080753986599573127 0.33990497651870988 0 -0.084299133686975572 0.35684410208409001 0 -0.092322452643399749 0.33038340520087017 0 -0.095141502753968779 0.35097174187852381 0 -0.093494049974744503 0.36523362229143391 0 -0.084299133686975572 0.35684410208409001 0 -0.095141502753968779 0.35097174187852381 0 -0.059881153675432383 0.35430313662024071 0 -0.071157696118109362 0.36170448025062218 0 -0.076705507896191183 0.35383855447693902 0 -0.076705507896191183 0.35383855447693902 0 -0.068046633572776155 0.34513696516333192 0 -0.080753986599573127 0.33990497651870988 0 -0.059881153675432383 0.35430313662024071 0 -0.076705507896191183 0.35383855447693902 0 -0.068046633572776155 0.34513696516333192 0 -0.059881153675432383 0.35430313662024071 0 -0.076705507896191183 0.35383855447693902 0 -0.071157696118109362 0.36170448025062218 0 -0.084299133686975572 0.35684410208409001 0 -0.076705507896191183 0.35383855447693902 0 -0.059881153675432383 0.35430313662024071 0 -0.058626870601395778 0.36023180910453118 0 -0.071157696118109362 0.36170448025062218 0 -0.059881153675432383 0.35430313662024071 0 -0.059976501396798443 0.34640013057040159 0 -0.068046633572776155 0.34513696516333192 0 -0.06815446288386498 0.3263880450875648 0 -0.079151648495115301 0.32136139923810009 0 -0.080753986599573127 0.33990497651870988 0 -0.068046633572776155 0.34513696516333192 0 -0.06815446288386498 0.3263880450875648 0 -0.080753986599573127 0.33990497651870988 0 -0.059045099567240703 0.33862263320968672 0 -0.068046633572776155 0.34513696516333192 0 -0.06815446288386498 0.3263880450875648 0 -0.068322770035098762 0.31198038943260148 0 -0.069852456288818351 0.31207980665071 0 -0.06815446288386498 0.3263880450875648 0 -0.068322770035098762 0.31198038943260148 0 -0.053879496619987192 0.32442993198196868 0 -0.06815446288386498 0.3263880450875648 0 -0.08121949171140587 0.31012908581564408 0 -0.069852456288818351 0.31207980665071 0 -0.079151648495115301 0.32136139923810009 0 -0.069852456288818351 0.31207980665071 0 -0.06815446288386498 0.3263880450875648 0 -0.079151648495115301 0.32136139923810009 0 -0.087527931766016032 0.31235393694025021 0 -0.079151648495115301 0.32136139923810009 0 -0.092322452643399749 0.33038340520087017 0 -0.1003457715998239 0.30392270831765028 0 -0.087527931766016032 0.31235393694025021 0 -0.092322452643399749 0.33038340520087017 0 -0.087527931766016032 0.31235393694025021 0 -0.08121949171140587 0.31012908581564408 0 -0.079151648495115301 0.32136139923810009 0 -0.084299133686975572 0.35684410208409001 0 -0.092322452643399749 0.33038340520087017 0 -0.079151648495115301 0.32136139923810009 0 -0.092322452643399749 0.33038340520087017 0 -0.080753986599573127 0.33990497651870988 0 -0.084299133686975572 0.35684410208409001 0 -0.092322452643399749 0.33038340520087017 0 -0.080753986599573127 0.33990497651870988 0 -0.092322452643399749 0.33038340520087017 0 -0.10472406897533799 0.34168768652513631 0 -0.095141502753968779 0.35097174187852381 0 -0.092322452643399749 0.33038340520087017 0 -0.10472406897533799 0.34168768652513631 0 -0.1081804568928026 0.32074506353771021 0 -0.1003457715998239 0.30392270831765028 0 -0.092322452643399749 0.33038340520087017 0 -0.1003457715998239 0.30392270831765028 0 -0.092322452643399749 0.33038340520087017 0 -0.1081804568928026 0.32074506353771021 0 -0.1262409447270301 0.3211703831111522 0 -0.1173504618646501 0.30916380798395637 0 -0.1081804568928026 0.32074506353771021 0 -0.1262409447270301 0.3211703831111522 0 -0.1081804568928026 0.32074506353771021 0 -0.1175879007316586 0.33497855513245622 0 -0.13367478836053351 0.33932016938713638 0 -0.1175879007316586 0.33497855513245622 0 -0.1173066256070304 0.35104950557859033 0 -0.10472406897533799 0.34168768652513631 0 -0.1081804568928026 0.32074506353771021 0 -0.1175879007316586 0.33497855513245622 0 -0.10472406897533799 0.34168768652513631 0 -0.1175879007316586 0.33497855513245622 0 -0.1173066256070304 0.35104950557859033 0 -0.1173066256070304 0.35104950557859033 0 -0.1198206075896991 0.37069234566290138 0 -0.1030551893938276 0.35978992576853291 0 -0.1367685514822152 0.35851885971508118 0 -0.1173066256070304 0.35104950557859033 0 -0.1198206075896991 0.37069234566290138 0 -0.1198206075896991 0.37069234566290138 0 -0.1030551893938276 0.35978992576853291 0 -0.10026372758235801 0.37465761506622741 0 -0.093494049974744503 0.36523362229143391 0 -0.10026372758235801 0.37465761506622741 0 -0.089436666146690338 0.3774527594588406 0 -0.093494049974744503 0.36523362229143391 0 -0.1030551893938276 0.35978992576853291 0 -0.10026372758235801 0.37465761506622741 0 -0.10472406897533799 0.34168768652513631 0 -0.1030551893938276 0.35978992576853291 0 -0.095141502753968779 0.35097174187852381 0 -0.093494049974744503 0.36523362229143391 0 -0.1030551893938276 0.35978992576853291 0 -0.095141502753968779 0.35097174187852381 0 -0.10472406897533799 0.34168768652513631 0 -0.1173066256070304 0.35104950557859033 0 -0.1030551893938276 0.35978992576853291 0 -0.101128536279416 0.3977608810528192 0 -0.11378235269799521 0.38746486633725291 0 -0.11258596611237601 0.40408595479252452 0 -0.101128536279416 0.3977608810528192 0 -0.095244926421122186 0.38729621463576269 0 -0.11378235269799521 0.38746486633725291 0 -0.101128536279416 0.3977608810528192 0 -0.11258596611237601 0.40408595479252452 0 -0.097808874238227678 0.41145560844912898 0 -0.101128536279416 0.3977608810528192 0 -0.097808874238227678 0.41145560844912898 0 -0.087042344484389883 0.39738020370821953 0 -0.101128536279416 0.3977608810528192 0 -0.095244926421122186 0.38729621463576269 0 -0.087042344484389883 0.39738020370821953 0 -0.10026372758235801 0.37465761506622741 0 -0.095244926421122186 0.38729621463576269 0 -0.11378235269799521 0.38746486633725291 0 -0.10026372758235801 0.37465761506622741 0 -0.095244926421122186 0.38729621463576269 0 -0.089436666146690338 0.3774527594588406 0 -0.1198206075896991 0.37069234566290138 0 -0.10026372758235801 0.37465761506622741 0 -0.11378235269799521 0.38746486633725291 0 -0.12826940643264259 0.38638828685515292 0 -0.1198206075896991 0.37069234566290138 0 -0.11378235269799521 0.38746486633725291 0 -0.12644786621320531 0.40058001872868543 0 -0.12826940643264259 0.38638828685515292 0 -0.11378235269799521 0.38746486633725291 0 -0.12761284081938409 0.41418542740570108 0 -0.11378235269799521 0.38746486633725291 0 -0.12761284081938409 0.41418542740570108 0 -0.12644786621320531 0.40058001872868543 0 -0.11378235269799521 0.38746486633725291 0 -0.12761284081938409 0.41418542740570108 0 -0.11378235269799521 0.38746486633725291 0 -0.11258596611237601 0.40408595479252452 0 -0.12761284081938409 0.41418542740570108 0 -0.11258596611237601 0.40408595479252452 0 -0.097808874238227678 0.41145560844912898 0 -0.12761284081938409 0.41418542740570108 0 -0.1126245701039178 0.4308246085444013 0 -0.097808874238227678 0.41145560844912898 0 -0.12761284081938409 0.41418542740570108 0 -0.097808874238227678 0.41145560844912898 0 -0.12761284081938409 0.41418542740570108 0 -0.1126245701039178 0.4308246085444013 0 -0.1242648033483075 0.43981492828754482 0 -0.1126245701039178 0.4308246085444013 0 -0.096605527178418776 0.42311346390882398 0 -0.097170403390676049 0.43571281837191522 0 -0.1126245701039178 0.4308246085444013 0 -0.097170403390676049 0.43571281837191522 0 -0.10338783084247161 0.44098956532991213 0 -0.1126245701039178 0.4308246085444013 0 -0.097808874238227678 0.41145560844912898 0 -0.1126245701039178 0.4308246085444013 0 -0.096605527178418776 0.42311346390882398 0 -0.097808874238227678 0.41145560844912898 0 -0.096605527178418776 0.42311346390882398 0 -0.097808874238227678 0.41145560844912898 0 -0.090623427087895073 0.41079747558654428 0 -0.097808874238227678 0.41145560844912898 0 -0.090623427087895073 0.41079747558654428 0 -0.096605527178418776 0.42311346390882398 0 -0.090623427087895073 0.41079747558654428 0 -0.084800361071377284 0.4267768085921303 0 -0.090623427087895073 0.41079747558654428 0 -0.084347825254610875 0.40943513047528779 0 -0.084800361071377284 0.4267768085921303 0 -0.084800361071377284 0.4267768085921303 0 -0.074925168374781331 0.40278603401425761 0 -0.084347825254610875 0.40943513047528779 0 -0.084800361071377284 0.4267768085921303 0 -0.074925168374781331 0.40278603401425761 0 -0.097808874238227678 0.41145560844912898 0 -0.090623427087895073 0.41079747558654428 0 -0.087042344484389883 0.39738020370821953 0 -0.096605527178418776 0.42311346390882398 0 -0.097170403390676049 0.43571281837191522 0 -0.084800361071377284 0.4267768085921303 0 -0.084800361071377284 0.4267768085921303 0 -0.077689053426030094 0.43734830183904833 0 -0.073740177733494089 0.43015549729097768 0 -0.084800361071377284 0.4267768085921303 0 -0.077689053426030094 0.43734830183904833 0 -0.085627028266785254 0.44117175463919189 0 -0.077689053426030094 0.43734830183904833 0 -0.073740177733494089 0.43015549729097768 0 -0.069373851585076945 0.43677151010665521 0 -0.084800361071377284 0.4267768085921303 0 -0.073740177733494089 0.43015549729097768 0 -0.074963529381557356 0.42372471124402672 0 -0.084800361071377284 0.4267768085921303 0 -0.074963529381557356 0.42372471124402672 0 -0.074207610301873977 0.415826985147286 0 -0.073740177733494089 0.43015549729097768 0 -0.07134827269677288 0.42521816639912852 0 -0.067010261651664849 0.42692585223643509 0 -0.073740177733494089 0.43015549729097768 0 -0.074963529381557356 0.42372471124402672 0 -0.07134827269677288 0.42521816639912852 0 -0.074963529381557356 0.42372471124402672 0 -0.07134827269677288 0.42521816639912852 0 -0.069903249343569923 0.42035209495099629 0 -0.06803153127557314 0.42418340705062968 0 -0.063864341410284964 0.42423751461595932 0 -0.069903249343569923 0.42035209495099629 0 -0.07134827269677288 0.42521816639912852 0 -0.06803153127557314 0.42418340705062968 0 -0.067010261651664849 0.42692585223643509 0 -0.07134827269677288 0.42521816639912852 0 -0.06803153127557314 0.42418340705062968 0 -0.069903249343569923 0.42035209495099629 0 -0.06803153127557314 0.42418340705062968 0 -0.063864341410284964 0.42423751461595932 0 -0.067010261651664849 0.42692585223643509 0 -0.063864341410284964 0.42423751461595932 0 -0.067010261651664849 0.42692585223643509 0 -0.067010261651664849 0.42692585223643509 0 -0.06657591115514655 0.43192586875325267 0 -0.062357688865182517 0.42920641545622512 0 -0.063864341410284964 0.42423751461595932 0 -0.067010261651664849 0.42692585223643509 0 -0.062357688865182517 0.42920641545622512 0 -0.063864341410284964 0.42423751461595932 0 -0.062357688865182517 0.42920641545622512 0 -0.073740177733494089 0.43015549729097768 0 -0.067010261651664849 0.42692585223643509 0 -0.06657591115514655 0.43192586875325267 0 -0.073740177733494089 0.43015549729097768 0 -0.06657591115514655 0.43192586875325267 0 -0.069373851585076945 0.43677151010665521 0 -0.06657591115514655 0.43192586875325267 0 -0.062750456602468974 0.43554137489064498 0 -0.062357688865182517 0.42920641545622512 0 -0.06657591115514655 0.43192586875325267 0 -0.062750456602468974 0.43554137489064498 0 -0.069373851585076945 0.43677151010665521 0 -0.063864341410284964 0.42423751461595932 0 -0.069903249343569923 0.42035209495099629 0 -0.070070078070418332 0.40377115679163461 0 -0.074207610301873977 0.415826985147286 0 -0.069903249343569923 0.42035209495099629 0 -0.070070078070418332 0.40377115679163461 0 -0.063864341410284964 0.42423751461595932 0 -0.070070078070418332 0.40377115679163461 0 -0.058881304157308093 0.40804381518971672 0 -0.063864341410284964 0.42423751461595932 0 -0.070070078070418332 0.40377115679163461 0 -0.084800361071377284 0.4267768085921303 0 -0.074207610301873977 0.415826985147286 0 -0.074925168374781331 0.40278603401425761 0 -0.074207610301873977 0.415826985147286 0 -0.070070078070418332 0.40377115679163461 0 -0.074925168374781331 0.40278603401425761 0 -0.074963529381557356 0.42372471124402672 0 -0.074207610301873977 0.415826985147286 0 -0.069903249343569923 0.42035209495099629 0 -0.070070078070418332 0.40377115679163461 0 -0.064506344576777661 0.39145758865641178 0 -0.076275814730551866 0.38330479896731001 0 -0.070070078070418332 0.40377115679163461 0 -0.074925168374781331 0.40278603401425761 0 -0.076275814730551866 0.38330479896731001 0 -0.070070078070418332 0.40377115679163461 0 -0.076275814730551866 0.38330479896731001 0 -0.070070078070418332 0.40377115679163461 0 -0.064506344576777661 0.39145758865641178 0 -0.057086028466031037 0.39647274516785291 0 -0.074925168374781331 0.40278603401425761 0 -0.087042344484389883 0.39738020370821953 0 -0.076275814730551866 0.38330479896731001 0 -0.084347825254610875 0.40943513047528779 0 -0.074925168374781331 0.40278603401425761 0 -0.087042344484389883 0.39738020370821953 0 -0.097808874238227678 0.41145560844912898 0 -0.087042344484389883 0.39738020370821953 0 -0.090623427087895073 0.41079747558654428 0 -0.084347825254610875 0.40943513047528779 0 -0.087042344484389883 0.39738020370821953 0 -0.087042344484389883 0.39738020370821953 0 -0.089436666146690338 0.3774527594588406 0 -0.076275814730551866 0.38330479896731001 0 -0.095244926421122186 0.38729621463576269 0 -0.087042344484389883 0.39738020370821953 0 -0.089436666146690338 0.3774527594588406 0 -0.087042344484389883 0.39738020370821953 0 -0.076275814730551866 0.38330479896731001 0 -0.064506344576777661 0.39145758865641178 0 -0.076275814730551866 0.38330479896731001 0 -0.054593457040109393 0.3822816536988497 0 -0.058148679921659119 0.37186744297544022 0 -0.076275814730551866 0.38330479896731001 0 -0.054593457040109393 0.3822816536988497 0 -0.064506344576777661 0.39145758865641178 0 -0.054593457040109393 0.3822816536988497 0 -0.057086028466031037 0.39647274516785291 0 -0.054593457040109393 0.3822816536988497 0 -0.057086028466031037 0.39647274516785291 0 -0.042391572779214973 0.39096282696345341 0 -0.057086028466031037 0.39647274516785291 0 -0.042391572779214973 0.39096282696345341 0 -0.044504768682498037 0.40769384418342008 0 -0.070070078070418332 0.40377115679163461 0 -0.057086028466031037 0.39647274516785291 0 -0.058881304157308093 0.40804381518971672 0 -0.057086028466031037 0.39647274516785291 0 -0.044504768682498037 0.40769384418342008 0 -0.058881304157308093 0.40804381518971672 0 -0.02514519595471108 0.39115017375088101 0 -0.044504768682498037 0.40769384418342008 0 -0.042391572779214973 0.39096282696345341 0 -0.02514519595471108 0.39115017375088101 0 -0.044504768682498037 0.40769384418342008 0 -0.034100997704691827 0.37295894625721099 0 -0.054593457040109393 0.3822816536988497 0 -0.042391572779214973 0.39096282696345341 0 -0.034100997704691827 0.37295894625721099 0 -0.042391572779214973 0.39096282696345341 0 -0.02514519595471108 0.39115017375088101 0 -0.034100997704691827 0.37295894625721099 0 -0.02514519595471108 0.39115017375088101 0 -0.034100997704691827 0.37295894625721099 0 -0.02514519595471108 0.39115017375088101 0 -0.0087141207398781558 0.37710904293520409 0 -0.02514519595471108 0.39115017375088101 0 -0.0087141207398781558 0.37710904293520409 0 -0.02514519595471108 0.39115017375088101 0 -0.014810785045769751 0.41214166341376801 0 -0.02514519595471108 0.39115017375088101 0 -0.014810785045769751 0.41214166341376801 0 -0.044504768682498037 0.40769384418342008 0 -0.0068648610501423502 0.39382000907293813 0 -0.014810785045769751 0.41214166341376801 0 0.0046995574085186929 0.41194005205042061 0 -0.02514519595471108 0.39115017375088101 0 -0.0068648610501423502 0.39382000907293813 0 -0.014810785045769751 0.41214166341376801 0 -0.02514519595471108 0.39115017375088101 0 -0.0068648610501423502 0.39382000907293813 0 -0.0087141207398781558 0.37710904293520409 0 -0.0068648610501423502 0.39382000907293813 0 -0.0087141207398781558 0.37710904293520409 0 0.0053185270157129726 0.37689571945341471 0 -0.0044763741368290672 0.43313315307665529 0 -0.014810785045769751 0.41214166341376801 0 -0.0044763741368290672 0.43313315307665529 0 -0.014810785045769751 0.41214166341376801 0 -0.026116443713473419 0.4246575807879529 0 -0.0044763741368290672 0.43313315307665529 0 -0.014810785045769751 0.41214166341376801 0 0.0046995574085186929 0.41194005205042061 0 -0.014810785045769751 0.41214166341376801 0 -0.026116443713473419 0.4246575807879529 0 -0.044504768682498037 0.40769384418342008 0 -0.0044763741368290672 0.43313315307665529 0 -0.026116443713473419 0.4246575807879529 0 -0.02623027688729573 0.44118750916919391 0 -0.026116443713473419 0.4246575807879529 0 -0.040560013814974517 0.42913173409672722 0 -0.02623027688729573 0.44118750916919391 0 -0.040560013814974517 0.42913173409672722 0 -0.048293098329248912 0.43867666423002288 0 -0.039090066940739521 0.44352471403713711 0 -0.026116443713473419 0.4246575807879529 0 -0.040560013814974517 0.42913173409672722 0 -0.044504768682498037 0.40769384418342008 0 -0.040560013814974517 0.42913173409672722 0 -0.044504768682498037 0.40769384418342008 0 -0.051886787429848112 0.42350176277299723 0 -0.063864341410284964 0.42423751461595932 0 -0.044504768682498037 0.40769384418342008 0 -0.058881304157308093 0.40804381518971672 0 -0.063864341410284964 0.42423751461595932 0 -0.044504768682498037 0.40769384418342008 0 -0.051886787429848112 0.42350176277299723 0 -0.063864341410284964 0.42423751461595932 0 -0.044504768682498037 0.40769384418342008 0 -0.053936434918908913 0.43159717611494758 0 -0.057641003333182179 0.44086754716312743 0 -0.048293098329248912 0.43867666423002288 0 -0.040560013814974517 0.42913173409672722 0 -0.053936434918908913 0.43159717611494758 0 -0.048293098329248912 0.43867666423002288 0 -0.040560013814974517 0.42913173409672722 0 -0.053936434918908913 0.43159717611494758 0 -0.051886787429848112 0.42350176277299723 0 -0.053936434918908913 0.43159717611494758 0 -0.051886787429848112 0.42350176277299723 0 -0.062357688865182517 0.42920641545622512 0 -0.063864341410284964 0.42423751461595932 0 -0.051886787429848112 0.42350176277299723 0 -0.062357688865182517 0.42920641545622512 0 -0.062750456602468974 0.43554137489064498 0 -0.053936434918908913 0.43159717611494758 0 -0.062357688865182517 0.42920641545622512 0 -0.062750456602468974 0.43554137489064498 0 -0.053936434918908913 0.43159717611494758 0 -0.057641003333182179 0.44086754716312743 0 -0.062750456602468974 0.43554137489064498 0 -0.057641003333182179 0.44086754716312743 0 -0.065491549478626135 0.44200233464982802 0 -0.057641003333182179 0.44086754716312743 0 -0.062398417199954148 0.4499603094023914 0 -0.065491549478626135 0.44200233464982802 0 -0.057641003333182179 0.44086754716312743 0 -0.062398417199954148 0.4499603094023914 0 -0.050237972638439453 0.44826214973817502 0 -0.057641003333182179 0.44086754716312743 0 -0.050237972638439453 0.44826214973817502 0 -0.048293098329248912 0.43867666423002288 0 -0.062398417199954148 0.4499603094023914 0 -0.050230730183752688 0.46259696058471089 0 -0.064501224992871267 0.46542691543905351 0 -0.062398417199954148 0.4499603094023914 0 -0.050237972638439453 0.44826214973817502 0 -0.050230730183752688 0.46259696058471089 0 -0.050230730183752688 0.46259696058471089 0 -0.035748626011326709 0.45858167758110602 0 -0.046040344352481867 0.47841272498986082 0 -0.050237972638439453 0.44826214973817502 0 -0.050230730183752688 0.46259696058471089 0 -0.035748626011326709 0.45858167758110602 0 -0.035748626011326709 0.45858167758110602 0 -0.039090066940739521 0.44352471403713711 0 -0.02623027688729573 0.44118750916919391 0 -0.050237972638439453 0.44826214973817502 0 -0.048293098329248912 0.43867666423002288 0 -0.039090066940739521 0.44352471403713711 0 -0.050237972638439453 0.44826214973817502 0 -0.035748626011326709 0.45858167758110602 0 -0.039090066940739521 0.44352471403713711 0 -0.040560013814974517 0.42913173409672722 0 -0.039090066940739521 0.44352471403713711 0 -0.02623027688729573 0.44118750916919391 0 -0.035748626011326709 0.45858167758110602 0 -0.02623027688729573 0.44118750916919391 0 -0.01728298942402769 0.45556140426229003 0 -0.0044763741368290672 0.43313315307665529 0 -0.02623027688729573 0.44118750916919391 0 -0.01728298942402769 0.45556140426229003 0 -0.035748626011326709 0.45858167758110602 0 -0.01728298942402769 0.45556140426229003 0 -0.022784747477638551 0.4775754860453762 0 -0.01728298942402769 0.45556140426229003 0 -0.0062093312902834459 0.46527566221073008 0 0.006403582431216831 0.45126676372832991 0 -0.01728298942402769 0.45556140426229003 0 -0.0062093312902834459 0.46527566221073008 0 -0.022784747477638551 0.4775754860453762 0 -0.0044763741368290672 0.43313315307665529 0 -0.01728298942402769 0.45556140426229003 0 0.006403582431216831 0.45126676372832991 0 -0.0062093312902834459 0.46527566221073008 0 -0.022784747477638551 0.4775754860453762 0 0.0095498935665802413 0.47810272379952351 0 -0.022784747477638551 0.4775754860453762 0 -0.021427984417146221 0.5 0 0.0095498935665802413 0.47810272379952351 0 -0.021427984417146221 0.5 0 0.0095498935665802413 0.47810272379952351 0 0.0086042794582089632 0.5 0 -0.022784747477638551 0.4775754860453762 0 -0.021427984417146221 0.5 0 -0.046040344352481867 0.47841272498986082 0 -0.021427984417146221 0.5 0 -0.046040344352481867 0.47841272498986082 0 -0.051460248292501398 0.5 0 -0.035748626011326709 0.45858167758110602 0 -0.022784747477638551 0.4775754860453762 0 -0.046040344352481867 0.47841272498986082 0 -0.046040344352481867 0.47841272498986082 0 -0.067939054777113927 0.48291587414950521 0 -0.064501224992871267 0.46542691543905351 0 -0.050230730183752688 0.46259696058471089 0 -0.046040344352481867 0.47841272498986082 0 -0.064501224992871267 0.46542691543905351 0 -0.046040344352481867 0.47841272498986082 0 -0.051460248292501398 0.5 0 -0.067939054777113927 0.48291587414950521 0 -0.051460248292501398 0.5 0 -0.081492512167856565 0.50000000000000011 0 -0.067939054777113927 0.48291587414950521 0 -0.081492512167856565 0.50000000000000011 0 -0.085878896958769185 0.47675925450649242 0 -0.067939054777113927 0.48291587414950521 0 -0.081492512167856565 0.50000000000000011 0 -0.085878896958769185 0.47675925450649242 0 -0.099362977551805121 0.48745008538217821 0 -0.081492512167856565 0.50000000000000011 0 -0.085878896958769185 0.47675925450649242 0 -0.085878896958769185 0.47675925450649242 0 -0.075452149305044958 0.46933040044586682 0 -0.067939054777113927 0.48291587414950521 0 -0.075452149305044958 0.46933040044586682 0 -0.067939054777113927 0.48291587414950521 0 -0.064501224992871267 0.46542691543905351 0 -0.064501224992871267 0.46542691543905351 0 -0.075214053997903707 0.45912990264989012 0 -0.070315415620740368 0.45334812155980347 0 -0.062398417199954148 0.4499603094023914 0 -0.064501224992871267 0.46542691543905351 0 -0.070315415620740368 0.45334812155980347 0 -0.075214053997903707 0.45912990264989012 0 -0.070315415620740368 0.45334812155980347 0 -0.081419329692844739 0.44979703694502599 0 -0.075452149305044958 0.46933040044586682 0 -0.064501224992871267 0.46542691543905351 0 -0.075214053997903707 0.45912990264989012 0 -0.075452149305044958 0.46933040044586682 0 -0.075214053997903707 0.45912990264989012 0 -0.082509194984251868 0.46007906520350089 0 -0.069373851585076945 0.43677151010665521 0 -0.065491549478626135 0.44200233464982802 0 -0.073041418115067244 0.44511613748665291 0 -0.062750456602468974 0.43554137489064498 0 -0.069373851585076945 0.43677151010665521 0 -0.065491549478626135 0.44200233464982802 0 -0.062398417199954148 0.4499603094023914 0 -0.065491549478626135 0.44200233464982802 0 -0.073041418115067244 0.44511613748665291 0 -0.062398417199954148 0.4499603094023914 0 -0.070315415620740368 0.45334812155980347 0 -0.073041418115067244 0.44511613748665291 0 -0.070315415620740368 0.45334812155980347 0 -0.073041418115067244 0.44511613748665291 0 -0.081419329692844739 0.44979703694502599 0 -0.073041418115067244 0.44511613748665291 0 -0.07941018481149445 0.44345804230003222 0 -0.081419329692844739 0.44979703694502599 0 -0.077689053426030094 0.43734830183904833 0 -0.069373851585076945 0.43677151010665521 0 -0.073041418115067244 0.44511613748665291 0 -0.077689053426030094 0.43734830183904833 0 -0.073041418115067244 0.44511613748665291 0 -0.07941018481149445 0.44345804230003222 0 -0.097170403390676049 0.43571281837191522 0 -0.084800361071377284 0.4267768085921303 0 -0.094675553767973264 0.45076758317000298 0 -0.084800361071377284 0.4267768085921303 0 -0.094675553767973264 0.45076758317000298 0 -0.084800361071377284 0.4267768085921303 0 -0.085627028266785254 0.44117175463919189 0 -0.094675553767973264 0.45076758317000298 0 -0.085627028266785254 0.44117175463919189 0 -0.07941018481149445 0.44345804230003222 0 -0.081419329692844739 0.44979703694502599 0 -0.077689053426030094 0.43734830183904833 0 -0.085627028266785254 0.44117175463919189 0 -0.07941018481149445 0.44345804230003222 0 -0.085627028266785254 0.44117175463919189 0 -0.081419329692844739 0.44979703694502599 0 -0.088082484801868088 0.44854024150695748 0 -0.081419329692844739 0.44979703694502599 0 -0.086047819819581178 0.45134535453790131 0 -0.088082484801868088 0.44854024150695748 0 -0.085627028266785254 0.44117175463919189 0 -0.088082484801868088 0.44854024150695748 0 -0.094675553767973264 0.45076758317000298 0 -0.086047819819581178 0.45134535453790131 0 -0.088082484801868088 0.44854024150695748 0 -0.090265281749681819 0.45351850901298468 0 -0.088082484801868088 0.44854024150695748 0 -0.090265281749681819 0.45351850901298468 0 -0.094675553767973264 0.45076758317000298 0 -0.085878896958769185 0.47675925450649242 0 -0.075452149305044958 0.46933040044586682 0 -0.082509194984251868 0.46007906520350089 0 -0.085878896958769185 0.47675925450649242 0 -0.090265281749681819 0.45351850901298468 0 -0.085878896958769185 0.47675925450649242 0 -0.090265281749681819 0.45351850901298468 0 -0.093944937474792503 0.46462082789344678 0 -0.085878896958769185 0.47675925450649242 0 -0.082509194984251868 0.46007906520350089 0 -0.090265281749681819 0.45351850901298468 0 -0.081419329692844739 0.44979703694502599 0 -0.086047819819581178 0.45134535453790131 0 -0.082509194984251868 0.46007906520350089 0 -0.075214053997903707 0.45912990264989012 0 -0.081419329692844739 0.44979703694502599 0 -0.082509194984251868 0.46007906520350089 0 -0.090265281749681819 0.45351850901298468 0 -0.093944937474792503 0.46462082789344678 0 -0.094675553767973264 0.45076758317000298 0 -0.086047819819581178 0.45134535453790131 0 -0.082509194984251868 0.46007906520350089 0 -0.090265281749681819 0.45351850901298468 0 -0.093944937474792503 0.46462082789344678 0 -0.094675553767973264 0.45076758317000298 0 -0.1045507464645692 0.47475835774787573 0 -0.094675553767973264 0.45076758317000298 0 -0.1045507464645692 0.47475835774787573 0 -0.1087715055698807 0.4588247561088431 0 -0.094675553767973264 0.45076758317000298 0 -0.1045507464645692 0.47475835774787573 0 -0.1126245701039178 0.4308246085444013 0 -0.1090807961073193 0.44665325123332839 0 -0.10338783084247161 0.44098956532991213 0 -0.097170403390676049 0.43571281837191522 0 -0.094675553767973264 0.45076758317000298 0 -0.10338783084247161 0.44098956532991213 0 -0.1087715055698807 0.4588247561088431 0 -0.094675553767973264 0.45076758317000298 0 -0.1090807961073193 0.44665325123332839 0 -0.094675553767973264 0.45076758317000298 0 -0.1090807961073193 0.44665325123332839 0 -0.10338783084247161 0.44098956532991213 0 -0.1126245701039178 0.4308246085444013 0 -0.1090807961073193 0.44665325123332839 0 -0.1242648033483075 0.43981492828754482 0 -0.1090807961073193 0.44665325123332839 0 -0.1242648033483075 0.43981492828754482 0 -0.1204057133641486 0.45504160574272429 0 -0.1087715055698807 0.4588247561088431 0 -0.1176294132596279 0.46872710166108278 0 -0.1045507464645692 0.47475835774787573 0 -0.1087715055698807 0.4588247561088431 0 -0.1204057133641486 0.45504160574272429 0 -0.1176294132596279 0.46872710166108278 0 -0.1087715055698807 0.4588247561088431 0 -0.1090807961073193 0.44665325123332839 0 -0.1204057133641486 0.45504160574272429 0 -0.13097929143795109 0.46459511115351071 0 -0.1204057133641486 0.45504160574272429 0 -0.1176294132596279 0.46872710166108278 0 -0.12908554574303099 0.47755934496718438 0 -0.1176294132596279 0.46872710166108278 0 -0.1160402402672886 0.48503019582547341 0 -0.1176294132596279 0.46872710166108278 0 -0.1160402402672886 0.48503019582547341 0 -0.1045507464645692 0.47475835774787573 0 -0.13803845513632401 0.5 0 -0.1097654836520903 0.5 0 -0.1160402402672886 0.48503019582547341 0 -0.1097654836520903 0.5 0 -0.1160402402672886 0.48503019582547341 0 -0.099362977551805121 0.48745008538217821 0 -0.081492512167856565 0.50000000000000011 0 -0.1097654836520903 0.5 0 -0.099362977551805121 0.48745008538217821 0 -0.085878896958769185 0.47675925450649242 0 -0.093944937474792503 0.46462082789344678 0 -0.1045507464645692 0.47475835774787573 0 -0.085878896958769185 0.47675925450649242 0 -0.099362977551805121 0.48745008538217821 0 -0.1045507464645692 0.47475835774787573 0 -0.1160402402672886 0.48503019582547341 0 -0.099362977551805121 0.48745008538217821 0 -0.1045507464645692 0.47475835774787573 0 -0.15850742705232401 0.077073165420907211 0 -0.17832815471062741 0.080370175701138483 0 -0.15596223049933161 0.089669487892629185 0 -0.17128916945913089 0.092189477241546317 0 -0.17832815471062741 0.080370175701138483 0 -0.15596223049933161 0.089669487892629185 0 -0.17832815471062741 0.080370175701138483 0 -0.15596223049933161 0.089669487892629185 0 -0.15850742705232401 0.077073165420907211 0 -0.16907692184479731 0.071953328836937142 0 -0.17832815471062741 0.080370175701138483 0 -0.15850742705232401 0.077073165420907211 0 -0.15722519427174569 0.065058312825911402 0 -0.16907692184479731 0.071953328836937142 0 -0.16907692184479731 0.071953328836937142 0 -0.1809864334298861 0.069780609401686525 0 -0.17832815471062741 0.080370175701138483 0 -0.16907692184479731 0.071953328836937142 0 -0.1809864334298861 0.069780609401686525 0 -0.18167022033174851 0.056262687610226528 0 -0.1809864334298861 0.069780609401686525 0 -0.17832815471062741 0.080370175701138483 0 -0.20069407892192309 0.071070863509647808 0 -0.1809864334298861 0.069780609401686525 0 -0.18167022033174851 0.056262687610226528 0 -0.1876556690991136 0.063313821709693935 0 -0.17128916945913089 0.092189477241546317 0 -0.18444466814129201 0.081023499242751457 0 -0.17631468167186989 0.1066384650542631 0 -0.17128916945913089 0.092189477241546317 0 -0.18444466814129201 0.081023499242751457 0 -0.17832815471062741 0.080370175701138483 0 -0.18444466814129201 0.081023499242751457 0 -0.17631468167186989 0.1066384650542631 0 -0.19937405773042491 0.1071019237599893 0 -0.17631468167186989 0.1066384650542631 0 -0.16393492635195239 0.1245978723337525 0 -0.1795193575176991 0.1294692331289829 0 -0.17631468167186989 0.1066384650542631 0 -0.19937405773042491 0.1071019237599893 0 -0.1795193575176991 0.1294692331289829 0 -0.16393492635195239 0.1245978723337525 0 -0.16139611227253359 0.1032457583169494 0 -0.15311233888185891 0.1152965378839053 0 -0.17631468167186989 0.1066384650542631 0 -0.16393492635195239 0.1245978723337525 0 -0.16139611227253359 0.1032457583169494 0 -0.17128916945913089 0.092189477241546317 0 -0.17631468167186989 0.1066384650542631 0 -0.16139611227253359 0.1032457583169494 0 -0.17128916945913089 0.092189477241546317 0 -0.16139611227253359 0.1032457583169494 0 -0.15596223049933161 0.089669487892629185 0 -0.16139611227253359 0.1032457583169494 0 -0.13359630628803579 0.098968800084119873 0 -0.15596223049933161 0.089669487892629185 0 -0.16139611227253359 0.1032457583169494 0 -0.15311233888185891 0.1152965378839053 0 -0.13359630628803579 0.098968800084119873 0 -0.13359630628803579 0.098968800084119873 0 -0.15596223049933161 0.089669487892629185 0 -0.15311233888185891 0.1152965378839053 0 -0.13930859898956699 0.1145050369687237 0 -0.153752621985453 0.14073392350839439 0 -0.15311233888185891 0.1152965378839053 0 -0.13930859898956699 0.1145050369687237 0 -0.13359630628803579 0.098968800084119873 0 -0.13930859898956699 0.1145050369687237 0 -0.12607259725238279 0.11330641960449821 0 -0.12916618827146031 0.12390190950899049 0 -0.13930859898956699 0.1145050369687237 0 -0.12607259725238279 0.11330641960449821 0 -0.13359630628803579 0.098968800084119873 0 -0.13359630628803579 0.098968800084119873 0 -0.12697672020224329 0.087309090757334687 0 -0.14089006822782121 0.082531143958766096 0 -0.12697672020224329 0.087309090757334687 0 -0.14089006822782121 0.082531143958766096 0 -0.12697985749263241 0.07630636069427757 0 -0.15850742705232401 0.077073165420907211 0 -0.14089006822782121 0.082531143958766096 0 -0.15596223049933161 0.089669487892629185 0 -0.13359630628803579 0.098968800084119873 0 -0.14089006822782121 0.082531143958766096 0 -0.15596223049933161 0.089669487892629185 0 -0.15850742705232401 0.077073165420907211 0 -0.14089006822782121 0.082531143958766096 0 -0.14764327064684279 0.071644858797684771 0 -0.15722519427174569 0.065058312825911402 0 -0.14764327064684279 0.071644858797684771 0 -0.1471722955607111 0.059591957907519158 0 -0.15850742705232401 0.077073165420907211 0 -0.15722519427174569 0.065058312825911402 0 -0.14764327064684279 0.071644858797684771 0 -0.14089006822782121 0.082531143958766096 0 -0.14764327064684279 0.071644858797684771 0 -0.13666502121529681 0.069478967649866344 0 -0.14764327064684279 0.071644858797684771 0 -0.13666502121529681 0.069478967649866344 0 -0.1471722955607111 0.059591957907519158 0 -0.14089006822782121 0.082531143958766096 0 -0.13666502121529681 0.069478967649866344 0 -0.12697985749263241 0.07630636069427757 0 -0.13666502121529681 0.069478967649866344 0 -0.12697985749263241 0.07630636069427757 0 -0.12509646681095879 0.065597408261105467 0 -0.13666502121529681 0.069478967649866344 0 -0.12509646681095879 0.065597408261105467 0 -0.13233523162579211 0.057527865090889828 0 -0.13233523162579211 0.057527865090889828 0 -0.1197320338084647 0.057760070231756527 0 -0.1244920148619628 0.050381604022983993 0 -0.12509646681095879 0.065597408261105467 0 -0.13233523162579211 0.057527865090889828 0 -0.1197320338084647 0.057760070231756527 0 -0.13666502121529681 0.069478967649866344 0 -0.13233523162579211 0.057527865090889828 0 -0.1471722955607111 0.059591957907519158 0 -0.13233523162579211 0.057527865090889828 0 -0.131277092146349 0.043237905602295942 0 -0.1435202772377579 0.047601805401877667 0 -0.13233523162579211 0.057527865090889828 0 -0.131277092146349 0.043237905602295942 0 -0.1244920148619628 0.050381604022983993 0 -0.131277092146349 0.043237905602295942 0 -0.14194951185496399 0.035172378083737049 0 -0.12424451236807239 0.027069144312366941 0 -0.131277092146349 0.043237905602295942 0 -0.12424451236807239 0.027069144312366941 0 -0.12075472355362291 0.04122338309529356 0 -0.131277092146349 0.043237905602295942 0 -0.12075472355362291 0.04122338309529356 0 -0.1244920148619628 0.050381604022983993 0 -0.131277092146349 0.043237905602295942 0 -0.14194951185496399 0.035172378083737049 0 -0.1435202772377579 0.047601805401877667 0 -0.14194951185496399 0.035172378083737049 0 -0.15126073753592009 0.02487777788828089 0 -0.1637260562540532 0.045028253166508762 0 -0.14194951185496399 0.035172378083737049 0 -0.1435202772377579 0.047601805401877667 0 -0.1637260562540532 0.045028253166508762 0 -0.15722519427174569 0.065058312825911402 0 -0.1471722955607111 0.059591957907519158 0 -0.1637260562540532 0.045028253166508762 0 -0.1471722955607111 0.059591957907519158 0 -0.1435202772377579 0.047601805401877667 0 -0.1637260562540532 0.045028253166508762 0 -0.13233523162579211 0.057527865090889828 0 -0.1471722955607111 0.059591957907519158 0 -0.1435202772377579 0.047601805401877667 0 -0.1244522405185825 -0.00038769298458709092 0 -0.1310798501921922 0.016754836893075501 0 -0.12424451236807239 0.027069144312366941 0 -0.1244522405185825 -0.00038769298458709092 0 -0.13302987177733741 0.0072862060594841918 0 -0.1310798501921922 0.016754836893075501 0 -0.13796817939809339 -7.5853332940862265e-05 0 -0.13302987177733741 0.0072862060594841918 0 -0.13861921700048169 0.01285353366238922 0 -0.1244522405185825 -0.00038769298458709092 0 -0.13796817939809339 -7.5853332940862265e-05 0 -0.13302987177733741 0.0072862060594841918 0 -0.13302987177733741 0.0072862060594841918 0 -0.13861921700048169 0.01285353366238922 0 -0.1310798501921922 0.016754836893075501 0 -0.14194951185496399 0.035172378083737049 0 -0.1395360945068517 0.023372288850015029 0 -0.12424451236807239 0.027069144312366941 0 -0.13861921700048169 0.01285353366238922 0 -0.1395360945068517 0.023372288850015029 0 -0.1310798501921922 0.016754836893075501 0 -0.1395360945068517 0.023372288850015029 0 -0.1310798501921922 0.016754836893075501 0 -0.12424451236807239 0.027069144312366941 0 -0.14194951185496399 0.035172378083737049 0 -0.1395360945068517 0.023372288850015029 0 -0.15126073753592009 0.02487777788828089 0 -0.15126073753592009 0.02487777788828089 0 -0.15188271994169991 0.01786916074884114 0 -0.14657132146084931 0.01677767438903701 0 -0.15126073753592009 0.02487777788828089 0 -0.15837519066330749 0.018103177496080571 0 -0.1567842680697151 0.017821512483746641 0 -0.15126073753592009 0.02487777788828089 0 -0.15188271994169991 0.01786916074884114 0 -0.1567842680697151 0.017821512483746641 0 -0.1543123506052223 0.01567032783345056 0 -0.15188271994169991 0.01786916074884114 0 -0.1567842680697151 0.017821512483746641 0 -0.13861921700048169 0.01285353366238922 0 -0.1395360945068517 0.023372288850015029 0 -0.14657132146084931 0.01677767438903701 0 -0.1395360945068517 0.023372288850015029 0 -0.15126073753592009 0.02487777788828089 0 -0.14657132146084931 0.01677767438903701 0 -0.15381676672243971 -0.0048344028756085976 0 -0.13796817939809339 -7.5853332940862265e-05 0 -0.14598604308907309 0.0075397954886723484 0 -0.15381676672243971 -0.0048344028756085976 0 -0.15837519066330749 0.018103177496080571 0 -0.15381676672243971 -0.0048344028756085976 0 -0.15182406541376531 0.011854288846745499 0 -0.15837519066330749 0.018103177496080571 0 -0.15381676672243971 -0.0048344028756085976 0 -0.15182406541376531 0.011854288846745499 0 -0.14598604308907309 0.0075397954886723484 0 -0.13861921700048169 0.01285353366238922 0 -0.14657132146084931 0.01677767438903701 0 -0.14598604308907309 0.0075397954886723484 0 -0.14657132146084931 0.01677767438903701 0 -0.15182406541376531 0.011854288846745499 0 -0.14598604308907309 0.0075397954886723484 0 -0.15188271994169991 0.01786916074884114 0 -0.14657132146084931 0.01677767438903701 0 -0.15182406541376531 0.011854288846745499 0 -0.1543123506052223 0.01567032783345056 0 -0.15182406541376531 0.011854288846745499 0 -0.15837519066330749 0.018103177496080571 0 -0.1543123506052223 0.01567032783345056 0 -0.15188271994169991 0.01786916074884114 0 -0.15182406541376531 0.011854288846745499 0 -0.13796817939809339 -7.5853332940862265e-05 0 -0.13861921700048169 0.01285353366238922 0 -0.14598604308907309 0.0075397954886723484 0 -0.15381676672243971 -0.0048344028756085976 0 -0.16872927738725291 0.0066655648670224509 0 -0.15837519066330749 0.018103177496080571 0 -0.16872927738725291 0.0066655648670224509 0 -0.15837519066330749 0.018103177496080571 0 -0.17312315274812851 0.016956976572924821 0 -0.15837519066330749 0.018103177496080571 0 -0.17088268452158301 0.030303691123205939 0 -0.18416549926151529 0.022669224655560441 0 -0.15837519066330749 0.018103177496080571 0 -0.17088268452158301 0.030303691123205939 0 -0.1637260562540532 0.045028253166508762 0 -0.15126073753592009 0.02487777788828089 0 -0.15837519066330749 0.018103177496080571 0 -0.1637260562540532 0.045028253166508762 0 -0.15837519066330749 0.018103177496080571 0 -0.18416549926151529 0.022669224655560441 0 -0.1543123506052223 0.01567032783345056 0 -0.15837519066330749 0.018103177496080571 0 -0.1567842680697151 0.017821512483746641 0 -0.15837519066330749 0.018103177496080571 0 -0.1567842680697151 0.017821512483746641 0 -0.15837519066330749 0.018103177496080571 0 -0.18416549926151529 0.022669224655560441 0 -0.17312315274812851 0.016956976572924821 0 -0.17088268452158301 0.030303691123205939 0 -0.18416549926151529 0.022669224655560441 0 -0.1815242396402782 0.037713578252632912 0 -0.18416549926151529 0.022669224655560441 0 -0.17919408738426101 0.017592611389363012 0 -0.18518118592807509 0.0154377595936586 0 -0.18416549926151529 0.022669224655560441 0 -0.17312315274812851 0.016956976572924821 0 -0.17919408738426101 0.017592611389363012 0 -0.1785064095432054 -0.0066611219507198768 0 -0.16872927738725291 0.0066655648670224509 0 -0.193034969706537 0.00064734206737222756 0 -0.16872927738725291 0.0066655648670224509 0 -0.193034969706537 0.00064734206737222756 0 -0.16872927738725291 0.0066655648670224509 0 -0.18518118592807509 0.0154377595936586 0 -0.193034969706537 0.00064734206737222756 0 -0.16872927738725291 0.0066655648670224509 0 -0.17919408738426101 0.017592611389363012 0 -0.18518118592807509 0.0154377595936586 0 -0.16872927738725291 0.0066655648670224509 0 -0.17312315274812851 0.016956976572924821 0 -0.17919408738426101 0.017592611389363012 0 -0.16907692184479731 0.071953328836937142 0 -0.1637260562540532 0.045028253166508762 0 -0.18167022033174851 0.056262687610226528 0 -0.15722519427174569 0.065058312825911402 0 -0.16907692184479731 0.071953328836937142 0 -0.1637260562540532 0.045028253166508762 0 -0.16907692184479731 0.071953328836937142 0 -0.1637260562540532 0.045028253166508762 0 -0.15837519066330749 0.018103177496080571 0 -0.1637260562540532 0.045028253166508762 0 -0.17088268452158301 0.030303691123205939 0 -0.1637260562540532 0.045028253166508762 0 -0.1815242396402782 0.037713578252632912 0 -0.1815242396402782 0.037713578252632912 0 -0.18167022033174851 0.056262687610226528 0 -0.1948999673891425 0.045815662425189529 0 -0.1637260562540532 0.045028253166508762 0 -0.1815242396402782 0.037713578252632912 0 -0.18167022033174851 0.056262687610226528 0 -0.18416549926151529 0.022669224655560441 0 -0.1815242396402782 0.037713578252632912 0 -0.19539241544158811 0.034915353149486399 0 -0.19598386328254799 0.058823167906541372 0 -0.20873259774339259 0.055173182954087172 0 -0.20069407892192309 0.071070863509647808 0 -0.18167022033174851 0.056262687610226528 0 -0.19598386328254799 0.058823167906541372 0 -0.1876556690991136 0.063313821709693935 0 -0.19598386328254799 0.058823167906541372 0 -0.1948999673891425 0.045815662425189529 0 -0.20873259774339259 0.055173182954087172 0 -0.18167022033174851 0.056262687610226528 0 -0.19598386328254799 0.058823167906541372 0 -0.1948999673891425 0.045815662425189529 0 -0.1815242396402782 0.037713578252632912 0 -0.1948999673891425 0.045815662425189529 0 -0.19539241544158811 0.034915353149486399 0 -0.1948999673891425 0.045815662425189529 0 -0.19539241544158811 0.034915353149486399 0 -0.20641656305728129 0.041143028599009299 0 -0.20641656305728129 0.041143028599009299 0 -0.20995580785972329 0.027235271815039791 0 -0.22080882119384479 0.043900986742667819 0 -0.19539241544158811 0.034915353149486399 0 -0.20641656305728129 0.041143028599009299 0 -0.20995580785972329 0.027235271815039791 0 -0.20641656305728129 0.041143028599009299 0 -0.20873259774339259 0.055173182954087172 0 -0.22080882119384479 0.043900986742667819 0 -0.20873259774339259 0.055173182954087172 0 -0.2267202713125637 0.058975611642501508 0 -0.2176358721649875 0.072186860311035453 0 -0.1948999673891425 0.045815662425189529 0 -0.20641656305728129 0.041143028599009299 0 -0.20873259774339259 0.055173182954087172 0 -0.20993853639106591 -0.0035380738047605968 0 -0.2009137908539024 0.01431144198083124 0 -0.193034969706537 0.00064734206737222756 0 -0.18518118592807509 0.0154377595936586 0 -0.2009137908539024 0.01431144198083124 0 -0.193034969706537 0.00064734206737222756 0 -0.18518118592807509 0.0154377595936586 0 -0.193034969706537 0.00064734206737222756 0 -0.18416549926151529 0.022669224655560441 0 -0.20995580785972329 0.027235271815039791 0 -0.18416549926151529 0.022669224655560441 0 -0.18518118592807509 0.0154377595936586 0 -0.2009137908539024 0.01431144198083124 0 -0.18416549926151529 0.022669224655560441 0 -0.2009137908539024 0.01431144198083124 0 -0.20995580785972329 0.027235271815039791 0 -0.18416549926151529 0.022669224655560441 0 -0.19539241544158811 0.034915353149486399 0 -0.20995580785972329 0.027235271815039791 0 -0.2009137908539024 0.01431144198083124 0 -0.20995580785972329 0.027235271815039791 0 -0.21568563774484731 0.0082874278720449449 0 -0.20993853639106591 -0.0035380738047605968 0 -0.2009137908539024 0.01431144198083124 0 -0.21568563774484731 0.0082874278720449449 0 -0.22684210307559549 -0.0077234896768903086 0 -0.21568563774484731 0.0082874278720449449 0 -0.23077795054394901 0.01115198904600462 0 -0.22684210307559549 -0.0077234896768903086 0 -0.23077795054394901 0.01115198904600462 0 -0.20995580785972329 0.027235271815039791 0 -0.21568563774484731 0.0082874278720449449 0 -0.23077795054394901 0.01115198904600462 0 -0.20995580785972329 0.027235271815039791 0 -0.2357461164579312 0.03180131897451912 0 -0.20995580785972329 0.027235271815039791 0 -0.23077795054394901 0.01115198904600462 0 -0.2357461164579312 0.03180131897451912 0 -0.23077795054394901 0.01115198904600462 0 -0.24854849079604721 0.020569936005881421 0 -0.2357461164579312 0.03180131897451912 0 -0.26153642505613889 0.036367366133998442 0 -0.24854849079604721 0.020569936005881421 0 -0.2357461164579312 0.03180131897451912 0 -0.23077795054394901 0.01115198904600462 0 -0.24854849079604721 0.020569936005881421 0 -0.24598119983726671 0.0037338506766126851 0 -0.22684210307559549 -0.0077234896768903086 0 -0.23077795054394901 0.01115198904600462 0 -0.24598119983726671 0.0037338506766126851 0 -0.20873259774339259 0.055173182954087172 0 -0.2267202713125637 0.058975611642501508 0 -0.22080882119384479 0.043900986742667819 0 -0.2267202713125637 0.058975611642501508 0 -0.22080882119384479 0.043900986742667819 0 -0.239388393447095 0.04766651035075449 0 -0.22080882119384479 0.043900986742667819 0 -0.2357461164579312 0.03180131897451912 0 -0.239388393447095 0.04766651035075449 0 -0.20995580785972329 0.027235271815039791 0 -0.22080882119384479 0.043900986742667819 0 -0.2357461164579312 0.03180131897451912 0 -0.26153642505613889 0.036367366133998442 0 -0.2357461164579312 0.03180131897451912 0 -0.26153642505613889 0.036367366133998442 0 -0.2357461164579312 0.03180131897451912 0 -0.239388393447095 0.04766651035075449 0 -0.25116276906762952 0.054241108780248931 0 -0.239388393447095 0.04766651035075449 0 -0.24035595759446179 0.060712669830591162 0 -0.2267202713125637 0.058975611642501508 0 -0.239388393447095 0.04766651035075449 0 -0.24035595759446179 0.060712669830591162 0 -0.25116276906762952 0.054241108780248931 0 -0.24035595759446179 0.060712669830591162 0 -0.24829977196364941 0.065213336215906109 0 -0.2267202713125637 0.058975611642501508 0 -0.24035595759446179 0.060712669830591162 0 -0.23791909572611269 0.075142721002645518 0 -0.24035595759446179 0.060712669830591162 0 -0.24829977196364941 0.065213336215906109 0 -0.23791909572611269 0.075142721002645518 0 -0.25064083865024739 0.073628726666345984 0 -0.23791909572611269 0.075142721002645518 0 -0.24857020570659841 0.081659589420377987 0 -0.25064083865024739 0.073628726666345984 0 -0.24829977196364941 0.065213336215906109 0 -0.23791909572611269 0.075142721002645518 0 -0.23791909572611269 0.075142721002645518 0 -0.2427234934652894 0.090762762990284518 0 -0.22646138453880821 0.085461994072224837 0 -0.25413031243694739 0.089521027236778197 0 -0.2427234934652894 0.090762762990284518 0 -0.24857020570659841 0.081659589420377987 0 -0.23791909572611269 0.075142721002645518 0 -0.2427234934652894 0.090762762990284518 0 -0.24857020570659841 0.081659589420377987 0 -0.2267202713125637 0.058975611642501508 0 -0.23791909572611269 0.075142721002645518 0 -0.2176358721649875 0.072186860311035453 0 -0.23791909572611269 0.075142721002645518 0 -0.22646138453880821 0.085461994072224837 0 -0.2176358721649875 0.072186860311035453 0 -0.20873259774339259 0.055173182954087172 0 -0.2176358721649875 0.072186860311035453 0 -0.20069407892192309 0.071070863509647808 0 -0.2176358721649875 0.072186860311035453 0 -0.20525373999263671 0.08640341449760941 0 -0.20069407892192309 0.071070863509647808 0 -0.22646138453880821 0.085461994072224837 0 -0.2176358721649875 0.072186860311035453 0 -0.20525373999263671 0.08640341449760941 0 -0.22646138453880821 0.085461994072224837 0 -0.20525373999263671 0.08640341449760941 0 -0.2161514522581473 0.1006972439961434 0 -0.18444466814129201 0.081023499242751457 0 -0.20525373999263671 0.08640341449760941 0 -0.20069407892192309 0.071070863509647808 0 -0.18444466814129201 0.081023499242751457 0 -0.20525373999263671 0.08640341449760941 0 -0.19937405773042491 0.1071019237599893 0 -0.17832815471062741 0.080370175701138483 0 -0.20069407892192309 0.071070863509647808 0 -0.18444466814129201 0.081023499242751457 0 -0.17832815471062741 0.080370175701138483 0 -0.20069407892192309 0.071070863509647808 0 -0.1809864334298861 0.069780609401686525 0 -0.1876556690991136 0.063313821709693935 0 -0.20069407892192309 0.071070863509647808 0 -0.19598386328254799 0.058823167906541372 0 -0.1876556690991136 0.063313821709693935 0 -0.20069407892192309 0.071070863509647808 0 -0.19937405773042491 0.1071019237599893 0 -0.2161514522581473 0.1006972439961434 0 -0.21430344731955769 0.133180348277227 0 -0.19937405773042491 0.1071019237599893 0 -0.19727411993202021 0.1275714443648302 0 -0.1795193575176991 0.1294692331289829 0 -0.18444466814129201 0.081023499242751457 0 -0.19937405773042491 0.1071019237599893 0 -0.20525373999263671 0.08640341449760941 0 -0.19937405773042491 0.1071019237599893 0 -0.2161514522581473 0.1006972439961434 0 -0.19937405773042491 0.1071019237599893 0 -0.21430344731955769 0.133180348277227 0 -0.19937405773042491 0.1071019237599893 0 -0.19727411993202021 0.1275714443648302 0 -0.21430344731955769 0.133180348277227 0 -0.2161514522581473 0.1006972439961434 0 -0.23231730930006211 0.10853516007106349 0 -0.21430344731955769 0.133180348277227 0 -0.2427234934652894 0.090762762990284518 0 -0.22646138453880821 0.085461994072224837 0 -0.23231730930006211 0.10853516007106349 0 -0.22646138453880821 0.085461994072224837 0 -0.2161514522581473 0.1006972439961434 0 -0.23231730930006211 0.10853516007106349 0 -0.25610310449345419 0.1041046972302731 0 -0.2427234934652894 0.090762762990284518 0 -0.23231730930006211 0.10853516007106349 0 -0.25610310449345419 0.1041046972302731 0 -0.23231730930006211 0.10853516007106349 0 -0.2495823492922267 0.12121763785839371 0 -0.23231730930006211 0.10853516007106349 0 -0.2495823492922267 0.12121763785839371 0 -0.23849568892714909 0.13696143350773771 0 -0.23231730930006211 0.10853516007106349 0 -0.23849568892714909 0.13696143350773771 0 -0.25477231595188199 0.13792181725732239 0 -0.2495823492922267 0.12121763785839371 0 -0.23849568892714909 0.13696143350773771 0 -0.23231730930006211 0.10853516007106349 0 -0.23849568892714909 0.13696143350773771 0 -0.21430344731955769 0.133180348277227 0 -0.23849568892714909 0.13696143350773771 0 -0.22923283690869051 0.15925877279446471 0 -0.21430344731955769 0.133180348277227 0 -0.22923283690869051 0.15925877279446471 0 -0.21430344731955769 0.133180348277227 0 -0.2543915534089356 0.15018751405662761 0 -0.23849568892714909 0.13696143350773771 0 -0.24467406855423091 0.1653877069444131 0 -0.23849568892714909 0.13696143350773771 0 -0.24467406855423091 0.1653877069444131 0 -0.22923283690869051 0.15925877279446471 0 -0.2543915534089356 0.15018751405662761 0 -0.25477231595188199 0.13792181725732239 0 -0.23849568892714909 0.13696143350773771 0 -0.23849568892714909 0.13696143350773771 0 -0.24467406855423091 0.1653877069444131 0 -0.24467406855423091 0.1653877069444131 0 -0.2350219134637796 0.18103954803765679 0 -0.22379977898383499 0.16989282922580509 0 -0.24467406855423091 0.1653877069444131 0 -0.24947341468037071 0.1874691479585941 0 -0.2350219134637796 0.18103954803765679 0 -0.24467406855423091 0.1653877069444131 0 -0.24947341468037071 0.1874691479585941 0 -0.2350219134637796 0.18103954803765679 0 -0.22004124654446131 0.18611549732905991 0 -0.22379977898383499 0.16989282922580509 0 -0.24467406855423091 0.1653877069444131 0 -0.22379977898383499 0.16989282922580509 0 -0.22923283690869051 0.15925877279446471 0 -0.22379977898383499 0.16989282922580509 0 -0.22923283690869051 0.15925877279446471 0 -0.20989634202023699 0.1560844752241346 0 -0.24467406855423091 0.1653877069444131 0 -0.22379977898383499 0.16989282922580509 0 -0.22379977898383499 0.16989282922580509 0 -0.20292548941343971 0.17439795150720031 0 -0.20989634202023699 0.1560844752241346 0 -0.20292548941343971 0.17439795150720031 0 -0.20989634202023699 0.1560844752241346 0 -0.17833905569944569 0.15756593750779829 0 -0.22379977898383499 0.16989282922580509 0 -0.20292548941343971 0.17439795150720031 0 -0.22004124654446131 0.18611549732905991 0 -0.22379977898383499 0.16989282922580509 0 -0.20292548941343971 0.17439795150720031 0 -0.22004124654446131 0.18611549732905991 0 -0.20292548941343971 0.17439795150720031 0 -0.22004124654446131 0.18611549732905991 0 -0.20292548941343971 0.17439795150720031 0 -0.20568385543668641 0.19260324117033031 0 -0.20292548941343971 0.17439795150720031 0 -0.1757122088887666 0.1802711648698879 0 -0.20292548941343971 0.17439795150720031 0 -0.1897130520823497 0.19444680225630501 0 -0.1757122088887666 0.1802711648698879 0 -0.20292548941343971 0.17439795150720031 0 -0.20568385543668641 0.19260324117033031 0 -0.1897130520823497 0.19444680225630501 0 -0.20292548941343971 0.17439795150720031 0 -0.17833905569944569 0.15756593750779829 0 -0.19589961716039911 0.1405342722931214 0 -0.20989634202023699 0.1560844752241346 0 -0.17833905569944569 0.15756593750779829 0 -0.19727411993202021 0.1275714443648302 0 -0.19589961716039911 0.1405342722931214 0 -0.1795193575176991 0.1294692331289829 0 -0.19727411993202021 0.1275714443648302 0 -0.19589961716039911 0.1405342722931214 0 -0.21430344731955769 0.133180348277227 0 -0.22923283690869051 0.15925877279446471 0 -0.21430344731955769 0.133180348277227 0 -0.20989634202023699 0.1560844752241346 0 -0.19589961716039911 0.1405342722931214 0 -0.21430344731955769 0.133180348277227 0 -0.20989634202023699 0.1560844752241346 0 -0.23288038931281729 0.23888496135878451 0 -0.21994142138302111 0.22426230620998819 0 -0.21218175950055909 0.24952722652004439 0 -0.22667039518801041 0.25355429459537898 0 -0.23288038931281729 0.23888496135878451 0 -0.21218175950055909 0.24952722652004439 0 -0.2416444700809012 0.25186566196455601 0 -0.22667039518801041 0.25355429459537898 0 -0.23288038931281729 0.23888496135878451 0 -0.2416444700809012 0.25186566196455601 0 -0.23288038931281729 0.23888496135878451 0 -0.2470081454867771 0.2422065880623451 0 -0.25693865295534157 0.25278860643768353 0 -0.2416444700809012 0.25186566196455601 0 -0.2470081454867771 0.2422065880623451 0 -0.25109603964961891 0.234366577265785 0 -0.2470081454867771 0.2422065880623451 0 -0.24424918889796191 0.23342051569475999 0 -0.23288038931281729 0.23888496135878451 0 -0.2470081454867771 0.2422065880623451 0 -0.24424918889796191 0.23342051569475999 0 -0.23288038931281729 0.23888496135878451 0 -0.24424918889796191 0.23342051569475999 0 -0.2396805993576108 0.22455316273993289 0 -0.24424918889796191 0.23342051569475999 0 -0.249817319625419 0.2274340479663062 0 -0.2396805993576108 0.22455316273993289 0 -0.25109603964961891 0.234366577265785 0 -0.24424918889796191 0.23342051569475999 0 -0.249817319625419 0.2274340479663062 0 -0.249817319625419 0.2274340479663062 0 -0.24904636230289101 0.22050689045355901 0 -0.2396805993576108 0.22455316273993289 0 -0.24904636230289101 0.22050689045355901 0 -0.2396805993576108 0.22455316273993289 0 -0.24333230173327219 0.21221501244476959 0 -0.2396805993576108 0.22455316273993289 0 -0.21994142138302111 0.22426230620998819 0 -0.23304733008138001 0.21339205942673259 0 -0.23288038931281729 0.23888496135878451 0 -0.2396805993576108 0.22455316273993289 0 -0.21994142138302111 0.22426230620998819 0 -0.21994142138302111 0.22426230620998819 0 -0.22770108326548311 0.19899738589993199 0 -0.210353022999335 0.20567537760669019 0 -0.21994142138302111 0.22426230620998819 0 -0.23304733008138001 0.21339205942673259 0 -0.22770108326548311 0.19899738589993199 0 -0.21994142138302111 0.22426230620998819 0 -0.22770108326548311 0.19899738589993199 0 -0.23304733008138001 0.21339205942673259 0 -0.2346933251094325 0.20523388649383931 0 -0.22770108326548311 0.19899738589993199 0 -0.25427276080650663 0.20955058897277601 0 -0.23715700367548431 0.1978330431509176 0 -0.2396805993576108 0.22455316273993289 0 -0.23304733008138001 0.21339205942673259 0 -0.24333230173327219 0.21221501244476959 0 -0.25427276080650663 0.20955058897277601 0 -0.24333230173327219 0.21221501244476959 0 -0.23715700367548431 0.1978330431509176 0 -0.25561524088587501 0.21572724177218369 0 -0.24904636230289101 0.22050689045355901 0 -0.24333230173327219 0.21221501244476959 0 -0.24333230173327219 0.21221501244476959 0 -0.2346933251094325 0.20523388649383931 0 -0.23715700367548431 0.1978330431509176 0 -0.23304733008138001 0.21339205942673259 0 -0.24333230173327219 0.21221501244476959 0 -0.2346933251094325 0.20523388649383931 0 -0.25427276080650663 0.20955058897277601 0 -0.24947341468037071 0.1874691479585941 0 -0.23715700367548431 0.1978330431509176 0 -0.24947341468037071 0.1874691479585941 0 -0.2350219134637796 0.18103954803765679 0 -0.23715700367548431 0.1978330431509176 0 -0.22004124654446131 0.18611549732905991 0 -0.23715700367548431 0.1978330431509176 0 -0.22004124654446131 0.18611549732905991 0 -0.23715700367548431 0.1978330431509176 0 -0.22770108326548311 0.19899738589993199 0 -0.2350219134637796 0.18103954803765679 0 -0.22004124654446131 0.18611549732905991 0 -0.23715700367548431 0.1978330431509176 0 -0.2346933251094325 0.20523388649383931 0 -0.23715700367548431 0.1978330431509176 0 -0.22770108326548311 0.19899738589993199 0 -0.22004124654446131 0.18611549732905991 0 -0.22770108326548311 0.19899738589993199 0 -0.21594480206149139 0.19584787550150309 0 -0.22770108326548311 0.19899738589993199 0 -0.21594480206149139 0.19584787550150309 0 -0.210353022999335 0.20567537760669019 0 -0.22004124654446131 0.18611549732905991 0 -0.21594480206149139 0.19584787550150309 0 -0.20568385543668641 0.19260324117033031 0 -0.21594480206149139 0.19584787550150309 0 -0.20568385543668641 0.19260324117033031 0 -0.210353022999335 0.20567537760669019 0 -0.20568385543668641 0.19260324117033031 0 -0.19800517532583911 0.2033181044808495 0 -0.210353022999335 0.20567537760669019 0 -0.20568385543668641 0.19260324117033031 0 -0.1897130520823497 0.19444680225630501 0 -0.19800517532583911 0.2033181044808495 0 -0.1897130520823497 0.19444680225630501 0 -0.19800517532583911 0.2033181044808495 0 -0.1863200837324982 0.20555600776477401 0 -0.19800517532583911 0.2033181044808495 0 -0.19795586237832599 0.21830909360614789 0 -0.210353022999335 0.20567537760669019 0 -0.19800517532583911 0.2033181044808495 0 -0.19795586237832599 0.21830909360614789 0 -0.1863200837324982 0.20555600776477401 0 -0.19795586237832599 0.21830909360614789 0 -0.18240126852579899 0.21930684119835961 0 -0.1863200837324982 0.20555600776477401 0 -0.21994142138302111 0.22426230620998819 0 -0.19795586237832599 0.21830909360614789 0 -0.210353022999335 0.20567537760669019 0 -0.21994142138302111 0.22426230620998819 0 -0.19795586237832599 0.21830909360614789 0 -0.20314208847108339 0.23556135501649109 0 -0.19795586237832599 0.21830909360614789 0 -0.18651378479530609 0.23505073182760211 0 -0.18240126852579899 0.21930684119835961 0 -0.19795586237832599 0.21830909360614789 0 -0.20314208847108339 0.23556135501649109 0 -0.18651378479530609 0.23505073182760211 0 -0.1929026130837673 0.25762258695206858 0 -0.20314208847108339 0.23556135501649109 0 -0.18651378479530609 0.23505073182760211 0 -0.1929026130837673 0.25762258695206858 0 -0.20314208847108339 0.23556135501649109 0 -0.21218175950055909 0.24952722652004439 0 -0.21994142138302111 0.22426230620998819 0 -0.21218175950055909 0.24952722652004439 0 -0.21994142138302111 0.22426230620998819 0 -0.20314208847108339 0.23556135501649109 0 -0.21218175950055909 0.24952722652004439 0 -0.16582228118094081 0.26466105519565358 0 -0.18651378479530609 0.23505073182760211 0 -0.1608218935138386 0.23306973899941771 0 -0.16582228118094081 0.26466105519565358 0 -0.14534546737678511 0.25129379472131641 0 -0.1608218935138386 0.23306973899941771 0 -0.18651378479530609 0.23505073182760211 0 -0.1608218935138386 0.23306973899941771 0 -0.18651378479530609 0.23505073182760211 0 -0.18240126852579899 0.21930684119835961 0 -0.1608218935138386 0.23306973899941771 0 -0.1608218935138386 0.23306973899941771 0 -0.16716432822862029 0.21469463307327219 0 -0.14537567171977789 0.21373021027012479 0 -0.18240126852579899 0.21930684119835961 0 -0.1608218935138386 0.23306973899941771 0 -0.16716432822862029 0.21469463307327219 0 -0.16716432822862029 0.21469463307327219 0 -0.15728284033457929 0.19872471446884221 0 -0.14537567171977789 0.21373021027012479 0 -0.16716432822862029 0.21469463307327219 0 -0.1863200837324982 0.20555600776477401 0 -0.15728284033457929 0.19872471446884221 0 -0.18240126852579899 0.21930684119835961 0 -0.16716432822862029 0.21469463307327219 0 -0.1863200837324982 0.20555600776477401 0 -0.1863200837324982 0.20555600776477401 0 -0.1747365466553682 0.1940095109997643 0 -0.15728284033457929 0.19872471446884221 0 -0.1897130520823497 0.19444680225630501 0 -0.1863200837324982 0.20555600776477401 0 -0.1747365466553682 0.1940095109997643 0 -0.1897130520823497 0.19444680225630501 0 -0.1747365466553682 0.1940095109997643 0 -0.1757122088887666 0.1802711648698879 0 -0.1747365466553682 0.1940095109997643 0 -0.16534449221108169 0.19019064904669619 0 -0.1757122088887666 0.1802711648698879 0 -0.1863200837324982 0.20555600776477401 0 -0.15728284033457929 0.19872471446884221 0 -0.1747365466553682 0.1940095109997643 0 -0.16534449221108169 0.19019064904669619 0 -0.15728284033457929 0.19872471446884221 0 -0.16534449221108169 0.19019064904669619 0 -0.15728284033457929 0.19872471446884221 0 -0.15629575781976141 0.184461654133797 0 -0.15728284033457929 0.19872471446884221 0 -0.12824559693666041 0.19189342117291039 0 -0.15629575781976141 0.184461654133797 0 -0.15728284033457929 0.19872471446884221 0 -0.12824559693666041 0.19189342117291039 0 -0.14537567171977789 0.21373021027012479 0 -0.15728284033457929 0.19872471446884221 0 -0.12824559693666041 0.19189342117291039 0 -0.12824559693666041 0.19189342117291039 0 -0.14537567171977789 0.21373021027012479 0 -0.1242544958201173 0.21504107598638081 0 -0.1608218935138386 0.23306973899941771 0 -0.14537567171977789 0.21373021027012479 0 -0.13513000223237101 0.23108874617123329 0 -0.1608218935138386 0.23306973899941771 0 -0.13513000223237101 0.23108874617123329 0 -0.14537567171977789 0.21373021027012479 0 -0.13513000223237101 0.23108874617123329 0 -0.1242544958201173 0.21504107598638081 0 -0.14534546737678511 0.25129379472131641 0 -0.13513000223237101 0.23108874617123329 0 -0.12470300375741469 0.2457033751303839 0 -0.14534546737678511 0.25129379472131641 0 -0.1608218935138386 0.23306973899941771 0 -0.13513000223237101 0.23108874617123329 0 -0.17833905569944569 0.15756593750779829 0 -0.1561619761378806 0.16047685630827471 0 -0.153752621985453 0.14073392350839439 0 -0.1795193575176991 0.1294692331289829 0 -0.17833905569944569 0.15756593750779829 0 -0.153752621985453 0.14073392350839439 0 -0.17833905569944569 0.15756593750779829 0 -0.153752621985453 0.14073392350839439 0 -0.16393492635195239 0.1245978723337525 0 -0.15311233888185891 0.1152965378839053 0 -0.153752621985453 0.14073392350839439 0 -0.16393492635195239 0.1245978723337525 0 -0.1795193575176991 0.1294692331289829 0 -0.153752621985453 0.14073392350839439 0 -0.19589961716039911 0.1405342722931214 0 -0.1795193575176991 0.1294692331289829 0 -0.17833905569944569 0.15756593750779829 0 -0.20292548941343971 0.17439795150720031 0 -0.17833905569944569 0.15756593750779829 0 -0.1757122088887666 0.1802711648698879 0 -0.1897130520823497 0.19444680225630501 0 -0.1757122088887666 0.1802711648698879 0 -0.16534449221108169 0.19019064904669619 0 -0.1757122088887666 0.1802711648698879 0 -0.15629575781976141 0.184461654133797 0 -0.1757122088887666 0.1802711648698879 0 -0.15629575781976141 0.184461654133797 0 -0.1757122088887666 0.1802711648698879 0 -0.15629575781976141 0.184461654133797 0 -0.1561619761378806 0.16047685630827471 0 -0.17833905569944569 0.15756593750779829 0 -0.1757122088887666 0.1802711648698879 0 -0.1561619761378806 0.16047685630827471 0 -0.1757122088887666 0.1802711648698879 0 -0.1561619761378806 0.16047685630827471 0 -0.1561619761378806 0.16047685630827471 0 -0.14126926821389521 0.17232478353634881 0 -0.1371080151487378 0.15864895140394189 0 -0.15629575781976141 0.184461654133797 0 -0.1561619761378806 0.16047685630827471 0 -0.14126926821389521 0.17232478353634881 0 -0.12824559693666041 0.19189342117291039 0 -0.15629575781976141 0.184461654133797 0 -0.14126926821389521 0.17232478353634881 0 -0.12824559693666041 0.19189342117291039 0 -0.14126926821389521 0.17232478353634881 0 -0.1248941403316576 0.1686438139500778 0 -0.14126926821389521 0.17232478353634881 0 -0.1371080151487378 0.15864895140394189 0 -0.1248941403316576 0.1686438139500778 0 -0.1371080151487378 0.15864895140394189 0 -0.1239269324459726 0.1539154783358255 0 -0.1248941403316576 0.1686438139500778 0 -0.1371080151487378 0.15864895140394189 0 -0.13661174338699569 0.1406825477466605 0 -0.1239269324459726 0.1539154783358255 0 -0.1561619761378806 0.16047685630827471 0 -0.13661174338699569 0.1406825477466605 0 -0.1561619761378806 0.16047685630827471 0 -0.13661174338699569 0.1406825477466605 0 -0.153752621985453 0.14073392350839439 0 -0.1561619761378806 0.16047685630827471 0 -0.1371080151487378 0.15864895140394189 0 -0.13661174338699569 0.1406825477466605 0 -0.12916618827146031 0.12390190950899049 0 -0.153752621985453 0.14073392350839439 0 -0.13930859898956699 0.1145050369687237 0 -0.12916618827146031 0.12390190950899049 0 -0.153752621985453 0.14073392350839439 0 -0.13661174338699569 0.1406825477466605 0 -0.11706151063611089 0.1208882391850464 0 -0.12916618827146031 0.12390190950899049 0 -0.13661174338699569 0.1406825477466605 0 -0.11706151063611089 0.1208882391850464 0 -0.12916618827146031 0.12390190950899049 0 -0.13661174338699569 0.1406825477466605 0 -0.153752621985453 0.14073392350839439 0 -0.13661174338699569 0.1406825477466605 0 -0.11473911200363 0.13153944404780621 0 -0.1132109842275667 0.1430328284895945 0 -0.13661174338699569 0.1406825477466605 0 -0.11473911200363 0.13153944404780621 0 -0.11706151063611089 0.1208882391850464 0 -0.11473911200363 0.13153944404780621 0 -0.1039338124667491 0.13009472872812991 0 -0.1132109842275667 0.1430328284895945 0 -0.11473911200363 0.13153944404780621 0 -0.1039338124667491 0.13009472872812991 0 -0.10601879130899509 0.12208205668825579 0 -0.1039338124667491 0.13009472872812991 0 -0.093398168270057425 0.14218175111966569 0 -0.093946486761182085 0.1175508364221631 0 -0.1039338124667491 0.13009472872812991 0 -0.1132109842275667 0.1430328284895945 0 -0.093398168270057425 0.14218175111966569 0 -0.1078097791349048 0.15856925008885259 0 -0.089544080768145809 0.16137822361845131 0 -0.093398168270057425 0.14218175111966569 0 -0.1132109842275667 0.1430328284895945 0 -0.1078097791349048 0.15856925008885259 0 -0.093398168270057425 0.14218175111966569 0 -0.13661174338699569 0.1406825477466605 0 -0.1132109842275667 0.1430328284895945 0 -0.1239269324459726 0.1539154783358255 0 -0.1132109842275667 0.1430328284895945 0 -0.1239269324459726 0.1539154783358255 0 -0.1078097791349048 0.15856925008885259 0 -0.1248941403316576 0.1686438139500778 0 -0.099208353538741523 0.18506212787697859 0 -0.1078097791349048 0.15856925008885259 0 -0.1239269324459726 0.1539154783358255 0 -0.1248941403316576 0.1686438139500778 0 -0.1078097791349048 0.15856925008885259 0 -0.12824559693666041 0.19189342117291039 0 -0.1248941403316576 0.1686438139500778 0 -0.099208353538741523 0.18506212787697859 0 -0.099208353538741523 0.18506212787697859 0 -0.1078097791349048 0.15856925008885259 0 -0.089544080768145809 0.16137822361845131 0 -0.089544080768145809 0.16137822361845131 0 -0.070171110140822543 0.1782308345810468 0 -0.074669823138777097 0.15727584041375819 0 -0.099208353538741523 0.18506212787697859 0 -0.089544080768145809 0.16137822361845131 0 -0.070171110140822543 0.1782308345810468 0 -0.099208353538741523 0.18506212787697859 0 -0.070171110140822543 0.1782308345810468 0 -0.070171110140822543 0.1782308345810468 0 -0.074669823138777097 0.15727584041375819 0 -0.057722578482997257 0.16273086802879619 0 -0.074669823138777097 0.15727584041375819 0 -0.066369438716585821 0.14892706699039879 0 -0.057722578482997257 0.16273086802879619 0 -0.074669823138777097 0.15727584041375819 0 -0.066369438716585821 0.14892706699039879 0 -0.074733199104357148 0.14603812585323231 0 -0.074669823138777097 0.15727584041375819 0 -0.074733199104357148 0.14603812585323231 0 -0.082756465015383474 0.1492386270883771 0 -0.074733199104357148 0.14603812585323231 0 -0.067315024607703278 0.13662092079142449 0 -0.081437053795579945 0.1393191944367777 0 -0.066369438716585821 0.14892706699039879 0 -0.074733199104357148 0.14603812585323231 0 -0.067315024607703278 0.13662092079142449 0 -0.066369438716585821 0.14892706699039879 0 -0.067315024607703278 0.13662092079142449 0 -0.054361576129613079 0.15178129246158931 0 -0.067315024607703278 0.13662092079142449 0 -0.088852304720190942 0.12644129241805541 0 -0.067315024607703278 0.13662092079142449 0 -0.088852304720190942 0.12644129241805541 0 -0.075786521408142987 0.12443322189858901 0 -0.067315024607703278 0.13662092079142449 0 -0.062016764747578973 0.12884034001808189 0 -0.075786521408142987 0.12443322189858901 0 -0.088852304720190942 0.12644129241805541 0 -0.093398168270057425 0.14218175111966569 0 -0.093946486761182085 0.1175508364221631 0 -0.067315024607703278 0.13662092079142449 0 -0.081437053795579945 0.1393191944367777 0 -0.088852304720190942 0.12644129241805541 0 -0.093398168270057425 0.14218175111966569 0 -0.093946486761182085 0.1175508364221631 0 -0.081437053795579945 0.1393191944367777 0 -0.088852304720190942 0.12644129241805541 0 -0.093398168270057425 0.14218175111966569 0 -0.089544080768145809 0.16137822361845131 0 -0.093398168270057425 0.14218175111966569 0 -0.082756465015383474 0.1492386270883771 0 -0.089544080768145809 0.16137822361845131 0 -0.074669823138777097 0.15727584041375819 0 -0.082756465015383474 0.1492386270883771 0 -0.074733199104357148 0.14603812585323231 0 -0.081437053795579945 0.1393191944367777 0 -0.082756465015383474 0.1492386270883771 0 -0.081437053795579945 0.1393191944367777 0 -0.093398168270057425 0.14218175111966569 0 -0.082756465015383474 0.1492386270883771 0 -0.11076524853809321 0.25238606884059173 0 -0.1094381109509034 0.22910775334304889 0 -0.091345724210048884 0.23566487628332011 0 -0.11076524853809321 0.25238606884059173 0 -0.092391857727521592 0.25884509119311472 0 -0.091345724210048884 0.23566487628332011 0 -0.13513000223237101 0.23108874617123329 0 -0.12470300375741469 0.2457033751303839 0 -0.1094381109509034 0.22910775334304889 0 -0.11076524853809321 0.25238606884059173 0 -0.12470300375741469 0.2457033751303839 0 -0.1094381109509034 0.22910775334304889 0 -0.13513000223237101 0.23108874617123329 0 -0.1094381109509034 0.22910775334304889 0 -0.13513000223237101 0.23108874617123329 0 -0.1094381109509034 0.22910775334304889 0 -0.1242544958201173 0.21504107598638081 0 -0.1094381109509034 0.22910775334304889 0 -0.10308309726087379 0.20938524897458621 0 -0.091345724210048884 0.23566487628332011 0 -0.1094381109509034 0.22910775334304889 0 -0.10308309726087379 0.20938524897458621 0 -0.1242544958201173 0.21504107598638081 0 -0.12824559693666041 0.19189342117291039 0 -0.10308309726087379 0.20938524897458621 0 -0.1242544958201173 0.21504107598638081 0 -0.12824559693666041 0.19189342117291039 0 -0.099208353538741523 0.18506212787697859 0 -0.12824559693666041 0.19189342117291039 0 -0.099208353538741523 0.18506212787697859 0 -0.10308309726087379 0.20938524897458621 0 -0.099208353538741523 0.18506212787697859 0 -0.070171110140822543 0.1782308345810468 0 -0.078220861930521898 0.21057701145176541 0 -0.070171110140822543 0.1782308345810468 0 -0.078220861930521898 0.21057701145176541 0 -0.056949983849450658 0.19269083667038239 0 -0.099208353538741523 0.18506212787697859 0 -0.10308309726087379 0.20938524897458621 0 -0.078220861930521898 0.21057701145176541 0 -0.078220861930521898 0.21057701145176541 0 -0.056178602179823331 0.21732906463454121 0 -0.056949983849450658 0.19269083667038239 0 -0.10308309726087379 0.20938524897458621 0 -0.078220861930521898 0.21057701145176541 0 -0.091345724210048884 0.23566487628332011 0 -0.078220861930521898 0.21057701145176541 0 -0.069221313838413207 0.24642852661517459 0 -0.091345724210048884 0.23566487628332011 0 -0.078220861930521898 0.21057701145176541 0 -0.069221313838413207 0.24642852661517459 0 -0.056178602179823331 0.21732906463454121 0 -0.092391857727521592 0.25884509119311472 0 -0.069221313838413207 0.24642852661517459 0 -0.091345724210048884 0.23566487628332011 0 -0.033382390283993792 0.24359412621706661 0 -0.046050769949304807 0.23401196203723451 0 -0.025866468353912139 0.2289639569827632 0 -0.048126263350958612 0.25465777805589501 0 -0.033382390283993792 0.24359412621706661 0 -0.046050769949304807 0.23401196203723451 0 -0.048126263350958612 0.25465777805589501 0 -0.069221313838413207 0.24642852661517459 0 -0.046050769949304807 0.23401196203723451 0 -0.069221313838413207 0.24642852661517459 0 -0.046050769949304807 0.23401196203723451 0 -0.069221313838413207 0.24642852661517459 0 -0.046050769949304807 0.23401196203723451 0 -0.056178602179823331 0.21732906463454121 0 -0.046050769949304807 0.23401196203723451 0 -0.03692704292774221 0.2147422921961073 0 -0.025866468353912139 0.2289639569827632 0 -0.046050769949304807 0.23401196203723451 0 -0.03692704292774221 0.2147422921961073 0 -0.056178602179823331 0.21732906463454121 0 -0.03692704292774221 0.2147422921961073 0 -0.056178602179823331 0.21732906463454121 0 -0.044221089124866657 0.20193605474889509 0 -0.03692704292774221 0.2147422921961073 0 -0.044221089124866657 0.20193605474889509 0 -0.032331133115066808 0.19858524020914661 0 -0.056178602179823331 0.21732906463454121 0 -0.056949983849450658 0.19269083667038239 0 -0.044221089124866657 0.20193605474889509 0 -0.056949983849450658 0.19269083667038239 0 -0.040360849617421202 0.18777351164107661 0 -0.044221089124866657 0.20193605474889509 0 -0.040360849617421202 0.18777351164107661 0 -0.032331133115066808 0.19858524020914661 0 -0.026751027678188599 0.18229597604057349 0 -0.040360849617421202 0.18777351164107661 0 -0.044221089124866657 0.20193605474889509 0 -0.032331133115066808 0.19858524020914661 0 -0.016914194843479571 0.2076274745640635 0 -0.026751027678188599 0.18229597604057349 0 -0.032331133115066808 0.19858524020914661 0 -0.016914194843479571 0.2076274745640635 0 -0.026751027678188599 0.18229597604057349 0 -0.01405220631290922 0.19352016069679451 0 -0.016914194843479571 0.2076274745640635 0 -0.026751027678188599 0.18229597604057349 0 -0.01405220631290922 0.19352016069679451 0 -0.0012364494800765971 0.1960628175593882 0 -0.01891215499648707 0.1765136475382359 0 -0.01405220631290922 0.19352016069679451 0 -0.0012364494800765971 0.1960628175593882 0 -0.0064787008301582438 0.20475797647738719 0 -0.0012364494800765971 0.1960628175593882 0 -0.0064787008301582438 0.20475797647738719 0 0.003893562275735573 0.2064819102401671 0 -0.01405220631290922 0.19352016069679451 0 -0.0064787008301582438 0.20475797647738719 0 -0.016914194843479571 0.2076274745640635 0 -0.0045317147067566524 0.21522543551468479 0 -0.016914194843479571 0.2076274745640635 0 -0.0070773620087705444 0.23295897308755351 0 -0.0064787008301582438 0.20475797647738719 0 -0.0045317147067566524 0.21522543551468479 0 -0.016914194843479571 0.2076274745640635 0 -0.0064787008301582438 0.20475797647738719 0 -0.0045317147067566524 0.21522543551468479 0 0.003893562275735573 0.2064819102401671 0 -0.03692704292774221 0.2147422921961073 0 -0.016914194843479571 0.2076274745640635 0 -0.025866468353912139 0.2289639569827632 0 -0.03692704292774221 0.2147422921961073 0 -0.032331133115066808 0.19858524020914661 0 -0.016914194843479571 0.2076274745640635 0 -0.016914194843479571 0.2076274745640635 0 -0.025866468353912139 0.2289639569827632 0 -0.0070773620087705444 0.23295897308755351 0 -0.016914194843479571 0.2076274745640635 0 -0.0070773620087705444 0.23295897308755351 0 -0.0045317147067566524 0.21522543551468479 0 -0.0070773620087705444 0.23295897308755351 0 0.0038866256090455522 0.2239579318999283 0 -0.0070773620087705444 0.23295897308755351 0 0.001894876929373096 0.24743045501984201 0 0.0027594708259384838 0.25829047161104352 0 -0.0070773620087705444 0.23295897308755351 0 0.0027594708259384838 0.25829047161104352 0 -0.0087132352456033638 0.25173417187717928 0 -0.0070773620087705444 0.23295897308755351 0 -0.01778818590069102 0.2421293126167848 0 -0.0087132352456033638 0.25173417187717928 0 -0.0070773620087705444 0.23295897308755351 0 0.0027594708259384838 0.25829047161104352 0 -0.025866468353912139 0.2289639569827632 0 -0.0070773620087705444 0.23295897308755351 0 -0.01778818590069102 0.2421293126167848 0 -0.028053557715267439 0.25838243531431121 0 -0.033382390283993792 0.24359412621706661 0 -0.01778818590069102 0.2421293126167848 0 -0.033382390283993792 0.24359412621706661 0 -0.025866468353912139 0.2289639569827632 0 -0.01778818590069102 0.2421293126167848 0 -0.044416936009294992 0.14744373737619401 0 -0.030319635528424791 0.14770209815471691 0 -0.021396469969749188 0.1374028974533886 0 -0.044416936009294992 0.14744373737619401 0 -0.030319635528424791 0.14770209815471691 0 -0.027639103276038759 0.15537380566908321 0 -0.044416936009294992 0.14744373737619401 0 -0.038116788675066252 0.15302723042411279 0 -0.027639103276038759 0.15537380566908321 0 -0.044416936009294992 0.14744373737619401 0 -0.041458398192443832 0.13942314763129199 0 -0.021396469969749188 0.1374028974533886 0 -0.044416936009294992 0.14744373737619401 0 -0.027639103276038759 0.15537380566908321 0 -0.044416936009294992 0.14744373737619401 0 -0.021396469969749188 0.1374028974533886 0 -0.044416936009294992 0.14744373737619401 0 -0.036587860512897558 0.15696447751708351 0 -0.044416936009294992 0.14744373737619401 0 -0.047012455662473793 0.15786975055381819 0 -0.036587860512897558 0.15696447751708351 0 -0.044416936009294992 0.14744373737619401 0 -0.038116788675066252 0.15302723042411279 0 -0.036587860512897558 0.15696447751708351 0 -0.038116788675066252 0.15302723042411279 0 -0.036587860512897558 0.15696447751708351 0 -0.027639103276038759 0.15537380566908321 0 -0.038116788675066252 0.15302723042411279 0 -0.036587860512897558 0.15696447751708351 0 -0.037500573576258918 0.13069979942664511 0 -0.041458398192443832 0.13942314763129199 0 -0.021396469969749188 0.1374028974533886 0 -0.037500573576258918 0.13069979942664511 0 -0.028643554108799551 0.12806760582925611 0 -0.034668926388748328 0.1237436995229996 0 -0.037500573576258918 0.13069979942664511 0 -0.047589673205635397 0.1324549890601831 0 -0.046884900963607742 0.11986348336078891 0 -0.037500573576258918 0.13069979942664511 0 -0.041458398192443832 0.13942314763129199 0 -0.047589673205635397 0.1324549890601831 0 -0.044416936009294992 0.14744373737619401 0 -0.041458398192443832 0.13942314763129199 0 -0.047589673205635397 0.1324549890601831 0 -0.067315024607703278 0.13662092079142449 0 -0.044416936009294992 0.14744373737619401 0 -0.062016764747578973 0.12884034001808189 0 -0.044416936009294992 0.14744373737619401 0 -0.062016764747578973 0.12884034001808189 0 -0.044416936009294992 0.14744373737619401 0 -0.047589673205635397 0.1324549890601831 0 -0.062016764747578973 0.12884034001808189 0 -0.047589673205635397 0.1324549890601831 0 -0.062016764747578973 0.12884034001808189 0 -0.046884900963607742 0.11986348336078891 0 -0.067315024607703278 0.13662092079142449 0 -0.044416936009294992 0.14744373737619401 0 -0.054361576129613079 0.15178129246158931 0 -0.067315024607703278 0.13662092079142449 0 -0.044416936009294992 0.14744373737619401 0 -0.044416936009294992 0.14744373737619401 0 -0.054361576129613079 0.15178129246158931 0 -0.044416936009294992 0.14744373737619401 0 -0.054361576129613079 0.15178129246158931 0 -0.047012455662473793 0.15786975055381819 0 -0.066369438716585821 0.14892706699039879 0 -0.054361576129613079 0.15178129246158931 0 -0.057722578482997257 0.16273086802879619 0 -0.057722578482997257 0.16273086802879619 0 -0.050411583818504503 0.1777900037548745 0 -0.045636115300606919 0.16650756778262649 0 -0.054361576129613079 0.15178129246158931 0 -0.057722578482997257 0.16273086802879619 0 -0.047012455662473793 0.15786975055381819 0 -0.057722578482997257 0.16273086802879619 0 -0.047012455662473793 0.15786975055381819 0 -0.045636115300606919 0.16650756778262649 0 -0.070171110140822543 0.1782308345810468 0 -0.056949983849450658 0.19269083667038239 0 -0.050411583818504503 0.1777900037548745 0 -0.070171110140822543 0.1782308345810468 0 -0.057722578482997257 0.16273086802879619 0 -0.050411583818504503 0.1777900037548745 0 -0.056949983849450658 0.19269083667038239 0 -0.040360849617421202 0.18777351164107661 0 -0.050411583818504503 0.1777900037548745 0 -0.040360849617421202 0.18777351164107661 0 -0.050411583818504503 0.1777900037548745 0 -0.039949487385523758 0.17426630734724691 0 -0.050411583818504503 0.1777900037548745 0 -0.039949487385523758 0.17426630734724691 0 -0.045636115300606919 0.16650756778262649 0 -0.040360849617421202 0.18777351164107661 0 -0.039949487385523758 0.17426630734724691 0 -0.026751027678188599 0.18229597604057349 0 -0.039949487385523758 0.17426630734724691 0 -0.036587860512897558 0.15696447751708351 0 -0.026751027678188599 0.18229597604057349 0 -0.036587860512897558 0.15696447751708351 0 -0.026751027678188599 0.18229597604057349 0 -0.039949487385523758 0.17426630734724691 0 -0.045636115300606919 0.16650756778262649 0 -0.036587860512897558 0.15696447751708351 0 -0.047012455662473793 0.15786975055381819 0 -0.045636115300606919 0.16650756778262649 0 -0.036587860512897558 0.15696447751708351 0 -0.01891215499648707 0.1765136475382359 0 -0.010861270542782259 0.1633038739619718 0 -0.027639103276038759 0.15537380566908321 0 -0.010861270542782259 0.1633038739619718 0 -0.027639103276038759 0.15537380566908321 0 -0.036587860512897558 0.15696447751708351 0 -0.01891215499648707 0.1765136475382359 0 -0.036587860512897558 0.15696447751708351 0 -0.01891215499648707 0.1765136475382359 0 -0.027639103276038759 0.15537380566908321 0 -0.01405220631290922 0.19352016069679451 0 -0.01891215499648707 0.1765136475382359 0 -0.026751027678188599 0.18229597604057349 0 -0.036587860512897558 0.15696447751708351 0 -0.01891215499648707 0.1765136475382359 0 -0.026751027678188599 0.18229597604057349 0 -0.01891215499648707 0.1765136475382359 0 -0.010861270542782259 0.1633038739619718 0 0.00061104658230836653 0.17769045695541219 0 -0.0012364494800765971 0.1960628175593882 0 -0.01891215499648707 0.1765136475382359 0 0.00061104658230836653 0.17769045695541219 0 -0.0012364494800765971 0.1960628175593882 0 -0.01891215499648707 0.1765136475382359 0 -0.010861270542782259 0.1633038739619718 0 0.001788155555331062 0.1557637096651584 0 0.00061104658230836653 0.17769045695541219 0 -0.01542264584752753 0.14956457798035719 0 -0.015783289274076458 0.13495459563681389 0 0.001788155555331062 0.1557637096651584 0 -0.015783289274076458 0.13495459563681389 0 0.001788155555331062 0.1557637096651584 0 0.01185912902997375 0.14130758542593569 0 -0.010861270542782259 0.1633038739619718 0 -0.01542264584752753 0.14956457798035719 0 0.001788155555331062 0.1557637096651584 0 -0.015783289274076458 0.13495459563681389 0 0.001788155555331062 0.1557637096651584 0 -0.01542264584752753 0.14956457798035719 0 -0.023159931299824549 0.14839209377580129 0 -0.027639103276038759 0.15537380566908321 0 -0.010861270542782259 0.1633038739619718 0 -0.01542264584752753 0.14956457798035719 0 -0.027639103276038759 0.15537380566908321 0 -0.01542264584752753 0.14956457798035719 0 -0.023159931299824549 0.14839209377580129 0 -0.021396469969749188 0.1374028974533886 0 -0.01542264584752753 0.14956457798035719 0 -0.021396469969749188 0.1374028974533886 0 -0.015783289274076458 0.13495459563681389 0 -0.030319635528424791 0.14770209815471691 0 -0.021396469969749188 0.1374028974533886 0 -0.023159931299824549 0.14839209377580129 0 -0.030319635528424791 0.14770209815471691 0 -0.021396469969749188 0.1374028974533886 0 -0.023159931299824549 0.14839209377580129 0 -0.030319635528424791 0.14770209815471691 0 -0.027639103276038759 0.15537380566908321 0 -0.028643554108799551 0.12806760582925611 0 -0.017506847497941139 0.13291345901070739 0 -0.032144953111298558 0.1155781737325411 0 -0.037500573576258918 0.13069979942664511 0 -0.028643554108799551 0.12806760582925611 0 -0.021396469969749188 0.1374028974533886 0 -0.021396469969749188 0.1374028974533886 0 -0.015783289274076458 0.13495459563681389 0 -0.017506847497941139 0.13291345901070739 0 -0.021396469969749188 0.1374028974533886 0 -0.015783289274076458 0.13495459563681389 0 -0.021396469969749188 0.1374028974533886 0 -0.017506847497941139 0.13291345901070739 0 -0.015783289274076458 0.13495459563681389 0 -0.017506847497941139 0.13291345901070739 0 -0.028643554108799551 0.12806760582925611 0 -0.021396469969749188 0.1374028974533886 0 -0.017506847497941139 0.13291345901070739 0 -0.015783289274076458 0.13495459563681389 0 -0.017506847497941139 0.13291345901070739 0 -0.0052228475358298988 0.1187351519746004 0 -0.015783289274076458 0.13495459563681389 0 -0.0052228475358298988 0.1187351519746004 0 0.0081407562022233586 0.1245196413435004 0 -0.017506847497941139 0.13291345901070739 0 -0.0052228475358298988 0.1187351519746004 0 -0.015783289274076458 0.13495459563681389 0 0.0081407562022233586 0.1245196413435004 0 -0.0052228475358298988 0.1187351519746004 0 -0.0040597014752050652 0.1051126182356364 0 -0.02761291541641378 0.1090435214711212 0 -0.017506847497941139 0.13291345901070739 0 -0.0052228475358298988 0.1187351519746004 0 -0.019344259015361451 0.119617058157429 0 -0.0040597014752050652 0.1051126182356364 0 -0.01533391803445322 0.09737838425916874 0 0.0051087594610210148 0.080527692295617709 0 -0.0052228475358298988 0.1187351519746004 0 -0.0040597014752050652 0.1051126182356364 0 0.0092582498306486675 0.1020209346744549 0 -0.0040597014752050652 0.1051126182356364 0 -0.01533391803445322 0.09737838425916874 0 -0.02761291541641378 0.1090435214711212 0 -0.01533391803445322 0.09737838425916874 0 -0.027797722535604891 0.095528124355643507 0 -0.02761291541641378 0.1090435214711212 0 -0.0052228475358298988 0.1187351519746004 0 -0.02761291541641378 0.1090435214711212 0 -0.019344259015361451 0.119617058157429 0 -0.017506847497941139 0.13291345901070739 0 -0.019344259015361451 0.119617058157429 0 -0.032144953111298558 0.1155781737325411 0 -0.02761291541641378 0.1090435214711212 0 -0.019344259015361451 0.119617058157429 0 -0.032144953111298558 0.1155781737325411 0 -0.0052228475358298988 0.1187351519746004 0 -0.02761291541641378 0.1090435214711212 0 -0.017506847497941139 0.13291345901070739 0 -0.032144953111298558 0.1155781737325411 0 -0.0012292332505543029 0.06378464068123596 0 -0.011084303888442551 0.081696622097620714 0 -0.018620569400409771 0.06708533464306303 0 -0.0012292332505543029 0.06378464068123596 0 -0.011084303888442551 0.081696622097620714 0 0.0051087594610210148 0.080527692295617709 0 -0.01533391803445322 0.09737838425916874 0 -0.011084303888442551 0.081696622097620714 0 0.0051087594610210148 0.080527692295617709 0 -0.01533391803445322 0.09737838425916874 0 0.0051087594610210148 0.080527692295617709 0 -0.011084303888442551 0.081696622097620714 0 0.0051087594610210148 0.080527692295617709 0 -0.027797722535604891 0.095528124355643507 0 -0.011084303888442551 0.081696622097620714 0 -0.032921925083363349 0.0833654898886593 0 -0.01533391803445322 0.09737838425916874 0 -0.027797722535604891 0.095528124355643507 0 -0.011084303888442551 0.081696622097620714 0 -0.018620569400409771 0.06708533464306303 0 -0.031868141831282552 0.069818555696904067 0 -0.028283535649973771 0.053358049395037133 0 -0.018620569400409771 0.06708533464306303 0 -0.031868141831282552 0.069818555696904067 0 -0.032921925083363349 0.0833654898886593 0 -0.011084303888442551 0.081696622097620714 0 -0.018620569400409771 0.06708533464306303 0 -0.032921925083363349 0.0833654898886593 0 -0.046276495737503101 0.06795068115397529 0 -0.032921925083363349 0.0833654898886593 0 -0.055882409073029139 0.082732437330199013 0 -0.046276495737503101 0.06795068115397529 0 -0.031868141831282552 0.069818555696904067 0 -0.028283535649973771 0.053358049395037133 0 -0.046276495737503101 0.06795068115397529 0 -0.031868141831282552 0.069818555696904067 0 -0.032921925083363349 0.0833654898886593 0 -0.027797722535604891 0.095528124355643507 0 -0.032921925083363349 0.0833654898886593 0 -0.050002983296997462 0.099351890967641507 0 -0.032921925083363349 0.0833654898886593 0 -0.055882409073029139 0.082732437330199013 0 -0.050002983296997462 0.099351890967641507 0 -0.055882409073029139 0.082732437330199013 0 -0.050002983296997462 0.099351890967641507 0 -0.072393051177581158 0.089660260464161839 0 -0.046276495737503101 0.06795068115397529 0 -0.055882409073029139 0.082732437330199013 0 -0.062589921296568873 0.06642957971461419 0 -0.032144953111298558 0.1155781737325411 0 -0.050002983296997462 0.099351890967641507 0 -0.046884900963607742 0.11986348336078891 0 -0.037500573576258918 0.13069979942664511 0 -0.034668926388748328 0.1237436995229996 0 -0.046884900963607742 0.11986348336078891 0 -0.028643554108799551 0.12806760582925611 0 -0.034668926388748328 0.1237436995229996 0 -0.032144953111298558 0.1155781737325411 0 -0.034668926388748328 0.1237436995229996 0 -0.032144953111298558 0.1155781737325411 0 -0.046884900963607742 0.11986348336078891 0 -0.027797722535604891 0.095528124355643507 0 -0.02761291541641378 0.1090435214711212 0 -0.050002983296997462 0.099351890967641507 0 -0.02761291541641378 0.1090435214711212 0 -0.050002983296997462 0.099351890967641507 0 -0.02761291541641378 0.1090435214711212 0 -0.032144953111298558 0.1155781737325411 0 -0.050002983296997462 0.099351890967641507 0 -0.050002983296997462 0.099351890967641507 0 -0.072393051177581158 0.089660260464161839 0 -0.050002983296997462 0.099351890967641507 0 -0.062115440392200259 0.1100516779477724 0 -0.072393051177581158 0.089660260464161839 0 -0.062016764747578973 0.12884034001808189 0 -0.062115440392200259 0.1100516779477724 0 -0.046884900963607742 0.11986348336078891 0 -0.050002983296997462 0.099351890967641507 0 -0.062115440392200259 0.1100516779477724 0 -0.046884900963607742 0.11986348336078891 0 -0.062016764747578973 0.12884034001808189 0 -0.062115440392200259 0.1100516779477724 0 -0.07825578499994286 0.1108801308713713 0 -0.062016764747578973 0.12884034001808189 0 -0.07825578499994286 0.1108801308713713 0 -0.062016764747578973 0.12884034001808189 0 -0.075786521408142987 0.12443322189858901 0 -0.07825578499994286 0.1108801308713713 0 -0.088852304720190942 0.12644129241805541 0 -0.075786521408142987 0.12443322189858901 0 -0.083719546898917335 0.119699814685821 0 -0.083719546898917335 0.119699814685821 0 -0.07825578499994286 0.1108801308713713 0 -0.093946486761182085 0.1175508364221631 0 -0.075786521408142987 0.12443322189858901 0 -0.083719546898917335 0.119699814685821 0 -0.07825578499994286 0.1108801308713713 0 -0.088852304720190942 0.12644129241805541 0 -0.083719546898917335 0.119699814685821 0 -0.093946486761182085 0.1175508364221631 0 -0.07825578499994286 0.1108801308713713 0 -0.072393051177581158 0.089660260464161839 0 -0.094494805252306774 0.092919921724660626 0 -0.07825578499994286 0.1108801308713713 0 -0.094494805252306774 0.092919921724660626 0 -0.093946486761182085 0.1175508364221631 0 -0.07825578499994286 0.1108801308713713 0 -0.094494805252306774 0.092919921724660626 0 -0.062115440392200259 0.1100516779477724 0 -0.07825578499994286 0.1108801308713713 0 -0.072393051177581158 0.089660260464161839 0 -0.055882409073029139 0.082732437330199013 0 -0.072393051177581158 0.089660260464161839 0 -0.062589921296568873 0.06642957971461419 0 -0.072393051177581158 0.089660260464161839 0 -0.062589921296568873 0.06642957971461419 0 -0.079461892795990779 0.070449194571112136 0 -0.062589921296568873 0.06642957971461419 0 -0.079461892795990779 0.070449194571112136 0 -0.072380178782229632 0.053292134703331731 0 -0.079461892795990779 0.070449194571112136 0 -0.094783119058163612 0.079968629960679383 0 -0.095163193665411511 0.062895368012773595 0 -0.072393051177581158 0.089660260464161839 0 -0.079461892795990779 0.070449194571112136 0 -0.094783119058163612 0.079968629960679383 0 -0.072393051177581158 0.089660260464161839 0 -0.094494805252306774 0.092919921724660626 0 -0.094783119058163612 0.079968629960679383 0 -0.072393051177581158 0.089660260464161839 0 -0.094783119058163612 0.079968629960679383 0 -0.094494805252306774 0.092919921724660626 0 -0.1072570836689255 0.074569224449017327 0 -0.1143352617609841 0.070976556735617355 0 -0.094494805252306774 0.092919921724660626 0 -0.094783119058163612 0.079968629960679383 0 -0.1072570836689255 0.074569224449017327 0 -0.094494805252306774 0.092919921724660626 0 -0.094783119058163612 0.079968629960679383 0 -0.094494805252306774 0.092919921724660626 0 -0.1143352617609841 0.070976556735617355 0 -0.11134444788944529 0.091345452974062963 0 -0.094494805252306774 0.092919921724660626 0 -0.1143352617609841 0.070976556735617355 0 -0.094783119058163612 0.079968629960679383 0 -0.095163193665411511 0.062895368012773595 0 -0.094783119058163612 0.079968629960679383 0 -0.095163193665411511 0.062895368012773595 0 -0.1072570836689255 0.074569224449017327 0 -0.095163193665411511 0.062895368012773595 0 -0.1143352617609841 0.070976556735617355 0 -0.1079186055395126 0.059947093390224047 0 -0.095163193665411511 0.062895368012773595 0 -0.1072570836689255 0.074569224449017327 0 -0.1143352617609841 0.070976556735617355 0 -0.095163193665411511 0.062895368012773595 0 -0.1143352617609841 0.070976556735617355 0 -0.094783119058163612 0.079968629960679383 0 -0.1072570836689255 0.074569224449017327 0 -0.1131683311422218 0.062814464837820119 0 -0.1163519950294771 0.068746068028026575 0 -0.1143352617609841 0.070976556735617355 0 -0.1131683311422218 0.062814464837820119 0 -0.1143352617609841 0.070976556735617355 0 -0.1079186055395126 0.059947093390224047 0 -0.1131683311422218 0.062814464837820119 0 -0.1163519950294771 0.068746068028026575 0 -0.1185872066977806 0.063729502839677182 0 -0.1163519950294771 0.068746068028026575 0 -0.1143352617609841 0.070976556735617355 0 -0.12697985749263241 0.07630636069427757 0 -0.1143352617609841 0.070976556735617355 0 -0.12697985749263241 0.07630636069427757 0 -0.1143352617609841 0.070976556735617355 0 -0.1200161930876608 0.081776906418299489 0 -0.12697985749263241 0.07630636069427757 0 -0.1163519950294771 0.068746068028026575 0 -0.1143352617609841 0.070976556735617355 0 -0.12697985749263241 0.07630636069427757 0 -0.12509646681095879 0.065597408261105467 0 -0.1163519950294771 0.068746068028026575 0 -0.12509646681095879 0.065597408261105467 0 -0.1163519950294771 0.068746068028026575 0 -0.1185872066977806 0.063729502839677182 0 -0.13359630628803579 0.098968800084119873 0 -0.12697672020224329 0.087309090757334687 0 -0.11134444788944529 0.091345452974062963 0 -0.1143352617609841 0.070976556735617355 0 -0.11134444788944529 0.091345452974062963 0 -0.1200161930876608 0.081776906418299489 0 -0.12697672020224329 0.087309090757334687 0 -0.11134444788944529 0.091345452974062963 0 -0.1200161930876608 0.081776906418299489 0 -0.12697672020224329 0.087309090757334687 0 -0.12697985749263241 0.07630636069427757 0 -0.1200161930876608 0.081776906418299489 0 -0.12607259725238279 0.11330641960449821 0 -0.13359630628803579 0.098968800084119873 0 -0.11123038207674001 0.1082681122756106 0 -0.13359630628803579 0.098968800084119873 0 -0.11134444788944529 0.091345452974062963 0 -0.11123038207674001 0.1082681122756106 0 -0.13359630628803579 0.098968800084119873 0 -0.11123038207674001 0.1082681122756106 0 -0.11134444788944529 0.091345452974062963 0 -0.11123038207674001 0.1082681122756106 0 -0.1057361510920251 0.099277959283072717 0 -0.12607259725238279 0.11330641960449821 0 -0.11123038207674001 0.1082681122756106 0 -0.11706151063611089 0.1208882391850464 0 -0.12607259725238279 0.11330641960449821 0 -0.12916618827146031 0.12390190950899049 0 -0.11706151063611089 0.1208882391850464 0 -0.11473911200363 0.13153944404780621 0 -0.11706151063611089 0.1208882391850464 0 -0.10601879130899509 0.12208205668825579 0 -0.1036345166478785 0.1154037657297244 0 -0.093946486761182085 0.1175508364221631 0 -0.097511277885226108 0.1010939306234323 0 -0.11123038207674001 0.1082681122756106 0 -0.11706151063611089 0.1208882391850464 0 -0.097511277885226108 0.1010939306234323 0 -0.11706151063611089 0.1208882391850464 0 -0.1036345166478785 0.1154037657297244 0 -0.097511277885226108 0.1010939306234323 0 -0.11706151063611089 0.1208882391850464 0 -0.097511277885226108 0.1010939306234323 0 -0.11706151063611089 0.1208882391850464 0 -0.1036345166478785 0.1154037657297244 0 -0.10601879130899509 0.12208205668825579 0 -0.1039338124667491 0.13009472872812991 0 -0.10601879130899509 0.12208205668825579 0 -0.093946486761182085 0.1175508364221631 0 -0.1036345166478785 0.1154037657297244 0 -0.10601879130899509 0.12208205668825579 0 -0.093946486761182085 0.1175508364221631 0 -0.094494805252306774 0.092919921724660626 0 -0.11134444788944529 0.091345452974062963 0 -0.1057361510920251 0.099277959283072717 0 -0.094494805252306774 0.092919921724660626 0 -0.093946486761182085 0.1175508364221631 0 -0.094494805252306774 0.092919921724660626 0 -0.093946486761182085 0.1175508364221631 0 -0.097511277885226108 0.1010939306234323 0 -0.094494805252306774 0.092919921724660626 0 -0.097511277885226108 0.1010939306234323 0 -0.1057361510920251 0.099277959283072717 0 -0.11123038207674001 0.1082681122756106 0 -0.097511277885226108 0.1010939306234323 0 -0.1057361510920251 0.099277959283072717 0 -0.1001339578063882 0.022436777626384768 0 -0.09536928659882779 0.01424719335382847 0 -0.1128440433065038 0.01636018592503535 0 -0.1001339578063882 0.022436777626384768 0 -0.1128440433065038 0.01636018592503535 0 -0.1012358460944251 0.033108064834657697 0 -0.1128440433065038 0.01636018592503535 0 -0.11393466639619521 0.035004472642448957 0 -0.1012358460944251 0.033108064834657697 0 -0.1128440433065038 0.01636018592503535 0 -0.1012358460944251 0.033108064834657697 0 -0.1001339578063882 0.022436777626384768 0 -0.1012358460944251 0.033108064834657697 0 -0.091086655225796079 0.026031666392017531 0 -0.1001339578063882 0.022436777626384768 0 -0.09536928659882779 0.01424719335382847 0 -0.091086655225796079 0.026031666392017531 0 -0.10394313851700079 0.0020556251079679459 0 -0.09536928659882779 0.01424719335382847 0 -0.085958893623968774 0.001514634656162053 0 -0.10394313851700079 0.0020556251079679459 0 -0.09536928659882779 0.01424719335382847 0 -0.1128440433065038 0.01636018592503535 0 -0.1244522405185825 -0.00038769298458709092 0 -0.12424451236807239 0.027069144312366941 0 -0.1244522405185825 -0.00038769298458709092 0 -0.1128440433065038 0.01636018592503535 0 -0.12424451236807239 0.027069144312366941 0 -0.1244522405185825 -0.00038769298458709092 0 -0.1128440433065038 0.01636018592503535 0 -0.1244522405185825 -0.00038769298458709092 0 -0.10394313851700079 0.0020556251079679459 0 -0.1128440433065038 0.01636018592503535 0 -0.1128440433065038 0.01636018592503535 0 -0.12424451236807239 0.027069144312366941 0 -0.11393466639619521 0.035004472642448957 0 -0.12424451236807239 0.027069144312366941 0 -0.12075472355362291 0.04122338309529356 0 -0.11393466639619521 0.035004472642448957 0 -0.12075472355362291 0.04122338309529356 0 -0.1244920148619628 0.050381604022983993 0 -0.1151670195775447 0.0482238646449 0 -0.11393466639619521 0.035004472642448957 0 -0.1151670195775447 0.0482238646449 0 -0.10635909785250069 0.04125385698526951 0 -0.12075472355362291 0.04122338309529356 0 -0.11393466639619521 0.035004472642448957 0 -0.1151670195775447 0.0482238646449 0 -0.12509646681095879 0.065597408261105467 0 -0.1185872066977806 0.063729502839677182 0 -0.1197320338084647 0.057760070231756527 0 -0.1197320338084647 0.057760070231756527 0 -0.1244920148619628 0.050381604022983993 0 -0.1151670195775447 0.0482238646449 0 -0.1151670195775447 0.0482238646449 0 -0.1125210466915524 0.054978807834542787 0 -0.1051700993263314 0.050476507920077678 0 -0.1197320338084647 0.057760070231756527 0 -0.1151670195775447 0.0482238646449 0 -0.1125210466915524 0.054978807834542787 0 -0.1131683311422218 0.062814464837820119 0 -0.1197320338084647 0.057760070231756527 0 -0.1125210466915524 0.054978807834542787 0 -0.1131683311422218 0.062814464837820119 0 -0.1125210466915524 0.054978807834542787 0 -0.1079186055395126 0.059947093390224047 0 -0.1131683311422218 0.062814464837820119 0 -0.1185872066977806 0.063729502839677182 0 -0.1197320338084647 0.057760070231756527 0 -0.095163193665411511 0.062895368012773595 0 -0.1051700993263314 0.050476507920077678 0 -0.095336714328198874 0.041619114628837717 0 -0.095163193665411511 0.062895368012773595 0 -0.095336714328198874 0.041619114628837717 0 -0.1125210466915524 0.054978807834542787 0 -0.1079186055395126 0.059947093390224047 0 -0.1051700993263314 0.050476507920077678 0 -0.095163193665411511 0.062895368012773595 0 -0.1079186055395126 0.059947093390224047 0 -0.1051700993263314 0.050476507920077678 0 -0.11393466639619521 0.035004472642448957 0 -0.10635909785250069 0.04125385698526951 0 -0.1012358460944251 0.033108064834657697 0 -0.1051700993263314 0.050476507920077678 0 -0.10635909785250069 0.04125385698526951 0 -0.095336714328198874 0.041619114628837717 0 -0.1151670195775447 0.0482238646449 0 -0.1051700993263314 0.050476507920077678 0 -0.10635909785250069 0.04125385698526951 0 -0.095336714328198874 0.041619114628837717 0 -0.1012358460944251 0.033108064834657697 0 -0.08853862327275358 0.036894035852943478 0 -0.10635909785250069 0.04125385698526951 0 -0.095336714328198874 0.041619114628837717 0 -0.1012358460944251 0.033108064834657697 0 -0.095336714328198874 0.041619114628837717 0 -0.1012358460944251 0.033108064834657697 0 -0.1012358460944251 0.033108064834657697 0 -0.08853862327275358 0.036894035852943478 0 -0.091086655225796079 0.026031666392017531 0 -0.08853862327275358 0.036894035852943478 0 -0.081088353484909961 0.032020518526829703 0 -0.091086655225796079 0.026031666392017531 0 -0.08853862327275358 0.036894035852943478 0 -0.079654612676290371 0.043453985766932421 0 -0.089627648882346422 0.049855943744280047 0 -0.095336714328198874 0.041619114628837717 0 -0.08853862327275358 0.036894035852943478 0 -0.089627648882346422 0.049855943744280047 0 -0.095336714328198874 0.041619114628837717 0 -0.089627648882346422 0.049855943744280047 0 -0.08853862327275358 0.036894035852943478 0 -0.079654612676290371 0.043453985766932421 0 -0.081088353484909961 0.032020518526829703 0 -0.095163193665411511 0.062895368012773595 0 -0.089627648882346422 0.049855943744280047 0 -0.072380178782229632 0.053292134703331731 0 -0.095163193665411511 0.062895368012773595 0 -0.095336714328198874 0.041619114628837717 0 -0.089627648882346422 0.049855943744280047 0 -0.095163193665411511 0.062895368012773595 0 -0.072380178782229632 0.053292134703331731 0 -0.079461892795990779 0.070449194571112136 0 -0.095163193665411511 0.062895368012773595 0 -0.072380178782229632 0.053292134703331731 0 -0.079654612676290371 0.043453985766932421 0 -0.089627648882346422 0.049855943744280047 0 -0.072380178782229632 0.053292134703331731 0 -0.079654612676290371 0.043453985766932421 0 -0.072380178782229632 0.053292134703331731 0 -0.065785112224924183 0.037111289768743512 0 -0.072380178782229632 0.053292134703331731 0 -0.065785112224924183 0.037111289768743512 0 -0.049597163899048183 0.043688901393888827 0 -0.079654612676290371 0.043453985766932421 0 -0.081088353484909961 0.032020518526829703 0 -0.065785112224924183 0.037111289768743512 0 -0.081088353484909961 0.032020518526829703 0 -0.065785112224924183 0.037111289768743512 0 -0.069646162847898541 0.026335067629459381 0 -0.069646162847898541 0.026335067629459381 0 -0.076118231742993758 0.01527396050979404 0 -0.05559295393876626 0.02093450171247024 0 -0.065785112224924183 0.037111289768743512 0 -0.069646162847898541 0.026335067629459381 0 -0.05559295393876626 0.02093450171247024 0 -0.081088353484909961 0.032020518526829703 0 -0.069646162847898541 0.026335067629459381 0 -0.076118231742993758 0.01527396050979404 0 -0.081088353484909961 0.032020518526829703 0 -0.091086655225796079 0.026031666392017531 0 -0.076118231742993758 0.01527396050979404 0 -0.09536928659882779 0.01424719335382847 0 -0.091086655225796079 0.026031666392017531 0 -0.076118231742993758 0.01527396050979404 0 -0.09536928659882779 0.01424719335382847 0 -0.085958893623968774 0.001514634656162053 0 -0.076118231742993758 0.01527396050979404 0 -0.076118231742993758 0.01527396050979404 0 -0.065648076432031049 0.00090955339710942099 0 -0.05559295393876626 0.02093450171247024 0 -0.085958893623968774 0.001514634656162053 0 -0.076118231742993758 0.01527396050979404 0 -0.065648076432031049 0.00090955339710942099 0 -0.045118160941850949 -0.00049033847668307538 0 -0.065648076432031049 0.00090955339710942099 0 -0.05559295393876626 0.02093450171247024 0 -0.05559295393876626 0.02093450171247024 0 -0.041197297059898302 0.028587588038626519 0 -0.049597163899048183 0.043688901393888827 0 -0.05559295393876626 0.02093450171247024 0 -0.032784921385912158 0.01564128096370114 0 -0.041197297059898302 0.028587588038626519 0 -0.032784921385912158 0.01564128096370114 0 -0.041197297059898302 0.028587588038626519 0 -0.02681414901586664 0.034085668084445887 0 -0.045118160941850949 -0.00049033847668307538 0 -0.05559295393876626 0.02093450171247024 0 -0.032784921385912158 0.01564128096370114 0 -0.045118160941850949 -0.00049033847668307538 0 -0.027025641752002061 -0.0079319500279313396 0 -0.032784921385912158 0.01564128096370114 0 -0.062589921296568873 0.06642957971461419 0 -0.072380178782229632 0.053292134703331731 0 -0.049597163899048183 0.043688901393888827 0 -0.046276495737503101 0.06795068115397529 0 -0.062589921296568873 0.06642957971461419 0 -0.049597163899048183 0.043688901393888827 0 -0.072380178782229632 0.053292134703331731 0 -0.049597163899048183 0.043688901393888827 0 -0.065785112224924183 0.037111289768743512 0 -0.05559295393876626 0.02093450171247024 0 -0.049597163899048183 0.043688901393888827 0 -0.049597163899048183 0.043688901393888827 0 -0.02681414901586664 0.034085668084445887 0 -0.041197297059898302 0.028587588038626519 0 -0.049597163899048183 0.043688901393888827 0 -0.02681414901586664 0.034085668084445887 0 -0.049597163899048183 0.043688901393888827 0 -0.028283535649973771 0.053358049395037133 0 -0.02681414901586664 0.034085668084445887 0 -0.046276495737503101 0.06795068115397529 0 -0.028283535649973771 0.053358049395037133 0 -0.046276495737503101 0.06795068115397529 0 -0.049597163899048183 0.043688901393888827 0 -0.028283535649973771 0.053358049395037133 0 -0.028283535649973771 0.053358049395037133 0 -0.010290575562444429 0.038765417636098962 0 -0.0097640400442320502 0.053032197103308337 0 -0.018620569400409771 0.06708533464306303 0 -0.028283535649973771 0.053358049395037133 0 -0.0097640400442320502 0.053032197103308337 0 -0.028283535649973771 0.053358049395037133 0 -0.010290575562444429 0.038765417636098962 0 -0.02681414901586664 0.034085668084445887 0 -0.010290575562444429 0.038765417636098962 0 -0.020835528804160591 0.022374223573919171 0 -0.028283535649973771 0.053358049395037133 0 -0.02681414901586664 0.034085668084445887 0 -0.010290575562444429 0.038765417636098962 0 -0.010290575562444429 0.038765417636098962 0 0.0077023845250848884 0.024172785877160811 0 -0.010290575562444429 0.038765417636098962 0 -0.0034349793211087142 0.044893397967285961 0 0.0047272217829380687 0.036246676438490527 0 -0.010290575562444429 0.038765417636098962 0 -0.0034349793211087142 0.044893397967285961 0 -0.0097640400442320502 0.053032197103308337 0 -0.0012292332505543029 0.06378464068123596 0 -0.018620569400409771 0.06708533464306303 0 -0.0097640400442320502 0.053032197103308337 0 -0.0034349793211087142 0.044893397967285961 0 -0.0097640400442320502 0.053032197103308337 0 0.0015874765393035599 0.051529300691246019 0 -0.0012292332505543029 0.06378464068123596 0 -0.0097640400442320502 0.053032197103308337 0 0.0015874765393035599 0.051529300691246019 0 -0.027025641752002061 -0.0079319500279313396 0 -0.032784921385912158 0.01564128096370114 0 -0.01566814095190756 0.010235570601176981 0 -0.032784921385912158 0.01564128096370114 0 -0.02681414901586664 0.034085668084445887 0 -0.020835528804160591 0.022374223573919171 0 -0.032784921385912158 0.01564128096370114 0 -0.01566814095190756 0.010235570601176981 0 -0.020835528804160591 0.022374223573919171 0 -0.010290575562444429 0.038765417636098962 0 -0.020835528804160591 0.022374223573919171 0 -0.0077262750329500059 0.02266504195052366 0 -0.01566814095190756 0.010235570601176981 0 -0.020835528804160591 0.022374223573919171 0 -0.0077262750329500059 0.02266504195052366 0 -0.010290575562444429 0.038765417636098962 0 -0.0077262750329500059 0.02266504195052366 0 0.0077023845250848884 0.024172785877160811 0 -0.0091716063734174208 -0.003332990253060792 0 -0.01566814095190756 0.010235570601176981 0 0.001118487675879971 0.0096665619175221752 0 -0.0091716063734174208 -0.003332990253060792 0 0.001118487675879971 0.0096665619175221752 0 0.006935528729737548 -0.0054826371559186567 0 -0.01566814095190756 0.010235570601176981 0 -0.0077262750329500059 0.02266504195052366 0 0.001118487675879971 0.0096665619175221752 0 0.001118487675879971 0.0096665619175221752 0 0.0077023845250848884 0.024172785877160811 0 0.025695344612614111 0.0095801541182225364 0 0.001118487675879971 0.0096665619175221752 0 0.025695344612614111 0.0095801541182225364 0 0.006935528729737548 -0.0054826371559186567 0 -0.0077262750329500059 0.02266504195052366 0 0.001118487675879971 0.0096665619175221752 0 0.0077023845250848884 0.024172785877160811 0 0.0077023845250848884 0.024172785877160811 0 0.024648998497944961 0.02642224341189468 0 0.015911730558903318 0.034762274935307848 0 0.024648998497944961 0.02642224341189468 0 0.025695344612614111 0.0095801541182225364 0 0.038363400138324961 0.019751697241263279 0 0.0077023845250848884 0.024172785877160811 0 0.024648998497944961 0.02642224341189468 0 0.025695344612614111 0.0095801541182225364 0 0.0077023845250848884 0.024172785877160811 0 0.025695344612614111 0.0095801541182225364 0 0.025695344612614111 0.0095801541182225364 0 0.006935528729737548 -0.0054826371559186567 0 0.01459521235494949 0.061710637509134872 0 0.0047272217829380687 0.036246676438490527 0 -0.0012292332505543029 0.06378464068123596 0 0.01459521235494949 0.061710637509134872 0 0.0015874765393035599 0.051529300691246019 0 0.01459521235494949 0.061710637509134872 0 0.0015874765393035599 0.051529300691246019 0 0.0047272217829380687 0.036246676438490527 0 0.01459521235494949 0.061710637509134872 0 0.0047272217829380687 0.036246676438490527 0 0.016570281580619739 0.045526930476817662 0 -0.010290575562444429 0.038765417636098962 0 0.0077023845250848884 0.024172785877160811 0 0.0047272217829380687 0.036246676438490527 0 -0.0034349793211087142 0.044893397967285961 0 0.0015874765393035599 0.051529300691246019 0 0.0047272217829380687 0.036246676438490527 0 0.0047272217829380687 0.036246676438490527 0 0.015911730558903318 0.034762274935307848 0 0.016570281580619739 0.045526930476817662 0 0.0077023845250848884 0.024172785877160811 0 0.0047272217829380687 0.036246676438490527 0 0.015911730558903318 0.034762274935307848 0 0.024648998497944961 0.02642224341189468 0 0.015911730558903318 0.034762274935307848 0 0.025892041879535671 0.039420421904702428 0 0.024648998497944961 0.02642224341189468 0 0.025892041879535671 0.039420421904702428 0 0.038236142792751733 0.035111405712831077 0 0.015911730558903318 0.034762274935307848 0 0.025892041879535671 0.039420421904702428 0 0.016570281580619739 0.045526930476817662 0 0.025892041879535671 0.039420421904702428 0 0.016570281580619739 0.045526930476817662 0 0.021716339062575678 0.05448348331271597 0 0.01459521235494949 0.061710637509134872 0 0.016570281580619739 0.045526930476817662 0 0.021716339062575678 0.05448348331271597 0 0.01459521235494949 0.061710637509134872 0 0.021716339062575678 0.05448348331271597 0 0.030459386295035529 0.05963142741263059 0 0.01459521235494949 0.061710637509134872 0 0.030459386295035529 0.05963142741263059 0 0.021716339062575678 0.05448348331271597 0 0.030459386295035529 0.05963142741263059 0 0.032703710623893968 0.046893395464013943 0 0.025892041879535671 0.039420421904702428 0 0.021716339062575678 0.05448348331271597 0 0.032703710623893968 0.046893395464013943 0 0.030459386295035529 0.05963142741263059 0 0.032703710623893968 0.046893395464013943 0 0.047214643089571059 0.045820238977188371 0 0.030459386295035529 0.05963142741263059 0 0.04797297407010033 0.057336039788577382 0 0.030459386295035529 0.05963142741263059 0 0.04797297407010033 0.057336039788577382 0 0.027635028654909001 0.06907575978797427 0 0.030459386295035529 0.05963142741263059 0 0.047214643089571059 0.045820238977188371 0 0.04797297407010033 0.057336039788577382 0 0.030459386295035529 0.05963142741263059 0 0.047214643089571059 0.045820238977188371 0 0.038236142792751733 0.035111405712831077 0 0.047214643089571059 0.045820238977188371 0 0.051031455664035288 0.029923240364304559 0 0.032703710623893968 0.046893395464013943 0 0.038236142792751733 0.035111405712831077 0 0.047214643089571059 0.045820238977188371 0 0.025892041879535671 0.039420421904702428 0 0.032703710623893968 0.046893395464013943 0 0.038236142792751733 0.035111405712831077 0 0.062359133547200143 0.040731400683572692 0 0.047214643089571059 0.045820238977188371 0 0.063969899884107562 0.032009050541747332 0 0.047214643089571059 0.045820238977188371 0 0.063969899884107562 0.032009050541747332 0 0.047214643089571059 0.045820238977188371 0 0.051031455664035288 0.029923240364304559 0 0.063969899884107562 0.032009050541747332 0 0.062359133547200143 0.040731400683572692 0 0.04797297407010033 0.057336039788577382 0 0.072379857481358154 0.054137194478101919 0 0.04797297407010033 0.057336039788577382 0 0.072379857481358154 0.054137194478101919 0 0.062359133547200143 0.040731400683572692 0 0.04797297407010033 0.057336039788577382 0 0.062359133547200143 0.040731400683572692 0 0.047214643089571059 0.045820238977188371 0 0.04797297407010033 0.057336039788577382 0 0.04797297407010033 0.057336039788577382 0 0.072379857481358154 0.054137194478101919 0 0.06072113176624426 0.066105246874810966 0 0.040835927619124697 0.0088703260301804514 0 0.038363400138324961 0.019751697241263279 0 0.051939500327619889 0.017318508583630769 0 0.040835927619124697 0.0088703260301804514 0 0.046640351189982193 0.001482106492276504 0 0.040314465242246092 -0.002276229875846851 0 0.025695344612614111 0.0095801541182225364 0 0.040314465242246092 -0.002276229875846851 0 0.025695344612614111 0.0095801541182225364 0 0.040835927619124697 0.0088703260301804514 0 0.040314465242246092 -0.002276229875846851 0 0.025695344612614111 0.0095801541182225364 0 0.040835927619124697 0.0088703260301804514 0 0.038363400138324961 0.019751697241263279 0 0.025695344612614111 0.0095801541182225364 0 0.038363400138324961 0.019751697241263279 0 0.024648998497944961 0.02642224341189468 0 0.038236142792751733 0.035111405712831077 0 0.038363400138324961 0.019751697241263279 0 0.038363400138324961 0.019751697241263279 0 0.051031455664035288 0.029923240364304559 0 0.038236142792751733 0.035111405712831077 0 0.038363400138324961 0.019751697241263279 0 0.051031455664035288 0.029923240364304559 0 0.038363400138324961 0.019751697241263279 0 0.051939500327619889 0.017318508583630769 0 0.051031455664035288 0.029923240364304559 0 0.051031455664035288 0.029923240364304559 0 0.062107590562420073 0.0228568457980407 0 0.063969899884107562 0.032009050541747332 0 0.051939500327619889 0.017318508583630769 0 0.062107590562420073 0.0228568457980407 0 0.064696567818308529 0.01472149906873369 0 0.051939500327619889 0.017318508583630769 0 0.051031455664035288 0.029923240364304559 0 0.062107590562420073 0.0228568457980407 0 0.055514373943813228 0.0067304088365214816 0 0.075461568133428525 0.0044331687040122013 0 0.049896637954744763 -0.0073960790217490677 0 0.051939500327619889 0.017318508583630769 0 0.055514373943813228 0.0067304088365214816 0 0.064696567818308529 0.01472149906873369 0 0.040835927619124697 0.0088703260301804514 0 0.051939500327619889 0.017318508583630769 0 0.055514373943813228 0.0067304088365214816 0 0.046640351189982193 0.001482106492276504 0 0.055514373943813228 0.0067304088365214816 0 0.049896637954744763 -0.0073960790217490677 0 0.040835927619124697 0.0088703260301804514 0 0.046640351189982193 0.001482106492276504 0 0.055514373943813228 0.0067304088365214816 0 0.075461568133428525 0.0044331687040122013 0 0.064696567818308529 0.01472149906873369 0 0.08072515667864405 0.018197862106306289 0 0.055514373943813228 0.0067304088365214816 0 0.075461568133428525 0.0044331687040122013 0 0.064696567818308529 0.01472149906873369 0 0.075461568133428525 0.0044331687040122013 0 0.1010264983121123 0.016262416429773479 0 0.075461568133428525 0.0044331687040122013 0 0.1010264983121123 0.016262416429773479 0 0.098011391193308373 -0.0056982583262641584 0 0.075461568133428525 0.0044331687040122013 0 0.08072515667864405 0.018197862106306289 0 0.1010264983121123 0.016262416429773479 0 0.088041666307225416 0.02743399724937181 0 0.08072515667864405 0.018197862106306289 0 0.1010264983121123 0.016262416429773479 0 0.088041666307225416 0.02743399724937181 0 0.08072515667864405 0.018197862106306289 0 0.076745293024301803 0.02412676157856956 0 0.088041666307225416 0.02743399724937181 0 0.076745293024301803 0.02412676157856956 0 0.082258845210710349 0.03253561428057717 0 0.08072515667864405 0.018197862106306289 0 0.076745293024301803 0.02412676157856956 0 0.063969899884107562 0.032009050541747332 0 0.062107590562420073 0.0228568457980407 0 0.064696567818308529 0.01472149906873369 0 0.08072515667864405 0.018197862106306289 0 0.08072515667864405 0.018197862106306289 0 0.063969899884107562 0.032009050541747332 0 0.062107590562420073 0.0228568457980407 0 0.08072515667864405 0.018197862106306289 0 0.063969899884107562 0.032009050541747332 0 0.062359133547200143 0.040731400683572692 0 0.076745293024301803 0.02412676157856956 0 0.062359133547200143 0.040731400683572692 0 0.076745293024301803 0.02412676157856956 0 0.076375628159171968 0.038405412939545532 0 0.062359133547200143 0.040731400683572692 0 0.076745293024301803 0.02412676157856956 0 0.063969899884107562 0.032009050541747332 0 0.062359133547200143 0.040731400683572692 0 0.076375628159171968 0.038405412939545532 0 0.072379857481358154 0.054137194478101919 0 0.072379857481358154 0.054137194478101919 0 0.087872793352142223 0.040176285354821803 0 0.096786740892615686 0.050938349167624693 0 0.072379857481358154 0.054137194478101919 0 0.096786740892615686 0.050938349167624693 0 0.072379857481358154 0.054137194478101919 0 0.096786740892615686 0.050938349167624693 0 0.089592915186254174 0.067390154600646832 0 0.076375628159171968 0.038405412939545532 0 0.072379857481358154 0.054137194478101919 0 0.087872793352142223 0.040176285354821803 0 0.076375628159171968 0.038405412939545532 0 0.082258845210710349 0.03253561428057717 0 0.087872793352142223 0.040176285354821803 0 0.076745293024301803 0.02412676157856956 0 0.076375628159171968 0.038405412939545532 0 0.082258845210710349 0.03253561428057717 0 0.088041666307225416 0.02743399724937181 0 0.087872793352142223 0.040176285354821803 0 0.098246025398924644 0.032379674771496843 0 0.088041666307225416 0.02743399724937181 0 0.082258845210710349 0.03253561428057717 0 0.087872793352142223 0.040176285354821803 0 0.098246025398924644 0.032379674771496843 0 0.09859813872304253 0.041737690340159041 0 0.1063796333462841 0.038668109643535398 0 0.087872793352142223 0.040176285354821803 0 0.098246025398924644 0.032379674771496843 0 0.09859813872304253 0.041737690340159041 0 0.087872793352142223 0.040176285354821803 0 0.09859813872304253 0.041737690340159041 0 0.096786740892615686 0.050938349167624693 0 0.09859813872304253 0.041737690340159041 0 0.1037055006252459 0.04652603276331644 0 0.096786740892615686 0.050938349167624693 0 0.1037055006252459 0.04652603276331644 0 0.1091701701315707 0.045405346223324289 0 0.1063796333462841 0.038668109643535398 0 0.09859813872304253 0.041737690340159041 0 0.1037055006252459 0.04652603276331644 0 0.1063796333462841 0.038668109643535398 0 0.098246025398924644 0.032379674771496843 0 0.1063796333462841 0.038668109643535398 0 0.1080469394596527 0.029312409717345649 0 0.1063796333462841 0.038668109643535398 0 0.11369005285381351 0.036564640387925021 0 0.1080469394596527 0.029312409717345649 0 0.10140855114010359 0.056741753968867333 0 0.1082136550722141 0.059696613986540442 0 0.089592915186254174 0.067390154600646832 0 0.10140855114010359 0.056741753968867333 0 0.096786740892615686 0.050938349167624693 0 0.089592915186254174 0.067390154600646832 0 0.10140855114010359 0.056741753968867333 0 0.096786740892615686 0.050938349167624693 0 0.1040187002827474 0.052009313231975308 0 0.1037055006252459 0.04652603276331644 0 0.096786740892615686 0.050938349167624693 0 0.1040187002827474 0.052009313231975308 0 0.1037055006252459 0.04652603276331644 0 0.10828434687670541 0.049049973369521209 0 0.1040187002827474 0.052009313231975308 0 0.1037055006252459 0.04652603276331644 0 0.1091701701315707 0.045405346223324289 0 0.10828434687670541 0.049049973369521209 0 0.10828434687670541 0.049049973369521209 0 0.1040187002827474 0.052009313231975308 0 0.1085923347430168 0.054888678040205661 0 0.10140855114010359 0.056741753968867333 0 0.1040187002827474 0.052009313231975308 0 0.1085923347430168 0.054888678040205661 0 0.10140855114010359 0.056741753968867333 0 0.1085923347430168 0.054888678040205661 0 0.1082136550722141 0.059696613986540442 0 0.1082136550722141 0.059696613986540442 0 0.12683439495817461 0.052003073372435288 0 0.1085923347430168 0.054888678040205661 0 0.1082136550722141 0.059696613986540442 0 0.12683439495817461 0.052003073372435288 0 0.1082136550722141 0.059696613986540442 0 0.1213053233293625 0.063977455960140386 0 0.12683439495817461 0.052003073372435288 0 0.1085923347430168 0.054888678040205661 0 0.11545296983014219 0.044674578582556468 0 0.12683439495817461 0.052003073372435288 0 0.1085923347430168 0.054888678040205661 0 0.11545296983014219 0.044674578582556468 0 0.10828434687670541 0.049049973369521209 0 0.1085923347430168 0.054888678040205661 0 0.11545296983014219 0.044674578582556468 0 0.11545296983014219 0.044674578582556468 0 0.12683439495817461 0.052003073372435288 0 0.11545296983014219 0.044674578582556468 0 0.12659142849079691 0.028091664155532971 0 0.13015300311198849 0.040381385354086502 0 0.11369005285381351 0.036564640387925021 0 0.11545296983014219 0.044674578582556468 0 0.12659142849079691 0.028091664155532971 0 0.11369005285381351 0.036564640387925021 0 0.1080469394596527 0.029312409717345649 0 0.12659142849079691 0.028091664155532971 0 0.11545296983014219 0.044674578582556468 0 0.12659142849079691 0.028091664155532971 0 0.1091701701315707 0.045405346223324289 0 0.1063796333462841 0.038668109643535398 0 0.11316657253878901 0.043202368340974628 0 0.11369005285381351 0.036564640387925021 0 0.11316657253878901 0.043202368340974628 0 0.11545296983014219 0.044674578582556468 0 0.1063796333462841 0.038668109643535398 0 0.11369005285381351 0.036564640387925021 0 0.11316657253878901 0.043202368340974628 0 0.1091701701315707 0.045405346223324289 0 0.10828434687670541 0.049049973369521209 0 0.11545296983014219 0.044674578582556468 0 0.1091701701315707 0.045405346223324289 0 0.11316657253878901 0.043202368340974628 0 0.11545296983014219 0.044674578582556468 0 0.11316657253878901 0.043202368340974628 0 0.11545296983014219 0.044674578582556468 0 0.11545296983014219 0.044674578582556468 0 0.13015300311198849 0.040381385354086502 0 0.12683439495817461 0.052003073372435288 0 0.11882011836095251 0.0065886106746579649 0 0.1010264983121123 0.016262416429773479 0 0.12659142849079691 0.028091664155532971 0 0.1010264983121123 0.016262416429773479 0 0.12659142849079691 0.028091664155532971 0 0.1010264983121123 0.016262416429773479 0 0.1080469394596527 0.029312409717345649 0 0.12659142849079691 0.028091664155532971 0 0.11882011836095251 0.0065886106746579649 0 0.1010264983121123 0.016262416429773479 0 0.098011391193308373 -0.0056982583262641584 0 0.088041666307225416 0.02743399724937181 0 0.098246025398924644 0.032379674771496843 0 0.1010264983121123 0.016262416429773479 0 0.098246025398924644 0.032379674771496843 0 0.1010264983121123 0.016262416429773479 0 0.1080469394596527 0.029312409717345649 0 0.102028599401492 0.1079210482782756 0 0.1185648575779607 0.095458187827811403 0 0.097454497296707604 0.093489332089851121 0 0.102028599401492 0.1079210482782756 0 0.094862282777670462 0.1196438628042634 0 0.1117522404438802 0.12667258555115829 0 0.123281054128593 0.11724462113534739 0 0.1117522404438802 0.12667258555115829 0 0.13947052033133081 0.1245003570974072 0 0.102028599401492 0.1079210482782756 0 0.123281054128593 0.11724462113534739 0 0.1117522404438802 0.12667258555115829 0 0.102028599401492 0.1079210482782756 0 0.123281054128593 0.11724462113534739 0 0.102028599401492 0.1079210482782756 0 0.123281054128593 0.11724462113534739 0 0.1185648575779607 0.095458187827811403 0 0.1185648575779607 0.095458187827811403 0 0.10766661625946521 0.081617344394697103 0 0.12679961534922851 0.075073796793526271 0 0.1127439035567581 0.069567645006608142 0 0.10766661625946521 0.081617344394697103 0 0.12679961534922851 0.075073796793526271 0 0.1213053233293625 0.063977455960140386 0 0.1127439035567581 0.069567645006608142 0 0.12679961534922851 0.075073796793526271 0 0.1082136550722141 0.059696613986540442 0 0.1213053233293625 0.063977455960140386 0 0.1127439035567581 0.069567645006608142 0 0.1082136550722141 0.059696613986540442 0 0.089592915186254174 0.067390154600646832 0 0.1014387622560044 0.070574023901201433 0 0.10766661625946521 0.081617344394697103 0 0.08998097741878798 0.081820185866337797 0 0.1082136550722141 0.059696613986540442 0 0.1014387622560044 0.070574023901201433 0 0.089592915186254174 0.067390154600646832 0 0.1082136550722141 0.059696613986540442 0 0.1127439035567581 0.069567645006608142 0 0.1014387622560044 0.070574023901201433 0 0.1127439035567581 0.069567645006608142 0 0.1014387622560044 0.070574023901201433 0 0.10766661625946521 0.081617344394697103 0 0.1185648575779607 0.095458187827811403 0 0.097454497296707604 0.093489332089851121 0 0.10766661625946521 0.081617344394697103 0 0.097454497296707604 0.093489332089851121 0 0.10766661625946521 0.081617344394697103 0 0.08998097741878798 0.081820185866337797 0 0.097454497296707604 0.093489332089851121 0 0.08998097741878798 0.081820185866337797 0 0.080776144674391009 0.098597475421203867 0 0.08998097741878798 0.081820185866337797 0 0.071888117261322881 0.075707086101057836 0 0.080776144674391009 0.098597475421203867 0 0.08998097741878798 0.081820185866337797 0 0.089592915186254174 0.067390154600646832 0 0.071888117261322881 0.075707086101057836 0 0.1014387622560044 0.070574023901201433 0 0.08998097741878798 0.081820185866337797 0 0.089592915186254174 0.067390154600646832 0 0.072379857481358154 0.054137194478101919 0 0.089592915186254174 0.067390154600646832 0 0.071888117261322881 0.075707086101057836 0 0.072379857481358154 0.054137194478101919 0 0.071888117261322881 0.075707086101057836 0 0.06072113176624426 0.066105246874810966 0 0.071888117261322881 0.075707086101057836 0 0.080776144674391009 0.098597475421203867 0 0.059523689947290133 0.089273902564132146 0 0.069834633883481517 0.1065625652268001 0 0.059315065316452309 0.1025539410383776 0 0.059523689947290133 0.089273902564132146 0 0.080776144674391009 0.098597475421203867 0 0.059523689947290133 0.089273902564132146 0 0.069834633883481517 0.1065625652268001 0 0.080776144674391009 0.098597475421203867 0 0.081634330708880196 0.1151370033827101 0 0.069834633883481517 0.1065625652268001 0 0.080776144674391009 0.098597475421203867 0 0.059523689947290133 0.089273902564132146 0 0.069834633883481517 0.1065625652268001 0 0.064307476710745728 0.1098785041095611 0 0.059315065316452309 0.1025539410383776 0 0.102028599401492 0.1079210482782756 0 0.080776144674391009 0.098597475421203867 0 0.081634330708880196 0.1151370033827101 0 0.102028599401492 0.1079210482782756 0 0.080776144674391009 0.098597475421203867 0 0.102028599401492 0.1079210482782756 0 0.097454497296707604 0.093489332089851121 0 0.080776144674391009 0.098597475421203867 0 0.102028599401492 0.1079210482782756 0 0.094862282777670462 0.1196438628042634 0 0.081634330708880196 0.1151370033827101 0 0.094862282777670462 0.1196438628042634 0 0.081634330708880196 0.1151370033827101 0 0.084033960556429532 0.12884481400490949 0 0.081634330708880196 0.1151370033827101 0 0.071861500007931359 0.1232467005620789 0 0.084033960556429532 0.12884481400490949 0 0.081634330708880196 0.1151370033827101 0 0.071861500007931359 0.1232467005620789 0 0.068543873750645412 0.1149277749384955 0 0.069834633883481517 0.1065625652268001 0 0.081634330708880196 0.1151370033827101 0 0.068543873750645412 0.1149277749384955 0 0.068543873750645412 0.1149277749384955 0 0.064307476710745728 0.1098785041095611 0 0.059536333892403683 0.1154697352345713 0 0.069834633883481517 0.1065625652268001 0 0.068543873750645412 0.1149277749384955 0 0.064307476710745728 0.1098785041095611 0 0.071861500007931359 0.1232467005620789 0 0.068543873750645412 0.1149277749384955 0 0.059536333892403683 0.1154697352345713 0 0.056458373241313059 0.1220229844831647 0 0.046980594318971967 0.103944553472415 0 0.044984286063853948 0.1144984098979744 0 0.056458373241313059 0.1220229844831647 0 0.059536333892403683 0.1154697352345713 0 0.047111977694586651 0.095143209078012936 0 0.056458373241313059 0.1220229844831647 0 0.047823074661834691 0.1229743903388081 0 0.044984286063853948 0.1144984098979744 0 0.056458373241313059 0.1220229844831647 0 0.047111977694586651 0.095143209078012936 0 0.056458373241313059 0.1220229844831647 0 0.047111977694586651 0.095143209078012936 0 0.046980594318971967 0.103944553472415 0 0.059536333892403683 0.1154697352345713 0 0.059315065316452309 0.1025539410383776 0 0.048250118395506067 0.092934788779969885 0 0.064307476710745728 0.1098785041095611 0 0.059536333892403683 0.1154697352345713 0 0.059315065316452309 0.1025539410383776 0 0.059536333892403683 0.1154697352345713 0 0.047111977694586651 0.095143209078012936 0 0.048250118395506067 0.092934788779969885 0 0.059536333892403683 0.1154697352345713 0 0.048250118395506067 0.092934788779969885 0 0.059315065316452309 0.1025539410383776 0 0.059523689947290133 0.089273902564132146 0 0.048250118395506067 0.092934788779969885 0 0.046980594318971967 0.103944553472415 0 0.031997015267580219 0.10661530464401089 0 0.044984286063853948 0.1144984098979744 0 0.046980594318971967 0.103944553472415 0 0.039592722901722707 0.099159129702000026 0 0.031997015267580219 0.10661530464401089 0 0.047111977694586651 0.095143209078012936 0 0.046980594318971967 0.103944553472415 0 0.044236279529428407 0.098362398272746204 0 0.043259823202432338 0.095202700838556822 0 0.039592722901722707 0.099159129702000026 0 0.040006298791842428 0.091064350555588536 0 0.047111977694586651 0.095143209078012936 0 0.043259823202432338 0.095202700838556822 0 0.043326765309194368 0.091114650811160686 0 0.047111977694586651 0.095143209078012936 0 0.043259823202432338 0.095202700838556822 0 0.044236279529428407 0.098362398272746204 0 0.046980594318971967 0.103944553472415 0 0.044236279529428407 0.098362398272746204 0 0.039592722901722707 0.099159129702000026 0 0.043259823202432338 0.095202700838556822 0 0.044236279529428407 0.098362398272746204 0 0.039592722901722707 0.099159129702000026 0 0.039592722901722707 0.099159129702000026 0 0.040006298791842428 0.091064350555588536 0 0.033999193661208522 0.092549709374426317 0 0.039592722901722707 0.099159129702000026 0 0.031997015267580219 0.10661530464401089 0 0.033999193661208522 0.092549709374426317 0 0.031997015267580219 0.10661530464401089 0 0.044984286063853948 0.1144984098979744 0 0.040254683338031831 0.12792389191371131 0 0.031997015267580219 0.10661530464401089 0 0.027418588341799281 0.11951208787462859 0 0.040254683338031831 0.12792389191371131 0 0.031997015267580219 0.10661530464401089 0 0.040254683338031831 0.12792389191371131 0 0.047823074661834691 0.1229743903388081 0 0.044984286063853948 0.1144984098979744 0 0.040254683338031831 0.12792389191371131 0 0.071888117261322881 0.075707086101057836 0 0.050643578252195447 0.077240667131504986 0 0.06072113176624426 0.066105246874810966 0 0.071888117261322881 0.075707086101057836 0 0.050643578252195447 0.077240667131504986 0 0.04797297407010033 0.057336039788577382 0 0.050643578252195447 0.077240667131504986 0 0.06072113176624426 0.066105246874810966 0 0.059523689947290133 0.089273902564132146 0 0.048250118395506067 0.092934788779969885 0 0.038271235220189187 0.079950329707060411 0 0.050643578252195447 0.077240667131504986 0 0.059523689947290133 0.089273902564132146 0 0.038271235220189187 0.079950329707060411 0 0.059523689947290133 0.089273902564132146 0 0.038271235220189187 0.079950329707060411 0 0.071888117261322881 0.075707086101057836 0 0.050643578252195447 0.077240667131504986 0 0.059523689947290133 0.089273902564132146 0 0.050643578252195447 0.077240667131504986 0 0.038271235220189187 0.079950329707060411 0 0.029399039243067929 0.078774248161950916 0 0.043326765309194368 0.091114650811160686 0 0.040006298791842428 0.091064350555588536 0 0.038271235220189187 0.079950329707060411 0 0.048250118395506067 0.092934788779969885 0 0.043326765309194368 0.091114650811160686 0 0.038271235220189187 0.079950329707060411 0 0.047111977694586651 0.095143209078012936 0 0.048250118395506067 0.092934788779969885 0 0.043326765309194368 0.091114650811160686 0 0.043259823202432338 0.095202700838556822 0 0.043326765309194368 0.091114650811160686 0 0.040006298791842428 0.091064350555588536 0 0.040006298791842428 0.091064350555588536 0 0.033999193661208522 0.092549709374426317 0 0.035112272261912547 0.085996705185296951 0 0.033999193661208522 0.092549709374426317 0 0.035112272261912547 0.085996705185296951 0 0.030562463090829231 0.085656845023995995 0 0.040006298791842428 0.091064350555588536 0 0.035112272261912547 0.085996705185296951 0 0.038271235220189187 0.079950329707060411 0 0.035112272261912547 0.085996705185296951 0 0.038271235220189187 0.079950329707060411 0 0.029399039243067929 0.078774248161950916 0 0.035112272261912547 0.085996705185296951 0 0.029399039243067929 0.078774248161950916 0 0.030562463090829231 0.085656845023995995 0 0.04797297407010033 0.057336039788577382 0 0.027635028654909001 0.06907575978797427 0 0.029399039243067929 0.078774248161950916 0 0.04797297407010033 0.057336039788577382 0 0.050643578252195447 0.077240667131504986 0 0.029399039243067929 0.078774248161950916 0 0.050643578252195447 0.077240667131504986 0 0.029399039243067929 0.078774248161950916 0 0.04797297407010033 0.057336039788577382 0 0.029399039243067929 0.078774248161950916 0 0.01459521235494949 0.061710637509134872 0 0.030459386295035529 0.05963142741263059 0 0.017825248683011649 0.070045619055208203 0 0.01459521235494949 0.061710637509134872 0 0.017825248683011649 0.070045619055208203 0 0.030459386295035529 0.05963142741263059 0 0.017825248683011649 0.070045619055208203 0 0.030459386295035529 0.05963142741263059 0 0.017825248683011649 0.070045619055208203 0 0.027635028654909001 0.06907575978797427 0 0.027635028654909001 0.06907575978797427 0 0.021430743364398389 0.07934945609652827 0 0.029399039243067929 0.078774248161950916 0 0.017825248683011649 0.070045619055208203 0 0.027635028654909001 0.06907575978797427 0 0.021430743364398389 0.07934945609652827 0 0.017825248683011649 0.070045619055208203 0 0.021430743364398389 0.07934945609652827 0 0.023739347197128589 0.085306717374310406 0 0.0092582498306486675 0.1020209346744549 0 0.021430743364398389 0.07934945609652827 0 0.023739347197128589 0.085306717374310406 0 0.01369104835205702 0.085774757015682671 0 0.021430743364398389 0.07934945609652827 0 0.023739347197128589 0.085306717374310406 0 0.021430743364398389 0.07934945609652827 0 0.029399039243067929 0.078774248161950916 0 0.023739347197128589 0.085306717374310406 0 0.021430743364398389 0.07934945609652827 0 0.029399039243067929 0.078774248161950916 0 0.029399039243067929 0.078774248161950916 0 0.030562463090829231 0.085656845023995995 0 0.023739347197128589 0.085306717374310406 0 0.029399039243067929 0.078774248161950916 0 0.023739347197128589 0.085306717374310406 0 0.033999193661208522 0.092549709374426317 0 0.030562463090829231 0.085656845023995995 0 0.023739347197128589 0.085306717374310406 0 0.023739347197128589 0.085306717374310406 0 0.01369104835205702 0.085774757015682671 0 0.0092582498306486675 0.1020209346744549 0 0.0051087594610210148 0.080527692295617709 0 0.01369104835205702 0.085774757015682671 0 0.0092582498306486675 0.1020209346744549 0 0.021430743364398389 0.07934945609652827 0 0.0051087594610210148 0.080527692295617709 0 0.021430743364398389 0.07934945609652827 0 0.0051087594610210148 0.080527692295617709 0 0.01369104835205702 0.085774757015682671 0 -0.0012292332505543029 0.06378464068123596 0 0.01459521235494949 0.061710637509134872 0 -0.0012292332505543029 0.06378464068123596 0 0.01459521235494949 0.061710637509134872 0 0.0080955592782806732 0.069159055867407046 0 0.017825248683011649 0.070045619055208203 0 0.021430743364398389 0.07934945609652827 0 0.0051087594610210148 0.080527692295617709 0 -0.0012292332505543029 0.06378464068123596 0 0.0051087594610210148 0.080527692295617709 0 0.0080955592782806732 0.069159055867407046 0 0.017825248683011649 0.070045619055208203 0 0.0051087594610210148 0.080527692295617709 0 0.0080955592782806732 0.069159055867407046 0 0.017825248683011649 0.070045619055208203 0 0.0051087594610210148 0.080527692295617709 0 0.01459521235494949 0.061710637509134872 0 0.017825248683011649 0.070045619055208203 0 0.0080955592782806732 0.069159055867407046 0 0.019482067178466251 0.1107491432724047 0 0.017356945103072018 0.1204998149293544 0 0.027418588341799281 0.11951208787462859 0 0.017356945103072018 0.1204998149293544 0 0.027418588341799281 0.11951208787462859 0 0.028136896369567631 0.1331750506540591 0 0.031997015267580219 0.10661530464401089 0 0.019482067178466251 0.1107491432724047 0 0.027418588341799281 0.11951208787462859 0 0.031997015267580219 0.10661530464401089 0 0.033999193661208522 0.092549709374426317 0 0.023739347197128589 0.085306717374310406 0 0.023739347197128589 0.085306717374310406 0 0.02108550348152554 0.10082233348119581 0 0.0092582498306486675 0.1020209346744549 0 0.031997015267580219 0.10661530464401089 0 0.023739347197128589 0.085306717374310406 0 0.031997015267580219 0.10661530464401089 0 0.023739347197128589 0.085306717374310406 0 0.02108550348152554 0.10082233348119581 0 0.031997015267580219 0.10661530464401089 0 0.019482067178466251 0.1107491432724047 0 0.02108550348152554 0.10082233348119581 0 0.019482067178466251 0.1107491432724047 0 0.02108550348152554 0.10082233348119581 0 0.0092582498306486675 0.1020209346744549 0 -0.0040597014752050652 0.1051126182356364 0 0.0051087594610210148 0.080527692295617709 0 0.0092582498306486675 0.1020209346744549 0 0.019482067178466251 0.1107491432724047 0 0.0092582498306486675 0.1020209346744549 0 0.0097761010461718117 0.1150243840307837 0 -0.0052228475358298988 0.1187351519746004 0 0.0092582498306486675 0.1020209346744549 0 -0.0052228475358298988 0.1187351519746004 0 0.0092582498306486675 0.1020209346744549 0 0.0097761010461718117 0.1150243840307837 0 0.019482067178466251 0.1107491432724047 0 0.017356945103072018 0.1204998149293544 0 0.0097761010461718117 0.1150243840307837 0 0.017356945103072018 0.1204998149293544 0 0.0081407562022233586 0.1245196413435004 0 0.017356945103072018 0.1204998149293544 0 0.0097761010461718117 0.1150243840307837 0 0.0081407562022233586 0.1245196413435004 0 -0.0052228475358298988 0.1187351519746004 0 0.0097761010461718117 0.1150243840307837 0 0.0081407562022233586 0.1245196413435004 0 -0.0052228475358298988 0.1187351519746004 0 0.0081407562022233586 0.1245196413435004 0 -0.015783289274076458 0.13495459563681389 0 0.0081407562022233586 0.1245196413435004 0 0.01185912902997375 0.14130758542593569 0 0.017356945103072018 0.1204998149293544 0 0.0081407562022233586 0.1245196413435004 0 0.028136896369567631 0.1331750506540591 0 0.0081407562022233586 0.1245196413435004 0 0.028136896369567631 0.1331750506540591 0 0.0081407562022233586 0.1245196413435004 0 0.028136896369567631 0.1331750506540591 0 0.01185912902997375 0.14130758542593569 0 0.028136896369567631 0.1331750506540591 0 0.0267736462585265 0.15269096182544131 0 0.035919394343652343 0.14075559589415579 0 0.028136896369567631 0.1331750506540591 0 0.0267736462585265 0.15269096182544131 0 0.01185912902997375 0.14130758542593569 0 0.0267736462585265 0.15269096182544131 0 0.001788155555331062 0.1557637096651584 0 0.01185912902997375 0.14130758542593569 0 0.001788155555331062 0.1557637096651584 0 0.00061104658230836653 0.17769045695541219 0 0.019359600384737739 0.17657282369350361 0 0.001788155555331062 0.1557637096651584 0 0.019359600384737739 0.17657282369350361 0 0.00061104658230836653 0.17769045695541219 0 0.019359600384737739 0.17657282369350361 0 0.017852612557627559 0.19656860209324539 0 0.019359600384737739 0.17657282369350361 0 0.036931045214144441 0.19738193772184889 0 0.0267736462585265 0.15269096182544131 0 0.001788155555331062 0.1557637096651584 0 0.019359600384737739 0.17657282369350361 0 0.0267736462585265 0.15269096182544131 0 0.019359600384737739 0.17657282369350361 0 0.038399134829123632 0.17159850230738899 0 0.0267736462585265 0.15269096182544131 0 0.038399134829123632 0.17159850230738899 0 0.048512351408483409 0.1492324791834117 0 0.019359600384737739 0.17657282369350361 0 0.038399134829123632 0.17159850230738899 0 0.036931045214144441 0.19738193772184889 0 0.038399134829123632 0.17159850230738899 0 0.053915020648589329 0.181809847856817 0 0.036931045214144441 0.19738193772184889 0 0.053915020648589329 0.181809847856817 0 0.056298621576963533 0.16595151756685289 0 0.075151164334765874 0.17578253529346821 0 0.038399134829123632 0.17159850230738899 0 0.053915020648589329 0.181809847856817 0 0.056298621576963533 0.16595151756685289 0 0.038399134829123632 0.17159850230738899 0 0.056298621576963533 0.16595151756685289 0 0.048512351408483409 0.1492324791834117 0 0.048512351408483409 0.1492324791834117 0 0.055211699142625699 0.13746009370018761 0 0.065804768788039439 0.14890275988831639 0 0.056298621576963533 0.16595151756685289 0 0.048512351408483409 0.1492324791834117 0 0.065804768788039439 0.14890275988831639 0 0.048512351408483409 0.1492324791834117 0 0.055211699142625699 0.13746009370018761 0 0.049904412172306151 0.13036597214331841 0 0.056458373241313059 0.1220229844831647 0 0.059536333892403683 0.1154697352345713 0 0.070822549389301243 0.1380046816891726 0 0.056458373241313059 0.1220229844831647 0 0.055211699142625699 0.13746009370018761 0 0.065804768788039439 0.14890275988831639 0 0.056458373241313059 0.1220229844831647 0 0.065804768788039439 0.14890275988831639 0 0.056458373241313059 0.1220229844831647 0 0.047823074661834691 0.1229743903388081 0 0.049904412172306151 0.13036597214331841 0 0.056458373241313059 0.1220229844831647 0 0.055211699142625699 0.13746009370018761 0 0.049904412172306151 0.13036597214331841 0 0.048512351408483409 0.1492324791834117 0 0.040254683338031831 0.12792389191371131 0 0.048512351408483409 0.1492324791834117 0 0.040254683338031831 0.12792389191371131 0 0.035919394343652343 0.14075559589415579 0 0.048512351408483409 0.1492324791834117 0 0.049904412172306151 0.13036597214331841 0 0.040254683338031831 0.12792389191371131 0 0.047823074661834691 0.1229743903388081 0 0.049904412172306151 0.13036597214331841 0 0.040254683338031831 0.12792389191371131 0 0.027418588341799281 0.11951208787462859 0 0.028136896369567631 0.1331750506540591 0 0.040254683338031831 0.12792389191371131 0 0.028136896369567631 0.1331750506540591 0 0.040254683338031831 0.12792389191371131 0 0.035919394343652343 0.14075559589415579 0 0.0267736462585265 0.15269096182544131 0 0.048512351408483409 0.1492324791834117 0 0.035919394343652343 0.14075559589415579 0 0.020197736684044801 0.2291273398277828 0 0.034114961552744377 0.23516115760169301 0 0.036501911092354018 0.25177276941539839 0 0.018629400856135309 0.24429501886194191 0 0.020197736684044801 0.2291273398277828 0 0.02692674034290404 0.25134916217479408 0 0.020197736684044801 0.2291273398277828 0 0.02692674034290404 0.25134916217479408 0 0.036501911092354018 0.25177276941539839 0 0.020197736684044801 0.2291273398277828 0 0.036501911092354018 0.25177276941539839 0 0.018629400856135309 0.24429501886194191 0 0.0082785766384091443 0.23618007315607359 0 0.020197736684044801 0.2291273398277828 0 0.018629400856135309 0.24429501886194191 0 0.012944211518790589 0.24639919126045251 0 0.0082785766384091443 0.23618007315607359 0 0.012944211518790589 0.24639919126045251 0 0.001894876929373096 0.24743045501984201 0 0.0082785766384091443 0.23618007315607359 0 -0.0070773620087705444 0.23295897308755351 0 0.001894876929373096 0.24743045501984201 0 0.0082785766384091443 0.23618007315607359 0 0.0082785766384091443 0.23618007315607359 0 0.0038866256090455522 0.2239579318999283 0 0.020197736684044801 0.2291273398277828 0 0.0038866256090455522 0.2239579318999283 0 0.020197736684044801 0.2291273398277828 0 0.003893562275735573 0.2064819102401671 0 -0.0070773620087705444 0.23295897308755351 0 0.0082785766384091443 0.23618007315607359 0 0.0038866256090455522 0.2239579318999283 0 0.01643925603633389 0.21561198758054059 0 0.035370792182188207 0.216260201755786 0 0.034114961552744377 0.23516115760169301 0 0.020197736684044801 0.2291273398277828 0 0.01643925603633389 0.21561198758054059 0 0.034114961552744377 0.23516115760169301 0 0.01643925603633389 0.21561198758054059 0 0.034114961552744377 0.23516115760169301 0 0.017852612557627559 0.19656860209324539 0 0.036931045214144441 0.19738193772184889 0 0.035370792182188207 0.216260201755786 0 0.01643925603633389 0.21561198758054059 0 0.017852612557627559 0.19656860209324539 0 0.035370792182188207 0.216260201755786 0 0.020197736684044801 0.2291273398277828 0 0.003893562275735573 0.2064819102401671 0 -0.0045317147067566524 0.21522543551468479 0 0.0038866256090455522 0.2239579318999283 0 0.003893562275735573 0.2064819102401671 0 -0.0012364494800765971 0.1960628175593882 0 0.01643925603633389 0.21561198758054059 0 -0.0012364494800765971 0.1960628175593882 0 0.01643925603633389 0.21561198758054059 0 0.003893562275735573 0.2064819102401671 0 0.020197736684044801 0.2291273398277828 0 0.01643925603633389 0.21561198758054059 0 0.003893562275735573 0.2064819102401671 0 -0.0012364494800765971 0.1960628175593882 0 0.01643925603633389 0.21561198758054059 0 0.017852612557627559 0.19656860209324539 0 -0.0012364494800765971 0.1960628175593882 0 0.00061104658230836653 0.17769045695541219 0 0.017852612557627559 0.19656860209324539 0 0.019359600384737739 0.17657282369350361 0 0.017852612557627559 0.19656860209324539 0 0.036931045214144441 0.19738193772184889 0 0.053915020648589329 0.181809847856817 0 0.036931045214144441 0.19738193772184889 0 0.062795137287949193 0.19833474639452611 0 0.036931045214144441 0.19738193772184889 0 0.054502490043551163 0.2181910517501941 0 0.062795137287949193 0.19833474639452611 0 0.036931045214144441 0.19738193772184889 0 0.054502490043551163 0.2181910517501941 0 0.036931045214144441 0.19738193772184889 0 0.054502490043551163 0.2181910517501941 0 0.035370792182188207 0.216260201755786 0 0.054502490043551163 0.2181910517501941 0 0.035370792182188207 0.216260201755786 0 0.034114961552744377 0.23516115760169301 0 0.054502490043551163 0.2181910517501941 0 0.055174909047777811 0.2396291133956362 0 0.034114961552744377 0.23516115760169301 0 0.054502490043551163 0.2181910517501941 0 0.055174909047777811 0.2396291133956362 0 0.072073934872957782 0.23900016577853919 0 0.055174909047777811 0.2396291133956362 0 0.034114961552744377 0.23516115760169301 0 0.051790667069154861 0.2547103276228454 0 0.055174909047777811 0.2396291133956362 0 0.051790667069154861 0.2547103276228454 0 0.063392491700480919 0.2510828642249095 0 0.034114961552744377 0.23516115760169301 0 0.036501911092354018 0.25177276941539839 0 0.051790667069154861 0.2547103276228454 0 0.034114961552744377 0.23516115760169301 0 0.051790667069154861 0.2547103276228454 0 0.072073934872957782 0.23900016577853919 0 0.093843955428218759 0.229542086103772 0 0.089645379702363526 0.25980927980688501 0 0.072073934872957782 0.23900016577853919 0 0.089645379702363526 0.25980927980688501 0 0.055174909047777811 0.2396291133956362 0 0.072073934872957782 0.23900016577853919 0 0.063392491700480919 0.2510828642249095 0 0.072073934872957782 0.23900016577853919 0 0.063392491700480919 0.2510828642249095 0 0.074261774750864804 0.25289133929391111 0 0.054502490043551163 0.2181910517501941 0 0.072073934872957782 0.23900016577853919 0 0.054502490043551163 0.2181910517501941 0 0.072073934872957782 0.23900016577853919 0 0.07691655231929137 0.22036312128655 0 0.072073934872957782 0.23900016577853919 0 0.07691655231929137 0.22036312128655 0 0.093843955428218759 0.229542086103772 0 0.084497559881492323 0.20266231069862009 0 0.1011551627426199 0.2154511434485995 0 0.093843955428218759 0.229542086103772 0 0.084497559881492323 0.20266231069862009 0 0.093843955428218759 0.229542086103772 0 0.07691655231929137 0.22036312128655 0 0.084497559881492323 0.20266231069862009 0 0.093843955428218759 0.229542086103772 0 0.07691655231929137 0.22036312128655 0 0.062795137287949193 0.19833474639452611 0 0.084497559881492323 0.20266231069862009 0 0.054502490043551163 0.2181910517501941 0 0.07691655231929137 0.22036312128655 0 0.062795137287949193 0.19833474639452611 0 0.062795137287949193 0.19833474639452611 0 0.084497559881492323 0.20266231069862009 0 0.075151164334765874 0.17578253529346821 0 0.084497559881492323 0.20266231069862009 0 0.075151164334765874 0.17578253529346821 0 0.084497559881492323 0.20266231069862009 0 0.10184565838461331 0.1924014028594688 0 0.093394980383096363 0.18307457459837531 0 0.084497559881492323 0.20266231069862009 0 0.10184565838461331 0.1924014028594688 0 0.10260278643249959 0.20376756124449391 0 0.10184565838461331 0.1924014028594688 0 0.1105875138732399 0.1994169567440035 0 0.10260278643249959 0.20376756124449391 0 0.10184565838461331 0.1924014028594688 0 0.1131184160342838 0.18994185980391479 0 0.1105875138732399 0.1994169567440035 0 0.10184565838461331 0.1924014028594688 0 0.1131184160342838 0.18994185980391479 0 0.1054525685194168 0.18020148819897211 0 0.1131184160342838 0.18994185980391479 0 0.1210814068145178 0.19423580856195369 0 0.1131184160342838 0.18994185980391479 0 0.1210814068145178 0.19423580856195369 0 0.1196286990311512 0.18236386641526309 0 0.1210814068145178 0.19423580856195369 0 0.11958782189190099 0.20227867846385961 0 0.13241563583181001 0.2003476577346209 0 0.1131184160342838 0.18994185980391479 0 0.1210814068145178 0.19423580856195369 0 0.11958782189190099 0.20227867846385961 0 0.1131184160342838 0.18994185980391479 0 0.11958782189190099 0.20227867846385961 0 0.1105875138732399 0.1994169567440035 0 0.11958782189190099 0.20227867846385961 0 0.1105875138732399 0.1994169567440035 0 0.11467542950451071 0.21015036581969679 0 0.11958782189190099 0.20227867846385961 0 0.11467542950451071 0.21015036581969679 0 0.12714211421566091 0.2115365522170618 0 0.11467542950451071 0.21015036581969679 0 0.1287590091161889 0.22454109023782651 0 0.12714211421566091 0.2115365522170618 0 0.11467542950451071 0.21015036581969679 0 0.1011551627426199 0.2154511434485995 0 0.1117838155087727 0.22779371718329239 0 0.084497559881492323 0.20266231069862009 0 0.10260278643249959 0.20376756124449391 0 0.1011551627426199 0.2154511434485995 0 0.1105875138732399 0.1994169567440035 0 0.11467542950451071 0.21015036581969679 0 0.10260278643249959 0.20376756124449391 0 0.11467542950451071 0.21015036581969679 0 0.10260278643249959 0.20376756124449391 0 0.1011551627426199 0.2154511434485995 0 0.1011551627426199 0.2154511434485995 0 0.093843955428218759 0.229542086103772 0 0.1117838155087727 0.22779371718329239 0 0.11467542950451071 0.21015036581969679 0 0.1117838155087727 0.22779371718329239 0 0.1287590091161889 0.22454109023782651 0 0.1117838155087727 0.22779371718329239 0 0.1287590091161889 0.22454109023782651 0 0.116065923487036 0.25155424759680489 0 0.093843955428218759 0.229542086103772 0 0.089645379702363526 0.25980927980688501 0 0.116065923487036 0.25155424759680489 0 0.093843955428218759 0.229542086103772 0 0.1117838155087727 0.22779371718329239 0 0.116065923487036 0.25155424759680489 0 0.085867858697711436 0.14453522140638461 0 0.070822549389301243 0.1380046816891726 0 0.082108764886198796 0.1605396281437739 0 0.085867858697711436 0.14453522140638461 0 0.082108764886198796 0.1605396281437739 0 0.098061838006449922 0.1524476624703702 0 0.085867858697711436 0.14453522140638461 0 0.084033960556429532 0.12884481400490949 0 0.098019367542785563 0.1407790739484335 0 0.085867858697711436 0.14453522140638461 0 0.084033960556429532 0.12884481400490949 0 0.070822549389301243 0.1380046816891726 0 0.071861500007931359 0.1232467005620789 0 0.059536333892403683 0.1154697352345713 0 0.070822549389301243 0.1380046816891726 0 0.059536333892403683 0.1154697352345713 0 0.070822549389301243 0.1380046816891726 0 0.056458373241313059 0.1220229844831647 0 0.070822549389301243 0.1380046816891726 0 0.065804768788039439 0.14890275988831639 0 0.071861500007931359 0.1232467005620789 0 0.084033960556429532 0.12884481400490949 0 0.070822549389301243 0.1380046816891726 0 0.070822549389301243 0.1380046816891726 0 0.082108764886198796 0.1605396281437739 0 0.070822549389301243 0.1380046816891726 0 0.065804768788039439 0.14890275988831639 0 0.082108764886198796 0.1605396281437739 0 0.056298621576963533 0.16595151756685289 0 0.065804768788039439 0.14890275988831639 0 0.075151164334765874 0.17578253529346821 0 0.065804768788039439 0.14890275988831639 0 0.075151164334765874 0.17578253529346821 0 0.082108764886198796 0.1605396281437739 0 0.065804768788039439 0.14890275988831639 0 0.075151164334765874 0.17578253529346821 0 0.053915020648589329 0.181809847856817 0 0.062795137287949193 0.19833474639452611 0 0.075151164334765874 0.17578253529346821 0 0.075151164334765874 0.17578253529346821 0 0.093394980383096363 0.18307457459837531 0 0.082108764886198796 0.1605396281437739 0 0.084497559881492323 0.20266231069862009 0 0.075151164334765874 0.17578253529346821 0 0.093394980383096363 0.18307457459837531 0 0.093394980383096363 0.18307457459837531 0 0.082108764886198796 0.1605396281437739 0 0.1017810834163356 0.16778327145988009 0 0.093394980383096363 0.18307457459837531 0 0.082108764886198796 0.1605396281437739 0 0.082108764886198796 0.1605396281437739 0 0.1017810834163356 0.16778327145988009 0 0.098061838006449922 0.1524476624703702 0 0.1017810834163356 0.16778327145988009 0 0.1094413004412432 0.1568441156191657 0 0.098061838006449922 0.1524476624703702 0 0.10184565838461331 0.1924014028594688 0 0.093394980383096363 0.18307457459837531 0 0.1054525685194168 0.18020148819897211 0 0.093394980383096363 0.18307457459837531 0 0.1017810834163356 0.16778327145988009 0 0.1054525685194168 0.18020148819897211 0 0.1017810834163356 0.16778327145988009 0 0.1054525685194168 0.18020148819897211 0 0.1143103312636523 0.17467474260035151 0 0.1131184160342838 0.18994185980391479 0 0.1132877880089454 0.18182979361660931 0 0.1196286990311512 0.18236386641526309 0 0.1131184160342838 0.18994185980391479 0 0.1054525685194168 0.18020148819897211 0 0.1132877880089454 0.18182979361660931 0 0.1054525685194168 0.18020148819897211 0 0.1132877880089454 0.18182979361660931 0 0.1143103312636523 0.17467474260035151 0 0.1132877880089454 0.18182979361660931 0 0.1143103312636523 0.17467474260035151 0 0.1196286990311512 0.18236386641526309 0 0.1143103312636523 0.17467474260035151 0 0.1229466648353691 0.17360959233997481 0 0.1196286990311512 0.18236386641526309 0 0.1229466648353691 0.17360959233997481 0 0.1196286990311512 0.18236386641526309 0 0.1315359285025598 0.17914174819028489 0 0.1210814068145178 0.19423580856195369 0 0.1196286990311512 0.18236386641526309 0 0.1315359285025598 0.17914174819028489 0 0.1017810834163356 0.16778327145988009 0 0.1143103312636523 0.17467474260035151 0 0.11826309888899959 0.1638296446882945 0 0.1017810834163356 0.16778327145988009 0 0.1094413004412432 0.1568441156191657 0 0.11826309888899959 0.1638296446882945 0 0.1094413004412432 0.1568441156191657 0 0.11826309888899959 0.1638296446882945 0 0.12116198843957229 0.15461983439099389 0 0.1143103312636523 0.17467474260035151 0 0.1229466648353691 0.17360959233997481 0 0.11826309888899959 0.1638296446882945 0 0.1229466648353691 0.17360959233997481 0 0.11826309888899959 0.1638296446882945 0 0.1286748755814317 0.16568949079043779 0 0.11826309888899959 0.1638296446882945 0 0.12116198843957229 0.15461983439099389 0 0.1286748755814317 0.16568949079043779 0 0.12116198843957229 0.15461983439099389 0 0.1235319134973574 0.14279740261083959 0 0.11069945258584669 0.14552439304262721 0 0.1094413004412432 0.1568441156191657 0 0.12116198843957229 0.15461983439099389 0 0.11069945258584669 0.14552439304262721 0 0.1094413004412432 0.1568441156191657 0 0.11069945258584669 0.14552439304262721 0 0.098061838006449922 0.1524476624703702 0 0.11069945258584669 0.14552439304262721 0 0.098019367542785563 0.1407790739484335 0 0.098061838006449922 0.1524476624703702 0 0.085867858697711436 0.14453522140638461 0 0.098019367542785563 0.1407790739484335 0 0.098061838006449922 0.1524476624703702 0 0.084033960556429532 0.12884481400490949 0 0.1117522404438802 0.12667258555115829 0 0.094862282777670462 0.1196438628042634 0 0.084033960556429532 0.12884481400490949 0 0.1117522404438802 0.12667258555115829 0 0.084033960556429532 0.12884481400490949 0 0.098019367542785563 0.1407790739484335 0 0.1117522404438802 0.12667258555115829 0 0.11069945258584669 0.14552439304262721 0 0.098019367542785563 0.1407790739484335 0 0.1117522404438802 0.12667258555115829 0 0.1235319134973574 0.14279740261083959 0 0.11069945258584669 0.14552439304262721 0 0.1117522404438802 0.12667258555115829 0 0.1235319134973574 0.14279740261083959 0 0.1117522404438802 0.12667258555115829 0 0.1338250830151082 0.13680555700437169 0 0.1117522404438802 0.12667258555115829 0 0.1338250830151082 0.13680555700437169 0 0.13947052033133081 0.1245003570974072 0 0.1117522404438802 0.12667258555115829 0 0.13947052033133081 0.1245003570974072 0 0.1338250830151082 0.13680555700437169 0 0.14773514824261011 0.13994704674368119 0 0.13947052033133081 0.1245003570974072 0 0.14773514824261011 0.13994704674368119 0 0.13947052033133081 0.1245003570974072 0 0.16718880021878149 0.12232812864365609 0 0.14773514824261011 0.13994704674368119 0 0.1492794596183103 0.15557552201751701 0 0.16307655427518189 0.1461583771030025 0 0.14773514824261011 0.13994704674368119 0 0.1492794596183103 0.15557552201751701 0 0.13636128964255501 0.15303395959459851 0 0.1235319134973574 0.14279740261083959 0 0.1338250830151082 0.13680555700437169 0 0.13636128964255501 0.15303395959459851 0 0.1338250830151082 0.13680555700437169 0 0.14773514824261011 0.13994704674368119 0 0.13636128964255501 0.15303395959459851 0 0.12116198843957229 0.15461983439099389 0 0.1235319134973574 0.14279740261083959 0 0.13636128964255501 0.15303395959459851 0 0.12116198843957229 0.15461983439099389 0 0.13636128964255501 0.15303395959459851 0 0.1286748755814317 0.16568949079043779 0 0.13636128964255501 0.15303395959459851 0 0.1286748755814317 0.16568949079043779 0 0.1402599975996246 0.1687496010839549 0 0.1286748755814317 0.16568949079043779 0 0.1402599975996246 0.1687496010839549 0 0.1315359285025598 0.17914174819028489 0 0.1210814068145178 0.19423580856195369 0 0.1315359285025598 0.17914174819028489 0 0.14172685770208041 0.18088834424850889 0 0.1229466648353691 0.17360959233997481 0 0.1286748755814317 0.16568949079043779 0 0.1315359285025598 0.17914174819028489 0 0.1402599975996246 0.1687496010839549 0 0.1315359285025598 0.17914174819028489 0 0.14172685770208041 0.18088834424850889 0 0.1315359285025598 0.17914174819028489 0 0.14172685770208041 0.18088834424850889 0 0.14172685770208041 0.18088834424850889 0 0.1589643083315804 0.1699886255623487 0 0.15664227980061579 0.1834446584897341 0 0.14172685770208041 0.18088834424850889 0 0.1589643083315804 0.1699886255623487 0 0.1402599975996246 0.1687496010839549 0 0.14172685770208041 0.18088834424850889 0 0.1589643083315804 0.1699886255623487 0 0.14172685770208041 0.18088834424850889 0 0.15664227980061579 0.1834446584897341 0 0.14735069213281321 0.19092796682168489 0 0.14172685770208041 0.18088834424850889 0 0.15664227980061579 0.1834446584897341 0 0.1492794596183103 0.15557552201751701 0 0.1402599975996246 0.1687496010839549 0 0.1589643083315804 0.1699886255623487 0 0.1492794596183103 0.15557552201751701 0 0.13636128964255501 0.15303395959459851 0 0.1402599975996246 0.1687496010839549 0 0.1492794596183103 0.15557552201751701 0 0.1589643083315804 0.1699886255623487 0 0.16307655427518189 0.1461583771030025 0 0.1589643083315804 0.1699886255623487 0 0.1832181015668064 0.15465227861531949 0 0.16307655427518189 0.1461583771030025 0 0.1589643083315804 0.1699886255623487 0 0.16307655427518189 0.1461583771030025 0 0.1589643083315804 0.1699886255623487 0 0.1832181015668064 0.15465227861531949 0 0.1589643083315804 0.1699886255623487 0 0.15664227980061579 0.1834446584897341 0 0.17367876449497299 0.17356388092826039 0 0.15664227980061579 0.1834446584897341 0 0.17803712215301101 0.18711146321258301 0 0.15664227980061579 0.1834446584897341 0 0.17367876449497299 0.17356388092826039 0 0.17803712215301101 0.18711146321258301 0 0.1589643083315804 0.1699886255623487 0 0.15664227980061579 0.1834446584897341 0 0.17367876449497299 0.17356388092826039 0 0.17803712215301101 0.18711146321258301 0 0.1915320106228488 0.17262237876131631 0 0.1589643083315804 0.1699886255623487 0 0.17367876449497299 0.17356388092826039 0 0.1832181015668064 0.15465227861531949 0 0.17367876449497299 0.17356388092826039 0 0.1832181015668064 0.15465227861531949 0 0.1915320106228488 0.17262237876131631 0 0.1832181015668064 0.15465227861531949 0 0.18154761934540289 0.13534417850528041 0 0.16307655427518189 0.1461583771030025 0 0.18154761934540289 0.13534417850528041 0 0.19370351113240411 0.1202502215829211 0 0.16718880021878149 0.12232812864365609 0 0.16307655427518189 0.1461583771030025 0 0.16718880021878149 0.12232812864365609 0 0.14773514824261011 0.13994704674368119 0 0.16307655427518189 0.1461583771030025 0 0.16718880021878149 0.12232812864365609 0 0.18154761934540289 0.13534417850528041 0 0.16307655427518189 0.1461583771030025 0 0.16718880021878149 0.12232812864365609 0 0.14248646727170791 0.24329921538672239 0 0.16890701105638031 0.23504418317664161 0 0.14248646727170791 0.24329921538672239 0 0.116065923487036 0.25155424759680489 0 0.14248646727170791 0.24329921538672239 0 0.1287590091161889 0.22454109023782651 0 0.116065923487036 0.25155424759680489 0 0.14248646727170791 0.24329921538672239 0 0.1287590091161889 0.22454109023782651 0 0.14216045677169509 0.2226427774354276 0 0.1287590091161889 0.22454109023782651 0 0.14216045677169509 0.2226427774354276 0 0.13903299807830019 0.21154409335764149 0 0.14248646727170791 0.24329921538672239 0 0.14216045677169509 0.2226427774354276 0 0.16890701105638031 0.23504418317664161 0 0.14216045677169509 0.2226427774354276 0 0.1513137794066001 0.21432303737238931 0 0.16890701105638031 0.23504418317664161 0 0.15183105921464751 0.210852851725322 0 0.13241563583181001 0.2003476577346209 0 0.15183105921464751 0.210852851725322 0 0.13903299807830019 0.21154409335764149 0 0.13241563583181001 0.2003476577346209 0 0.1513137794066001 0.21432303737238931 0 0.15183105921464751 0.210852851725322 0 0.14522842943996589 0.21534193400985699 0 0.1513137794066001 0.21432303737238931 0 0.15183105921464751 0.210852851725322 0 0.15183105921464751 0.210852851725322 0 0.14522842943996589 0.21534193400985699 0 0.13903299807830019 0.21154409335764149 0 0.14216045677169509 0.2226427774354276 0 0.1513137794066001 0.21432303737238931 0 0.14522842943996589 0.21534193400985699 0 0.14216045677169509 0.2226427774354276 0 0.14522842943996589 0.21534193400985699 0 0.13903299807830019 0.21154409335764149 0 0.1287590091161889 0.22454109023782651 0 0.13903299807830019 0.21154409335764149 0 0.12714211421566091 0.2115365522170618 0 0.11958782189190099 0.20227867846385961 0 0.12714211421566091 0.2115365522170618 0 0.13241563583181001 0.2003476577346209 0 0.13903299807830019 0.21154409335764149 0 0.12714211421566091 0.2115365522170618 0 0.13241563583181001 0.2003476577346209 0 0.1210814068145178 0.19423580856195369 0 0.13241563583181001 0.2003476577346209 0 0.13808072668616231 0.19149491569441959 0 0.1210814068145178 0.19423580856195369 0 0.14172685770208041 0.18088834424850889 0 0.13808072668616231 0.19149491569441959 0 0.1210814068145178 0.19423580856195369 0 0.14172685770208041 0.18088834424850889 0 0.1210814068145178 0.19423580856195369 0 0.13241563583181001 0.2003476577346209 0 0.15664227980061579 0.1834446584897341 0 0.15183105921464751 0.210852851725322 0 0.14735069213281321 0.19092796682168489 0 0.14172685770208041 0.18088834424850889 0 0.13808072668616231 0.19149491569441959 0 0.14735069213281321 0.19092796682168489 0 0.15183105921464751 0.210852851725322 0 0.13808072668616231 0.19149491569441959 0 0.14735069213281321 0.19092796682168489 0 0.15664227980061579 0.1834446584897341 0 0.15183105921464751 0.210852851725322 0 0.15183105921464751 0.210852851725322 0 0.13241563583181001 0.2003476577346209 0 0.13808072668616231 0.19149491569441959 0 0.15183105921464751 0.210852851725322 0 0.13808072668616231 0.19149491569441959 0 0.15664227980061579 0.1834446584897341 0 0.17803712215301101 0.18711146321258301 0 0.17078007948547791 0.20461318166966591 0 0.15664227980061579 0.1834446584897341 0 0.15183105921464751 0.210852851725322 0 0.17078007948547791 0.20461318166966591 0 0.17803712215301101 0.18711146321258301 0 0.18699821765939811 0.20575379358823331 0 0.17078007948547791 0.20461318166966591 0 0.18699821765939811 0.20575379358823331 0 0.18150256540618689 0.21619068467845909 0 0.17078007948547791 0.20461318166966591 0 0.18150256540618689 0.21619068467845909 0 0.17078007948547791 0.20461318166966591 0 0.1696832039875637 0.2204437538389574 0 0.15183105921464751 0.210852851725322 0 0.1696832039875637 0.2204437538389574 0 0.15183105921464751 0.210852851725322 0 0.17078007948547791 0.20461318166966591 0 0.1696832039875637 0.2204437538389574 0 0.15183105921464751 0.210852851725322 0 0.16890701105638031 0.23504418317664161 0 0.15183105921464751 0.210852851725322 0 0.1696832039875637 0.2204437538389574 0 0.16890701105638031 0.23504418317664161 0 0.1513137794066001 0.21432303737238931 0 0.15183105921464751 0.210852851725322 0 0.16890701105638031 0.23504418317664161 0 0.1696832039875637 0.2204437538389574 0 0.1730962958839812 0.23373525170759399 0 0.16890701105638031 0.23504418317664161 0 0.18150256540618689 0.21619068467845909 0 0.1696832039875637 0.2204437538389574 0 0.1874551123034256 0.23002704556275291 0 0.1696832039875637 0.2204437538389574 0 0.1874551123034256 0.23002704556275291 0 0.1730962958839812 0.23373525170759399 0 0.1696832039875637 0.2204437538389574 0 0.1874551123034256 0.23002704556275291 0 0.16890701105638031 0.23504418317664161 0 0.18564289691528729 0.25868749876629671 0 0.1821848497420967 0.24129823675235251 0 0.16890701105638031 0.23504418317664161 0 0.18564289691528729 0.25868749876629671 0 0.1730962958839812 0.23373525170759399 0 0.1821848497420967 0.24129823675235251 0 0.16890701105638031 0.23504418317664161 0 0.1874551123034256 0.23002704556275291 0 0.1730962958839812 0.23373525170759399 0 0.1821848497420967 0.24129823675235251 0 0.14248646727170791 0.24329921538672239 0 0.16890701105638031 0.23504418317664161 0 0.1631161995596529 0.25657386530356069 0 0.1730962958839812 0.23373525170759399 0 0.16890701105638031 0.23504418317664161 0 0.2052270206192876 0.23961033728654851 0 0.2245441737887168 0.23093760545441711 0 0.21458810326103989 0.25029177234766842 0 0.2052270206192876 0.23961033728654851 0 0.2050239072751949 0.2492833193895482 0 0.21458810326103989 0.25029177234766842 0 0.2052270206192876 0.23961033728654851 0 0.2050239072751949 0.2492833193895482 0 0.1956251304139873 0.24830732682566101 0 0.1874551123034256 0.23002704556275291 0 0.1821848497420967 0.24129823675235251 0 0.1956251304139873 0.24830732682566101 0 0.1874551123034256 0.23002704556275291 0 0.2052270206192876 0.23961033728654851 0 0.1821848497420967 0.24129823675235251 0 0.1956251304139873 0.24830732682566101 0 0.18564289691528729 0.25868749876629671 0 0.1874551123034256 0.23002704556275291 0 0.2052270206192876 0.23961033728654851 0 0.1956251304139873 0.24830732682566101 0 0.1874551123034256 0.23002704556275291 0 0.2052270206192876 0.23961033728654851 0 0.20110338325899621 0.22697869990708769 0 0.18150256540618689 0.21619068467845909 0 0.1874551123034256 0.23002704556275291 0 0.19422843088031849 0.2167901493339745 0 0.1874551123034256 0.23002704556275291 0 0.20110338325899621 0.22697869990708769 0 0.19422843088031849 0.2167901493339745 0 0.20110338325899621 0.22697869990708769 0 0.2086865974780466 0.21738525977654841 0 0.19422843088031849 0.2167901493339745 0 0.2052270206192876 0.23961033728654851 0 0.21155197229915221 0.22775520817690251 0 0.2245441737887168 0.23093760545441711 0 0.20110338325899621 0.22697869990708769 0 0.21155197229915221 0.22775520817690251 0 0.2086865974780466 0.21738525977654841 0 0.2052270206192876 0.23961033728654851 0 0.20110338325899621 0.22697869990708769 0 0.21155197229915221 0.22775520817690251 0 0.21155197229915221 0.22775520817690251 0 0.2086865974780466 0.21738525977654841 0 0.22156171208109349 0.2232889965660497 0 0.211417792929007 0.20448623071467029 0 0.2086865974780466 0.21738525977654841 0 0.22411523440486891 0.2128525325182862 0 0.2086865974780466 0.21738525977654841 0 0.22411523440486891 0.2128525325182862 0 0.22156171208109349 0.2232889965660497 0 0.211417792929007 0.20448623071467029 0 0.2086865974780466 0.21738525977654841 0 0.19996516513116139 0.20542151256053021 0 0.2086865974780466 0.21738525977654841 0 0.19422843088031849 0.2167901493339745 0 0.19996516513116139 0.20542151256053021 0 0.18699821765939811 0.20575379358823331 0 0.18150256540618689 0.21619068467845909 0 0.19422843088031849 0.2167901493339745 0 0.18699821765939811 0.20575379358823331 0 0.19422843088031849 0.2167901493339745 0 0.19996516513116139 0.20542151256053021 0 0.18699821765939811 0.20575379358823331 0 0.19996516513116139 0.20542151256053021 0 0.19943196450540629 0.19077826793543179 0 0.17803712215301101 0.18711146321258301 0 0.19943196450540629 0.19077826793543179 0 0.17803712215301101 0.18711146321258301 0 0.18699821765939811 0.20575379358823331 0 0.19943196450540629 0.19077826793543179 0 0.211417792929007 0.20448623071467029 0 0.19943196450540629 0.19077826793543179 0 0.22082680685780151 0.19444507265828059 0 0.19943196450540629 0.19077826793543179 0 0.22082680685780151 0.19444507265828059 0 0.211417792929007 0.20448623071467029 0 0.19996516513116139 0.20542151256053021 0 0.19943196450540629 0.19077826793543179 0 0.22082680685780151 0.19444507265828059 0 0.2418323282778008 0.1922485172988235 0 0.23200417938957321 0.20455559625434991 0 0.22082680685780151 0.19444507265828059 0 0.2418323282778008 0.1922485172988235 0 0.2298041727050075 0.1787595393801808 0 0.2418323282778008 0.1922485172988235 0 0.24124234801782149 0.21867626254200909 0 0.2418323282778008 0.1922485172988235 0 0.24124234801782149 0.21867626254200909 0 0.25471258750952741 0.20148162901819469 0 0.2418323282778008 0.1922485172988235 0 0.24124234801782149 0.21867626254200909 0 0.23200417938957321 0.20455559625434991 0 0.24124234801782149 0.21867626254200909 0 0.25357276657721323 0.21641202867955539 0 0.25471258750952741 0.20148162901819469 0 0.24124234801782149 0.21867626254200909 0 0.22411523440486891 0.2128525325182862 0 0.2303270751280653 0.22194856436908961 0 0.211417792929007 0.20448623071467029 0 0.22082680685780151 0.19444507265828059 0 0.22411523440486891 0.2128525325182862 0 0.22082680685780151 0.19444507265828059 0 0.23200417938957321 0.20455559625434991 0 0.22411523440486891 0.2128525325182862 0 0.24124234801782149 0.21867626254200909 0 0.23200417938957321 0.20455559625434991 0 0.22411523440486891 0.2128525325182862 0 0.22411523440486891 0.2128525325182862 0 0.22156171208109349 0.2232889965660497 0 0.2303270751280653 0.22194856436908961 0 0.22156171208109349 0.2232889965660497 0 0.2245441737887168 0.23093760545441711 0 0.2301452193877111 0.22885480910105491 0 0.21155197229915221 0.22775520817690251 0 0.22156171208109349 0.2232889965660497 0 0.2245441737887168 0.23093760545441711 0 0.2301452193877111 0.22885480910105491 0 0.23408043491912681 0.23335190051361199 0 0.23787356880598759 0.22384871304106421 0 0.2301452193877111 0.22885480910105491 0 0.23408043491912681 0.23335190051361199 0 0.2258394828391487 0.23585902185418811 0 0.2245441737887168 0.23093760545441711 0 0.2301452193877111 0.22885480910105491 0 0.2258394828391487 0.23585902185418811 0 0.2301452193877111 0.22885480910105491 0 0.2303270751280653 0.22194856436908961 0 0.23787356880598759 0.22384871304106421 0 0.22156171208109349 0.2232889965660497 0 0.2301452193877111 0.22885480910105491 0 0.2303270751280653 0.22194856436908961 0 0.24124234801782149 0.21867626254200909 0 0.2303270751280653 0.22194856436908961 0 0.23787356880598759 0.22384871304106421 0 0.24124234801782149 0.21867626254200909 0 0.23787356880598759 0.22384871304106421 0 0.25357276657721323 0.21641202867955539 0 0.23408043491912681 0.23335190051361199 0 0.24868260911088891 0.2303107595792985 0 0.25357276657721323 0.21641202867955539 0 0.23408043491912681 0.23335190051361199 0 0.23787356880598759 0.22384871304106421 0 0.25357276657721323 0.21641202867955539 0 0.23408043491912681 0.23335190051361199 0 0.25357276657721323 0.21641202867955539 0 0.24868260911088891 0.2303107595792985 0 0.2392512687495113 0.23539683186585869 0 0.2471090749199483 0.2357199094212839 0 0.23408043491912681 0.23335190051361199 0 0.24868260911088891 0.2303107595792985 0 0.2392512687495113 0.23539683186585869 0 0.23408043491912681 0.23335190051361199 0 0.2356673672060029 0.23553231024254659 0 0.23369101455560959 0.23545012385447089 0 0.2356673672060029 0.23553231024254659 0 0.23652425047500741 0.24096462129343871 0 0.23369101455560959 0.23545012385447089 0 0.23652425047500741 0.24096462129343871 0 0.2392512687495113 0.23539683186585869 0 0.24523436150048811 0.24199469982198529 0 0.2356673672060029 0.23553231024254659 0 0.23652425047500741 0.24096462129343871 0 0.2392512687495113 0.23539683186585869 0 0.23408043491912681 0.23335190051361199 0 0.2356673672060029 0.23553231024254659 0 0.2392512687495113 0.23539683186585869 0 0.24523436150048811 0.24199469982198529 0 0.2471090749199483 0.2357199094212839 0 0.25452501640087027 0.2374112721999547 0 0.2392512687495113 0.23539683186585869 0 0.24523436150048811 0.24199469982198529 0 0.2471090749199483 0.2357199094212839 0 0.24523436150048811 0.24199469982198529 0 0.23995652529561701 0.25039133628829258 0 0.25404003316197471 0.25208422786308371 0 0.23652425047500741 0.24096462129343871 0 0.24523436150048811 0.24199469982198529 0 0.23995652529561701 0.25039133628829258 0 0.23652425047500741 0.24096462129343871 0 0.23169913173193779 0.25404958449575432 0 0.23995652529561701 0.25039133628829258 0 0.23369101455560959 0.23545012385447089 0 0.2170338530129477 0.25958452376210089 0 0.21458810326103989 0.25029177234766842 0 0.23408043491912681 0.23335190051361199 0 0.23369101455560959 0.23545012385447089 0 0.21458810326103989 0.25029177234766842 0 0.23408043491912681 0.23335190051361199 0 0.21458810326103989 0.25029177234766842 0 0.2245441737887168 0.23093760545441711 0 0.21458810326103989 0.25029177234766842 0 0.23408043491912681 0.23335190051361199 0 0.2258394828391487 0.23585902185418811 0 0.21458810326103989 0.25029177234766842 0 0.23369101455560959 0.23545012385447089 0 0.2170338530129477 0.25958452376210089 0 0.23169913173193779 0.25404958449575432 0 0.23652425047500741 0.24096462129343871 0 0.23369101455560959 0.23545012385447089 0 0.23169913173193779 0.25404958449575432 0 0.23369101455560959 0.23545012385447089 0 0.2170338530129477 0.25958452376210089 0 0.2245441737887168 0.23093760545441711 0 0.2258394828391487 0.23585902185418811 0 0.21458810326103989 0.25029177234766842 0 0.2074718948020329 0.13931593166829101 0 0.2035930282546865 0.1573108976369578 0 0.22801201431925219 0.15227861461809999 0 0.2074718948020329 0.13931593166829101 0 0.22815060196587239 0.13250420183309389 0 0.2202182220460269 0.1181723145221887 0 0.2074718948020329 0.13931593166829101 0 0.2202182220460269 0.1181723145221887 0 0.19370351113240411 0.1202502215829211 0 0.18154761934540289 0.13534417850528041 0 0.2074718948020329 0.13931593166829101 0 0.19370351113240411 0.1202502215829211 0 0.1832181015668064 0.15465227861531949 0 0.2074718948020329 0.13931593166829101 0 0.1832181015668064 0.15465227861531949 0 0.18154761934540289 0.13534417850528041 0 0.2074718948020329 0.13931593166829101 0 0.1832181015668064 0.15465227861531949 0 0.2074718948020329 0.13931593166829101 0 0.2035930282546865 0.1573108976369578 0 0.1832181015668064 0.15465227861531949 0 0.1915320106228488 0.17262237876131631 0 0.2035930282546865 0.1573108976369578 0 0.1915320106228488 0.17262237876131631 0 0.21309098299550949 0.1707274381193544 0 0.2035930282546865 0.1573108976369578 0 0.19943196450540629 0.19077826793543179 0 0.1915320106228488 0.17262237876131631 0 0.21309098299550949 0.1707274381193544 0 0.17803712215301101 0.18711146321258301 0 0.19943196450540629 0.19077826793543179 0 0.1915320106228488 0.17262237876131631 0 0.19943196450540629 0.19077826793543179 0 0.22082680685780151 0.19444507265828059 0 0.21309098299550949 0.1707274381193544 0 0.21309098299550949 0.1707274381193544 0 0.2035930282546865 0.1573108976369578 0 0.22801201431925219 0.15227861461809999 0 0.2298041727050075 0.1787595393801808 0 0.2424223085377801 0.16582077205563811 0 0.22801201431925219 0.15227861461809999 0 0.21309098299550949 0.1707274381193544 0 0.2298041727050075 0.1787595393801808 0 0.22801201431925219 0.15227861461809999 0 0.22082680685780151 0.19444507265828059 0 0.21309098299550949 0.1707274381193544 0 0.2298041727050075 0.1787595393801808 0 0.2418323282778008 0.1922485172988235 0 0.2424223085377801 0.16582077205563811 0 0.2418323282778008 0.1922485172988235 0 0.2424223085377801 0.16582077205563811 0 0.26032431562704572 0.18342712708893841 0 0.2418323282778008 0.1922485172988235 0 0.2298041727050075 0.1787595393801808 0 0.2424223085377801 0.16582077205563811 0 0.2424223085377801 0.16582077205563811 0 0.24301228879775941 0.13939302681245261 0 0.2424223085377801 0.16582077205563811 0 0.24301228879775941 0.13939302681245261 0 0.25486404381895789 0.1523024957907583 0 0.22801201431925219 0.15227861461809999 0 0.23648687609860089 0.13476882232929049 0 0.24301228879775941 0.13939302681245261 0 0.2424223085377801 0.16582077205563811 0 0.22801201431925219 0.15227861461809999 0 0.24301228879775941 0.13939302681245261 0 0.2074718948020329 0.13931593166829101 0 0.22801201431925219 0.15227861461809999 0 0.22815060196587239 0.13250420183309389 0 0.22815060196587239 0.13250420183309389 0 0.24420216851797599 0.1292372680552665 0 0.2202182220460269 0.1181723145221887 0 0.22801201431925219 0.15227861461809999 0 0.22815060196587239 0.13250420183309389 0 0.23648687609860089 0.13476882232929049 0 0.22815060196587239 0.13250420183309389 0 0.23648687609860089 0.13476882232929049 0 0.24420216851797599 0.1292372680552665 0 0.23648687609860089 0.13476882232929049 0 0.24301228879775941 0.13939302681245261 0 0.24420216851797599 0.1292372680552665 0 0.24646482385440791 0.1109165710353929 0 0.23770217468454991 0.11680213067385049 0 0.255186127323073 0.11543194682551421 0 0.24420216851797599 0.1292372680552665 0 0.23770217468454991 0.11680213067385049 0 0.255186127323073 0.11543194682551421 0 0.23770217468454991 0.11680213067385049 0 0.255186127323073 0.11543194682551421 0 0.23770217468454991 0.11680213067385049 0 0.24055722746134861 0.1095612663226197 0 0.23538797832625211 0.10692464088038291 0 0.24646482385440791 0.1109165710353929 0 0.23770217468454991 0.11680213067385049 0 0.24055722746134861 0.1095612663226197 0 0.24174744587836799 0.1033548466348798 0 0.22816008327650389 0.097918375238235045 0 0.24736227196270541 0.090270970101712061 0 0.22816008327650389 0.097918375238235045 0 0.24736227196270541 0.090270970101712061 0 0.24174744587836799 0.1033548466348798 0 0.24736227196270541 0.090270970101712061 0 0.25459763100830068 0.096141582858552177 0 0.24174744587836799 0.1033548466348798 0 0.25459763100830068 0.096141582858552177 0 0.24646482385440791 0.1109165710353929 0 0.24174744587836799 0.1033548466348798 0 0.25655208948606423 0.10927836717886751 0 0.24174744587836799 0.1033548466348798 0 0.25655208948606423 0.10927836717886751 0 0.24646482385440791 0.1109165710353929 0 0.24055722746134861 0.1095612663226197 0 0.24174744587836799 0.1033548466348798 0 0.23538797832625211 0.10692464088038291 0 0.24174744587836799 0.1033548466348798 0 0.22816008327650389 0.097918375238235045 0 0.24055722746134861 0.1095612663226197 0 0.23538797832625211 0.10692464088038291 0 0.24174744587836799 0.1033548466348798 0 0.23538797832625211 0.10692464088038291 0 0.24174744587836799 0.1033548466348798 0 0.24174744587836799 0.1033548466348798 0 0.22816008327650389 0.097918375238235045 0 0.23538797832625211 0.10692464088038291 0 0.22816008327650389 0.097918375238235045 0 0.22436085098549791 0.1097634104313145 0 0.23770217468454991 0.11680213067385049 0 0.2202182220460269 0.1181723145221887 0 0.23770217468454991 0.11680213067385049 0 0.2202182220460269 0.1181723145221887 0 0.22436085098549791 0.1097634104313145 0 0.24420216851797599 0.1292372680552665 0 0.23770217468454991 0.11680213067385049 0 0.2202182220460269 0.1181723145221887 0 0.24420216851797599 0.1292372680552665 0 0.2202182220460269 0.1181723145221887 0 0.23770217468454991 0.11680213067385049 0 0.23538797832625211 0.10692464088038291 0 0.22436085098549791 0.1097634104313145 0 0.2202182220460269 0.1181723145221887 0 0.20033579659415629 0.10899959084191641 0 0.19370351113240411 0.1202502215829211 0 0.2202182220460269 0.1181723145221887 0 0.20033579659415629 0.10899959084191641 0 0.2202182220460269 0.1181723145221887 0 0.19370351113240411 0.1202502215829211 0 0.2202182220460269 0.1181723145221887 0 0.22436085098549791 0.1097634104313145 0 0.20033579659415629 0.10899959084191641 0 0.22816008327650389 0.097918375238235045 0 0.22436085098549791 0.1097634104313145 0 0.20033579659415629 0.10899959084191641 0 0.22816008327650389 0.097918375238235045 0 0.20033579659415629 0.10899959084191641 0 0.2016134769563831 0.087296750559026068 0 0.22816008327650389 0.097918375238235045 0 0.20033579659415629 0.10899959084191641 0 0.20033579659415629 0.10899959084191641 0 0.18422746814952201 0.1154148446289336 0 0.1860496622757298 0.1024087067025775 0 0.20033579659415629 0.10899959084191641 0 0.2016134769563831 0.087296750559026068 0 0.1860496622757298 0.1024087067025775 0 0.20033579659415629 0.10899959084191641 0 0.1860496622757298 0.1024087067025775 0 0.20033579659415629 0.10899959084191641 0 0.19370351113240411 0.1202502215829211 0 0.18422746814952201 0.1154148446289336 0 0.20033579659415629 0.10899959084191641 0 0.18422746814952201 0.1154148446289336 0 0.19220101611619109 0.069455466931817506 0 0.2016134769563831 0.087296750559026068 0 0.22553753830923129 0.072562856517635971 0 0.19220101611619109 0.069455466931817506 0 0.22553753830923129 0.072562856517635971 0 0.20371280465575431 0.054854742933563613 0 0.19220101611619109 0.069455466931817506 0 0.2016134769563831 0.087296750559026068 0 0.17506687063626211 0.076675125879817507 0 0.2016134769563831 0.087296750559026068 0 0.17506687063626211 0.076675125879817507 0 0.2016134769563831 0.087296750559026068 0 0.1860496622757298 0.1024087067025775 0 0.17954517331912459 0.085943521096986275 0 0.22816008327650389 0.097918375238235045 0 0.2016134769563831 0.087296750559026068 0 0.22553753830923129 0.072562856517635971 0 0.22816008327650389 0.097918375238235045 0 0.2016134769563831 0.087296750559026068 0 0.22553753830923129 0.072562856517635971 0 0.20371280465575431 0.054854742933563613 0 0.22816008327650389 0.097918375238235045 0 0.22553753830923129 0.072562856517635971 0 0.24736227196270541 0.090270970101712061 0 0.22553753830923129 0.072562856517635971 0 0.24736227196270541 0.090270970101712061 0 0.22553753830923129 0.072562856517635971 0 0.24736227196270541 0.090270970101712061 0 0.24874122334595 0.07170785510379532 0 0.22553753830923129 0.072562856517635971 0 0.24874122334595 0.07170785510379532 0 0.24629062771517271 0.052820950830226497 0 0.24629062771517271 0.052820950830226497 0 0.22540450977275331 0.044226989078737088 0 0.24629062771517271 0.052820950830226497 0 0.2492733855269578 0.041579555173777823 0 0.22540450977275331 0.044226989078737088 0 0.2492733855269578 0.041579555173777823 0 0.23050941707716249 0.025621187905106171 0 0.2492733855269578 0.041579555173777823 0 0.22540450977275331 0.044226989078737088 0 0.23050941707716249 0.025621187905106171 0 0.22540450977275331 0.044226989078737088 0 0.23050941707716249 0.025621187905106171 0 0.21805144048265651 0.031797176764528597 0 0.22553753830923129 0.072562856517635971 0 0.24629062771517271 0.052820950830226497 0 0.22540450977275331 0.044226989078737088 0 0.23790413247208811 0.0091049515404343275 0 0.25322369798355371 0.0032948183560677501 0 0.2464198669495459 -0.012097030270161889 0 0.23790413247208811 0.0091049515404343275 0 0.25442723867738032 0.016379625870619269 0 0.25322369798355371 0.0032948183560677501 0 0.2492733855269578 0.041579555173777823 0 0.24818833723327199 0.02644705719899533 0 0.23050941707716249 0.025621187905106171 0 0.23790413247208811 0.0091049515404343275 0 0.24818833723327199 0.02644705719899533 0 0.25442723867738032 0.016379625870619269 0 0.23790413247208811 0.0091049515404343275 0 0.24818833723327199 0.02644705719899533 0 0.23050941707716249 0.025621187905106171 0 0.23050941707716249 0.025621187905106171 0 0.2117734432503762 0.02170750274702346 0 0.21805144048265651 0.031797176764528597 0 0.23050941707716249 0.025621187905106171 0 0.21174544862736719 0.0096628206364345465 0 0.23050941707716249 0.025621187905106171 0 0.22518260227175371 0.0072623370788317187 0 0.21174544862736719 0.0096628206364345465 0 0.23790413247208811 0.0091049515404343275 0 0.22518260227175371 0.0072623370788317187 0 0.2300866381754704 -0.0072438550720441714 0 0.23790413247208811 0.0091049515404343275 0 0.23050941707716249 0.025621187905106171 0 0.22518260227175371 0.0072623370788317187 0 0.21174544862736719 0.0096628206364345465 0 0.2117734432503762 0.02170750274702346 0 0.20589386385567829 -0.0063134785331596111 0 0.2117734432503762 0.02170750274702346 0 0.19985428483697371 0.01027601627170664 0 0.20589386385567829 -0.0063134785331596111 0 0.2117734432503762 0.02170750274702346 0 0.20589386385567829 -0.0063134785331596111 0 0.22518260227175371 0.0072623370788317187 0 0.21174544862736719 0.0096628206364345465 0 0.2185782736923042 -0.0038367730406402641 0 0.23050941707716249 0.025621187905106171 0 0.21174544862736719 0.0096628206364345465 0 0.2117734432503762 0.02170750274702346 0 0.2117734432503762 0.02170750274702346 0 0.19994459845139961 0.023663902980434019 0 0.19985428483697371 0.01027601627170664 0 0.2117734432503762 0.02170750274702346 0 0.21805144048265651 0.031797176764528597 0 0.20451839183033399 0.035633027327247678 0 0.2117734432503762 0.02170750274702346 0 0.19994459845139961 0.023663902980434019 0 0.20451839183033399 0.035633027327247678 0 0.19994459845139961 0.023663902980434019 0 0.20451839183033399 0.035633027327247678 0 0.1836322738879155 0.027039065575756291 0 0.19994459845139961 0.023663902980434019 0 0.19985428483697371 0.01027601627170664 0 0.1836322738879155 0.027039065575756291 0 0.19985428483697371 0.01027601627170664 0 0.20589386385567829 -0.0063134785331596111 0 0.18863989258252481 -0.001979820774580698 0 0.19985428483697371 0.01027601627170664 0 0.1836322738879155 0.027039065575756291 0 0.18863989258252481 -0.001979820774580698 0 0.22553753830923129 0.072562856517635971 0 0.22540450977275331 0.044226989078737088 0 0.20371280465575431 0.054854742933563613 0 0.22540450977275331 0.044226989078737088 0 0.20451839183033399 0.035633027327247678 0 0.22540450977275331 0.044226989078737088 0 0.21805144048265651 0.031797176764528597 0 0.20451839183033399 0.035633027327247678 0 0.22540450977275331 0.044226989078737088 0 0.20371280465575431 0.054854742933563613 0 0.20451839183033399 0.035633027327247678 0 0.20451839183033399 0.035633027327247678 0 0.1818880710022803 0.03714662934948755 0 0.1836322738879155 0.027039065575756291 0 0.20371280465575431 0.054854742933563613 0 0.20451839183033399 0.035633027327247678 0 0.1818880710022803 0.03714662934948755 0 0.20371280465575431 0.054854742933563613 0 0.1818880710022803 0.03714662934948755 0 0.20451839183033399 0.035633027327247678 0 0.1836322738879155 0.027039065575756291 0 0.20371280465575431 0.054854742933563613 0 0.17847747081927551 0.05691087761465332 0 0.1818880710022803 0.03714662934948755 0 0.19220101611619109 0.069455466931817506 0 0.20371280465575431 0.054854742933563613 0 0.17847747081927551 0.05691087761465332 0 0.17847747081927551 0.05691087761465332 0 0.1818880710022803 0.03714662934948755 0 0.17847747081927551 0.05691087761465332 0 0.1818880710022803 0.03714662934948755 0 0.1636569447874848 0.036789081642687432 0 0.1818880710022803 0.03714662934948755 0 0.1836322738879155 0.027039065575756291 0 0.1818880710022803 0.03714662934948755 0 0.1636569447874848 0.036789081642687432 0 0.1620242678869008 0.02102957209859084 0 0.17847747081927551 0.05691087761465332 0 0.1636569447874848 0.036789081642687432 0 0.15962551614652079 0.053115759904931073 0 0.17847747081927551 0.05691087761465332 0 0.15962551614652079 0.053115759904931073 0 0.16641746421004469 0.065589342706300277 0 0.15962551614652079 0.053115759904931073 0 0.15045482833334159 0.067212260357143019 0 0.16641746421004469 0.065589342706300277 0 0.1716695151525548 0.011722155214289249 0 0.17506184651935949 -0.0021247232161890161 0 0.18863989258252481 -0.001979820774580698 0 0.1836322738879155 0.027039065575756291 0 0.18863989258252481 -0.001979820774580698 0 0.1836322738879155 0.027039065575756291 0 0.1716695151525548 0.011722155214289249 0 0.18863989258252481 -0.001979820774580698 0 0.1818880710022803 0.03714662934948755 0 0.1730573255808272 0.02268781650565178 0 0.1620242678869008 0.02102957209859084 0 0.1818880710022803 0.03714662934948755 0 0.1620242678869008 0.02102957209859084 0 0.1730573255808272 0.02268781650565178 0 0.1836322738879155 0.027039065575756291 0 0.1716695151525548 0.011722155214289249 0 0.1730573255808272 0.02268781650565178 0 0.1836322738879155 0.027039065575756291 0 0.1818880710022803 0.03714662934948755 0 0.1730573255808272 0.02268781650565178 0 0.1836322738879155 0.027039065575756291 0 0.1636569447874848 0.036789081642687432 0 0.1620242678869008 0.02102957209859084 0 0.15032019737810451 0.03113296745297477 0 0.1730573255808272 0.02268781650565178 0 0.1620242678869008 0.02102957209859084 0 0.1716695151525548 0.011722155214289249 0 0.1620242678869008 0.02102957209859084 0 0.1716695151525548 0.011722155214289249 0 0.15871689523486121 0.010399441389301141 0 0.1716695151525548 0.011722155214289249 0 0.15871689523486121 0.010399441389301141 0 0.1628037813635097 0.0015330777282007481 0 0.15871689523486121 0.010399441389301141 0 0.1628037813635097 0.0015330777282007481 0 0.15453230216132671 0.0032055715019124438 0 0.1716695151525548 0.011722155214289249 0 0.1628037813635097 0.0015330777282007481 0 0.17506184651935949 -0.0021247232161890161 0 0.1620242678869008 0.02102957209859084 0 0.14216046477152491 0.0049125148476896544 0 0.15871689523486121 0.010399441389301141 0 0.14216046477152491 0.0049125148476896544 0 0.15453230216132671 0.0032055715019124438 0 0.14216046477152491 0.0049125148476896544 0 0.15453230216132671 0.0032055715019124438 0 0.15849764294065671 -0.0060544572746906826 0 0.1620242678869008 0.02102957209859084 0 0.15871689523486121 0.010399441389301141 0 0.14216046477152491 0.0049125148476896544 0 0.1620242678869008 0.02102957209859084 0 0.14216046477152491 0.0049125148476896544 0 0.1432298655490542 0.02239521632663263 0 0.1620242678869008 0.02102957209859084 0 0.1432298655490542 0.02239521632663263 0 0.15032019737810451 0.03113296745297477 0 0.1432298655490542 0.02239521632663263 0 0.15032019737810451 0.03113296745297477 0 0.1366405524080008 0.032741533152345258 0 0.1432298655490542 0.02239521632663263 0 0.12659142849079691 0.028091664155532971 0 0.1366405524080008 0.032741533152345258 0 0.14216046477152491 0.0049125148476896544 0 0.1432298655490542 0.02239521632663263 0 0.12659142849079691 0.028091664155532971 0 0.14216046477152491 0.0049125148476896544 0 0.12659142849079691 0.028091664155532971 0 0.1323442420055404 0.014884056975098 0 0.14216046477152491 0.0049125148476896544 0 0.12659142849079691 0.028091664155532971 0 0.11882011836095251 0.0065886106746579649 0 0.12659142849079691 0.028091664155532971 0 0.1323442420055404 0.014884056975098 0 0.12659142849079691 0.028091664155532971 0 0.1366405524080008 0.032741533152345258 0 0.11882011836095251 0.0065886106746579649 0 0.1323442420055404 0.014884056975098 0 0.13735218555535891 0.001011181807127467 0 0.1323442420055404 0.014884056975098 0 0.13735218555535891 0.001011181807127467 0 0.14216046477152491 0.0049125148476896544 0 0.1323442420055404 0.014884056975098 0 0.13735218555535891 0.001011181807127467 0 0.14216046477152491 0.0049125148476896544 0 0.13735218555535891 0.001011181807127467 0 0.15962551614652079 0.053115759904931073 0 0.1452456698728295 0.044396077507560729 0 0.15045482833334159 0.067212260357143019 0 0.1452456698728295 0.044396077507560729 0 0.12683439495817461 0.052003073372435288 0 0.15045482833334159 0.067212260357143019 0 0.1636569447874848 0.036789081642687432 0 0.15032019737810451 0.03113296745297477 0 0.1452456698728295 0.044396077507560729 0 0.1636569447874848 0.036789081642687432 0 0.15962551614652079 0.053115759904931073 0 0.1452456698728295 0.044396077507560729 0 0.1636569447874848 0.036789081642687432 0 0.1452456698728295 0.044396077507560729 0 0.15032019737810451 0.03113296745297477 0 0.1452456698728295 0.044396077507560729 0 0.1366405524080008 0.032741533152345258 0 0.1452456698728295 0.044396077507560729 0 0.13015300311198849 0.040381385354086502 0 0.12683439495817461 0.052003073372435288 0 0.1452456698728295 0.044396077507560729 0 0.1366405524080008 0.032741533152345258 0 0.13015300311198849 0.040381385354086502 0 0.12659142849079691 0.028091664155532971 0 0.1366405524080008 0.032741533152345258 0 0.13015300311198849 0.040381385354086502 0 0.12683439495817461 0.052003073372435288 0 0.13134854049252651 0.064566646620811727 0 0.15045482833334159 0.067212260357143019 0 0.1452456698728295 0.044396077507560729 0 0.12683439495817461 0.052003073372435288 0 0.12683439495817461 0.052003073372435288 0 0.15045482833334159 0.067212260357143019 0 0.1213053233293625 0.063977455960140386 0 0.12683439495817461 0.052003073372435288 0 0.13134854049252651 0.064566646620811727 0 0.13134854049252651 0.064566646620811727 0 0.12679961534922851 0.075073796793526271 0 0.15045482833334159 0.067212260357143019 0 0.1213053233293625 0.063977455960140386 0 0.13134854049252651 0.064566646620811727 0 0.12679961534922851 0.075073796793526271 0 0.12679961534922851 0.075073796793526271 0 0.15045482833334159 0.067212260357143019 0 0.1492815716532653 0.085445809678383625 0 0.1185648575779607 0.095458187827811403 0 0.12679961534922851 0.075073796793526271 0 0.13332649773741079 0.089989738391902788 0 0.1492815716532653 0.085445809678383625 0 0.13332649773741079 0.089989738391902788 0 0.13865994636918871 0.10398115926788989 0 0.12679961534922851 0.075073796793526271 0 0.1492815716532653 0.085445809678383625 0 0.12679961534922851 0.075073796793526271 0 0.1492815716532653 0.085445809678383625 0 0.13332649773741079 0.089989738391902788 0 0.123281054128593 0.11724462113534739 0 0.1185648575779607 0.095458187827811403 0 0.13865994636918871 0.10398115926788989 0 0.1185648575779607 0.095458187827811403 0 0.13332649773741079 0.089989738391902788 0 0.13865994636918871 0.10398115926788989 0 0.123281054128593 0.11724462113534739 0 0.13865994636918871 0.10398115926788989 0 0.13947052033133081 0.1245003570974072 0 0.13947052033133081 0.1245003570974072 0 0.15026369300765779 0.1129544164764977 0 0.16718880021878149 0.12232812864365609 0 0.13947052033133081 0.1245003570974072 0 0.16718880021878149 0.12232812864365609 0 0.13865994636918871 0.10398115926788989 0 0.13947052033133081 0.1245003570974072 0 0.15026369300765779 0.1129544164764977 0 0.1492815716532653 0.085445809678383625 0 0.13865994636918871 0.10398115926788989 0 0.15573550511132991 0.1010080208970377 0 0.13865994636918871 0.10398115926788989 0 0.15026369300765779 0.1129544164764977 0 0.15573550511132991 0.1010080208970377 0 0.15573550511132991 0.1010080208970377 0 0.17176352795730221 0.095817822563241214 0 0.16718880021878149 0.12232812864365609 0 0.17176352795730221 0.095817822563241214 0 0.16718880021878149 0.12232812864365609 0 0.1492815716532653 0.085445809678383625 0 0.15573550511132991 0.1010080208970377 0 0.17176352795730221 0.095817822563241214 0 0.15026369300765779 0.1129544164764977 0 0.15573550511132991 0.1010080208970377 0 0.16718880021878149 0.12232812864365609 0 0.16718880021878149 0.12232812864365609 0 0.18422746814952201 0.1154148446289336 0 0.17176352795730221 0.095817822563241214 0 0.16718880021878149 0.12232812864365609 0 0.18422746814952201 0.1154148446289336 0 0.19370351113240411 0.1202502215829211 0 0.16718880021878149 0.12232812864365609 0 0.19370351113240411 0.1202502215829211 0 0.16718880021878149 0.12232812864365609 0 0.18422746814952201 0.1154148446289336 0 0.17176352795730221 0.095817822563241214 0 0.18422746814952201 0.1154148446289336 0 0.1860496622757298 0.1024087067025775 0 0.17176352795730221 0.095817822563241214 0 0.1860496622757298 0.1024087067025775 0 0.17954517331912459 0.085943521096986275 0 0.17176352795730221 0.095817822563241214 0 0.1860496622757298 0.1024087067025775 0 0.2016134769563831 0.087296750559026068 0 0.17954517331912459 0.085943521096986275 0 0.17506687063626211 0.076675125879817507 0 0.17176352795730221 0.095817822563241214 0 0.17407526170850959 0.082421447341849294 0 0.17176352795730221 0.095817822563241214 0 0.17954517331912459 0.085943521096986275 0 0.17407526170850959 0.082421447341849294 0 0.17954517331912459 0.085943521096986275 0 0.17407526170850959 0.082421447341849294 0 0.17506687063626211 0.076675125879817507 0 0.17407526170850959 0.082421447341849294 0 0.17506687063626211 0.076675125879817507 0 0.17954517331912459 0.085943521096986275 0 0.17407526170850959 0.082421447341849294 0 0.17847747081927551 0.05691087761465332 0 0.17506687063626211 0.076675125879817507 0 0.19220101611619109 0.069455466931817506 0 0.17847747081927551 0.05691087761465332 0 0.17506687063626211 0.076675125879817507 0 0.17847747081927551 0.05691087761465332 0 0.17506687063626211 0.076675125879817507 0 0.16641746421004469 0.065589342706300277 0 0.17407526170850959 0.082421447341849294 0 0.17506687063626211 0.076675125879817507 0 0.16846263511482451 0.074032689774956653 0 0.15045482833334159 0.067212260357143019 0 0.16846263511482451 0.074032689774956653 0 0.16641746421004469 0.065589342706300277 0 0.17506687063626211 0.076675125879817507 0 0.16846263511482451 0.074032689774956653 0 0.16641746421004469 0.065589342706300277 0 0.15045482833334159 0.067212260357143019 0 0.17407526170850959 0.082421447341849294 0 0.16846263511482451 0.074032689774956653 0 0.17506687063626211 0.076675125879817507 0 0.16846263511482451 0.074032689774956653 0 0.15045482833334159 0.067212260357143019 0 0.17407526170850959 0.082421447341849294 0 0.1492815716532653 0.085445809678383625 0 0.17176352795730221 0.095817822563241214 0 0.1492815716532653 0.085445809678383625 0 0.17176352795730221 0.095817822563241214 0 0.17407526170850959 0.082421447341849294 0 0.15045482833334159 0.067212260357143019 0 0.1492815716532653 0.085445809678383625 0 0.17407526170850959 0.082421447341849294 0 0.094789198081262169 0.47221984895451657 0 0.09870107108427445 0.5 0 0.1248616532684987 0.47476888169724352 0 0.09870107108427445 0.5 0 0.1248616532684987 0.47476888169724352 0 0.1287333349596296 0.50000000000000233 0 0.1248616532684987 0.47476888169724352 0 0.1154926134483955 0.45328817880533262 0 0.094789198081262169 0.47221984895451657 0 0.1248616532684987 0.47476888169724352 0 0.1154926134483955 0.45328817880533262 0 0.1248616532684987 0.47476888169724352 0 0.1205619018159948 0.44674810255646558 0 0.1248616532684987 0.47476888169724352 0 0.1154926134483955 0.45328817880533262 0 0.1205619018159948 0.44674810255646558 0 0.1154926134483955 0.45328817880533262 0 0.106123573628292 0.43180747591342172 0 0.1154926134483955 0.45328817880533262 0 0.1205619018159948 0.44674810255646558 0 0.106123573628292 0.43180747591342172 0 0.1154926134483955 0.45328817880533262 0 0.096722182691352548 0.44869154901932268 0 0.106123573628292 0.43180747591342172 0 0.094789198081262169 0.47221984895451657 0 0.1154926134483955 0.45328817880533262 0 0.096722182691352548 0.44869154901932268 0 0.094789198081262169 0.47221984895451657 0 0.077453222292990773 0.45016302493177879 0 0.067202034968243438 0.47028323083424428 0 0.094789198081262169 0.47221984895451657 0 0.096722182691352548 0.44869154901932268 0 0.077453222292990773 0.45016302493177879 0 0.096722182691352548 0.44869154901932268 0 0.077453222292990773 0.45016302493177879 0 0.085233479690329184 0.42595657570789891 0 0.077453222292990773 0.45016302493177879 0 0.085233479690329184 0.42595657570789891 0 0.077453222292990773 0.45016302493177879 0 0.055846149836862702 0.43889490050586683 0 0.065639666334966471 0.42409002317344818 0 0.077453222292990773 0.45016302493177879 0 0.067202034968243438 0.47028323083424428 0 0.051776939420019832 0.45519588853091181 0 0.094789198081262169 0.47221984895451657 0 0.067202034968243438 0.47028323083424428 0 0.068668807208919325 0.5 0 0.094789198081262169 0.47221984895451657 0 0.09870107108427445 0.5 0 0.068668807208919325 0.5 0 0.068668807208919325 0.5 0 0.043814234576468783 0.4752156274217324 0 0.038636543333564137 0.5 0 0.067202034968243438 0.47028323083424428 0 0.068668807208919325 0.5 0 0.043814234576468783 0.4752156274217324 0 0.038636543333564137 0.5 0 0.0095498935665802413 0.47810272379952351 0 0.0086042794582089632 0.5 0 0.043814234576468783 0.4752156274217324 0 0.038636543333564137 0.5 0 0.0095498935665802413 0.47810272379952351 0 0.043814234576468783 0.4752156274217324 0 0.0095498935665802413 0.47810272379952351 0 0.02936257191825143 0.45548825099001988 0 -0.0044763741368290672 0.43313315307665529 0 0.006403582431216831 0.45126676372832991 0 0.01131617767293759 0.43066417693356068 0 0.006403582431216831 0.45126676372832991 0 0.024585063983693121 0.43937755350337049 0 0.01131617767293759 0.43066417693356068 0 -0.0062093312902834459 0.46527566221073008 0 0.0095498935665802413 0.47810272379952351 0 0.006403582431216831 0.45126676372832991 0 0.0095498935665802413 0.47810272379952351 0 0.006403582431216831 0.45126676372832991 0 0.02936257191825143 0.45548825099001988 0 0.02936257191825143 0.45548825099001988 0 0.024585063983693121 0.43937755350337049 0 0.039439570502417587 0.44016889882154447 0 0.006403582431216831 0.45126676372832991 0 0.02936257191825143 0.45548825099001988 0 0.024585063983693121 0.43937755350337049 0 0.02936257191825143 0.45548825099001988 0 0.039439570502417587 0.44016889882154447 0 0.051776939420019832 0.45519588853091181 0 0.043814234576468783 0.4752156274217324 0 0.02936257191825143 0.45548825099001988 0 0.051776939420019832 0.45519588853091181 0 0.067202034968243438 0.47028323083424428 0 0.043814234576468783 0.4752156274217324 0 0.051776939420019832 0.45519588853091181 0 0.039439570502417587 0.44016889882154447 0 0.051776939420019832 0.45519588853091181 0 0.055846149836862702 0.43889490050586683 0 0.077453222292990773 0.45016302493177879 0 0.051776939420019832 0.45519588853091181 0 0.055846149836862702 0.43889490050586683 0 0.055846149836862702 0.43889490050586683 0 0.044352211855280779 0.42435697566478181 0 0.065639666334966471 0.42409002317344818 0 0.054179592762823331 0.4124556941646933 0 0.065774511826563423 0.40583773171119408 0 0.065639666334966471 0.42409002317344818 0 0.054179592762823331 0.4124556941646933 0 0.044352211855280779 0.42435697566478181 0 0.042551786202842029 0.40583695196884878 0 0.054179592762823331 0.4124556941646933 0 0.044352211855280779 0.42435697566478181 0 0.065639666334966471 0.42409002317344818 0 0.054179592762823331 0.4124556941646933 0 0.052579787594463898 0.40215678830519391 0 0.065774511826563423 0.40583773171119408 0 0.054179592762823331 0.4124556941646933 0 0.042551786202842029 0.40583695196884878 0 0.052579787594463898 0.40215678830519391 0 0.031615607723292562 0.41237007764590089 0 0.044352211855280779 0.42435697566478181 0 0.042551786202842029 0.40583695196884878 0 0.031615607723292562 0.41237007764590089 0 0.044352211855280779 0.42435697566478181 0 0.029348552931666359 0.42650056435783129 0 0.039439570502417587 0.44016889882154447 0 0.055846149836862702 0.43889490050586683 0 0.044352211855280779 0.42435697566478181 0 0.039439570502417587 0.44016889882154447 0 0.044352211855280779 0.42435697566478181 0 0.029348552931666359 0.42650056435783129 0 0.024585063983693121 0.43937755350337049 0 0.039439570502417587 0.44016889882154447 0 0.029348552931666359 0.42650056435783129 0 0.024585063983693121 0.43937755350337049 0 0.029348552931666359 0.42650056435783129 0 0.01131617767293759 0.43066417693356068 0 0.029348552931666359 0.42650056435783129 0 0.019479081626689841 0.41692126840220728 0 0.01131617767293759 0.43066417693356068 0 0.031615607723292562 0.41237007764590089 0 0.029348552931666359 0.42650056435783129 0 0.019479081626689841 0.41692126840220728 0 0.031615607723292562 0.41237007764590089 0 0.019479081626689841 0.41692126840220728 0 0.02210553341445062 0.40298972327242938 0 0.019479081626689841 0.41692126840220728 0 0.0046995574085186929 0.41194005205042061 0 0.02210553341445062 0.40298972327242938 0 0.019479081626689841 0.41692126840220728 0 0.0046995574085186929 0.41194005205042061 0 0.01131617767293759 0.43066417693356068 0 -0.0044763741368290672 0.43313315307665529 0 0.0046995574085186929 0.41194005205042061 0 0.01131617767293759 0.43066417693356068 0 -0.0068648610501423502 0.39382000907293813 0 0.0053185270157129726 0.37689571945341471 0 0.0079727676898529512 0.39395805239723503 0 0.0053185270157129726 0.37689571945341471 0 0.0079727676898529512 0.39395805239723503 0 0.017055050774382831 0.3783760363496293 0 0.0053185270157129726 0.37689571945341471 0 0.017055050774382831 0.3783760363496293 0 0.014905446519761849 0.37011919055753012 0 -0.0068648610501423502 0.39382000907293813 0 0.0046995574085186929 0.41194005205042061 0 0.0079727676898529512 0.39395805239723503 0 0.0046995574085186929 0.41194005205042061 0 0.0079727676898529512 0.39395805239723503 0 0.02210553341445062 0.40298972327242938 0 0.0079727676898529512 0.39395805239723503 0 0.02210553341445062 0.40298972327242938 0 0.02735486101880703 0.39232044610694311 0 0.031615607723292562 0.41237007764590089 0 0.02210553341445062 0.40298972327242938 0 0.03492587150599015 0.39714318271575322 0 0.02210553341445062 0.40298972327242938 0 0.02735486101880703 0.39232044610694311 0 0.03492587150599015 0.39714318271575322 0 0.0079727676898529512 0.39395805239723503 0 0.02735486101880703 0.39232044610694311 0 0.033420514628485373 0.38302977191180709 0 0.017055050774382831 0.3783760363496293 0 0.033420514628485373 0.38302977191180709 0 0.023779055828078009 0.37097747554075361 0 0.0079727676898529512 0.39395805239723503 0 0.017055050774382831 0.3783760363496293 0 0.033420514628485373 0.38302977191180709 0 0.0079727676898529512 0.39395805239723503 0 0.033420514628485373 0.38302977191180709 0 0.02735486101880703 0.39232044610694311 0 0.032859848824407727 0.38560668074253002 0 0.033420514628485373 0.38302977191180709 0 0.02735486101880703 0.39232044610694311 0 0.032859848824407727 0.38560668074253002 0 0.032844630049655758 0.3911952656019041 0 0.033420514628485373 0.38302977191180709 0 0.040531910439000007 0.38820627445006711 0 0.055078026168592691 0.37372917012189599 0 0.033420514628485373 0.38302977191180709 0 0.055078026168592691 0.37372917012189599 0 0.032859848824407727 0.38560668074253002 0 0.033420514628485373 0.38302977191180709 0 0.032859848824407727 0.38560668074253002 0 0.040531910439000007 0.38820627445006711 0 0.032844630049655758 0.3911952656019041 0 0.032859848824407727 0.38560668074253002 0 0.033420514628485373 0.38302977191180709 0 0.040531910439000007 0.38820627445006711 0 0.031615607723292562 0.41237007764590089 0 0.03492587150599015 0.39714318271575322 0 0.042551786202842029 0.40583695196884878 0 0.040531910439000007 0.38820627445006711 0 0.03492587150599015 0.39714318271575322 0 0.032844630049655758 0.3911952656019041 0 0.02735486101880703 0.39232044610694311 0 0.03492587150599015 0.39714318271575322 0 0.032844630049655758 0.3911952656019041 0 0.040531910439000007 0.38820627445006711 0 0.03492587150599015 0.39714318271575322 0 0.044409534997012647 0.39663533348309749 0 0.040531910439000007 0.38820627445006711 0 0.044409534997012647 0.39663533348309749 0 0.05145831924276717 0.38983346997562462 0 0.044409534997012647 0.39663533348309749 0 0.042551786202842029 0.40583695196884878 0 0.052579787594463898 0.40215678830519391 0 0.03492587150599015 0.39714318271575322 0 0.044409534997012647 0.39663533348309749 0 0.042551786202842029 0.40583695196884878 0 0.052579787594463898 0.40215678830519391 0 0.065929237187869999 0.38841376689227869 0 0.065774511826563423 0.40583773171119408 0 0.044409534997012647 0.39663533348309749 0 0.052579787594463898 0.40215678830519391 0 0.05145831924276717 0.38983346997562462 0 0.052579787594463898 0.40215678830519391 0 0.05145831924276717 0.38983346997562462 0 0.065929237187869999 0.38841376689227869 0 0.05145831924276717 0.38983346997562462 0 0.065929237187869999 0.38841376689227869 0 0.055078026168592691 0.37372917012189599 0 0.040531910439000007 0.38820627445006711 0 0.05145831924276717 0.38983346997562462 0 0.055078026168592691 0.37372917012189599 0 0.065929237187869999 0.38841376689227869 0 0.07065435961583541 0.37741521318853999 0 0.055078026168592691 0.37372917012189599 0 0.065929237187869999 0.38841376689227869 0 0.07065435961583541 0.37741521318853999 0 0.084874637398179506 0.3830893474080016 0 0.065929237187869999 0.38841376689227869 0 0.084874637398179506 0.3830893474080016 0 0.078183007061163587 0.39730645121706609 0 0.084874637398179506 0.3830893474080016 0 0.09301373708766289 0.40175012648401748 0 0.1017514530376761 0.37456476915266362 0 0.084874637398179506 0.3830893474080016 0 0.1017514530376761 0.37456476915266362 0 0.089894590955766338 0.37016501712229671 0 0.084874637398179506 0.3830893474080016 0 0.09301373708766289 0.40175012648401748 0 0.084874637398179506 0.3830893474080016 0 0.09301373708766289 0.40175012648401748 0 0.078183007061163587 0.39730645121706609 0 0.09301373708766289 0.40175012648401748 0 0.078183007061163587 0.39730645121706609 0 0.0779125114683729 0.4107996813321716 0 0.065929237187869999 0.38841376689227869 0 0.078183007061163587 0.39730645121706609 0 0.065774511826563423 0.40583773171119408 0 0.078183007061163587 0.39730645121706609 0 0.065774511826563423 0.40583773171119408 0 0.0779125114683729 0.4107996813321716 0 0.065774511826563423 0.40583773171119408 0 0.0779125114683729 0.4107996813321716 0 0.065639666334966471 0.42409002317344818 0 0.0779125114683729 0.4107996813321716 0 0.065639666334966471 0.42409002317344818 0 0.085233479690329184 0.42595657570789891 0 0.077453222292990773 0.45016302493177879 0 0.065639666334966471 0.42409002317344818 0 0.085233479690329184 0.42595657570789891 0 0.09301373708766289 0.40175012648401748 0 0.085233479690329184 0.42595657570789891 0 0.09301373708766289 0.40175012648401748 0 0.0779125114683729 0.4107996813321716 0 0.085233479690329184 0.42595657570789891 0 0.09301373708766289 0.40175012648401748 0 0.085233479690329184 0.42595657570789891 0 0.096641093798834857 0.4103746730739769 0 0.096641093798834857 0.4103746730739769 0 0.106123573628292 0.43180747591342172 0 0.096641093798834857 0.4103746730739769 0 0.1162621503634904 0.41872732341568758 0 0.11303311796937431 0.39768424579749467 0 0.096641093798834857 0.4103746730739769 0 0.106123573628292 0.43180747591342172 0 0.1162621503634904 0.41872732341568758 0 0.096641093798834857 0.4103746730739769 0 0.1162621503634904 0.41872732341568758 0 0.085233479690329184 0.42595657570789891 0 0.096641093798834857 0.4103746730739769 0 0.106123573628292 0.43180747591342172 0 0.096722182691352548 0.44869154901932268 0 0.085233479690329184 0.42595657570789891 0 0.106123573628292 0.43180747591342172 0 0.1205619018159948 0.44674810255646558 0 0.1162621503634904 0.41872732341568758 0 0.1205619018159948 0.44674810255646558 0 0.106123573628292 0.43180747591342172 0 0.1162621503634904 0.41872732341568758 0 0.1162621503634904 0.41872732341568758 0 0.11303311796937431 0.39768424579749467 0 0.11303311796937431 0.39768424579749467 0 0.1231373165426977 0.3806134049577457 0 0.1271742827044339 0.39597619803598749 0 0.1162621503634904 0.41872732341568758 0 0.11303311796937431 0.39768424579749467 0 0.1271742827044339 0.39597619803598749 0 0.11303311796937431 0.39768424579749467 0 0.1098040855752573 0.37664116817930182 0 0.11303311796937431 0.39768424579749467 0 0.1098040855752573 0.37664116817930182 0 0.1231373165426977 0.3806134049577457 0 0.09301373708766289 0.40175012648401748 0 0.10162794664532369 0.38287681265592 0 0.1017514530376761 0.37456476915266362 0 0.11303311796937431 0.39768424579749467 0 0.1098040855752573 0.37664116817930182 0 0.10162794664532369 0.38287681265592 0 0.09301373708766289 0.40175012648401748 0 0.1017514530376761 0.37456476915266362 0 0.09301373708766289 0.40175012648401748 0 0.096641093798834857 0.4103746730739769 0 0.10162794664532369 0.38287681265592 0 0.096641093798834857 0.4103746730739769 0 0.10162794664532369 0.38287681265592 0 0.096641093798834857 0.4103746730739769 0 0.11303311796937431 0.39768424579749467 0 0.10162794664532369 0.38287681265592 0 0.09301373708766289 0.40175012648401748 0 0.096641093798834857 0.4103746730739769 0 0.10657505318114149 0.3555980905611088 0 0.1040837309638282 0.33936254988137232 0 0.10657505318114149 0.3555980905611088 0 0.096269577202366938 0.34885221845001108 0 0.090674694454237537 0.35844253683721511 0 0.10657505318114149 0.3555980905611088 0 0.1081370103155585 0.34698533999968961 0 0.1040837309638282 0.33936254988137232 0 0.10657505318114149 0.3555980905611088 0 0.096269577202366938 0.34885221845001108 0 0.1040837309638282 0.33936254988137232 0 0.10657505318114149 0.3555980905611088 0 0.1081370103155585 0.34698533999968961 0 0.1081370103155585 0.34698533999968961 0 0.1105857944332822 0.35159063999376577 0 0.10657505318114149 0.3555980905611088 0 0.1081370103155585 0.34698533999968961 0 0.1105857944332822 0.35159063999376577 0 0.10657505318114149 0.3555980905611088 0 0.097223947907205094 0.36469260341832099 0 0.090674694454237537 0.35844253683721511 0 0.1098040855752573 0.37664116817930182 0 0.10657505318114149 0.3555980905611088 0 0.1098040855752573 0.37664116817930182 0 0.10162794664532369 0.38287681265592 0 0.10657505318114149 0.3555980905611088 0 0.10657505318114149 0.3555980905611088 0 0.097223947907205094 0.36469260341832099 0 0.1017514530376761 0.37456476915266362 0 0.10162794664532369 0.38287681265592 0 0.10657505318114149 0.3555980905611088 0 0.10162794664532369 0.38287681265592 0 0.10657505318114149 0.3555980905611088 0 0.1017514530376761 0.37456476915266362 0 0.097223947907205094 0.36469260341832099 0 0.1017514530376761 0.37456476915266362 0 0.089894590955766338 0.37016501712229671 0 0.1231373165426977 0.3806134049577457 0 0.1176766025370503 0.36283148293627721 0 0.13271547193899449 0.36524458735671972 0 0.1098040855752573 0.37664116817930182 0 0.10657505318114149 0.3555980905611088 0 0.1176766025370503 0.36283148293627721 0 0.1098040855752573 0.37664116817930182 0 0.1231373165426977 0.3806134049577457 0 0.1176766025370503 0.36283148293627721 0 0.1176766025370503 0.36283148293627721 0 0.1232256624926347 0.35239419723674059 0 0.13271547193899449 0.36524458735671972 0 0.10657505318114149 0.3555980905611088 0 0.1176766025370503 0.36283148293627721 0 0.1105857944332822 0.35159063999376577 0 0.1176766025370503 0.36283148293627721 0 0.1232256624926347 0.35239419723674059 0 0.1105857944332822 0.35159063999376577 0 0.1081370103155585 0.34698533999968961 0 0.1105857944332822 0.35159063999376577 0 0.1168368962248217 0.34531303274388031 0 0.1232256624926347 0.35239419723674059 0 0.1105857944332822 0.35159063999376577 0 0.1168368962248217 0.34531303274388031 0 0.1232256624926347 0.35239419723674059 0 0.1168368962248217 0.34531303274388031 0 0.1260676383484185 0.3399282146226113 0 0.1081370103155585 0.34698533999968961 0 0.1173014636805894 0.33730338313169689 0 0.1117137236550247 0.32726307032677399 0 0.1081370103155585 0.34698533999968961 0 0.1117137236550247 0.32726307032677399 0 0.1168368962248217 0.34531303274388031 0 0.1173014636805894 0.33730338313169689 0 0.1260676383484185 0.3399282146226113 0 0.1173014636805894 0.33730338313169689 0 0.12375204985912221 0.32702725796552912 0 0.1260676383484185 0.3399282146226113 0 0.1173014636805894 0.33730338313169689 0 0.12375204985912221 0.32702725796552912 0 0.1117137236550247 0.32726307032677399 0 0.1081370103155585 0.34698533999968961 0 0.1168368962248217 0.34531303274388031 0 0.1173014636805894 0.33730338313169689 0 0.1117137236550247 0.32726307032677399 0 0.11529043699448981 0.30754080065385803 0 0.1117137236550247 0.32726307032677399 0 0.1095765413243488 0.31862098055757049 0 0.11529043699448981 0.30754080065385803 0 0.1214195525311879 0.31440901896845502 0 0.1117137236550247 0.32726307032677399 0 0.11529043699448981 0.30754080065385803 0 0.1214195525311879 0.31440901896845502 0 0.12375204985912221 0.32702725796552912 0 0.12817088130983889 0.317450689473041 0 0.1214195525311879 0.31440901896845502 0 0.12375204985912221 0.32702725796552912 0 0.1117137236550247 0.32726307032677399 0 0.1040837309638282 0.33936254988137232 0 0.090103400857782137 0.31307047550514489 0 0.1040837309638282 0.33936254988137232 0 0.1025673515982234 0.32948055280164651 0 0.090103400857782137 0.31307047550514489 0 0.10278173829001019 0.3206216626476312 0 0.1025673515982234 0.32948055280164651 0 0.090103400857782137 0.31307047550514489 0 0.1095765413243488 0.31862098055757049 0 0.10278173829001019 0.3206216626476312 0 0.099947674014671917 0.31467323404701991 0 0.1095765413243488 0.31862098055757049 0 0.099947674014671917 0.31467323404701991 0 0.09732687347400408 0.30507295899279041 0 0.1117137236550247 0.32726307032677399 0 0.1095765413243488 0.31862098055757049 0 0.10278173829001019 0.3206216626476312 0 0.1117137236550247 0.32726307032677399 0 0.10278173829001019 0.3206216626476312 0 0.1025673515982234 0.32948055280164651 0 0.10278173829001019 0.3206216626476312 0 0.099947674014671917 0.31467323404701991 0 0.090103400857782137 0.31307047550514489 0 0.096269577202366938 0.34885221845001108 0 0.1040837309638282 0.33936254988137232 0 0.085896102217652828 0.34083244099607402 0 0.1081370103155585 0.34698533999968961 0 0.1117137236550247 0.32726307032677399 0 0.1040837309638282 0.33936254988137232 0 0.1081370103155585 0.34698533999968961 0 0.1040837309638282 0.33936254988137232 0 0.1117137236550247 0.32726307032677399 0 0.1040837309638282 0.33936254988137232 0 0.1025673515982234 0.32948055280164651 0 0.1040837309638282 0.33936254988137232 0 0.1025673515982234 0.32948055280164651 0 0.1040837309638282 0.33936254988137232 0 0.085896102217652828 0.34083244099607402 0 0.090103400857782137 0.31307047550514489 0 0.085896102217652828 0.34083244099607402 0 0.090103400857782137 0.31307047550514489 0 0.073944851781294785 0.32640562720437011 0 0.073944851781294785 0.32640562720437011 0 0.05926959110604698 0.32438382341666039 0 0.066452600317618793 0.30933520022964911 0 0.090103400857782137 0.31307047550514489 0 0.073944851781294785 0.32640562720437011 0 0.066452600317618793 0.30933520022964911 0 0.068002564407373206 0.3444061958743222 0 0.05926959110604698 0.32438382341666039 0 0.085896102217652828 0.34083244099607402 0 0.073944851781294785 0.32640562720437011 0 0.068002564407373206 0.3444061958743222 0 0.073944851781294785 0.32640562720437011 0 0.068002564407373206 0.3444061958743222 0 0.05926959110604698 0.32438382341666039 0 0.068002564407373206 0.3444061958743222 0 0.081709153938225559 0.35166937446406898 0 0.076735537708699481 0.364428568331984 0 0.068002564407373206 0.3444061958743222 0 0.076735537708699481 0.364428568331984 0 0.068002564407373206 0.3444061958743222 0 0.076735537708699481 0.364428568331984 0 0.058880509289504487 0.35752542115937253 0 0.085896102217652828 0.34083244099607402 0 0.068002564407373206 0.3444061958743222 0 0.081709153938225559 0.35166937446406898 0 0.081709153938225559 0.35166937446406898 0 0.090674694454237537 0.35844253683721511 0 0.076735537708699481 0.364428568331984 0 0.096269577202366938 0.34885221845001108 0 0.081709153938225559 0.35166937446406898 0 0.090674694454237537 0.35844253683721511 0 0.096269577202366938 0.34885221845001108 0 0.085896102217652828 0.34083244099607402 0 0.081709153938225559 0.35166937446406898 0 0.084874637398179506 0.3830893474080016 0 0.089894590955766338 0.37016501712229671 0 0.076735537708699481 0.364428568331984 0 0.084874637398179506 0.3830893474080016 0 0.076735537708699481 0.364428568331984 0 0.097223947907205094 0.36469260341832099 0 0.090674694454237537 0.35844253683721511 0 0.089894590955766338 0.37016501712229671 0 0.090674694454237537 0.35844253683721511 0 0.089894590955766338 0.37016501712229671 0 0.076735537708699481 0.364428568331984 0 0.090674694454237537 0.35844253683721511 0 0.076735537708699481 0.364428568331984 0 0.076735537708699481 0.364428568331984 0 0.055078026168592691 0.37372917012189599 0 0.058880509289504487 0.35752542115937253 0 0.07065435961583541 0.37741521318853999 0 0.084874637398179506 0.3830893474080016 0 0.076735537708699481 0.364428568331984 0 0.07065435961583541 0.37741521318853999 0 0.076735537708699481 0.364428568331984 0 0.055078026168592691 0.37372917012189599 0 0.076735537708699481 0.364428568331984 0 0.055078026168592691 0.37372917012189599 0 0.055078026168592691 0.37372917012189599 0 0.058880509289504487 0.35752542115937253 0 0.039125882353897343 0.35680699826087081 0 0.068002564407373206 0.3444061958743222 0 0.058880509289504487 0.35752542115937253 0 0.05148455776782021 0.34576385860545072 0 0.058880509289504487 0.35752542115937253 0 0.05148455776782021 0.34576385860545072 0 0.039125882353897343 0.35680699826087081 0 0.039125882353897343 0.35680699826087081 0 0.031548662582759998 0.36398682567210089 0 0.025752053585936779 0.33511492304397028 0 0.05148455776782021 0.34576385860545072 0 0.039125882353897343 0.35680699826087081 0 0.044831250079309708 0.3305842246099347 0 0.033420514628485373 0.38302977191180709 0 0.039125882353897343 0.35680699826087081 0 0.031548662582759998 0.36398682567210089 0 0.033420514628485373 0.38302977191180709 0 0.055078026168592691 0.37372917012189599 0 0.039125882353897343 0.35680699826087081 0 0.033420514628485373 0.38302977191180709 0 0.039125882353897343 0.35680699826087081 0 0.033420514628485373 0.38302977191180709 0 0.031548662582759998 0.36398682567210089 0 0.023779055828078009 0.37097747554075361 0 0.017055050774382831 0.3783760363496293 0 0.023779055828078009 0.37097747554075361 0 0.014905446519761849 0.37011919055753012 0 0.023779055828078009 0.37097747554075361 0 0.019349684376360511 0.36318206543595072 0 0.014905446519761849 0.37011919055753012 0 0.031548662582759998 0.36398682567210089 0 0.019349684376360511 0.36318206543595072 0 0.019690074755218789 0.35178644121934483 0 0.031548662582759998 0.36398682567210089 0 0.023779055828078009 0.37097747554075361 0 0.019349684376360511 0.36318206543595072 0 0.031548662582759998 0.36398682567210089 0 0.025752053585936779 0.33511492304397028 0 0.031548662582759998 0.36398682567210089 0 0.019690074755218789 0.35178644121934483 0 0.025752053585936779 0.33511492304397028 0 0.019349684376360511 0.36318206543595072 0 0.019690074755218789 0.35178644121934483 0 0.0119730942360182 0.35563939605115702 0 0.0119730942360182 0.35563939605115702 0 0.0038095970876644218 0.35606187191015221 0 0.0077169544749549623 0.36306791211952738 0 -0.0077202170519437719 0.34710906184019069 0 0.0082446038140756572 0.34376242611402219 0 0.0038095970876644218 0.35606187191015221 0 0.0119730942360182 0.35563939605115702 0 0.0082446038140756572 0.34376242611402219 0 0.0038095970876644218 0.35606187191015221 0 0.019690074755218789 0.35178644121934483 0 0.0119730942360182 0.35563939605115702 0 0.0082446038140756572 0.34376242611402219 0 -0.0045677851665312944 0.36532665559408428 0 0.0038095970876644218 0.35606187191015221 0 0.0077169544749549623 0.36306791211952738 0 -0.0087141207398781558 0.37710904293520409 0 0.0053185270157129726 0.37689571945341471 0 0.0077169544749549623 0.36306791211952738 0 0.0053185270157129726 0.37689571945341471 0 0.0077169544749549623 0.36306791211952738 0 0.014905446519761849 0.37011919055753012 0 0.019349684376360511 0.36318206543595072 0 0.0077169544749549623 0.36306791211952738 0 0.014905446519761849 0.37011919055753012 0 0.019349684376360511 0.36318206543595072 0 0.0119730942360182 0.35563939605115702 0 0.0077169544749549623 0.36306791211952738 0 -0.009249588209606344 0.30814111102660002 0 0.0094307060340404689 0.32376070079746733 0 0.01995544458911469 0.30624302041583928 0 -0.005758602284471958 0.33512988219008361 0 0.0082446038140756572 0.34376242611402219 0 0.0094307060340404689 0.32376070079746733 0 0.0082446038140756572 0.34376242611402219 0 0.0094307060340404689 0.32376070079746733 0 0.025752053585936779 0.33511492304397028 0 0.019690074755218789 0.35178644121934483 0 0.0082446038140756572 0.34376242611402219 0 0.025752053585936779 0.33511492304397028 0 0.025752053585936779 0.33511492304397028 0 0.01995544458911469 0.30624302041583928 0 0.025752053585936779 0.33511492304397028 0 0.034898059553693392 0.31581284699138767 0 0.01995544458911469 0.30624302041583928 0 0.0094307060340404689 0.32376070079746733 0 0.025752053585936779 0.33511492304397028 0 0.01995544458911469 0.30624302041583928 0 0.034898059553693392 0.31581284699138767 0 0.044831250079309708 0.3305842246099347 0 0.05053661780472133 0.30436145095899841 0 0.025752053585936779 0.33511492304397028 0 0.034898059553693392 0.31581284699138767 0 0.044831250079309708 0.3305842246099347 0 0.039125882353897343 0.35680699826087081 0 0.025752053585936779 0.33511492304397028 0 0.044831250079309708 0.3305842246099347 0 0.039125882353897343 0.35680699826087081 0 0.044831250079309708 0.3305842246099347 0 0.068002564407373206 0.3444061958743222 0 0.05148455776782021 0.34576385860545072 0 0.05926959110604698 0.32438382341666039 0 0.05148455776782021 0.34576385860545072 0 0.044831250079309708 0.3305842246099347 0 0.05926959110604698 0.32438382341666039 0 0.044831250079309708 0.3305842246099347 0 0.05053661780472133 0.30436145095899841 0 0.044831250079309708 0.3305842246099347 0 0.05926959110604698 0.32438382341666039 0 0.05053661780472133 0.30436145095899841 0 0.05926959110604698 0.32438382341666039 0 0.05053661780472133 0.30436145095899841 0 0.05926959110604698 0.32438382341666039 0 0.05053661780472133 0.30436145095899841 0 0.066452600317618793 0.30933520022964911 0 0.059204269303370749 0.30137448027593422 0 0.05053661780472133 0.30436145095899841 0 0.066452600317618793 0.30933520022964911 0 0.04765756321016474 0.29776054867416191 0 0.05053661780472133 0.30436145095899841 0 0.052561166870736087 0.29505630281458828 0 0.059204269303370749 0.30137448027593422 0 0.05053661780472133 0.30436145095899841 0 0.052561166870736087 0.29505630281458828 0 0.05053661780472133 0.30436145095899841 0 0.052561166870736087 0.29505630281458828 0 0.04765756321016474 0.29776054867416191 0 0.05053661780472133 0.30436145095899841 0 0.052561166870736087 0.29505630281458828 0 0.036977033779240318 0.28312664447104818 0 0.062988366650143207 0.29302398426469728 0 0.036977033779240318 0.28312664447104818 0 0.048149862160842181 0.27985089866820428 0 0.062988366650143207 0.29302398426469728 0 0.036977033779240318 0.28312664447104818 0 0.062988366650143207 0.29302398426469728 0 0.048149862160842181 0.27985089866820428 0 0.054778979573680928 0.27715841955607551 0 0.062988366650143207 0.29302398426469728 0 0.059204269303370749 0.30137448027593422 0 0.052561166870736087 0.29505630281458828 0 0.062988366650143207 0.29302398426469728 0 0.04765756321016474 0.29776054867416191 0 0.036186098738389023 0.29603891009636157 0 0.036977033779240318 0.28312664447104818 0 0.04765756321016474 0.29776054867416191 0 0.052561166870736087 0.29505630281458828 0 0.036977033779240318 0.28312664447104818 0 0.036186098738389023 0.29603891009636157 0 0.036977033779240318 0.28312664447104818 0 0.027757552790527541 0.29644954410470781 0 0.034898059553693392 0.31581284699138767 0 0.05053661780472133 0.30436145095899841 0 0.039754971674175903 0.30430037111620312 0 0.04765756321016474 0.29776054867416191 0 0.05053661780472133 0.30436145095899841 0 0.039754971674175903 0.30430037111620312 0 0.04765756321016474 0.29776054867416191 0 0.036186098738389023 0.29603891009636157 0 0.039754971674175903 0.30430037111620312 0 0.036186098738389023 0.29603891009636157 0 0.039754971674175903 0.30430037111620312 0 0.028740536311392211 0.30567206060121932 0 0.034898059553693392 0.31581284699138767 0 0.039754971674175903 0.30430037111620312 0 0.028740536311392211 0.30567206060121932 0 0.034898059553693392 0.31581284699138767 0 0.028740536311392211 0.30567206060121932 0 0.01995544458911469 0.30624302041583928 0 0.028740536311392211 0.30567206060121932 0 0.01995544458911469 0.30624302041583928 0 0.01995544458911469 0.30624302041583928 0 0.027757552790527541 0.29644954410470781 0 0.016928650534501429 0.29116708493907051 0 0.01995544458911469 0.30624302041583928 0 0.016928650534501429 0.29116708493907051 0 0.036186098738389023 0.29603891009636157 0 0.028740536311392211 0.30567206060121932 0 0.027757552790527541 0.29644954410470781 0 0.028740536311392211 0.30567206060121932 0 0.01995544458911469 0.30624302041583928 0 0.027757552790527541 0.29644954410470781 0 0.036977033779240318 0.28312664447104818 0 0.016928650534501429 0.29116708493907051 0 0.013901856479889301 0.2760911494623014 0 0.036977033779240318 0.28312664447104818 0 0.027757552790527541 0.29644954410470781 0 0.016928650534501429 0.29116708493907051 0 0.016928650534501429 0.29116708493907051 0 0.0075090435902615098 0.27971283806045072 0 0.013901856479889301 0.2760911494623014 0 0.016928650534501429 0.29116708493907051 0 0.013901856479889301 0.2760911494623014 0 0.016928650534501429 0.29116708493907051 0 0.002380999114604244 0.28599596302517022 0 0.0075090435902615098 0.27971283806045072 0 0.016928650534501429 0.29116708493907051 0 0.002380999114604244 0.28599596302517022 0 0.0038021096493471361 0.29689124930627131 0 0.01995544458911469 0.30624302041583928 0 0.016928650534501429 0.29116708493907051 0 0.0038021096493471361 0.29689124930627131 0 -0.009249588209606344 0.30814111102660002 0 0.01995544458911469 0.30624302041583928 0 -0.009249588209606344 0.30814111102660002 0 0.01995544458911469 0.30624302041583928 0 0.0038021096493471361 0.29689124930627131 0 0.012944211518790589 0.24639919126045251 0 0.001894876929373096 0.24743045501984201 0 0.027350481215018482 0.26092432701142793 0 0.001894876929373096 0.24743045501984201 0 0.01235577794179212 0.26160751525750708 0 0.027350481215018482 0.26092432701142793 0 0.001894876929373096 0.24743045501984201 0 0.027350481215018482 0.26092432701142793 0 0.01235577794179212 0.26160751525750708 0 0.0066431973405819862 0.26423936680728111 0 0.01332705073189009 0.26743114199411 0 0.001894876929373096 0.24743045501984201 0 0.01235577794179212 0.26160751525750708 0 0.0027594708259384838 0.25829047161104352 0 0.01235577794179212 0.26160751525750708 0 0.0027594708259384838 0.25829047161104352 0 0.0066431973405819862 0.26423936680728111 0 -0.00067809962666212902 0.26216505597133072 0 0.0027594708259384838 0.25829047161104352 0 0.0066431973405819862 0.26423936680728111 0 -0.00067809962666212902 0.26216505597133072 0 0.0066431973405819862 0.26423936680728111 0 0.010965700908337589 0.27322930467739909 0 -0.001267499687089951 0.2776013217203892 0 0.0075090435902615098 0.27971283806045072 0 0.010965700908337589 0.27322930467739909 0 -0.001267499687089951 0.2776013217203892 0 0.002380999114604244 0.28599596302517022 0 0.0075090435902615098 0.27971283806045072 0 0.0075090435902615098 0.27971283806045072 0 0.013901856479889301 0.2760911494623014 0 0.010965700908337589 0.27322930467739909 0 0.010965700908337589 0.27322930467739909 0 0.01332705073189009 0.26743114199411 0 0.022419763759722669 0.26962443384228668 0 0.0066431973405819862 0.26423936680728111 0 0.010965700908337589 0.27322930467739909 0 0.01332705073189009 0.26743114199411 0 0.036977033779240318 0.28312664447104818 0 0.010965700908337589 0.27322930467739909 0 0.022419763759722669 0.26962443384228668 0 0.01235577794179212 0.26160751525750708 0 0.01332705073189009 0.26743114199411 0 0.022419763759722669 0.26962443384228668 0 0.036977033779240318 0.28312664447104818 0 0.013901856479889301 0.2760911494623014 0 0.010965700908337589 0.27322930467739909 0 0.036977033779240318 0.28312664447104818 0 0.010965700908337589 0.27322930467739909 0 0.036977033779240318 0.28312664447104818 0 0.022419763759722669 0.26962443384228668 0 0.032397819765571212 0.27218151163944088 0 0.022419763759722669 0.26962443384228668 0 0.027350481215018482 0.26092432701142793 0 0.032397819765571212 0.27218151163944088 0 0.018629400856135309 0.24429501886194191 0 0.012944211518790589 0.24639919126045251 0 0.027350481215018482 0.26092432701142793 0 0.018629400856135309 0.24429501886194191 0 0.027350481215018482 0.26092432701142793 0 0.02692674034290404 0.25134916217479408 0 0.01235577794179212 0.26160751525750708 0 0.022419763759722669 0.26962443384228668 0 0.027350481215018482 0.26092432701142793 0 0.027350481215018482 0.26092432701142793 0 0.02692674034290404 0.25134916217479408 0 0.036501911092354018 0.25177276941539839 0 0.027350481215018482 0.26092432701142793 0 0.036501911092354018 0.25177276941539839 0 0.052806085500663583 0.27441819900301412 0 0.036501911092354018 0.25177276941539839 0 0.052806085500663583 0.27441819900301412 0 0.027350481215018482 0.26092432701142793 0 0.039536256484267153 0.27410031615862712 0 0.052806085500663583 0.27441819900301412 0 0.027350481215018482 0.26092432701142793 0 0.052806085500663583 0.27441819900301412 0 0.036977033779240318 0.28312664447104818 0 0.032397819765571212 0.27218151163944088 0 0.039536256484267153 0.27410031615862712 0 0.027350481215018482 0.26092432701142793 0 0.032397819765571212 0.27218151163944088 0 0.039536256484267153 0.27410031615862712 0 0.039536256484267153 0.27410031615862712 0 0.048149862160842181 0.27985089866820428 0 0.052806085500663583 0.27441819900301412 0 0.036977033779240318 0.28312664447104818 0 0.039536256484267153 0.27410031615862712 0 0.048149862160842181 0.27985089866820428 0 0.052806085500663583 0.27441819900301412 0 0.051790667069154861 0.2547103276228454 0 0.069466372585565969 0.27425949764399721 0 0.052806085500663583 0.27441819900301412 0 0.054778979573680928 0.27715841955607551 0 0.076123070751733898 0.28677840112891878 0 0.048149862160842181 0.27985089866820428 0 0.052806085500663583 0.27441819900301412 0 0.054778979573680928 0.27715841955607551 0 0.052806085500663583 0.27441819900301412 0 0.054778979573680928 0.27715841955607551 0 0.051790667069154861 0.2547103276228454 0 0.069466372585565969 0.27425949764399721 0 0.036501911092354018 0.25177276941539839 0 0.052806085500663583 0.27441819900301412 0 0.051790667069154861 0.2547103276228454 0 0.051790667069154861 0.2547103276228454 0 0.062472563593505302 0.26110660749064829 0 0.069466372585565969 0.27425949764399721 0 0.051790667069154861 0.2547103276228454 0 0.062472563593505302 0.26110660749064829 0 0.063392491700480919 0.2510828642249095 0 0.07090317009537217 0.25886987532900169 0 0.089645379702363526 0.25980927980688501 0 0.066829182329119829 0.26693814307945207 0 0.063392491700480919 0.2510828642249095 0 0.07090317009537217 0.25886987532900169 0 0.074261774750864804 0.25289133929391111 0 0.062472563593505302 0.26110660749064829 0 0.063392491700480919 0.2510828642249095 0 0.07090317009537217 0.25886987532900169 0 0.062472563593505302 0.26110660749064829 0 0.07090317009537217 0.25886987532900169 0 0.066829182329119829 0.26693814307945207 0 0.07090317009537217 0.25886987532900169 0 0.074261774750864804 0.25289133929391111 0 0.089645379702363526 0.25980927980688501 0 0.072073934872957782 0.23900016577853919 0 0.074261774750864804 0.25289133929391111 0 0.089645379702363526 0.25980927980688501 0 0.089645379702363526 0.25980927980688501 0 0.066829182329119829 0.26693814307945207 0 0.089645379702363526 0.25980927980688501 0 0.084738505220855201 0.27427167124983992 0 0.066829182329119829 0.26693814307945207 0 0.084738505220855201 0.27427167124983992 0 0.069466372585565969 0.27425949764399721 0 0.085077205623658711 0.29152493742801078 0 0.084738505220855201 0.27427167124983992 0 0.095910340366493346 0.28464594086445177 0 0.099818528257267281 0.27185690653089678 0 0.089645379702363526 0.25980927980688501 0 0.084738505220855201 0.27427167124983992 0 0.099818528257267281 0.27185690653089678 0 0.084738505220855201 0.27427167124983992 0 0.066829182329119829 0.26693814307945207 0 0.069466372585565969 0.27425949764399721 0 0.052806085500663583 0.27441819900301412 0 0.069466372585565969 0.27425949764399721 0 0.076123070751733898 0.28677840112891878 0 0.052806085500663583 0.27441819900301412 0 0.076123070751733898 0.28677840112891878 0 0.069466372585565969 0.27425949764399721 0 0.076123070751733898 0.28677840112891878 0 0.062472563593505302 0.26110660749064829 0 0.069466372585565969 0.27425949764399721 0 0.062472563593505302 0.26110660749064829 0 0.066829182329119829 0.26693814307945207 0 0.069466372585565969 0.27425949764399721 0 0.069466372585565969 0.27425949764399721 0 0.085077205623658711 0.29152493742801078 0 0.069466372585565969 0.27425949764399721 0 0.076123070751733898 0.28677840112891878 0 0.085077205623658711 0.29152493742801078 0 0.062988366650143207 0.29302398426469728 0 0.076123070751733898 0.28677840112891878 0 0.066452600317618793 0.30933520022964911 0 0.054778979573680928 0.27715841955607551 0 0.062988366650143207 0.29302398426469728 0 0.076123070751733898 0.28677840112891878 0 0.090103400857782137 0.31307047550514489 0 0.076123070751733898 0.28677840112891878 0 0.066452600317618793 0.30933520022964911 0 0.059204269303370749 0.30137448027593422 0 0.062988366650143207 0.29302398426469728 0 0.066452600317618793 0.30933520022964911 0 0.090103400857782137 0.31307047550514489 0 0.076123070751733898 0.28677840112891878 0 0.085077205623658711 0.29152493742801078 0 0.090103400857782137 0.31307047550514489 0 0.076123070751733898 0.28677840112891878 0 0.090103400857782137 0.31307047550514489 0 0.085077205623658711 0.29152493742801078 0 0.09732687347400408 0.30507295899279041 0 0.085077205623658711 0.29152493742801078 0 0.09732687347400408 0.30507295899279041 0 0.084738505220855201 0.27427167124983992 0 0.085077205623658711 0.29152493742801078 0 0.095910340366493346 0.28464594086445177 0 0.076123070751733898 0.28677840112891878 0 0.085077205623658711 0.29152493742801078 0 0.085077205623658711 0.29152493742801078 0 0.095910340366493346 0.28464594086445177 0 0.10018382130907411 0.29953286904093468 0 0.085077205623658711 0.29152493742801078 0 0.10018382130907411 0.29953286904093468 0 0.095910340366493346 0.28464594086445177 0 0.10809736708577181 0.28553666446189058 0 0.10018382130907411 0.29953286904093468 0 0.10809736708577181 0.28553666446189058 0 0.10018382130907411 0.29953286904093468 0 0.10959494141679089 0.29761357018739809 0 0.099947674014671917 0.31467323404701991 0 0.090103400857782137 0.31307047550514489 0 0.09732687347400408 0.30507295899279041 0 0.085077205623658711 0.29152493742801078 0 0.09732687347400408 0.30507295899279041 0 0.10018382130907411 0.29953286904093468 0 0.09732687347400408 0.30507295899279041 0 0.10018382130907411 0.29953286904093468 0 0.1055944182754792 0.3076919023112884 0 0.10018382130907411 0.29953286904093468 0 0.11529043699448981 0.30754080065385803 0 0.10959494141679089 0.29761357018739809 0 0.10018382130907411 0.29953286904093468 0 0.11529043699448981 0.30754080065385803 0 0.1095765413243488 0.31862098055757049 0 0.09732687347400408 0.30507295899279041 0 0.1055944182754792 0.3076919023112884 0 0.10018382130907411 0.29953286904093468 0 0.1055944182754792 0.3076919023112884 0 0.11529043699448981 0.30754080065385803 0 0.1095765413243488 0.31862098055757049 0 0.09732687347400408 0.30507295899279041 0 0.1095765413243488 0.31862098055757049 0 0.1055944182754792 0.3076919023112884 0 0.11529043699448981 0.30754080065385803 0 0.11529043699448981 0.30754080065385803 0 0.11637637905870279 0.30155283343175482 0 0.11810871752106521 0.30621928700195911 0 0.11529043699448981 0.30754080065385803 0 0.10959494141679089 0.29761357018739809 0 0.11637637905870279 0.30155283343175482 0 0.10959494141679089 0.29761357018739809 0 0.11637637905870279 0.30155283343175482 0 0.1164892219926046 0.29243334627748818 0 0.11529043699448981 0.30754080065385803 0 0.11637637905870279 0.30155283343175482 0 0.11637637905870279 0.30155283343175482 0 0.1222906650571363 0.2985709440566281 0 0.1164892219926046 0.29243334627748818 0 0.1222906650571363 0.2985709440566281 0 0.1206025954822835 0.30378795350269022 0 0.1243783730770044 0.30485679470236721 0 0.11637637905870279 0.30155283343175482 0 0.1222906650571363 0.2985709440566281 0 0.1206025954822835 0.30378795350269022 0 0.11637637905870279 0.30155283343175482 0 0.1206025954822835 0.30378795350269022 0 0.11810871752106521 0.30621928700195911 0 0.1206025954822835 0.30378795350269022 0 0.11810871752106521 0.30621928700195911 0 0.1213521300308707 0.30775440284793348 0 0.11529043699448981 0.30754080065385803 0 0.11810871752106521 0.30621928700195911 0 0.11930841490252821 0.30912172642276631 0 0.11810871752106521 0.30621928700195911 0 0.1213521300308707 0.30775440284793348 0 0.11930841490252821 0.30912172642276631 0 0.1243783730770044 0.30485679470236721 0 0.1213521300308707 0.30775440284793348 0 0.1244342991148414 0.30898461385241399 0 0.1206025954822835 0.30378795350269022 0 0.1243783730770044 0.30485679470236721 0 0.1213521300308707 0.30775440284793348 0 0.1214195525311879 0.31440901896845502 0 0.1244342991148414 0.30898461385241399 0 0.12900107104525951 0.30968741412501871 0 0.1214195525311879 0.31440901896845502 0 0.1213521300308707 0.30775440284793348 0 0.1244342991148414 0.30898461385241399 0 0.1214195525311879 0.31440901896845502 0 0.11529043699448981 0.30754080065385803 0 0.11930841490252821 0.30912172642276631 0 0.1214195525311879 0.31440901896845502 0 0.1213521300308707 0.30775440284793348 0 0.11930841490252821 0.30912172642276631 0 0.10809736708577181 0.28553666446189058 0 0.1164892219926046 0.29243334627748818 0 0.1210835213650209 0.28058702695229848 0 0.10809736708577181 0.28553666446189058 0 0.10959494141679089 0.29761357018739809 0 0.1164892219926046 0.29243334627748818 0 0.1222906650571363 0.2985709440566281 0 0.1164892219926046 0.29243334627748818 0 0.12596292383497329 0.28976449579057961 0 0.1164892219926046 0.29243334627748818 0 0.1210835213650209 0.28058702695229848 0 0.12596292383497329 0.28976449579057961 0 0.10809736708577181 0.28553666446189058 0 0.1210835213650209 0.28058702695229848 0 0.1147979612748997 0.2707881575742877 0 0.1210835213650209 0.28058702695229848 0 0.1147979612748997 0.2707881575742877 0 0.12791172371537049 0.26609555254785411 0 0.1147979612748997 0.2707881575742877 0 0.116065923487036 0.25155424759680489 0 0.099818528257267281 0.27185690653089678 0 0.1147979612748997 0.2707881575742877 0 0.116065923487036 0.25155424759680489 0 0.12791172371537049 0.26609555254785411 0 0.089645379702363526 0.25980927980688501 0 0.116065923487036 0.25155424759680489 0 0.089645379702363526 0.25980927980688501 0 0.116065923487036 0.25155424759680489 0 0.099818528257267281 0.27185690653089678 0 0.089645379702363526 0.25980927980688501 0 0.099818528257267281 0.27185690653089678 0 0.095910340366493346 0.28464594086445177 0 0.10809736708577181 0.28553666446189058 0 0.099818528257267281 0.27185690653089678 0 0.10809736708577181 0.28553666446189058 0 0.1147979612748997 0.2707881575742877 0 0.099818528257267281 0.27185690653089678 0 0.14627836463393121 0.26809473379089088 0 0.14256315404166739 0.2804585798755338 0 0.1332419302865058 0.27890394506169119 0 0.14627836463393121 0.26809473379089088 0 0.14256315404166739 0.2804585798755338 0 0.15383705453569649 0.27951082009548711 0 0.14627836463393121 0.26809473379089088 0 0.15383705453569649 0.27951082009548711 0 0.1609818760820641 0.2708255403471686 0 0.14248646727170791 0.24329921538672239 0 0.14627836463393121 0.26809473379089088 0 0.1631161995596529 0.25657386530356069 0 0.14248646727170791 0.24329921538672239 0 0.116065923487036 0.25155424759680489 0 0.12791172371537049 0.26609555254785411 0 0.14248646727170791 0.24329921538672239 0 0.14627836463393121 0.26809473379089088 0 0.12791172371537049 0.26609555254785411 0 0.14627836463393121 0.26809473379089088 0 0.12791172371537049 0.26609555254785411 0 0.1332419302865058 0.27890394506169119 0 0.1210835213650209 0.28058702695229848 0 0.12791172371537049 0.26609555254785411 0 0.1332419302865058 0.27890394506169119 0 0.1332419302865058 0.27890394506169119 0 0.12596292383497329 0.28976449579057961 0 0.13463915166403909 0.29011289163129678 0 0.1210835213650209 0.28058702695229848 0 0.1332419302865058 0.27890394506169119 0 0.12596292383497329 0.28976449579057961 0 0.1222906650571363 0.2985709440566281 0 0.12596292383497329 0.28976449579057961 0 0.12923992476061211 0.29615108028493942 0 0.12596292383497329 0.28976449579057961 0 0.12923992476061211 0.29615108028493942 0 0.13463915166403909 0.29011289163129678 0 0.13463915166403909 0.29011289163129678 0 0.13544399911061031 0.29845687749894129 0 0.1416447250157222 0.29544082675589128 0 0.12923992476061211 0.29615108028493942 0 0.13463915166403909 0.29011289163129678 0 0.13544399911061031 0.29845687749894129 0 0.14256315404166739 0.2804585798755338 0 0.1332419302865058 0.27890394506169119 0 0.13463915166403909 0.29011289163129678 0 0.1243783730770044 0.30485679470236721 0 0.1244342991148414 0.30898461385241399 0 0.12900107104525951 0.30968741412501871 0 0.1243783730770044 0.30485679470236721 0 0.12900107104525951 0.30968741412501871 0 0.1290658347258283 0.30205966601357243 0 0.12900107104525951 0.30968741412501871 0 0.1290658347258283 0.30205966601357243 0 0.1340409753043473 0.30463488541353972 0 0.1222906650571363 0.2985709440566281 0 0.1243783730770044 0.30485679470236721 0 0.1290658347258283 0.30205966601357243 0 0.1222906650571363 0.2985709440566281 0 0.12923992476061211 0.29615108028493942 0 0.1290658347258283 0.30205966601357243 0 0.12923992476061211 0.29615108028493942 0 0.1290658347258283 0.30205966601357243 0 0.13544399911061031 0.29845687749894129 0 0.13544399911061031 0.29845687749894129 0 0.14170706289926879 0.30357921339911909 0 0.1416447250157222 0.29544082675589128 0 0.13544399911061031 0.29845687749894129 0 0.1340409753043473 0.30463488541353972 0 0.14170706289926879 0.30357921339911909 0 0.1290658347258283 0.30205966601357243 0 0.13544399911061031 0.29845687749894129 0 0.1340409753043473 0.30463488541353972 0 0.13598458437900529 0.30983158877234418 0 0.14130712994747449 0.31140798331507108 0 0.14170706289926879 0.30357921339911909 0 0.12900107104525951 0.30968741412501871 0 0.1340409753043473 0.30463488541353972 0 0.13598458437900529 0.30983158877234418 0 0.1340409753043473 0.30463488541353972 0 0.13598458437900529 0.30983158877234418 0 0.14170706289926879 0.30357921339911909 0 0.13598458437900529 0.30983158877234418 0 0.14130712994747449 0.31140798331507108 0 0.13528824775885559 0.3155805734405937 0 0.12900107104525951 0.30968741412501871 0 0.13598458437900529 0.30983158877234418 0 0.13528824775885559 0.3155805734405937 0 0.1483486037307668 0.31106151759990119 0 0.14130712994747449 0.31140798331507108 0 0.14170706289926879 0.30357921339911909 0 0.1483486037307668 0.31106151759990119 0 0.14170706289926879 0.30357921339911909 0 0.1513591925520972 0.30423422291399321 0 0.14170706289926879 0.30357921339911909 0 0.14924189349128261 0.29698436464102829 0 0.1513591925520972 0.30423422291399321 0 0.14170706289926879 0.30357921339911909 0 0.14924189349128261 0.29698436464102829 0 0.1416447250157222 0.29544082675589128 0 0.1513591925520972 0.30423422291399321 0 0.15847128754916129 0.30901971199088751 0 0.1567398971697517 0.30020769771567818 0 0.14924189349128261 0.29698436464102829 0 0.1513591925520972 0.30423422291399321 0 0.1567398971697517 0.30020769771567818 0 0.1483486037307668 0.31106151759990119 0 0.1513591925520972 0.30423422291399321 0 0.15847128754916129 0.30901971199088751 0 0.1483486037307668 0.31106151759990119 0 0.15847128754916129 0.30901971199088751 0 0.1531779528472626 0.31690967251270458 0 0.14256315404166739 0.2804585798755338 0 0.15383705453569649 0.27951082009548711 0 0.14728728951424691 0.28871625735014939 0 0.14256315404166739 0.2804585798755338 0 0.13463915166403909 0.29011289163129678 0 0.14728728951424691 0.28871625735014939 0 0.14924189349128261 0.29698436464102829 0 0.14728728951424691 0.28871625735014939 0 0.1416447250157222 0.29544082675589128 0 0.13463915166403909 0.29011289163129678 0 0.14728728951424691 0.28871625735014939 0 0.1416447250157222 0.29544082675589128 0 0.14924189349128261 0.29698436464102829 0 0.1576814993112734 0.29111844862325259 0 0.1567398971697517 0.30020769771567818 0 0.14924189349128261 0.29698436464102829 0 0.14728728951424691 0.28871625735014939 0 0.1576814993112734 0.29111844862325259 0 0.15383705453569649 0.27951082009548711 0 0.14728728951424691 0.28871625735014939 0 0.1576814993112734 0.29111844862325259 0 0.15383705453569649 0.27951082009548711 0 0.1576814993112734 0.29111844862325259 0 0.16532030222413041 0.28061774918364429 0 0.1576814993112734 0.29111844862325259 0 0.1689979645595176 0.28949488405725932 0 0.16532030222413041 0.28061774918364429 0 0.1576814993112734 0.29111844862325259 0 0.1689979645595176 0.28949488405725932 0 0.16694561294494401 0.29968174040922901 0 0.1689979645595176 0.28949488405725932 0 0.16694561294494401 0.29968174040922901 0 0.17866142019044989 0.29199773726540068 0 0.1689979645595176 0.28949488405725932 0 0.17498255083596301 0.28300150235233201 0 0.16532030222413041 0.28061774918364429 0 0.1576814993112734 0.29111844862325259 0 0.1567398971697517 0.30020769771567818 0 0.16694561294494401 0.29968174040922901 0 0.15847128754916129 0.30901971199088751 0 0.1567398971697517 0.30020769771567818 0 0.16694561294494401 0.29968174040922901 0 0.16694561294494401 0.29968174040922901 0 0.17666858027807311 0.3015349886251833 0 0.1707678241303611 0.31259989648156872 0 0.15847128754916129 0.30901971199088751 0 0.16694561294494401 0.29968174040922901 0 0.1707678241303611 0.31259989648156872 0 0.17666858027807311 0.3015349886251833 0 0.18371952992762389 0.30785332357736089 0 0.1707678241303611 0.31259989648156872 0 0.16694561294494401 0.29968174040922901 0 0.17666858027807311 0.3015349886251833 0 0.17866142019044989 0.29199773726540068 0 0.17666858027807311 0.3015349886251833 0 0.18371952992762389 0.30785332357736089 0 0.1898902111984884 0.29891268329407239 0 0.18371952992762389 0.30785332357736089 0 0.1898902111984884 0.29891268329407239 0 0.17666858027807311 0.3015349886251833 0 0.17866142019044989 0.29199773726540068 0 0.1898902111984884 0.29891268329407239 0 0.17498255083596301 0.28300150235233201 0 0.17866142019044989 0.29199773726540068 0 0.1849298445554361 0.28099903695767547 0 0.1689979645595176 0.28949488405725932 0 0.17498255083596301 0.28300150235233201 0 0.17866142019044989 0.29199773726540068 0 0.17866142019044989 0.29199773726540068 0 0.18677859260729601 0.28760164196875848 0 0.1898902111984884 0.29891268329407239 0 0.17866142019044989 0.29199773726540068 0 0.18677859260729601 0.28760164196875848 0 0.1849298445554361 0.28099903695767547 0 0.1849298445554361 0.28099903695767547 0 0.17528279401001801 0.2714166079934146 0 0.19094745617081291 0.27038549871767581 0 0.17528279401001801 0.2714166079934146 0 0.18564289691528729 0.25868749876629671 0 0.19094745617081291 0.27038549871767581 0 0.17498255083596301 0.28300150235233201 0 0.1849298445554361 0.28099903695767547 0 0.17528279401001801 0.2714166079934146 0 0.17528279401001801 0.2714166079934146 0 0.16532030222413041 0.28061774918364429 0 0.1609818760820641 0.2708255403471686 0 0.17498255083596301 0.28300150235233201 0 0.17528279401001801 0.2714166079934146 0 0.16532030222413041 0.28061774918364429 0 0.17528279401001801 0.2714166079934146 0 0.1609818760820641 0.2708255403471686 0 0.1631161995596529 0.25657386530356069 0 0.15383705453569649 0.27951082009548711 0 0.16532030222413041 0.28061774918364429 0 0.1609818760820641 0.2708255403471686 0 0.14627836463393121 0.26809473379089088 0 0.1609818760820641 0.2708255403471686 0 0.1631161995596529 0.25657386530356069 0 0.16890701105638031 0.23504418317664161 0 0.1631161995596529 0.25657386530356069 0 0.18564289691528729 0.25868749876629671 0 0.17528279401001801 0.2714166079934146 0 0.1631161995596529 0.25657386530356069 0 0.18564289691528729 0.25868749876629671 0 0.1956251304139873 0.24830732682566101 0 0.18564289691528729 0.25868749876629671 0 0.20465537480646501 0.25892384109831479 0 0.18564289691528729 0.25868749876629671 0 0.19094745617081291 0.27038549871767581 0 0.20465537480646501 0.25892384109831479 0 0.2050239072751949 0.2492833193895482 0 0.1956251304139873 0.24830732682566101 0 0.20465537480646501 0.25892384109831479 0 0.19094745617081291 0.27038549871767581 0 0.20212350544635149 0.27452240688285762 0 0.1917381003592612 0.28136787577326228 0 0.1849298445554361 0.28099903695767547 0 0.19094745617081291 0.27038549871767581 0 0.1917381003592612 0.28136787577326228 0 0.19094745617081291 0.27038549871767581 0 0.20212350544635149 0.27452240688285762 0 0.20465537480646501 0.25892384109831479 0 0.21559138507808229 0.27635001083075639 0 0.2170338530129477 0.25958452376210089 0 0.2223889939606305 0.26849190584137572 0 0.20212350544635149 0.27452240688285762 0 0.2170338530129477 0.25958452376210089 0 0.20037669147028589 0.28371892366973078 0 0.2170338530129477 0.25958452376210089 0 0.20037669147028589 0.28371892366973078 0 0.21559138507808229 0.27635001083075639 0 0.2170338530129477 0.25958452376210089 0 0.20037669147028589 0.28371892366973078 0 0.20212350544635149 0.27452240688285762 0 0.20465537480646501 0.25892384109831479 0 0.21458810326103989 0.25029177234766842 0 0.20212350544635149 0.27452240688285762 0 0.2170338530129477 0.25958452376210089 0 0.21458810326103989 0.25029177234766842 0 0.20212350544635149 0.27452240688285762 0 0.21458810326103989 0.25029177234766842 0 0.2050239072751949 0.2492833193895482 0 0.20465537480646501 0.25892384109831479 0 0.21458810326103989 0.25029177234766842 0 0.20465537480646501 0.25892384109831479 0 0.21458810326103989 0.25029177234766842 0 0.23169913173193779 0.25404958449575432 0 0.22942687348362151 0.26728355318502178 0 0.24090080429007341 0.26281353644332878 0 0.23169913173193779 0.25404958449575432 0 0.2249153238939712 0.26221153605608138 0 0.22942687348362151 0.26728355318502178 0 0.2170338530129477 0.25958452376210089 0 0.2249153238939712 0.26221153605608138 0 0.2223889939606305 0.26849190584137572 0 0.2170338530129477 0.25958452376210089 0 0.23169913173193779 0.25404958449575432 0 0.2249153238939712 0.26221153605608138 0 0.2223889939606305 0.26849190584137572 0 0.2255322572178127 0.27738204478537232 0 0.22942687348362151 0.26728355318502178 0 0.2249153238939712 0.26221153605608138 0 0.2223889939606305 0.26849190584137572 0 0.22942687348362151 0.26728355318502178 0 0.21559138507808229 0.27635001083075639 0 0.2255322572178127 0.27738204478537232 0 0.21985426169801439 0.28935406669317137 0 0.21559138507808229 0.27635001083075639 0 0.2223889939606305 0.26849190584137572 0 0.2255322572178127 0.27738204478537232 0 0.2255322572178127 0.27738204478537232 0 0.23621117140834261 0.27732665952701641 0 0.23095623596381579 0.2876536505458 0 0.2255322572178127 0.27738204478537232 0 0.22942687348362151 0.26728355318502178 0 0.23621117140834261 0.27732665952701641 0 0.23621117140834261 0.27732665952701641 0 0.24818821145747599 0.27522177653690871 0 0.24090080429007341 0.26281353644332878 0 0.22942687348362151 0.26728355318502178 0 0.23621117140834261 0.27732665952701641 0 0.24090080429007341 0.26281353644332878 0 0.24818821145747599 0.27522177653690871 0 0.24090080429007341 0.26281353644332878 0 0.25530776412370298 0.26639583896058622 0 0.23995652529561701 0.25039133628829258 0 0.24090080429007341 0.26281353644332878 0 0.25404003316197471 0.25208422786308371 0 0.23169913173193779 0.25404958449575432 0 0.23995652529561701 0.25039133628829258 0 0.24090080429007341 0.26281353644332878 0 0.23765651747073049 0.31117848176507701 0 0.2454028482605469 0.29267792886045368 0 0.25114017462525878 0.31153615041935723 0 0.23765651747073049 0.31117848176507701 0 0.2454028482605469 0.29267792886045368 0 0.2283396740985745 0.30195705682751389 0 0.2454028482605469 0.29267792886045368 0 0.23095623596381579 0.2876536505458 0 0.2283396740985745 0.30195705682751389 0 0.23621117140834261 0.27732665952701641 0 0.24818821145747599 0.27522177653690871 0 0.2454028482605469 0.29267792886045368 0 0.23621117140834261 0.27732665952701641 0 0.2454028482605469 0.29267792886045368 0 0.23095623596381579 0.2876536505458 0 0.2255322572178127 0.27738204478537232 0 0.23095623596381579 0.2876536505458 0 0.21985426169801439 0.28935406669317137 0 0.23095623596381579 0.2876536505458 0 0.21985426169801439 0.28935406669317137 0 0.2283396740985745 0.30195705682751389 0 0.2283396740985745 0.30195705682751389 0 0.2184758680590754 0.31184724711422762 0 0.22801070301179061 0.32060690690137728 0 0.21985426169801439 0.28935406669317137 0 0.2283396740985745 0.30195705682751389 0 0.21670572119465931 0.30172893354768798 0 0.23765651747073049 0.31117848176507701 0 0.2283396740985745 0.30195705682751389 0 0.22801070301179061 0.32060690690137728 0 0.2283396740985745 0.30195705682751389 0 0.2184758680590754 0.31184724711422762 0 0.21670572119465931 0.30172893354768798 0 0.2184758680590754 0.31184724711422762 0 0.21670572119465931 0.30172893354768798 0 0.20632342479934371 0.30585855598863948 0 0.21670572119465931 0.30172893354768798 0 0.20632342479934371 0.30585855598863948 0 0.21141614329998781 0.29390938293380992 0 0.20632342479934371 0.30585855598863948 0 0.21141614329998781 0.29390938293380992 0 0.2042452804315445 0.29308429151921322 0 0.21559138507808229 0.27635001083075639 0 0.21985426169801439 0.28935406669317137 0 0.2104384150331686 0.28649738738125968 0 0.21985426169801439 0.28935406669317137 0 0.21141614329998781 0.29390938293380992 0 0.2104384150331686 0.28649738738125968 0 0.21985426169801439 0.28935406669317137 0 0.21670572119465931 0.30172893354768798 0 0.21141614329998781 0.29390938293380992 0 0.21141614329998781 0.29390938293380992 0 0.2042452804315445 0.29308429151921322 0 0.2104384150331686 0.28649738738125968 0 0.2042452804315445 0.29308429151921322 0 0.2104384150331686 0.28649738738125968 0 0.20037669147028589 0.28371892366973078 0 0.21559138507808229 0.27635001083075639 0 0.2104384150331686 0.28649738738125968 0 0.20037669147028589 0.28371892366973078 0 0.20212350544635149 0.27452240688285762 0 0.20037669147028589 0.28371892366973078 0 0.1898902111984884 0.29891268329407239 0 0.18677859260729601 0.28760164196875848 0 0.1917381003592612 0.28136787577326228 0 0.1898902111984884 0.29891268329407239 0 0.20037669147028589 0.28371892366973078 0 0.1976595376627992 0.29976589533378561 0 0.1898902111984884 0.29891268329407239 0 0.2042452804315445 0.29308429151921322 0 0.20037669147028589 0.28371892366973078 0 0.1976595376627992 0.29976589533378561 0 0.20212350544635149 0.27452240688285762 0 0.1898902111984884 0.29891268329407239 0 0.20212350544635149 0.27452240688285762 0 0.1917381003592612 0.28136787577326228 0 0.1898902111984884 0.29891268329407239 0 0.20037669147028589 0.28371892366973078 0 0.1898902111984884 0.29891268329407239 0 0.18677859260729601 0.28760164196875848 0 0.1849298445554361 0.28099903695767547 0 0.1917381003592612 0.28136787577326228 0 0.20632342479934371 0.30585855598863948 0 0.19412409721151189 0.30848045781950378 0 0.19635424873152091 0.31866253726922511 0 0.20632342479934371 0.30585855598863948 0 0.1976595376627992 0.29976589533378561 0 0.19412409721151189 0.30848045781950378 0 0.20632342479934371 0.30585855598863948 0 0.2042452804315445 0.29308429151921322 0 0.1976595376627992 0.29976589533378561 0 0.18371952992762389 0.30785332357736089 0 0.1976595376627992 0.29976589533378561 0 0.1898902111984884 0.29891268329407239 0 0.18371952992762389 0.30785332357736089 0 0.19412409721151189 0.30848045781950378 0 0.19635424873152091 0.31866253726922511 0 0.18371952992762389 0.30785332357736089 0 0.1976595376627992 0.29976589533378561 0 0.19412409721151189 0.30848045781950378 0 0.19635424873152091 0.31866253726922511 0 0.19329834396814641 0.33328399686629978 0 0.21150607161232149 0.3245036863190196 0 0.19635424873152091 0.31866253726922511 0 0.19329834396814641 0.33328399686629978 0 0.1818581672390053 0.32281790922797782 0 0.19329834396814641 0.33328399686629978 0 0.20841238186686439 0.34472105417207632 0 0.1876990638134575 0.35190483133425488 0 0.19329834396814641 0.33328399686629978 0 0.21150607161232149 0.3245036863190196 0 0.20841238186686439 0.34472105417207632 0 0.21150607161232149 0.3245036863190196 0 0.22736457019319431 0.33776348264759248 0 0.20841238186686439 0.34472105417207632 0 0.20632342479934371 0.30585855598863948 0 0.19635424873152091 0.31866253726922511 0 0.21150607161232149 0.3245036863190196 0 0.2184758680590754 0.31184724711422762 0 0.20632342479934371 0.30585855598863948 0 0.21150607161232149 0.3245036863190196 0 0.21150607161232149 0.3245036863190196 0 0.22801070301179061 0.32060690690137728 0 0.22736457019319431 0.33776348264759248 0 0.2184758680590754 0.31184724711422762 0 0.21150607161232149 0.3245036863190196 0 0.22801070301179061 0.32060690690137728 0 0.22801070301179061 0.32060690690137728 0 0.22736457019319431 0.33776348264759248 0 0.24490867605631639 0.32967072069511189 0 0.22736457019319431 0.33776348264759248 0 0.24490867605631639 0.32967072069511189 0 0.24521693247762111 0.35027114815259558 0 0.23765651747073049 0.31117848176507701 0 0.22801070301179061 0.32060690690137728 0 0.24490867605631639 0.32967072069511189 0 0.23765651747073049 0.31117848176507701 0 0.24490867605631639 0.32967072069511189 0 0.25114017462525878 0.31153615041935723 0 0.24305895760768401 0.36641304215893011 0 0.24521693247762111 0.35027114815259558 0 0.22613265613425179 0.35680737964537468 0 0.22736457019319431 0.33776348264759248 0 0.24521693247762111 0.35027114815259558 0 0.22613265613425179 0.35680737964537468 0 0.22736457019319431 0.33776348264759248 0 0.22613265613425179 0.35680737964537468 0 0.20841238186686439 0.34472105417207632 0 0.22613265613425179 0.35680737964537468 0 0.20200890290724041 0.36500873302905812 0 0.22860253219506471 0.37841014948266538 0 0.24305895760768401 0.36641304215893011 0 0.22613265613425179 0.35680737964537468 0 0.22860253219506471 0.37841014948266538 0 0.20200890290724041 0.36500873302905812 0 0.22860253219506471 0.37841014948266538 0 0.22613265613425179 0.35680737964537468 0 0.20841238186686439 0.34472105417207632 0 0.20200890290724041 0.36500873302905812 0 0.20841238186686439 0.34472105417207632 0 0.1876990638134575 0.35190483133425488 0 0.20200890290724041 0.36500873302905812 0 0.1876990638134575 0.35190483133425488 0 0.20200890290724041 0.36500873302905812 0 0.17637045729064621 0.37495278481954358 0 0.1876990638134575 0.35190483133425488 0 0.17637045729064621 0.37495278481954358 0 0.16909864488713719 0.35514267549568418 0 0.15975417249048229 0.36968310563447321 0 0.16909864488713719 0.35514267549568418 0 0.14990537096685039 0.36070173528474042 0 0.17637045729064621 0.37495278481954358 0 0.15975417249048229 0.36968310563447321 0 0.16909864488713719 0.35514267549568418 0 0.16909864488713719 0.35514267549568418 0 0.1770056519607103 0.33831974362286749 0 0.1619384281755652 0.34052596047808847 0 0.16909864488713719 0.35514267549568418 0 0.14990537096685039 0.36070173528474042 0 0.15416632756111201 0.34898696826244741 0 0.16909864488713719 0.35514267549568418 0 0.1619384281755652 0.34052596047808847 0 0.15416632756111201 0.34898696826244741 0 0.1876990638134575 0.35190483133425488 0 0.16909864488713719 0.35514267549568418 0 0.1770056519607103 0.33831974362286749 0 0.19329834396814641 0.33328399686629978 0 0.1770056519607103 0.33831974362286749 0 0.1818581672390053 0.32281790922797782 0 0.19329834396814641 0.33328399686629978 0 0.1876990638134575 0.35190483133425488 0 0.1770056519607103 0.33831974362286749 0 0.1770056519607103 0.33831974362286749 0 0.1818581672390053 0.32281790922797782 0 0.1657389141743941 0.32607447656151611 0 0.1818581672390053 0.32281790922797782 0 0.1707678241303611 0.31259989648156872 0 0.1657389141743941 0.32607447656151611 0 0.18371952992762389 0.30785332357736089 0 0.19635424873152091 0.31866253726922511 0 0.1818581672390053 0.32281790922797782 0 0.18371952992762389 0.30785332357736089 0 0.1818581672390053 0.32281790922797782 0 0.1707678241303611 0.31259989648156872 0 0.1707678241303611 0.31259989648156872 0 0.1657389141743941 0.32607447656151611 0 0.16084478468494731 0.31759224325908281 0 0.1657389141743941 0.32607447656151611 0 0.15632698434060879 0.32309477146443721 0 0.16084478468494731 0.31759224325908281 0 0.1657389141743941 0.32607447656151611 0 0.15632698434060879 0.32309477146443721 0 0.1534459738215358 0.33116830427909388 0 0.15847128754916129 0.30901971199088751 0 0.1707678241303611 0.31259989648156872 0 0.16084478468494731 0.31759224325908281 0 0.15847128754916129 0.30901971199088751 0 0.16084478468494731 0.31759224325908281 0 0.1531779528472626 0.31690967251270458 0 0.15632698434060879 0.32309477146443721 0 0.16084478468494731 0.31759224325908281 0 0.1531779528472626 0.31690967251270458 0 0.1770056519607103 0.33831974362286749 0 0.1657389141743941 0.32607447656151611 0 0.1619384281755652 0.34052596047808847 0 0.1657389141743941 0.32607447656151611 0 0.1619384281755652 0.34052596047808847 0 0.1534459738215358 0.33116830427909388 0 0.1619384281755652 0.34052596047808847 0 0.14537830609435001 0.34101383565047871 0 0.15416632756111201 0.34898696826244741 0 0.1619384281755652 0.34052596047808847 0 0.1534459738215358 0.33116830427909388 0 0.14537830609435001 0.34101383565047871 0 0.1534459738215358 0.33116830427909388 0 0.1427633336259623 0.33140140495610498 0 0.14842729617490411 0.32372916070978858 0 0.1534459738215358 0.33116830427909388 0 0.1427633336259623 0.33140140495610498 0 0.14537830609435001 0.34101383565047871 0 0.1427633336259623 0.33140140495610498 0 0.14537830609435001 0.34101383565047871 0 0.13654253772275141 0.33890423694427602 0 0.1483486037307668 0.31106151759990119 0 0.1531779528472626 0.31690967251270458 0 0.14487070829517959 0.31682928085866202 0 0.1531779528472626 0.31690967251270458 0 0.14842729617490411 0.32372916070978858 0 0.14487070829517959 0.31682928085866202 0 0.15632698434060879 0.32309477146443721 0 0.1534459738215358 0.33116830427909388 0 0.14842729617490411 0.32372916070978858 0 0.15632698434060879 0.32309477146443721 0 0.1531779528472626 0.31690967251270458 0 0.14842729617490411 0.32372916070978858 0 0.1427633336259623 0.33140140495610498 0 0.14842729617490411 0.32372916070978858 0 0.1402378637359267 0.32270884290342983 0 0.14842729617490411 0.32372916070978858 0 0.14487070829517959 0.31682928085866202 0 0.1402378637359267 0.32270884290342983 0 0.1483486037307668 0.31106151759990119 0 0.14130712994747449 0.31140798331507108 0 0.14487070829517959 0.31682928085866202 0 0.14130712994747449 0.31140798331507108 0 0.14487070829517959 0.31682928085866202 0 0.13528824775885559 0.3155805734405937 0 0.14487070829517959 0.31682928085866202 0 0.13528824775885559 0.3155805734405937 0 0.1402378637359267 0.32270884290342983 0 0.13528824775885559 0.3155805734405937 0 0.1330765722643745 0.32249408610517011 0 0.1402378637359267 0.32270884290342983 0 0.1330765722643745 0.32249408610517011 0 0.1402378637359267 0.32270884290342983 0 0.13309473665224339 0.33072661256584468 0 0.12375204985912221 0.32702725796552912 0 0.1330765722643745 0.32249408610517011 0 0.13309473665224339 0.33072661256584468 0 0.12375204985912221 0.32702725796552912 0 0.1330765722643745 0.32249408610517011 0 0.12817088130983889 0.317450689473041 0 0.13528824775885559 0.3155805734405937 0 0.1330765722643745 0.32249408610517011 0 0.12817088130983889 0.317450689473041 0 0.1214195525311879 0.31440901896845502 0 0.12900107104525951 0.30968741412501871 0 0.12817088130983889 0.317450689473041 0 0.12900107104525951 0.30968741412501871 0 0.13528824775885559 0.3155805734405937 0 0.12817088130983889 0.317450689473041 0 0.14537830609435001 0.34101383565047871 0 0.13654253772275141 0.33890423694427602 0 0.13685475473781181 0.34959577292381833 0 0.13654253772275141 0.33890423694427602 0 0.1260676383484185 0.3399282146226113 0 0.13685475473781181 0.34959577292381833 0 0.1427633336259623 0.33140140495610498 0 0.13654253772275141 0.33890423694427602 0 0.13309473665224339 0.33072661256584468 0 0.1427633336259623 0.33140140495610498 0 0.1402378637359267 0.32270884290342983 0 0.13309473665224339 0.33072661256584468 0 0.12375204985912221 0.32702725796552912 0 0.13309473665224339 0.33072661256584468 0 0.1260676383484185 0.3399282146226113 0 0.13654253772275141 0.33890423694427602 0 0.13309473665224339 0.33072661256584468 0 0.1260676383484185 0.3399282146226113 0 0.1232256624926347 0.35239419723674059 0 0.13685475473781181 0.34959577292381833 0 0.13271547193899449 0.36524458735671972 0 0.1232256624926347 0.35239419723674059 0 0.1260676383484185 0.3399282146226113 0 0.13685475473781181 0.34959577292381833 0 0.13685475473781181 0.34959577292381833 0 0.13271547193899449 0.36524458735671972 0 0.14990537096685039 0.36070173528474042 0 0.13271547193899449 0.36524458735671972 0 0.14727668153694909 0.37350977329143831 0 0.1384203385310763 0.3853027474406937 0 0.13271547193899449 0.36524458735671972 0 0.14727668153694909 0.37350977329143831 0 0.14990537096685039 0.36070173528474042 0 0.15975417249048229 0.36968310563447321 0 0.14727668153694909 0.37350977329143831 0 0.14990537096685039 0.36070173528474042 0 0.14537830609435001 0.34101383565047871 0 0.13685475473781181 0.34959577292381833 0 0.15416632756111201 0.34898696826244741 0 0.13685475473781181 0.34959577292381833 0 0.14990537096685039 0.36070173528474042 0 0.15416632756111201 0.34898696826244741 0 0.15196678808574959 0.39634912392256672 0 0.1402717845598023 0.40641241395674649 0 0.16129649351817349 0.40676751558544272 0 0.15196678808574959 0.39634912392256672 0 0.1384203385310763 0.3853027474406937 0 0.1402717845598023 0.40641241395674649 0 0.15196678808574959 0.39634912392256672 0 0.15611970777082879 0.38410855928095938 0 0.1384203385310763 0.3853027474406937 0 0.14727668153694909 0.37350977329143831 0 0.15611970777082879 0.38410855928095938 0 0.1384203385310763 0.3853027474406937 0 0.15975417249048229 0.36968310563447321 0 0.14727668153694909 0.37350977329143831 0 0.15611970777082879 0.38410855928095938 0 0.1231373165426977 0.3806134049577457 0 0.13271547193899449 0.36524458735671972 0 0.1384203385310763 0.3853027474406937 0 0.1231373165426977 0.3806134049577457 0 0.1384203385310763 0.3853027474406937 0 0.1271742827044339 0.39597619803598749 0 0.1384203385310763 0.3853027474406937 0 0.1271742827044339 0.39597619803598749 0 0.1402717845598023 0.40641241395674649 0 0.1162621503634904 0.41872732341568758 0 0.1271742827044339 0.39597619803598749 0 0.1402717845598023 0.40641241395674649 0 0.1162621503634904 0.41872732341568758 0 0.1402717845598023 0.40641241395674649 0 0.14380353536204241 0.43078456768362461 0 0.1162621503634904 0.41872732341568758 0 0.14380353536204241 0.43078456768362461 0 0.1205619018159948 0.44674810255646558 0 0.1162621503634904 0.41872732341568758 0 0.13914808732176639 0.43525501877606959 0 0.1162621503634904 0.41872732341568758 0 0.13914808732176639 0.43525501877606959 0 0.14380353536204241 0.43078456768362461 0 0.1402717845598023 0.40641241395674649 0 0.16129649351817349 0.40676751558544272 0 0.1583102357697074 0.42239552662274649 0 0.1402717845598023 0.40641241395674649 0 0.14380353536204241 0.43078456768362461 0 0.1583102357697074 0.42239552662274649 0 0.16129649351817349 0.40676751558544272 0 0.17483444504792359 0.42517132393635743 0 0.1767108048052333 0.40648620419478521 0 0.16129649351817349 0.40676751558544272 0 0.1583102357697074 0.42239552662274649 0 0.17483444504792359 0.42517132393635743 0 0.1583102357697074 0.42239552662274649 0 0.17483444504792359 0.42517132393635743 0 0.1713449203605947 0.44284181195156158 0 0.14380353536204241 0.43078456768362461 0 0.1713449203605947 0.44284181195156158 0 0.14380353536204241 0.43078456768362461 0 0.1583102357697074 0.42239552662274649 0 0.1713449203605947 0.44284181195156158 0 0.17483444504792359 0.42517132393635743 0 0.18216746451451801 0.43740730714955978 0 0.1713449203605947 0.44284181195156158 0 0.17483444504792359 0.42517132393635743 0 0.1713449203605947 0.44284181195156158 0 0.17483444504792359 0.42517132393635743 0 0.1894098998784805 0.41329321868770491 0 0.19020123220431809 0.42989189963497759 0 0.17483444504792359 0.42517132393635743 0 0.18216746451451801 0.43740730714955978 0 0.19020123220431809 0.42989189963497759 0 0.17483444504792359 0.42517132393635743 0 0.1767108048052333 0.40648620419478521 0 0.1894098998784805 0.41329321868770491 0 0.1767108048052333 0.40648620419478521 0 0.16971698500113649 0.39319336099264368 0 0.18829620058045249 0.39400560177177729 0 0.1767108048052333 0.40648620419478521 0 0.18829620058045249 0.39400560177177729 0 0.1894098998784805 0.41329321868770491 0 0.15196678808574959 0.39634912392256672 0 0.15611970777082879 0.38410855928095938 0 0.16971698500113649 0.39319336099264368 0 0.15196678808574959 0.39634912392256672 0 0.16129649351817349 0.40676751558544272 0 0.16971698500113649 0.39319336099264368 0 0.16129649351817349 0.40676751558544272 0 0.1767108048052333 0.40648620419478521 0 0.16971698500113649 0.39319336099264368 0 0.17637045729064621 0.37495278481954358 0 0.15975417249048229 0.36968310563447321 0 0.15611970777082879 0.38410855928095938 0 0.17637045729064621 0.37495278481954358 0 0.15611970777082879 0.38410855928095938 0 0.16971698500113649 0.39319336099264368 0 0.17637045729064621 0.37495278481954358 0 0.16971698500113649 0.39319336099264368 0 0.18829620058045249 0.39400560177177729 0 0.20200890290724041 0.36500873302905812 0 0.18829620058045249 0.39400560177177729 0 0.21022739730807871 0.38998636848418261 0 0.20200890290724041 0.36500873302905812 0 0.17637045729064621 0.37495278481954358 0 0.18829620058045249 0.39400560177177729 0 0.18829620058045249 0.39400560177177729 0 0.21022739730807871 0.38998636848418261 0 0.20498907662426999 0.40636669370009521 0 0.18829620058045249 0.39400560177177729 0 0.20498907662426999 0.40636669370009521 0 0.1894098998784805 0.41329321868770491 0 0.21022739730807871 0.38998636848418261 0 0.225418264115859 0.4045632601918206 0 0.20498907662426999 0.40636669370009521 0 0.20200890290724041 0.36500873302905812 0 0.21022739730807871 0.38998636848418261 0 0.22860253219506471 0.37841014948266538 0 0.21022739730807871 0.38998636848418261 0 0.22860253219506471 0.37841014948266538 0 0.225418264115859 0.4045632601918206 0 0.225418264115859 0.4045632601918206 0 0.2490748840761759 0.41447913741323361 0 0.25519616148288887 0.39181156593627298 0 0.22860253219506471 0.37841014948266538 0 0.225418264115859 0.4045632601918206 0 0.25519616148288887 0.39181156593627298 0 0.22860253219506471 0.37841014948266538 0 0.25519616148288887 0.39181156593627298 0 0.24305895760768401 0.36641304215893011 0 0.22860253219506471 0.37841014948266538 0 0.25519616148288887 0.39181156593627298 0 0.2490748840761759 0.41447913741323361 0 0.23040520055063371 0.42472223384156732 0 0.24517769652138269 0.43868647355565088 0 0.225418264115859 0.4045632601918206 0 0.2490748840761759 0.41447913741323361 0 0.23040520055063371 0.42472223384156732 0 0.225418264115859 0.4045632601918206 0 0.23040520055063371 0.42472223384156732 0 0.20794960100346549 0.42683021087399747 0 0.23040520055063371 0.42472223384156732 0 0.20794960100346549 0.42683021087399747 0 0.2229924843016429 0.43948176305630821 0 0.23040520055063371 0.42472223384156732 0 0.2229924843016429 0.43948176305630821 0 0.24517769652138269 0.43868647355565088 0 0.225418264115859 0.4045632601918206 0 0.20794960100346549 0.42683021087399747 0 0.20498907662426999 0.40636669370009521 0 0.20794960100346549 0.42683021087399747 0 0.20498907662426999 0.40636669370009521 0 0.1894098998784805 0.41329321868770491 0 0.20794960100346549 0.42683021087399747 0 0.19020123220431809 0.42989189963497759 0 0.19426067079655579 0.44330707928475449 0 0.20794960100346549 0.42683021087399747 0 0.1894098998784805 0.41329321868770491 0 0.19020123220431809 0.42989189963497759 0 0.18216746451451801 0.43740730714955978 0 0.19020123220431809 0.42989189963497759 0 0.19426067079655579 0.44330707928475449 0 0.19426067079655579 0.44330707928475449 0 0.1940681668251448 0.45640187690020761 0 0.18254949088188149 0.4477470207382499 0 0.19426067079655579 0.44330707928475449 0 0.1940681668251448 0.45640187690020761 0 0.20814429074563079 0.44944136850783811 0 0.1940681668251448 0.45640187690020761 0 0.20814429074563079 0.44944136850783811 0 0.2039949308663013 0.472197178379127 0 0.1940681668251448 0.45640187690020761 0 0.2039949308663013 0.472197178379127 0 0.18608081776579821 0.46867989557539208 0 0.1940681668251448 0.45640187690020761 0 0.18608081776579821 0.46867989557539208 0 0.18254949088188149 0.4477470207382499 0 0.20814429074563079 0.44944136850783811 0 0.22852149564367849 0.45772005811557609 0 0.2039949308663013 0.472197178379127 0 0.20794960100346549 0.42683021087399747 0 0.19426067079655579 0.44330707928475449 0 0.20814429074563079 0.44944136850783811 0 0.20794960100346549 0.42683021087399747 0 0.20814429074563079 0.44944136850783811 0 0.2229924843016429 0.43948176305630821 0 0.2229924843016429 0.43948176305630821 0 0.22852149564367849 0.45772005811557609 0 0.24517769652138269 0.43868647355565088 0 0.20814429074563079 0.44944136850783811 0 0.2229924843016429 0.43948176305630821 0 0.22852149564367849 0.45772005811557609 0 0.22852149564367849 0.45772005811557609 0 0.2480713074063006 0.45455858161591112 0 0.2508124586903176 0.47172026355836871 0 0.22852149564367849 0.45772005811557609 0 0.2480713074063006 0.45455858161591112 0 0.24517769652138269 0.43868647355565088 0 0.24658834009167641 0.5 0 0.2268462464291012 0.47913099520174052 0 0.2508124586903176 0.47172026355836871 0 0.22852149564367849 0.45772005811557609 0 0.2268462464291012 0.47913099520174052 0 0.2508124586903176 0.47172026355836871 0 0.22852149564367849 0.45772005811557609 0 0.2268462464291012 0.47913099520174052 0 0.2039949308663013 0.472197178379127 0 0.24658834009167641 0.5 0 0.2268462464291012 0.47913099520174052 0 0.21774471386125249 0.5 0 0.2039949308663013 0.472197178379127 0 0.18890108763082861 0.5 0 0.18608081776579821 0.46867989557539208 0 0.21774471386125249 0.5 0 0.2039949308663013 0.472197178379127 0 0.18890108763082861 0.5 0 0.2268462464291012 0.47913099520174052 0 0.21774471386125249 0.5 0 0.2039949308663013 0.472197178379127 0 0.18890108763082861 0.5 0 0.16570119088049859 0.47142090597577962 0 0.18608081776579821 0.46867989557539208 0 0.18890108763082861 0.5 0 0.1600574614004048 0.499999999999998 0 0.16570119088049859 0.47142090597577962 0 0.1600574614004048 0.499999999999998 0 0.16570119088049859 0.47142090597577962 0 0.1600574614004048 0.499999999999998 0 0.16570119088049859 0.47142090597577962 0 0.1473140710794911 0.47841155746419622 0 0.16570119088049859 0.47142090597577962 0 0.18608081776579821 0.46867989557539208 0 0.18254949088188149 0.4477470207382499 0 0.16570119088049859 0.47142090597577962 0 0.18254949088188149 0.4477470207382499 0 0.1713449203605947 0.44284181195156158 0 0.18216746451451801 0.43740730714955978 0 0.19426067079655579 0.44330707928475449 0 0.18254949088188149 0.4477470207382499 0 0.18254949088188149 0.4477470207382499 0 0.1713449203605947 0.44284181195156158 0 0.18216746451451801 0.43740730714955978 0 0.18254949088188149 0.4477470207382499 0 0.1713449203605947 0.44284181195156158 0 0.16570119088049859 0.47142090597577962 0 0.1713449203605947 0.44284181195156158 0 0.16570119088049859 0.47142090597577962 0 0.1713449203605947 0.44284181195156158 0 0.15076126992746861 0.45128164001408699 0 0.16570119088049859 0.47142090597577962 0 0.14979107830043681 0.4659705410046826 0 0.15076126992746861 0.45128164001408699 0 0.14979107830043681 0.4659705410046826 0 0.15076126992746861 0.45128164001408699 0 0.13538778131428869 0.46276806056466779 0 0.13914808732176639 0.43525501877606959 0 0.14380353536204241 0.43078456768362461 0 0.15076126992746861 0.45128164001408699 0 0.14380353536204241 0.43078456768362461 0 0.1713449203605947 0.44284181195156158 0 0.15076126992746861 0.45128164001408699 0 0.13914808732176639 0.43525501877606959 0 0.15076126992746861 0.45128164001408699 0 0.13538778131428869 0.46276806056466779 0 0.13914808732176639 0.43525501877606959 0 0.13538778131428869 0.46276806056466779 0 0.1205619018159948 0.44674810255646558 0 0.13914808732176639 0.43525501877606959 0 0.13538778131428869 0.46276806056466779 0 0.1248616532684987 0.47476888169724352 0 0.1205619018159948 0.44674810255646558 0 0.13538778131428869 0.46276806056466779 0 0.13538778131428869 0.46276806056466779 0 0.13162747530681079 0.49028110235326611 0 0.1248616532684987 0.47476888169724352 0 0.13538778131428869 0.46276806056466779 0 0.13162747530681079 0.49028110235326611 0 0.13538778131428869 0.46276806056466779 0 0.13162747530681079 0.49028110235326611 0 0.1473140710794911 0.47841155746419622 0 0.1248616532684987 0.47476888169724352 0 0.13162747530681079 0.49028110235326611 0 0.1248616532684987 0.47476888169724352 0 0.1287333349596296 0.50000000000000233 0 0.1248616532684987 0.47476888169724352 0 0.13162747530681079 0.49028110235326611 0 0.1287333349596296 0.50000000000000233 0 0.13162747530681079 0.49028110235326611 0 0.1302991587401483 0.50000000000000044 0 0.13162747530681079 0.49028110235326611 0 0.1302991587401483 0.50000000000000044 0 0.13586647714571501 0.50000000000000044 0 0.13162747530681079 0.49028110235326611 0 0.1287333349596296 0.50000000000000233 0 0.1302991587401483 0.50000000000000044 0 0.13162747530681079 0.49028110235326611 0 0.13586647714571501 0.50000000000000044 0 0.14406777576738011 0.49099847585001533 0 0.13162747530681079 0.49028110235326611 0 0.13586647714571501 0.50000000000000044 0 0.1600574614004048 0.499999999999998 0 0.13586647714571501 0.50000000000000044 0 0.14406777576738011 0.49099847585001533 0 0.1600574614004048 0.499999999999998 0 0.14406777576738011 0.49099847585001533 0 0.1473140710794911 0.47841155746419622 0 0.13162747530681079 0.49028110235326611 0 0.14406777576738011 0.49099847585001533 0 0.1473140710794911 0.47841155746419622 0 0.16570119088049859 0.47142090597577962 0 0.14979107830043681 0.4659705410046826 0 0.1473140710794911 0.47841155746419622 0 0.14979107830043681 0.4659705410046826 0 0.13538778131428869 0.46276806056466779 0 0.1473140710794911 0.47841155746419622 0 0.3484716028812469 0.46927922019571022 0 0.3639431844790027 0.47792576209206161 0 0.36215729707138089 0.45952194433731441 0 0.3484716028812469 0.46927922019571022 0 0.34825454286986979 0.4866410253547736 0 0.3639431844790027 0.47792576209206161 0 0.34825454286986979 0.4866410253547736 0 0.36196284501337178 0.5 0 0.3639431844790027 0.47792576209206161 0 0.34825454286986979 0.4866410253547736 0 0.36196284501337178 0.5 0 0.33311921878294798 0.5 0 0.36196284501337178 0.5 0 0.3639431844790027 0.47792576209206161 0 0.38120033573297152 0.48442634992442057 0 0.3639431844790027 0.47792576209206161 0 0.37844435483634198 0.4675903904274426 0 0.38120033573297152 0.48442634992442057 0 0.3639431844790027 0.47792576209206161 0 0.36215729707138089 0.45952194433731441 0 0.37844435483634198 0.4675903904274426 0 0.36215729707138089 0.45952194433731441 0 0.37809165231809289 0.44568724501072521 0 0.37844435483634198 0.4675903904274426 0 0.36215729707138089 0.45952194433731441 0 0.35494335133579169 0.44207750056399991 0 0.37809165231809289 0.44568724501072521 0 0.35494335133579169 0.44207750056399991 0 0.365542703577178 0.42914551292816783 0 0.37809165231809289 0.44568724501072521 0 0.35494335133579169 0.44207750056399991 0 0.33746945485668051 0.4332718215327816 0 0.35494335133579169 0.44207750056399991 0 0.33933393763431879 0.44574212964051668 0 0.33746945485668051 0.4332718215327816 0 0.36215729707138089 0.45952194433731441 0 0.35494335133579169 0.44207750056399991 0 0.34904963657780902 0.45457154773394731 0 0.35494335133579169 0.44207750056399991 0 0.34904963657780902 0.45457154773394731 0 0.33933393763431879 0.44574212964051668 0 0.3484716028812469 0.46927922019571022 0 0.36215729707138089 0.45952194433731441 0 0.34904963657780902 0.45457154773394731 0 0.3484716028812469 0.46927922019571022 0 0.34904963657780902 0.45457154773394731 0 0.33768006752307722 0.45817683321967928 0 0.33768006752307722 0.45817683321967928 0 0.32516604183334019 0.44948070643492349 0 0.3263791186886712 0.4718105620932988 0 0.3484716028812469 0.46927922019571022 0 0.33768006752307722 0.45817683321967928 0 0.3263791186886712 0.4718105620932988 0 0.33933393763431879 0.44574212964051668 0 0.32516604183334019 0.44948070643492349 0 0.33457771181584611 0.43369686048393857 0 0.32516604183334019 0.44948070643492349 0 0.33457771181584611 0.43369686048393857 0 0.33933393763431879 0.44574212964051668 0 0.33457771181584611 0.43369686048393857 0 0.33746945485668051 0.4332718215327816 0 0.34904963657780902 0.45457154773394731 0 0.33768006752307722 0.45817683321967928 0 0.33933393763431879 0.44574212964051668 0 0.33768006752307722 0.45817683321967928 0 0.33933393763431879 0.44574212964051668 0 0.32516604183334019 0.44948070643492349 0 0.32516604183334019 0.44948070643492349 0 0.30610823095482448 0.43788140873538328 0 0.33457771181584611 0.43369686048393857 0 0.32516604183334019 0.44948070643492349 0 0.30909376894118562 0.45443190325323968 0 0.30610823095482448 0.43788140873538328 0 0.32516604183334019 0.44948070643492349 0 0.3263791186886712 0.4718105620932988 0 0.30909376894118562 0.45443190325323968 0 0.3263791186886712 0.4718105620932988 0 0.30059931196992168 0.47005809262963882 0 0.31153103284441203 0.48323920778459489 0 0.3484716028812469 0.46927922019571022 0 0.34825454286986979 0.4866410253547736 0 0.3263791186886712 0.4718105620932988 0 0.34825454286986979 0.4866410253547736 0 0.3263791186886712 0.4718105620932988 0 0.33311921878294798 0.5 0 0.3263791186886712 0.4718105620932988 0 0.33311921878294798 0.5 0 0.31153103284441203 0.48323920778459489 0 0.33311921878294798 0.5 0 0.30427559255252412 0.5 0 0.31153103284441203 0.48323920778459489 0 0.30427559255252412 0.5 0 0.31153103284441203 0.48323920778459489 0 0.29110307967174748 0.48580921065493432 0 0.30059931196992168 0.47005809262963882 0 0.31153103284441203 0.48323920778459489 0 0.29110307967174748 0.48580921065493432 0 0.30059931196992168 0.47005809262963882 0 0.29110307967174748 0.48580921065493432 0 0.27585954767988607 0.47408041721782612 0 0.30427559255252412 0.5 0 0.29110307967174748 0.48580921065493432 0 0.27543196632210021 0.5 0 0.27543196632210021 0.5 0 0.27585954767988607 0.47408041721782612 0 0.26198527678341299 0.48673919500437729 0 0.29110307967174748 0.48580921065493432 0 0.27543196632210021 0.5 0 0.27585954767988607 0.47408041721782612 0 0.27585954767988607 0.47408041721782612 0 0.2508124586903176 0.47172026355836871 0 0.26198527678341299 0.48673919500437729 0 0.24658834009167641 0.5 0 0.2508124586903176 0.47172026355836871 0 0.26198527678341299 0.48673919500437729 0 0.24658834009167641 0.5 0 0.27543196632210021 0.5 0 0.26198527678341299 0.48673919500437729 0 0.2480713074063006 0.45455858161591112 0 0.24517769652138269 0.43868647355565088 0 0.26777357876982372 0.45010753123404867 0 0.24517769652138269 0.43868647355565088 0 0.26777357876982372 0.45010753123404867 0 0.26600993858745892 0.42808938636359573 0 0.2480713074063006 0.45455858161591112 0 0.2508124586903176 0.47172026355836871 0 0.26777357876982372 0.45010753123404867 0 0.27585954767988607 0.47408041721782612 0 0.2508124586903176 0.47172026355836871 0 0.26777357876982372 0.45010753123404867 0 0.27585954767988607 0.47408041721782612 0 0.26777357876982372 0.45010753123404867 0 0.28975077836376328 0.45156795454144122 0 0.26777357876982372 0.45010753123404867 0 0.28975077836376328 0.45156795454144122 0 0.28607917402868899 0.43188291486824332 0 0.28975077836376328 0.45156795454144122 0 0.30610823095482448 0.43788140873538328 0 0.28607917402868899 0.43188291486824332 0 0.30059931196992168 0.47005809262963882 0 0.27585954767988607 0.47408041721782612 0 0.28975077836376328 0.45156795454144122 0 0.3263791186886712 0.4718105620932988 0 0.30059931196992168 0.47005809262963882 0 0.30909376894118562 0.45443190325323968 0 0.30059931196992168 0.47005809262963882 0 0.28975077836376328 0.45156795454144122 0 0.30909376894118562 0.45443190325323968 0 0.28975077836376328 0.45156795454144122 0 0.30909376894118562 0.45443190325323968 0 0.30610823095482448 0.43788140873538328 0 0.30610823095482448 0.43788140873538328 0 0.30869255759955722 0.41877018355733042 0 0.28607917402868899 0.43188291486824332 0 0.3075810200549029 0.4073564129674252 0 0.30869255759955722 0.41877018355733042 0 0.30232024370737348 0.40459188745546998 0 0.31142364564813352 0.41093370315849659 0 0.3075810200549029 0.4073564129674252 0 0.31015955469665918 0.40201373970895371 0 0.31142364564813352 0.41093370315849659 0 0.3075810200549029 0.4073564129674252 0 0.30869255759955722 0.41877018355733042 0 0.30869255759955722 0.41877018355733042 0 0.29605666041485018 0.40551048050067168 0 0.30232024370737348 0.40459188745546998 0 0.30869255759955722 0.41877018355733042 0 0.2819443595412231 0.40529087474680159 0 0.30869255759955722 0.41877018355733042 0 0.2819443595412231 0.40529087474680159 0 0.29605666041485018 0.40551048050067168 0 0.30869255759955722 0.41877018355733042 0 0.28607917402868899 0.43188291486824332 0 0.2819443595412231 0.40529087474680159 0 0.2490748840761759 0.41447913741323361 0 0.26600993858745892 0.42808938636359573 0 0.2819443595412231 0.40529087474680159 0 0.26777357876982372 0.45010753123404867 0 0.28607917402868899 0.43188291486824332 0 0.26600993858745892 0.42808938636359573 0 0.28607917402868899 0.43188291486824332 0 0.26600993858745892 0.42808938636359573 0 0.2819443595412231 0.40529087474680159 0 0.2490748840761759 0.41447913741323361 0 0.24517769652138269 0.43868647355565088 0 0.26600993858745892 0.42808938636359573 0 0.2490748840761759 0.41447913741323361 0 0.25519616148288887 0.39181156593627298 0 0.2819443595412231 0.40529087474680159 0 0.25519616148288887 0.39181156593627298 0 0.2618259464583832 0.36726095095448358 0 0.25519616148288887 0.39181156593627298 0 0.27405714121884811 0.38409687161834088 0 0.2618259464583832 0.36726095095448358 0 0.24305895760768401 0.36641304215893011 0 0.25519616148288887 0.39181156593627298 0 0.2618259464583832 0.36726095095448358 0 0.2490748840761759 0.41447913741323361 0 0.25519616148288887 0.39181156593627298 0 0.27405714121884811 0.38409687161834088 0 0.2819443595412231 0.40529087474680159 0 0.28762179706039948 0.39125587461843808 0 0.25519616148288887 0.39181156593627298 0 0.2819443595412231 0.40529087474680159 0 0.25519616148288887 0.39181156593627298 0 0.27405714121884811 0.38409687161834088 0 0.2819443595412231 0.40529087474680159 0 0.27405714121884811 0.38409687161834088 0 0.28403056220722062 0.37531448917755911 0 0.2737626695690904 0.37327007608818358 0 0.27405714121884811 0.38409687161834088 0 0.28403056220722062 0.37531448917755911 0 0.28762179706039948 0.39125587461843808 0 0.29405085274881382 0.37834813740539031 0 0.28762179706039948 0.39125587461843808 0 0.30049862001061489 0.39881078008944609 0 0.28403056220722062 0.37531448917755911 0 0.29405085274881382 0.37834813740539031 0 0.28762179706039948 0.39125587461843808 0 0.2819443595412231 0.40529087474680159 0 0.28762179706039948 0.39125587461843808 0 0.29316512877403511 0.40022580951085568 0 0.28762179706039948 0.39125587461843808 0 0.29316512877403511 0.40022580951085568 0 0.30049862001061489 0.39881078008944609 0 0.2819443595412231 0.40529087474680159 0 0.29316512877403511 0.40022580951085568 0 0.29605666041485018 0.40551048050067168 0 0.29316512877403511 0.40022580951085568 0 0.29605666041485018 0.40551048050067168 0 0.30042223720462058 0.4004666581126537 0 0.29605666041485018 0.40551048050067168 0 0.30232024370737348 0.40459188745546998 0 0.30042223720462058 0.4004666581126537 0 0.29316512877403511 0.40022580951085568 0 0.30042223720462058 0.4004666581126537 0 0.30049862001061489 0.39881078008944609 0 0.30042223720462058 0.4004666581126537 0 0.30049862001061489 0.39881078008944609 0 0.30232024370737348 0.40459188745546998 0 0.30049862001061489 0.39881078008944609 0 0.30232024370737348 0.40459188745546998 0 0.30049862001061489 0.39881078008944609 0 0.30430913302558388 0.40020258685778032 0 0.30232024370737348 0.40459188745546998 0 0.30042223720462058 0.4004666581126537 0 0.30049862001061489 0.39881078008944609 0 0.30049862001061489 0.39881078008944609 0 0.30098622665836988 0.38824011406760628 0 0.30049862001061489 0.39881078008944609 0 0.30430913302558388 0.40020258685778032 0 0.30098622665836988 0.38824011406760628 0 0.30098622665836988 0.38824011406760628 0 0.30110064445947421 0.38575968774854158 0 0.31262554991773928 0.39787599139405988 0 0.31015955469665918 0.40201373970895371 0 0.30098622665836988 0.38824011406760628 0 0.30110064445947421 0.38575968774854158 0 0.31262554991773928 0.39787599139405988 0 0.30430913302558388 0.40020258685778032 0 0.31015955469665918 0.40201373970895371 0 0.30098622665836988 0.38824011406760628 0 0.31015955469665918 0.40201373970895371 0 0.30098622665836988 0.38824011406760628 0 0.31262554991773928 0.39787599139405988 0 0.3075810200549029 0.4073564129674252 0 0.30232024370737348 0.40459188745546998 0 0.30430913302558388 0.40020258685778032 0 0.3075810200549029 0.4073564129674252 0 0.30430913302558388 0.40020258685778032 0 0.31015955469665918 0.40201373970895371 0 0.29405085274881382 0.37834813740539031 0 0.30049862001061489 0.39881078008944609 0 0.29405085274881382 0.37834813740539031 0 0.30049862001061489 0.39881078008944609 0 0.30098622665836988 0.38824011406760628 0 0.30110064445947421 0.38575968774854158 0 0.30177514978199971 0.3711373061071076 0 0.30110064445947421 0.38575968774854158 0 0.3104817065657739 0.3858680532317833 0 0.30177514978199971 0.3711373061071076 0 0.29405085274881382 0.37834813740539031 0 0.30110064445947421 0.38575968774854158 0 0.30177514978199971 0.3711373061071076 0 0.29405085274881382 0.37834813740539031 0 0.30110064445947421 0.38575968774854158 0 0.29405085274881382 0.37834813740539031 0 0.30098622665836988 0.38824011406760628 0 0.30110064445947421 0.38575968774854158 0 0.29405085274881382 0.37834813740539031 0 0.30098622665836988 0.38824011406760628 0 0.30098622665836988 0.38824011406760628 0 0.30110064445947421 0.38575968774854158 0 0.30110064445947421 0.38575968774854158 0 0.3104817065657739 0.3858680532317833 0 0.31262554991773928 0.39787599139405988 0 0.3104817065657739 0.3858680532317833 0 0.30177514978199971 0.3711373061071076 0 0.3104817065657739 0.3858680532317833 0 0.31717345926189522 0.3709258031848055 0 0.30177514978199971 0.3711373061071076 0 0.3104817065657739 0.3858680532317833 0 0.3376156911696272 0.37620073599141618 0 0.3104817065657739 0.3858680532317833 0 0.3376156911696272 0.37620073599141618 0 0.31717345926189522 0.3709258031848055 0 0.3104817065657739 0.3858680532317833 0 0.3376156911696272 0.37620073599141618 0 0.3351802944883514 0.39738750443412002 0 0.3376156911696272 0.37620073599141618 0 0.3351802944883514 0.39738750443412002 0 0.34879159400795012 0.38769315231290841 0 0.3351802944883514 0.39738750443412002 0 0.33658962428999861 0.41133204962483783 0 0.34988972217452752 0.40801784569160632 0 0.3351802944883514 0.39738750443412002 0 0.32415045537600512 0.40999229503957763 0 0.33658962428999861 0.41133204962483783 0 0.3351802944883514 0.39738750443412002 0 0.31909953512109351 0.40044867980609039 0 0.32415045537600512 0.40999229503957763 0 0.3104817065657739 0.3858680532317833 0 0.3351802944883514 0.39738750443412002 0 0.31909953512109351 0.40044867980609039 0 0.3104817065657739 0.3858680532317833 0 0.31909953512109351 0.40044867980609039 0 0.3104817065657739 0.3858680532317833 0 0.31262554991773928 0.39787599139405988 0 0.31909953512109351 0.40044867980609039 0 0.31262554991773928 0.39787599139405988 0 0.32415045537600512 0.40999229503957763 0 0.31015955469665918 0.40201373970895371 0 0.31262554991773928 0.39787599139405988 0 0.32415045537600512 0.40999229503957763 0 0.31262554991773928 0.39787599139405988 0 0.31909953512109351 0.40044867980609039 0 0.32415045537600512 0.40999229503957763 0 0.31015955469665918 0.40201373970895371 0 0.31933288273494848 0.41578736535030097 0 0.32415045537600512 0.40999229503957763 0 0.31142364564813352 0.41093370315849659 0 0.31015955469665918 0.40201373970895371 0 0.31933288273494848 0.41578736535030097 0 0.30869255759955722 0.41877018355733042 0 0.31933288273494848 0.41578736535030097 0 0.32906281765607392 0.42006619542527468 0 0.31015955469665918 0.40201373970895371 0 0.31933288273494848 0.41578736535030097 0 0.31142364564813352 0.41093370315849659 0 0.30869255759955722 0.41877018355733042 0 0.31933288273494848 0.41578736535030097 0 0.31933288273494848 0.41578736535030097 0 0.32415045537600512 0.40999229503957763 0 0.32906281765607392 0.42006619542527468 0 0.30869255759955722 0.41877018355733042 0 0.33457771181584611 0.43369686048393857 0 0.33544075565789128 0.43224949236785898 0 0.30869255759955722 0.41877018355733042 0 0.33544075565789128 0.43224949236785898 0 0.30610823095482448 0.43788140873538328 0 0.30869255759955722 0.41877018355733042 0 0.33457771181584611 0.43369686048393857 0 0.30869255759955722 0.41877018355733042 0 0.33544075565789128 0.43224949236785898 0 0.32906281765607392 0.42006619542527468 0 0.30610823095482448 0.43788140873538328 0 0.33457771181584611 0.43369686048393857 0 0.33457771181584611 0.43369686048393857 0 0.33544075565789128 0.43224949236785898 0 0.33746945485668051 0.4332718215327816 0 0.33457771181584611 0.43369686048393857 0 0.33544075565789128 0.43224949236785898 0 0.33544075565789128 0.43224949236785898 0 0.33746945485668051 0.4332718215327816 0 0.35001853239939229 0.42365555934674631 0 0.33544075565789128 0.43224949236785898 0 0.33746945485668051 0.4332718215327816 0 0.33457771181584611 0.43369686048393857 0 0.33746945485668051 0.4332718215327816 0 0.33544075565789128 0.43224949236785898 0 0.33658962428999861 0.41133204962483783 0 0.34988972217452752 0.40801784569160632 0 0.33544075565789128 0.43224949236785898 0 0.32906281765607392 0.42006619542527468 0 0.33658962428999861 0.41133204962483783 0 0.33544075565789128 0.43224949236785898 0 0.34988972217452752 0.40801784569160632 0 0.32415045537600512 0.40999229503957763 0 0.32906281765607392 0.42006619542527468 0 0.33658962428999861 0.41133204962483783 0 0.33544075565789128 0.43224949236785898 0 0.34988972217452752 0.40801784569160632 0 0.35001853239939229 0.42365555934674631 0 0.34988972217452752 0.40801784569160632 0 0.36165970526353591 0.41519797525725338 0 0.36412400085156282 0.39702719229323191 0 0.34988972217452752 0.40801784569160632 0 0.35001853239939229 0.42365555934674631 0 0.36165970526353591 0.41519797525725338 0 0.35494335133579169 0.44207750056399991 0 0.33746945485668051 0.4332718215327816 0 0.365542703577178 0.42914551292816783 0 0.33746945485668051 0.4332718215327816 0 0.35001853239939229 0.42365555934674631 0 0.365542703577178 0.42914551292816783 0 0.33746945485668051 0.4332718215327816 0 0.365542703577178 0.42914551292816783 0 0.35001853239939229 0.42365555934674631 0 0.365542703577178 0.42914551292816783 0 0.36165970526353591 0.41519797525725338 0 0.365542703577178 0.42914551292816783 0 0.36165970526353591 0.41519797525725338 0 0.37744029411777058 0.41252948965876268 0 0.36165970526353591 0.41519797525725338 0 0.36412400085156282 0.39702719229323191 0 0.37744029411777058 0.41252948965876268 0 0.36412400085156282 0.39702719229323191 0 0.38026367080056678 0.39066664182047522 0 0.37744029411777058 0.41252948965876268 0 0.34988972217452752 0.40801784569160632 0 0.36412400085156282 0.39702719229323191 0 0.36433868869116592 0.38378619901535488 0 0.36433868869116592 0.38378619901535488 0 0.3773824667175657 0.37546563606013739 0 0.38026367080056678 0.39066664182047522 0 0.36433868869116592 0.38378619901535488 0 0.36474967577348072 0.36653341875104961 0 0.3773824667175657 0.37546563606013739 0 0.36412400085156282 0.39702719229323191 0 0.36433868869116592 0.38378619901535488 0 0.38026367080056678 0.39066664182047522 0 0.36433868869116592 0.38378619901535488 0 0.36474967577348072 0.36653341875104961 0 0.36412400085156282 0.39702719229323191 0 0.36433868869116592 0.38378619901535488 0 0.3376156911696272 0.37620073599141618 0 0.34879159400795012 0.38769315231290841 0 0.36474967577348072 0.36653341875104961 0 0.36433868869116592 0.38378619901535488 0 0.34879159400795012 0.38769315231290841 0 0.36474967577348072 0.36653341875104961 0 0.3351802944883514 0.39738750443412002 0 0.34988972217452752 0.40801784569160632 0 0.34879159400795012 0.38769315231290841 0 0.34988972217452752 0.40801784569160632 0 0.36433868869116592 0.38378619901535488 0 0.34988972217452752 0.40801784569160632 0 0.36433868869116592 0.38378619901535488 0 0.34879159400795012 0.38769315231290841 0 0.34699100967064078 0.35539672769273539 0 0.36474967577348072 0.36653341875104961 0 0.36518945593320651 0.34509967395937191 0 0.34699100967064078 0.35539672769273539 0 0.36518945593320651 0.34509967395937191 0 0.348137396692076 0.34077307725183559 0 0.3376156911696272 0.37620073599141618 0 0.34699100967064078 0.35539672769273539 0 0.36474967577348072 0.36653341875104961 0 0.3376156911696272 0.37620073599141618 0 0.36474967577348072 0.36653341875104961 0 0.36474967577348072 0.36653341875104961 0 0.36518945593320651 0.34509967395937191 0 0.36474967577348072 0.36653341875104961 0 0.36518945593320651 0.34509967395937191 0 0.3855881021147175 0.35910908792858098 0 0.36518945593320651 0.34509967395937191 0 0.36562923609293069 0.32366592916769399 0 0.36518945593320651 0.34509967395937191 0 0.36562923609293069 0.32366592916769399 0 0.348137396692076 0.34077307725183559 0 0.36518945593320651 0.34509967395937191 0 0.36562923609293069 0.32366592916769399 0 0.38128435600444488 0.32837669887387311 0 0.36562923609293069 0.32366592916769399 0 0.36606901625265492 0.30223218437601618 0 0.38242981621443428 0.31397380775534678 0 0.36562923609293069 0.32366592916769399 0 0.36606901625265492 0.30223218437601618 0 0.36562923609293069 0.32366592916769399 0 0.34238706329751362 0.32476320095938682 0 0.35183379698966949 0.31056891257481539 0 0.36562923609293069 0.32366592916769399 0 0.348137396692076 0.34077307725183559 0 0.34238706329751362 0.32476320095938682 0 0.348137396692076 0.34077307725183559 0 0.33072504187423118 0.34237289876026822 0 0.34238706329751362 0.32476320095938682 0 0.33072504187423118 0.34237289876026822 0 0.34238706329751362 0.32476320095938682 0 0.32122702449841589 0.32177081607522939 0 0.34238706329751362 0.32476320095938682 0 0.33644502425256478 0.30910566618648461 0 0.35183379698966949 0.31056891257481539 0 0.34238706329751362 0.32476320095938682 0 0.32122702449841589 0.32177081607522939 0 0.33644502425256478 0.30910566618648461 0 0.32122702449841589 0.32177081607522939 0 0.31445651652981632 0.33878768779705848 0 0.30372390616191358 0.32889084998335888 0 0.33072504187423118 0.34237289876026822 0 0.32122702449841589 0.32177081607522939 0 0.31445651652981632 0.33878768779705848 0 0.33072504187423118 0.34237289876026822 0 0.31445651652981632 0.33878768779705848 0 0.31594857135045817 0.35062531106266931 0 0.33072504187423118 0.34237289876026822 0 0.31594857135045817 0.35062531106266931 0 0.32442852787466708 0.36030442639367111 0 0.31594857135045817 0.35062531106266931 0 0.32442852787466708 0.36030442639367111 0 0.31156622091740832 0.36111849420004938 0 0.34699100967064078 0.35539672769273539 0 0.348137396692076 0.34077307725183559 0 0.33072504187423118 0.34237289876026822 0 0.34699100967064078 0.35539672769273539 0 0.33072504187423118 0.34237289876026822 0 0.32442852787466708 0.36030442639367111 0 0.3376156911696272 0.37620073599141618 0 0.34699100967064078 0.35539672769273539 0 0.32442852787466708 0.36030442639367111 0 0.3376156911696272 0.37620073599141618 0 0.32442852787466708 0.36030442639367111 0 0.31717345926189522 0.3709258031848055 0 0.32442852787466708 0.36030442639367111 0 0.31717345926189522 0.3709258031848055 0 0.31156622091740832 0.36111849420004938 0 0.30177514978199971 0.3711373061071076 0 0.30274952797195698 0.35001407804523332 0 0.31717345926189522 0.3709258031848055 0 0.31156622091740832 0.36111849420004938 0 0.30177514978199971 0.3711373061071076 0 0.31156622091740832 0.36111849420004938 0 0.30177514978199971 0.3711373061071076 0 0.30274952797195698 0.35001407804523332 0 0.30177514978199971 0.3711373061071076 0 0.30274952797195698 0.35001407804523332 0 0.29106955940472562 0.3530243656434488 0 0.31445651652981632 0.33878768779705848 0 0.31594857135045817 0.35062531106266931 0 0.30274952797195698 0.35001407804523332 0 0.31594857135045817 0.35062531106266931 0 0.31156622091740832 0.36111849420004938 0 0.30274952797195698 0.35001407804523332 0 0.29106955940472562 0.3530243656434488 0 0.28705150305193838 0.35613499197806497 0 0.28036396902745148 0.33491142517978989 0 0.28705150305193838 0.35613499197806497 0 0.28036396902745148 0.33491142517978989 0 0.28705150305193838 0.35613499197806497 0 0.27644360280618341 0.34191623842927221 0 0.28036396902745148 0.33491142517978989 0 0.29106955940472562 0.3530243656434488 0 0.28036396902745148 0.33491142517978989 0 0.30274952797195698 0.35001407804523332 0 0.29106955940472562 0.3530243656434488 0 0.29374099595638509 0.3392252011883215 0 0.28705150305193838 0.35613499197806497 0 0.28458867991473008 0.36361942358965982 0 0.27543832275303448 0.34988028840297991 0 0.29405085274881382 0.37834813740539031 0 0.28705150305193838 0.35613499197806497 0 0.28458867991473008 0.36361942358965982 0 0.29405085274881382 0.37834813740539031 0 0.28705150305193838 0.35613499197806497 0 0.30177514978199971 0.3711373061071076 0 0.29106955940472562 0.3530243656434488 0 0.29405085274881382 0.37834813740539031 0 0.30177514978199971 0.3711373061071076 0 0.28705150305193838 0.35613499197806497 0 0.30177514978199971 0.3711373061071076 0 0.29106955940472562 0.3530243656434488 0 0.28705150305193838 0.35613499197806497 0 0.29405085274881382 0.37834813740539031 0 0.28458867991473008 0.36361942358965982 0 0.28403056220722062 0.37531448917755911 0 0.2815017213106239 0.3651550498314205 0 0.27898286169525299 0.37041503512408969 0 0.29405085274881382 0.37834813740539031 0 0.2815017213106239 0.3651550498314205 0 0.28403056220722062 0.37531448917755911 0 0.29405085274881382 0.37834813740539031 0 0.2815017213106239 0.3651550498314205 0 0.29405085274881382 0.37834813740539031 0 0.28458867991473008 0.36361942358965982 0 0.2815017213106239 0.3651550498314205 0 0.28403056220722062 0.37531448917755911 0 0.27898286169525299 0.37041503512408969 0 0.2737626695690904 0.37327007608818358 0 0.27663649369407689 0.36792052539919551 0 0.2737626695690904 0.37327007608818358 0 0.27125000512352843 0.36234153133647429 0 0.27405714121884811 0.38409687161834088 0 0.2737626695690904 0.37327007608818358 0 0.2618259464583832 0.36726095095448358 0 0.2815017213106239 0.3651550498314205 0 0.27898286169525299 0.37041503512408969 0 0.27663649369407689 0.36792052539919551 0 0.27898286169525299 0.37041503512408969 0 0.27663649369407689 0.36792052539919551 0 0.2737626695690904 0.37327007608818358 0 0.2737626695690904 0.37327007608818358 0 0.27125000512352843 0.36234153133647429 0 0.2618259464583832 0.36726095095448358 0 0.27125000512352843 0.36234153133647429 0 0.26895258987243392 0.3519619622574508 0 0.2618259464583832 0.36726095095448358 0 0.2815017213106239 0.3651550498314205 0 0.27125000512352843 0.36234153133647429 0 0.26895258987243392 0.3519619622574508 0 0.2815017213106239 0.3651550498314205 0 0.27663649369407689 0.36792052539919551 0 0.27125000512352843 0.36234153133647429 0 0.28458867991473008 0.36361942358965982 0 0.2815017213106239 0.3651550498314205 0 0.27543832275303448 0.34988028840297991 0 0.2815017213106239 0.3651550498314205 0 0.26895258987243392 0.3519619622574508 0 0.28458867991473008 0.36361942358965982 0 0.27543832275303448 0.34988028840297991 0 0.26895258987243392 0.3519619622574508 0 0.2618259464583832 0.36726095095448358 0 0.2684557314338783 0.34271033597269462 0 0.2815017213106239 0.3651550498314205 0 0.27543832275303448 0.34988028840297991 0 0.26895258987243392 0.3519619622574508 0 0.28705150305193838 0.35613499197806497 0 0.27543832275303448 0.34988028840297991 0 0.27644360280618341 0.34191623842927221 0 0.27543832275303448 0.34988028840297991 0 0.2684557314338783 0.34271033597269462 0 0.27644360280618341 0.34191623842927221 0 0.27543832275303448 0.34988028840297991 0 0.26895258987243392 0.3519619622574508 0 0.2684557314338783 0.34271033597269462 0 0.2618259464583832 0.36726095095448358 0 0.2684557314338783 0.34271033597269462 0 0.24521693247762111 0.35027114815259558 0 0.2618259464583832 0.36726095095448358 0 0.2684557314338783 0.34271033597269462 0 0.24305895760768401 0.36641304215893011 0 0.24521693247762111 0.35027114815259558 0 0.2618259464583832 0.36726095095448358 0 0.24490867605631639 0.32967072069511189 0 0.26050839607327853 0.32387463406168998 0 0.25114017462525878 0.31153615041935723 0 0.26050839607327853 0.32387463406168998 0 0.25114017462525878 0.31153615041935723 0 0.26342424027676908 0.31148804944983333 0 0.24490867605631639 0.32967072069511189 0 0.26050839607327853 0.32387463406168998 0 0.2684557314338783 0.34271033597269462 0 0.24490867605631639 0.32967072069511189 0 0.24521693247762111 0.35027114815259558 0 0.2684557314338783 0.34271033597269462 0 0.26050839607327853 0.32387463406168998 0 0.2684557314338783 0.34271033597269462 0 0.27508551640937329 0.31815972099090539 0 0.2684557314338783 0.34271033597269462 0 0.27508551640937329 0.31815972099090539 0 0.2684557314338783 0.34271033597269462 0 0.27787730485363338 0.33070420273373929 0 0.27508551640937329 0.31815972099090539 0 0.2684557314338783 0.34271033597269462 0 0.27644360280618341 0.34191623842927221 0 0.27787730485363338 0.33070420273373929 0 0.27644360280618341 0.34191623842927221 0 0.28036396902745148 0.33491142517978989 0 0.27787730485363338 0.33070420273373929 0 0.28036396902745148 0.33491142517978989 0 0.27787730485363338 0.33070420273373929 0 0.28036396902745148 0.33491142517978989 0 0.27787730485363338 0.33070420273373929 0 0.27508551640937329 0.31815972099090539 0 0.28036396902745148 0.33491142517978989 0 0.27508551640937329 0.31815972099090539 0 0.26050839607327853 0.32387463406168998 0 0.27508551640937329 0.31815972099090539 0 0.26342424027676908 0.31148804944983333 0 0.27584787744150779 0.31533663815394608 0 0.27508551640937329 0.31815972099090539 0 0.2839587577339367 0.31315639516335231 0 0.27584787744150779 0.31533663815394608 0 0.27508551640937329 0.31815972099090539 0 0.28036396902745148 0.33491142517978989 0 0.27508551640937329 0.31815972099090539 0 0.28884331716543121 0.32432796479040632 0 0.27508551640937329 0.31815972099090539 0 0.2839587577339367 0.31315639516335231 0 0.28884331716543121 0.32432796479040632 0 0.2839587577339367 0.31315639516335231 0 0.28884331716543121 0.32432796479040632 0 0.29436859405188742 0.31561290386725788 0 0.28884331716543121 0.32432796479040632 0 0.29436859405188742 0.31561290386725788 0 0.30372390616191358 0.32889084998335888 0 0.29106955940472562 0.3530243656434488 0 0.28036396902745148 0.33491142517978989 0 0.29374099595638509 0.3392252011883215 0 0.28036396902745148 0.33491142517978989 0 0.28884331716543121 0.32432796479040632 0 0.29374099595638509 0.3392252011883215 0 0.28884331716543121 0.32432796479040632 0 0.29374099595638509 0.3392252011883215 0 0.30372390616191358 0.32889084998335888 0 0.30274952797195698 0.35001407804523332 0 0.29374099595638509 0.3392252011883215 0 0.30372390616191358 0.32889084998335888 0 0.31445651652981632 0.33878768779705848 0 0.30274952797195698 0.35001407804523332 0 0.30372390616191358 0.32889084998335888 0 0.30274952797195698 0.35001407804523332 0 0.30372390616191358 0.32889084998335888 0 0.29436859405188742 0.31561290386725788 0 0.30372390616191358 0.32889084998335888 0 0.30469828435187041 0.30776762192148471 0 0.32122702449841589 0.32177081607522939 0 0.30372390616191358 0.32889084998335888 0 0.30469828435187041 0.30776762192148471 0 0.30372390616191358 0.32889084998335888 0 0.30469828435187041 0.30776762192148471 0 0.30469828435187041 0.30776762192148471 0 0.29887142377560671 0.29447355700322281 0 0.31975384086217118 0.29390073052843008 0 0.30469828435187041 0.30776762192148471 0 0.29887142377560671 0.29447355700322281 0 0.29061870484628499 0.30392168747768772 0 0.29887142377560671 0.29447355700322281 0 0.29803417524575498 0.27809430922643119 0 0.31975384086217118 0.29390073052843008 0 0.29887142377560671 0.29447355700322281 0 0.28125211357195179 0.28868343586208051 0 0.29803417524575498 0.27809430922643119 0 0.29887142377560671 0.29447355700322281 0 0.28125211357195179 0.28868343586208051 0 0.29061870484628499 0.30392168747768772 0 0.29436859405188742 0.31561290386725788 0 0.30469828435187041 0.30776762192148471 0 0.29061870484628499 0.30392168747768772 0 0.2839587577339367 0.31315639516335231 0 0.29436859405188742 0.31561290386725788 0 0.29061870484628499 0.30392168747768772 0 0.28125211357195179 0.28868343586208051 0 0.29061870484628499 0.30392168747768772 0 0.27979091010679558 0.3031930520058399 0 0.2839587577339367 0.31315639516335231 0 0.29061870484628499 0.30392168747768772 0 0.27979091010679558 0.3031930520058399 0 0.27584787744150779 0.31533663815394608 0 0.2839587577339367 0.31315639516335231 0 0.27979091010679558 0.3031930520058399 0 0.27584787744150779 0.31533663815394608 0 0.27979091010679558 0.3031930520058399 0 0.26696287399916629 0.2923816923273807 0 0.27508551640937329 0.31815972099090539 0 0.26696287399916629 0.2923816923273807 0 0.27508551640937329 0.31815972099090539 0 0.26696287399916629 0.2923816923273807 0 0.26342424027676908 0.31148804944983333 0 0.27584787744150779 0.31533663815394608 0 0.27508551640937329 0.31815972099090539 0 0.26696287399916629 0.2923816923273807 0 0.28125211357195179 0.28868343586208051 0 0.26696287399916629 0.2923816923273807 0 0.26185531842249993 0.2787869231154117 0 0.28125211357195179 0.28868343586208051 0 0.27979091010679558 0.3031930520058399 0 0.26696287399916629 0.2923816923273807 0 0.2454028482605469 0.29267792886045368 0 0.26696287399916629 0.2923816923273807 0 0.26185531842249993 0.2787869231154117 0 0.24818821145747599 0.27522177653690871 0 0.2454028482605469 0.29267792886045368 0 0.26185531842249993 0.2787869231154117 0 0.26696287399916629 0.2923816923273807 0 0.25114017462525878 0.31153615041935723 0 0.26342424027676908 0.31148804944983333 0 0.2454028482605469 0.29267792886045368 0 0.26696287399916629 0.2923816923273807 0 0.25114017462525878 0.31153615041935723 0 0.25404003316197471 0.25208422786308371 0 0.25530776412370298 0.26639583896058622 0 0.27103688063193948 0.26427270241964718 0 0.24090080429007341 0.26281353644332878 0 0.25404003316197471 0.25208422786308371 0 0.25530776412370298 0.26639583896058622 0 0.25530776412370298 0.26639583896058622 0 0.26185531842249993 0.2787869231154117 0 0.27103688063193948 0.26427270241964718 0 0.24818821145747599 0.27522177653690871 0 0.25530776412370298 0.26639583896058622 0 0.26185531842249993 0.2787869231154117 0 0.28125211357195179 0.28868343586208051 0 0.26185531842249993 0.2787869231154117 0 0.27103688063193948 0.26427270241964718 0 0.25404003316197471 0.25208422786308371 0 0.27103688063193948 0.26427270241964718 0 0.27355486584907379 0.24364475180805101 0 0.27103688063193948 0.26427270241964718 0 0.29692855903906679 0.25537037528416417 0 0.27355486584907379 0.24364475180805101 0 0.27103688063193948 0.26427270241964718 0 0.29803417524575498 0.27809430922643119 0 0.29692855903906679 0.25537037528416417 0 0.28125211357195179 0.28868343586208051 0 0.27103688063193948 0.26427270241964718 0 0.29803417524575498 0.27809430922643119 0 0.29803417524575498 0.27809430922643119 0 0.29692855903906679 0.25537037528416417 0 0.32239972953691409 0.26902358330948362 0 0.29692855903906679 0.25537037528416417 0 0.32239972953691409 0.26902358330948362 0 0.32448256229391081 0.244023600812113 0 0.34859232732963041 0.2656914204712259 0 0.32448256229391081 0.244023600812113 0 0.35052125483258301 0.2434514759103418 0 0.32239972953691409 0.26902358330948362 0 0.34859232732963041 0.2656914204712259 0 0.32448256229391081 0.244023600812113 0 0.32239972953691409 0.26902358330948362 0 0.34580587121379802 0.29027056413174801 0 0.34859232732963041 0.2656914204712259 0 0.32239972953691409 0.26902358330948362 0 0.34859232732963041 0.2656914204712259 0 0.29803417524575498 0.27809430922643119 0 0.32239972953691409 0.26902358330948362 0 0.31975384086217118 0.29390073052843008 0 0.32122702449841589 0.32177081607522939 0 0.30469828435187041 0.30776762192148471 0 0.31975384086217118 0.29390073052843008 0 0.32122702449841589 0.32177081607522939 0 0.31975384086217118 0.29390073052843008 0 0.33644502425256478 0.30910566618648461 0 0.31975384086217118 0.29390073052843008 0 0.33644502425256478 0.30910566618648461 0 0.34580587121379802 0.29027056413174801 0 0.32239972953691409 0.26902358330948362 0 0.31975384086217118 0.29390073052843008 0 0.34580587121379802 0.29027056413174801 0 0.34580587121379802 0.29027056413174801 0 0.35183379698966949 0.31056891257481539 0 0.36606901625265492 0.30223218437601618 0 0.33644502425256478 0.30910566618648461 0 0.34580587121379802 0.29027056413174801 0 0.35183379698966949 0.31056891257481539 0 0.36562923609293069 0.32366592916769399 0 0.35183379698966949 0.31056891257481539 0 0.36606901625265492 0.30223218437601618 0 0.36606901625265492 0.30223218437601618 0 0.37288852905391068 0.28307277276217568 0 0.38313639778678782 0.29894980138166888 0 0.34580587121379802 0.29027056413174801 0 0.36606901625265492 0.30223218437601618 0 0.37288852905391068 0.28307277276217568 0 0.37288852905391068 0.28307277276217568 0 0.37478492512234668 0.26235925763296819 0 0.34859232732963041 0.2656914204712259 0 0.37478492512234668 0.26235925763296819 0 0.34859232732963041 0.2656914204712259 0 0.37478492512234668 0.26235925763296819 0 0.34859232732963041 0.2656914204712259 0 0.35052125483258301 0.2434514759103418 0 0.34580587121379802 0.29027056413174801 0 0.37288852905391068 0.28307277276217568 0 0.34859232732963041 0.2656914204712259 0 0.40237095019481112 0.27711100542787093 0 0.40097752291506289 0.25902709479471048 0 0.38795285511664351 0.27501277358291848 0 0.40237095019481112 0.27711100542787093 0 0.38795285511664351 0.27501277358291848 0 0.39245341439736259 0.28869000139839213 0 0.37478492512234668 0.26235925763296819 0 0.40097752291506289 0.25902709479471048 0 0.37478492512234668 0.26235925763296819 0 0.40097752291506289 0.25902709479471048 0 0.38795285511664351 0.27501277358291848 0 0.37478492512234668 0.26235925763296819 0 0.40097752291506289 0.25902709479471048 0 0.39333580902427501 0.24081282939082621 0 0.37288852905391068 0.28307277276217568 0 0.37478492512234668 0.26235925763296819 0 0.38795285511664351 0.27501277358291848 0 0.37288852905391068 0.28307277276217568 0 0.38795285511664351 0.27501277358291848 0 0.39245341439736259 0.28869000139839213 0 0.37288852905391068 0.28307277276217568 0 0.38313639778678782 0.29894980138166888 0 0.39245341439736259 0.28869000139839213 0 0.38313639778678782 0.29894980138166888 0 0.40184121301557668 0.30678024061641418 0 0.38242981621443428 0.31397380775534678 0 0.36606901625265492 0.30223218437601618 0 0.38313639778678782 0.29894980138166888 0 0.38242981621443428 0.31397380775534678 0 0.38313639778678782 0.29894980138166888 0 0.40184121301557668 0.30678024061641418 0 0.39245341439736259 0.28869000139839213 0 0.40184121301557668 0.30678024061641418 0 0.39245341439736259 0.28869000139839213 0 0.4080647950624654 0.29173952990842672 0 0.40237095019481112 0.27711100542787093 0 0.39245341439736259 0.28869000139839213 0 0.4080647950624654 0.29173952990842672 0 0.4080647950624654 0.29173952990842672 0 0.42111158276914429 0.29961990628964941 0 0.41801819212357011 0.2740782959756311 0 0.42111158276914429 0.29961990628964941 0 0.41801819212357011 0.2740782959756311 0 0.42111158276914429 0.29961990628964941 0 0.41431845905081632 0.31211616404088999 0 0.42420497341471841 0.32516151660366771 0 0.40184121301557668 0.30678024061641418 0 0.41169384258873692 0.3030193229363472 0 0.41431845905081632 0.31211616404088999 0 0.4080647950624654 0.29173952990842672 0 0.41169384258873692 0.3030193229363472 0 0.42111158276914429 0.29961990628964941 0 0.40184121301557668 0.30678024061641418 0 0.4080647950624654 0.29173952990842672 0 0.41169384258873692 0.3030193229363472 0 0.41169384258873692 0.3030193229363472 0 0.42111158276914429 0.29961990628964941 0 0.41431845905081632 0.31211616404088999 0 0.42111158276914429 0.29961990628964941 0 0.42420497341471841 0.32516151660366771 0 0.42111158276914429 0.29961990628964941 0 0.42968026012840121 0.30115694743242971 0 0.43130474666914309 0.31304161877190062 0 0.42968026012840121 0.30115694743242971 0 0.44258646999382029 0.30990113159980692 0 0.42968026012840121 0.30115694743242971 0 0.44258646999382029 0.30990113159980692 0 0.43130474666914309 0.31304161877190062 0 0.42111158276914429 0.29961990628964941 0 0.42800801910193731 0.28582653817902792 0 0.41801819212357011 0.2740782959756311 0 0.42968026012840121 0.30115694743242971 0 0.42800801910193731 0.28582653817902792 0 0.44797459424715858 0.28113195035900113 0 0.42111158276914429 0.29961990628964941 0 0.42968026012840121 0.30115694743242971 0 0.42800801910193731 0.28582653817902792 0 0.4349067289361882 0.26981889711766149 0 0.41801819212357011 0.2740782959756311 0 0.42717012070777932 0.25569493195645271 0 0.42800801910193731 0.28582653817902792 0 0.4349067289361882 0.26981889711766149 0 0.44797459424715858 0.28113195035900113 0 0.42800801910193731 0.28582653817902792 0 0.4349067289361882 0.26981889711766149 0 0.41801819212357011 0.2740782959756311 0 0.40237095019481112 0.27711100542787093 0 0.4080647950624654 0.29173952990842672 0 0.41801819212357011 0.2740782959756311 0 0.40237095019481112 0.27711100542787093 0 0.40097752291506289 0.25902709479471048 0 0.41801819212357011 0.2740782959756311 0 0.40097752291506289 0.25902709479471048 0 0.42717012070777932 0.25569493195645271 0 0.40097752291506289 0.25902709479471048 0 0.41801819212357011 0.2740782959756311 0 0.42717012070777932 0.25569493195645271 0 0.40097752291506289 0.25902709479471048 0 0.42717012070777932 0.25569493195645271 0 0.41286841049430861 0.24788583003777651 0 0.42717012070777932 0.25569493195645271 0 0.45336271850049548 0.25236276911819511 0 0.42717012070777932 0.25569493195645271 0 0.45336271850049548 0.25236276911819511 0 0.44134696414428898 0.24814556957704689 0 0.4349067289361882 0.26981889711766149 0 0.42717012070777932 0.25569493195645271 0 0.45336271850049548 0.25236276911819511 0 0.44797459424715858 0.28113195035900113 0 0.45336271850049548 0.25236276911819511 0 0.4349067289361882 0.26981889711766149 0 0.44797459424715858 0.28113195035900113 0 0.45336271850049548 0.25236276911819511 0 0.44797459424715858 0.28113195035900113 0 0.46860043072286323 0.26090172283992602 0 0.47518926652314969 0.27560515809727743 0 0.44797459424715858 0.28113195035900113 0 0.45336271850049548 0.25236276911819511 0 0.46860043072286323 0.26090172283992602 0 0.45336271850049548 0.25236276911819511 0 0.46860043072286323 0.26090172283992602 0 0.48180965237011408 0.2487438147612096 0 0.45336271850049548 0.25236276911819511 0 0.48180965237011408 0.2487438147612096 0 0.46860043072286323 0.26090172283992602 0 0.48241006781490819 0.26268970127635521 0 0.48180965237011408 0.2487438147612096 0 0.46860043072286323 0.26090172283992602 0 0.48241006781490819 0.26268970127635521 0 0.47518926652314969 0.27560515809727743 0 0.48241006781490819 0.26268970127635521 0 0.47518926652314969 0.27560515809727743 0 0.48864569132575902 0.27555399191102209 0 0.48864569132575902 0.27555399191102209 0 0.5 0.25788891558126559 0 0.5 0.28784398070901179 0 0.48241006781490819 0.26268970127635521 0 0.5 0.25788891558126559 0 0.48180965237011408 0.2487438147612096 0 0.48241006781490819 0.26268970127635521 0 0.48864569132575902 0.27555399191102209 0 0.5 0.25788891558126559 0 0.49687855588093471 0.30562269631142192 0 0.5 0.28784398070901179 0 0.5 0.31779904583675789 0 0.48491490847636098 0.30901068293115042 0 0.49687855588093471 0.30562269631142192 0 0.48562912229073679 0.29374220389120048 0 0.48491490847636098 0.30901068293115042 0 0.49687855588093471 0.30562269631142192 0 0.48893996521802741 0.32077530068026477 0 0.48864569132575902 0.27555399191102209 0 0.5 0.28784398070901179 0 0.48562912229073679 0.29374220389120048 0 0.49687855588093471 0.30562269631142192 0 0.5 0.28784398070901179 0 0.48562912229073679 0.29374220389120048 0 0.47518926652314969 0.27560515809727743 0 0.48864569132575902 0.27555399191102209 0 0.48562912229073679 0.29374220389120048 0 0.47518926652314969 0.27560515809727743 0 0.48562912229073679 0.29374220389120048 0 0.46816558308298489 0.29083511245767268 0 0.48562912229073679 0.29374220389120048 0 0.47222103054853309 0.30536857664361422 0 0.46816558308298489 0.29083511245767268 0 0.48491490847636098 0.30901068293115042 0 0.48562912229073679 0.29374220389120048 0 0.47222103054853309 0.30536857664361422 0 0.48491490847636098 0.30901068293115042 0 0.47222103054853309 0.30536857664361422 0 0.47648252662976798 0.31886183994020412 0 0.47222103054853309 0.30536857664361422 0 0.45866337291811637 0.30169365927876157 0 0.46179392227446953 0.32291451832445861 0 0.45866337291811637 0.30169365927876157 0 0.44258646999382029 0.30990113159980692 0 0.46179392227446953 0.32291451832445861 0 0.47222103054853309 0.30536857664361422 0 0.45866337291811637 0.30169365927876157 0 0.46816558308298489 0.29083511245767268 0 0.44797459424715858 0.28113195035900113 0 0.45866337291811637 0.30169365927876157 0 0.46816558308298489 0.29083511245767268 0 0.44797459424715858 0.28113195035900113 0 0.47518926652314969 0.27560515809727743 0 0.46816558308298489 0.29083511245767268 0 0.44797459424715858 0.28113195035900113 0 0.44258646999382029 0.30990113159980692 0 0.42968026012840121 0.30115694743242971 0 0.44797459424715858 0.28113195035900113 0 0.44258646999382029 0.30990113159980692 0 0.44797459424715858 0.28113195035900113 0 0.45866337291811637 0.30169365927876157 0 0.44258646999382029 0.30990113159980692 0 0.44258646999382029 0.30990113159980692 0 0.46179392227446953 0.32291451832445861 0 0.44258646999382029 0.30990113159980692 0 0.43894044703962998 0.32936859193394902 0 0.46179392227446953 0.32291451832445861 0 0.44258646999382029 0.30990113159980692 0 0.43894044703962998 0.32936859193394902 0 0.44258646999382029 0.30990113159980692 0 0.43894044703962998 0.32936859193394902 0 0.43130474666914309 0.31304161877190062 0 0.43894044703962998 0.32936859193394902 0 0.45181909328986353 0.33594590439129729 0 0.43529442408543872 0.34883605226809089 0 0.43894044703962998 0.32936859193394902 0 0.45181909328986353 0.33594590439129729 0 0.46179392227446953 0.32291451832445861 0 0.45181909328986353 0.33594590439129729 0 0.46495921083649527 0.33796731498031379 0 0.45493863887308472 0.34850758154427958 0 0.45181909328986353 0.33594590439129729 0 0.46495921083649527 0.33796731498031379 0 0.46179392227446953 0.32291451832445861 0 0.47648252662976798 0.31886183994020412 0 0.48100137455512032 0.33592790504910791 0 0.48893996521802741 0.32077530068026477 0 0.46179392227446953 0.32291451832445861 0 0.47648252662976798 0.31886183994020412 0 0.48100137455512032 0.33592790504910791 0 0.47222103054853309 0.30536857664361422 0 0.46179392227446953 0.32291451832445861 0 0.47648252662976798 0.31886183994020412 0 0.48491490847636098 0.30901068293115042 0 0.47648252662976798 0.31886183994020412 0 0.48893996521802741 0.32077530068026477 0 0.46179392227446953 0.32291451832445861 0 0.48100137455512032 0.33592790504910791 0 0.46495921083649527 0.33796731498031379 0 0.48100137455512032 0.33592790504910791 0 0.47458285366073072 0.34817911082046721 0 0.46495921083649527 0.33796731498031379 0 0.46179392227446953 0.32291451832445861 0 0.48100137455512032 0.33592790504910791 0 0.48100137455512032 0.33592790504910791 0 0.47458285366073072 0.34817911082046721 0 0.48100137455512032 0.33592790504910791 0 0.48893996521802741 0.32077530068026477 0 0.48100137455512032 0.33592790504910791 0 0.4984937498586452 0.34777929695842291 0 0.5 0.31779904583675789 0 0.48893996521802741 0.32077530068026477 0 0.4984937498586452 0.34777929695842291 0 0.5 0.31779904583675789 0 0.4984937498586452 0.34777929695842291 0 0.50000000000000433 0.34775411096450393 0 0.48100137455512032 0.33592790504910791 0 0.48893996521802741 0.32077530068026477 0 0.4984937498586452 0.34777929695842291 0 0.49687855588093471 0.30562269631142192 0 0.48893996521802741 0.32077530068026477 0 0.49687855588093471 0.30562269631142192 0 0.5 0.31779904583675789 0 0.48893996521802741 0.32077530068026477 0 0.5 0.37175840028027313 0 0.48688174284785979 0.35971936811564431 0 0.50000000000000433 0.34775411096450393 0 0.5 0.37175840028027313 0 0.48688174284785979 0.35971936811564431 0 0.48177296974371542 0.3780796821533936 0 0.48100137455512032 0.33592790504910791 0 0.4984937498586452 0.34777929695842291 0 0.47458285366073072 0.34817911082046721 0 0.48688174284785979 0.35971936811564431 0 0.4984937498586452 0.34777929695842291 0 0.47458285366073072 0.34817911082046721 0 0.48688174284785979 0.35971936811564431 0 0.4984937498586452 0.34777929695842291 0 0.50000000000000433 0.34775411096450393 0 0.4984937498586452 0.34777929695842291 0 0.47458285366073072 0.34817911082046721 0 0.4984937498586452 0.34777929695842291 0 0.50000000000000433 0.34775411096450393 0 0.48688174284785979 0.35971936811564431 0 0.47458285366073072 0.34817911082046721 0 0.46644088382406917 0.36371991056145853 0 0.47458285366073072 0.34817911082046721 0 0.46644088382406917 0.36371991056145853 0 0.46644088382406917 0.36371991056145853 0 0.45829891398740957 0.37926071030245079 0 0.48177296974371542 0.3780796821533936 0 0.48688174284785979 0.35971936811564431 0 0.46644088382406917 0.36371991056145853 0 0.48177296974371542 0.3780796821533936 0 0.46644088382406917 0.36371991056145853 0 0.45829891398740957 0.37926071030245079 0 0.46644088382406917 0.36371991056145853 0 0.45450488254489102 0.36219879314378839 0 0.45829891398740957 0.37926071030245079 0 0.46495921083649527 0.33796731498031379 0 0.47458285366073072 0.34817911082046721 0 0.45493863887308472 0.34850758154427958 0 0.47458285366073072 0.34817911082046721 0 0.45493863887308472 0.34850758154427958 0 0.47458285366073072 0.34817911082046721 0 0.46644088382406917 0.36371991056145853 0 0.45493863887308472 0.34850758154427958 0 0.46644088382406917 0.36371991056145853 0 0.45450488254489102 0.36219879314378839 0 0.45493863887308472 0.34850758154427958 0 0.45181909328986353 0.33594590439129729 0 0.45493863887308472 0.34850758154427958 0 0.43529442408543872 0.34883605226809089 0 0.45493863887308472 0.34850758154427958 0 0.44448268479035308 0.35511800724889642 0 0.43529442408543872 0.34883605226809089 0 0.45493863887308472 0.34850758154427958 0 0.43529442408543872 0.34883605226809089 0 0.45450488254489102 0.36219879314378839 0 0.45493863887308472 0.34850758154427958 0 0.44448268479035308 0.35511800724889642 0 0.44448268479035308 0.35511800724889642 0 0.44279863902385319 0.36498191861006751 0 0.43487683942449812 0.35106569067825599 0 0.44448268479035308 0.35511800724889642 0 0.43529442408543872 0.34883605226809089 0 0.43487683942449812 0.35106569067825599 0 0.45450488254489102 0.36219879314378839 0 0.44279863902385319 0.36498191861006751 0 0.45829891398740957 0.37926071030245079 0 0.44279863902385319 0.36498191861006751 0 0.45829891398740957 0.37926071030245079 0 0.45450488254489102 0.36219879314378839 0 0.44448268479035308 0.35511800724889642 0 0.44279863902385319 0.36498191861006751 0 0.42892444364691579 0.3641293946929936 0 0.42225433889660879 0.37545697575276449 0 0.43605286711449009 0.38080977408974359 0 0.44279863902385319 0.36498191861006751 0 0.42892444364691579 0.3641293946929936 0 0.43605286711449009 0.38080977408974359 0 0.44279863902385319 0.36498191861006751 0 0.42892444364691579 0.3641293946929936 0 0.42729836406029548 0.35070312691768563 0 0.42892444364691579 0.3641293946929936 0 0.41660844069210962 0.35988002802349189 0 0.42225433889660879 0.37545697575276449 0 0.41660844069210962 0.35988002802349189 0 0.40918213701441342 0.3736144609854074 0 0.42225433889660879 0.37545697575276449 0 0.41660844069210962 0.35988002802349189 0 0.40918213701441342 0.3736144609854074 0 0.40205795884979889 0.36380219258680641 0 0.40642652845595439 0.35168475710611302 0 0.41593005466970517 0.35003896004439389 0 0.41338688547046137 0.33788792813028518 0 0.41660844069210962 0.35988002802349189 0 0.40642652845595439 0.35168475710611302 0 0.40205795884979889 0.36380219258680641 0 0.41660844069210962 0.35988002802349189 0 0.40642652845595439 0.35168475710611302 0 0.41593005466970517 0.35003896004439389 0 0.41660844069210962 0.35988002802349189 0 0.41593005466970517 0.35003896004439389 0 0.42729836406029548 0.35070312691768563 0 0.42729836406029548 0.35070312691768563 0 0.41338688547046137 0.33788792813028518 0 0.41593005466970517 0.35003896004439389 0 0.42729836406029548 0.35070312691768563 0 0.41338688547046137 0.33788792813028518 0 0.42892444364691579 0.3641293946929936 0 0.41660844069210962 0.35988002802349189 0 0.42729836406029548 0.35070312691768563 0 0.42892444364691579 0.3641293946929936 0 0.42729836406029548 0.35070312691768563 0 0.44279863902385319 0.36498191861006751 0 0.42729836406029548 0.35070312691768563 0 0.43487683942449812 0.35106569067825599 0 0.44279863902385319 0.36498191861006751 0 0.42729836406029548 0.35070312691768563 0 0.43109136567724748 0.3489063315667284 0 0.43529442408543872 0.34883605226809089 0 0.42729836406029548 0.35070312691768563 0 0.43109136567724748 0.3489063315667284 0 0.43487683942449812 0.35106569067825599 0 0.43109136567724748 0.3489063315667284 0 0.43529442408543872 0.34883605226809089 0 0.43487683942449812 0.35106569067825599 0 0.43529442408543872 0.34883605226809089 0 0.43487683942449812 0.35106569067825599 0 0.42729836406029548 0.35070312691768563 0 0.42420497341471841 0.32516151660366771 0 0.43894044703962998 0.32936859193394902 0 0.43529442408543872 0.34883605226809089 0 0.43894044703962998 0.32936859193394902 0 0.43109136567724748 0.3489063315667284 0 0.43529442408543872 0.34883605226809089 0 0.42729836406029548 0.35070312691768563 0 0.43109136567724748 0.3489063315667284 0 0.42420497341471841 0.32516151660366771 0 0.43894044703962998 0.32936859193394902 0 0.43109136567724748 0.3489063315667284 0 0.42420497341471841 0.32516151660366771 0 0.43894044703962998 0.32936859193394902 0 0.43130474666914309 0.31304161877190062 0 0.42420497341471841 0.32516151660366771 0 0.42111158276914429 0.29961990628964941 0 0.43130474666914309 0.31304161877190062 0 0.42420497341471841 0.32516151660366771 0 0.40184121301557668 0.30678024061641418 0 0.41431845905081632 0.31211616404088999 0 0.41140534993910638 0.32360132811636988 0 0.41431845905081632 0.31211616404088999 0 0.42420497341471841 0.32516151660366771 0 0.41140534993910638 0.32360132811636988 0 0.42729836406029548 0.35070312691768563 0 0.42420497341471841 0.32516151660366771 0 0.41338688547046137 0.33788792813028518 0 0.42420497341471841 0.32516151660366771 0 0.41140534993910638 0.32360132811636988 0 0.41338688547046137 0.33788792813028518 0 0.41140534993910638 0.32360132811636988 0 0.41338688547046137 0.33788792813028518 0 0.39947540688062583 0.32507272934288628 0 0.41338688547046137 0.33788792813028518 0 0.39947540688062583 0.32507272934288628 0 0.40642652845595439 0.35168475710611302 0 0.41338688547046137 0.33788792813028518 0 0.39105145014164849 0.3414869239971704 0 0.41338688547046137 0.33788792813028518 0 0.39105145014164849 0.3414869239971704 0 0.39947540688062583 0.32507272934288628 0 0.40184121301557668 0.30678024061641418 0 0.41140534993910638 0.32360132811636988 0 0.39947540688062583 0.32507272934288628 0 0.40184121301557668 0.30678024061641418 0 0.39947540688062583 0.32507272934288628 0 0.38242981621443428 0.31397380775534678 0 0.36562923609293069 0.32366592916769399 0 0.38242981621443428 0.31397380775534678 0 0.38128435600444488 0.32837669887387311 0 0.39947540688062583 0.32507272934288628 0 0.38242981621443428 0.31397380775534678 0 0.38128435600444488 0.32837669887387311 0 0.39105145014164849 0.3414869239971704 0 0.39947540688062583 0.32507272934288628 0 0.38128435600444488 0.32837669887387311 0 0.36518945593320651 0.34509967395937191 0 0.39105145014164849 0.3414869239971704 0 0.38128435600444488 0.32837669887387311 0 0.36518945593320651 0.34509967395937191 0 0.39105145014164849 0.3414869239971704 0 0.3855881021147175 0.35910908792858098 0 0.36474967577348072 0.36653341875104961 0 0.3855881021147175 0.35910908792858098 0 0.3855881021147175 0.35910908792858098 0 0.39248458597179969 0.37472262889043839 0 0.3773824667175657 0.37546563606013739 0 0.36474967577348072 0.36653341875104961 0 0.3855881021147175 0.35910908792858098 0 0.3773824667175657 0.37546563606013739 0 0.40918213701441342 0.3736144609854074 0 0.39248458597179969 0.37472262889043839 0 0.40205795884979889 0.36380219258680641 0 0.3855881021147175 0.35910908792858098 0 0.39248458597179969 0.37472262889043839 0 0.40205795884979889 0.36380219258680641 0 0.40642652845595439 0.35168475710611302 0 0.39105145014164849 0.3414869239971704 0 0.3855881021147175 0.35910908792858098 0 0.40642652845595439 0.35168475710611302 0 0.3855881021147175 0.35910908792858098 0 0.40642652845595439 0.35168475710611302 0 0.3855881021147175 0.35910908792858098 0 0.40205795884979889 0.36380219258680641 0 0.39221066862400811 0.40518894945558848 0 0.39940032860097008 0.38986983405391068 0 0.41033309730305728 0.40785957742124029 0 0.40918213701441342 0.3736144609854074 0 0.39248458597179969 0.37472262889043839 0 0.39940032860097008 0.38986983405391068 0 0.39248458597179969 0.37472262889043839 0 0.39940032860097008 0.38986983405391068 0 0.38026367080056678 0.39066664182047522 0 0.39248458597179969 0.37472262889043839 0 0.3773824667175657 0.37546563606013739 0 0.38026367080056678 0.39066664182047522 0 0.39221066862400811 0.40518894945558848 0 0.39940032860097008 0.38986983405391068 0 0.38026367080056678 0.39066664182047522 0 0.39221066862400811 0.40518894945558848 0 0.38026367080056678 0.39066664182047522 0 0.37744029411777058 0.41252948965876268 0 0.39221066862400811 0.40518894945558848 0 0.37744029411777058 0.41252948965876268 0 0.39361595229767549 0.42501920432355378 0 0.365542703577178 0.42914551292816783 0 0.39361595229767549 0.42501920432355378 0 0.37809165231809289 0.44568724501072521 0 0.365542703577178 0.42914551292816783 0 0.37744029411777058 0.41252948965876268 0 0.39361595229767549 0.42501920432355378 0 0.365542703577178 0.42914551292816783 0 0.39361595229767549 0.42501920432355378 0 0.39361595229767549 0.42501920432355378 0 0.41035062152962531 0.4256058815429955 0 0.40092741287151468 0.44093224530230651 0 0.39361595229767549 0.42501920432355378 0 0.40092741287151468 0.44093224530230651 0 0.37809165231809289 0.44568724501072521 0 0.39361595229767549 0.42501920432355378 0 0.41033309730305728 0.40785957742124029 0 0.41035062152962531 0.4256058815429955 0 0.39221066862400811 0.40518894945558848 0 0.39361595229767549 0.42501920432355378 0 0.41033309730305728 0.40785957742124029 0 0.41033309730305728 0.40785957742124029 0 0.41035062152962531 0.4256058815429955 0 0.42646345733135449 0.42088686527347441 0 0.41035062152962531 0.4256058815429955 0 0.4216403136361262 0.43569606407888728 0 0.42646345733135449 0.42088686527347441 0 0.41035062152962531 0.4256058815429955 0 0.4216403136361262 0.43569606407888728 0 0.40092741287151468 0.44093224530230651 0 0.43504649219903713 0.43385430946487219 0 0.42646345733135449 0.42088686527347441 0 0.44292677264660579 0.42392515796168401 0 0.4216403136361262 0.43569606407888728 0 0.43504649219903713 0.43385430946487219 0 0.42646345733135449 0.42088686527347441 0 0.4216403136361262 0.43569606407888728 0 0.43504649219903713 0.43385430946487219 0 0.4309855774719657 0.44262377444488737 0 0.41033309730305728 0.40785957742124029 0 0.42646345733135449 0.42088686527347441 0 0.43473852811684172 0.40482082561786309 0 0.42646345733135449 0.42088686527347441 0 0.43473852811684172 0.40482082561786309 0 0.44292677264660579 0.42392515796168401 0 0.43473852811684172 0.40482082561786309 0 0.42003555557297712 0.38799376876492359 0 0.43605286711449009 0.38080977408974359 0 0.41033309730305728 0.40785957742124029 0 0.43473852811684172 0.40482082561786309 0 0.42003555557297712 0.38799376876492359 0 0.39940032860097008 0.38986983405391068 0 0.41033309730305728 0.40785957742124029 0 0.42003555557297712 0.38799376876492359 0 0.40918213701441342 0.3736144609854074 0 0.39940032860097008 0.38986983405391068 0 0.42003555557297712 0.38799376876492359 0 0.40918213701441342 0.3736144609854074 0 0.42003555557297712 0.38799376876492359 0 0.42225433889660879 0.37545697575276449 0 0.42003555557297712 0.38799376876492359 0 0.42225433889660879 0.37545697575276449 0 0.43605286711449009 0.38080977408974359 0 0.44279863902385319 0.36498191861006751 0 0.43605286711449009 0.38080977408974359 0 0.45829891398740957 0.37926071030245079 0 0.43605286711449009 0.38080977408974359 0 0.44916269767969552 0.39669925538146661 0 0.45829891398740957 0.37926071030245079 0 0.43473852811684172 0.40482082561786309 0 0.43605286711449009 0.38080977408974359 0 0.44916269767969552 0.39669925538146661 0 0.43473852811684172 0.40482082561786309 0 0.44916269767969552 0.39669925538146661 0 0.45819524916971172 0.41557138043250991 0 0.44916269767969552 0.39669925538146661 0 0.47914945699370431 0.3984681476517854 0 0.45819524916971172 0.41557138043250991 0 0.44916269767969552 0.39669925538146661 0 0.45829891398740957 0.37926071030245079 0 0.47914945699370431 0.3984681476517854 0 0.45829891398740957 0.37926071030245079 0 0.47914945699370431 0.3984681476517854 0 0.44916269767969552 0.39669925538146661 0 0.45829891398740957 0.37926071030245079 0 0.45829891398740957 0.37926071030245079 0 0.48177296974371542 0.3780796821533936 0 0.47914945699370431 0.3984681476517854 0 0.47914945699370431 0.3984681476517854 0 0.5 0.39471699264069632 0 0.49999999999999928 0.41767558500111929 0 0.48177296974371542 0.3780796821533936 0 0.47914945699370431 0.3984681476517854 0 0.5 0.39471699264069632 0 0.5 0.37175840028027313 0 0.48177296974371542 0.3780796821533936 0 0.5 0.39471699264069632 0 0.48950419912568011 0.43203648207583117 0 0.49999999999999928 0.41767558500111929 0 0.47941257652712138 0.42859526255965119 0 0.48950419912568011 0.43203648207583117 0 0.49999999999999928 0.41767558500111929 0 0.50000000000000022 0.44212157098762489 0 0.49999999999999928 0.41767558500111929 0 0.47638758820359789 0.4177788365799131 0 0.47941257652712138 0.42859526255965119 0 0.47914945699370431 0.3984681476517854 0 0.49999999999999928 0.41767558500111929 0 0.47638758820359789 0.4177788365799131 0 0.47914945699370431 0.3984681476517854 0 0.49999999999999928 0.41767558500111929 0 0.47914945699370431 0.3984681476517854 0 0.47638758820359789 0.4177788365799131 0 0.45819524916971172 0.41557138043250991 0 0.47638758820359789 0.4177788365799131 0 0.46959145424244531 0.42892785421681912 0 0.47941257652712138 0.42859526255965119 0 0.48950419912568011 0.43203648207583117 0 0.47941257652712138 0.42859526255965119 0 0.47860421997559988 0.43975350975492877 0 0.46959145424244531 0.42892785421681912 0 0.47941257652712138 0.42859526255965119 0 0.47860421997559988 0.43975350975492877 0 0.46959145424244531 0.42892785421681912 0 0.45720843995119947 0.43738544852223271 0 0.45819524916971172 0.41557138043250991 0 0.46959145424244531 0.42892785421681912 0 0.45720843995119947 0.43738544852223271 0 0.47860421997559988 0.43975350975492877 0 0.47638758820359789 0.4177788365799131 0 0.46959145424244531 0.42892785421681912 0 0.45819524916971172 0.41557138043250991 0 0.43473852811684172 0.40482082561786309 0 0.45819524916971172 0.41557138043250991 0 0.44292677264660579 0.42392515796168401 0 0.45720843995119947 0.43738544852223271 0 0.45819524916971172 0.41557138043250991 0 0.44292677264660579 0.42392515796168401 0 0.45720843995119947 0.43738544852223271 0 0.44292677264660579 0.42392515796168401 0 0.44501475256406542 0.43710487641451851 0 0.43504649219903713 0.43385430946487219 0 0.44292677264660579 0.42392515796168401 0 0.44501475256406542 0.43710487641451851 0 0.44501475256406542 0.43710487641451851 0 0.44086930591740259 0.443703986550611 0 0.44426520485267701 0.44828521544284999 0 0.43504649219903713 0.43385430946487219 0 0.44501475256406542 0.43710487641451851 0 0.44086930591740259 0.443703986550611 0 0.44576605402647751 0.45131382091928901 0 0.43097115028835131 0.45382894378787952 0 0.4371491165808723 0.44919465112914592 0 0.44086930591740259 0.443703986550611 0 0.44106718496795649 0.44783878756079798 0 0.4371491165808723 0.44919465112914592 0 0.44106718496795649 0.44783878756079798 0 0.44576605402647751 0.45131382091928901 0 0.4371491165808723 0.44919465112914592 0 0.44086930591740259 0.443703986550611 0 0.44426520485267701 0.44828521544284999 0 0.44106718496795649 0.44783878756079798 0 0.44426520485267701 0.44828521544284999 0 0.44576605402647751 0.45131382091928901 0 0.44086930591740259 0.443703986550611 0 0.44106718496795649 0.44783878756079798 0 0.44426520485267701 0.44828521544284999 0 0.45720843995119947 0.43738544852223271 0 0.44501475256406542 0.43710487641451851 0 0.44426520485267701 0.44828521544284999 0 0.44576605402647751 0.45131382091928901 0 0.44334270512280699 0.46695283516179431 0 0.45751300038554987 0.46615712058798953 0 0.44426520485267701 0.44828521544284999 0 0.45751300038554987 0.46615712058798953 0 0.44576605402647751 0.45131382091928901 0 0.44334270512280699 0.46695283516179431 0 0.42744619309891668 0.4675425472795256 0 0.44426520485267701 0.44828521544284999 0 0.44576605402647751 0.45131382091928901 0 0.45751300038554987 0.46615712058798953 0 0.44426520485267701 0.44828521544284999 0 0.45751300038554987 0.46615712058798953 0 0.47213260242633898 0.44992772785007767 0 0.44426520485267701 0.44828521544284999 0 0.47213260242633898 0.44992772785007767 0 0.45720843995119947 0.43738544852223271 0 0.47860421997559988 0.43975350975492877 0 0.45720843995119947 0.43738544852223271 0 0.44426520485267701 0.44828521544284999 0 0.47213260242633898 0.44992772785007767 0 0.47213260242633898 0.44992772785007767 0 0.47860421997559988 0.43975350975492877 0 0.50000000000000067 0.45157024025730719 0 0.45720843995119947 0.43738544852223271 0 0.47213260242633898 0.44992772785007767 0 0.47860421997559988 0.43975350975492877 0 0.47213260242633898 0.44992772785007767 0 0.48064266697128027 0.4673483066551633 0 0.50000000000000067 0.45157024025730719 0 0.45751300038554987 0.46615712058798953 0 0.47213260242633898 0.44992772785007767 0 0.48064266697128027 0.4673483066551633 0 0.48064266697128027 0.4673483066551633 0 0.5 0.46843982966384828 0 0.50000000000000067 0.45157024025730719 0 0.47860421997559988 0.43975350975492877 0 0.50000000000000022 0.44212157098762489 0 0.47860421997559988 0.43975350975492877 0 0.50000000000000067 0.45157024025730719 0 0.50000000000000022 0.44212157098762489 0 0.47213260242633898 0.44992772785007767 0 0.50000000000000067 0.45157024025730719 0 0.48950419912568011 0.43203648207583117 0 0.47860421997559988 0.43975350975492877 0 0.50000000000000022 0.44212157098762489 0 0.48834007405180069 0.49233461120087918 0 0.50000000000000222 0.48530941907038949 0 0.47076079591842229 0.48402902573312923 0 0.48834007405180069 0.49233461120087918 0 0.5 0.5 0 0.48259950028877657 0.49999999999999922 0 0.50000000000000222 0.48530941907038949 0 0.47076079591842229 0.48402902573312923 0 0.48834007405180069 0.49233461120087918 0 0.5 0.5 0 0.50000000000000222 0.48530941907038949 0 0.50000000000000222 0.48530941907038949 0 0.48785086572242647 0.47628164528063233 0 0.47076079591842229 0.48402902573312923 0 0.48064266697128027 0.4673483066551633 0 0.5 0.46843982966384828 0 0.48785086572242647 0.47628164528063233 0 0.5 0.46843982966384828 0 0.50000000000000222 0.48530941907038949 0 0.48785086572242647 0.47628164528063233 0 0.45751300038554987 0.46615712058798953 0 0.48064266697128027 0.4673483066551633 0 0.47076079591842229 0.48402902573312923 0 0.48064266697128027 0.4673483066551633 0 0.48785086572242647 0.47628164528063233 0 0.47076079591842229 0.48402902573312923 0 0.47076079591842229 0.48402902573312923 0 0.48259950028877657 0.49999999999999922 0 0.45965124302753141 0.5 0 0.48834007405180069 0.49233461120087918 0 0.47076079591842229 0.48402902573312923 0 0.48259950028877657 0.49999999999999922 0 0.47076079591842229 0.48402902573312923 0 0.48259950028877657 0.49999999999999922 0 0.47076079591842229 0.48402902573312923 0 0.45965124302753141 0.5 0 0.44264557298028417 0.48279785186037327 0 0.45751300038554987 0.46615712058798953 0 0.47076079591842229 0.48402902573312923 0 0.47076079591842229 0.48402902573312923 0 0.44264557298028417 0.48279785186037327 0 0.45751300038554987 0.46615712058798953 0 0.47076079591842229 0.48402902573312923 0 0.44264557298028417 0.48279785186037327 0 0.44334270512280699 0.46695283516179431 0 0.44264557298028417 0.48279785186037327 0 0.42744619309891668 0.4675425472795256 0 0.44334270512280699 0.46695283516179431 0 0.45751300038554987 0.46615712058798953 0 0.44264557298028417 0.48279785186037327 0 0.45965124302753141 0.5 0 0.44264557298028417 0.48279785186037327 0 0.43670298576628619 0.5 0 0.44264557298028417 0.48279785186037327 0 0.42814010978677508 0.48883471415535268 0 0.41453035004214622 0.48156667798761449 0 0.43670298576628619 0.5 0 0.42814010978677508 0.48883471415535268 0 0.41868153035838401 0.49097432677342312 0 0.44264557298028417 0.48279785186037327 0 0.43670298576628619 0.5 0 0.42814010978677508 0.48883471415535268 0 0.43670298576628619 0.5 0 0.41375472850504103 0.5 0 0.41868153035838401 0.49097432677342312 0 0.41375472850504103 0.5 0 0.41868153035838401 0.49097432677342312 0 0.40912633217135602 0.48377127363976219 0 0.42814010978677508 0.48883471415535268 0 0.41868153035838401 0.49097432677342312 0 0.41453035004214622 0.48156667798761449 0 0.41868153035838401 0.49097432677342312 0 0.40912633217135602 0.48377127363976219 0 0.41453035004214622 0.48156667798761449 0 0.40882198151684829 0.470458307354371 0 0.40912633217135602 0.48377127363976219 0 0.42744619309891668 0.4675425472795256 0 0.40912633217135602 0.48377127363976219 0 0.42744619309891668 0.4675425472795256 0 0.40912633217135602 0.48377127363976219 0 0.41453035004214622 0.48156667798761449 0 0.42744619309891668 0.4675425472795256 0 0.40882198151684829 0.470458307354371 0 0.40912633217135602 0.48377127363976219 0 0.40257181831080802 0.47789339995616598 0 0.44264557298028417 0.48279785186037327 0 0.41453035004214622 0.48156667798761449 0 0.44264557298028417 0.48279785186037327 0 0.41453035004214622 0.48156667798761449 0 0.42744619309891668 0.4675425472795256 0 0.44576605402647751 0.45131382091928901 0 0.42744619309891668 0.4675425472795256 0 0.44576605402647751 0.45131382091928901 0 0.43097115028835131 0.45382894378787952 0 0.42744619309891668 0.4675425472795256 0 0.43097115028835131 0.45382894378787952 0 0.42744619309891668 0.4675425472795256 0 0.41709851720120961 0.46055572465752248 0 0.44086930591740259 0.443703986550611 0 0.4309855774719657 0.44262377444488737 0 0.4371491165808723 0.44919465112914592 0 0.43504649219903713 0.43385430946487219 0 0.44086930591740259 0.443703986550611 0 0.4309855774719657 0.44262377444488737 0 0.43097115028835131 0.45382894378787952 0 0.4309855774719657 0.44262377444488737 0 0.4371491165808723 0.44919465112914592 0 0.43097115028835131 0.45382894378787952 0 0.4309855774719657 0.44262377444488737 0 0.41665312800777271 0.44940921386284588 0 0.4216403136361262 0.43569606407888728 0 0.4309855774719657 0.44262377444488737 0 0.41665312800777271 0.44940921386284588 0 0.41665312800777271 0.44940921386284588 0 0.4029362549212489 0.45832899449672349 0 0.40092741287151468 0.44093224530230651 0 0.4216403136361262 0.43569606407888728 0 0.41665312800777271 0.44940921386284588 0 0.40092741287151468 0.44093224530230651 0 0.40882198151684829 0.470458307354371 0 0.42744619309891668 0.4675425472795256 0 0.41709851720120961 0.46055572465752248 0 0.43097115028835131 0.45382894378787952 0 0.41665312800777271 0.44940921386284588 0 0.41709851720120961 0.46055572465752248 0 0.41665312800777271 0.44940921386284588 0 0.41709851720120961 0.46055572465752248 0 0.4029362549212489 0.45832899449672349 0 0.40882198151684829 0.470458307354371 0 0.41709851720120961 0.46055572465752248 0 0.4029362549212489 0.45832899449672349 0 0.40882198151684829 0.470458307354371 0 0.4029362549212489 0.45832899449672349 0 0.3944208343110962 0.47305259584339332 0 0.4029362549212489 0.45832899449672349 0 0.38943508825963058 0.45629052964312111 0 0.3944208343110962 0.47305259584339332 0 0.4029362549212489 0.45832899449672349 0 0.40092741287151468 0.44093224530230651 0 0.38943508825963058 0.45629052964312111 0 0.40092741287151468 0.44093224530230651 0 0.37809165231809289 0.44568724501072521 0 0.38943508825963058 0.45629052964312111 0 0.37809165231809289 0.44568724501072521 0 0.38943508825963058 0.45629052964312111 0 0.37844435483634198 0.4675903904274426 0 0.38943508825963058 0.45629052964312111 0 0.37844435483634198 0.4675903904274426 0 0.3944208343110962 0.47305259584339332 0 0.37844435483634198 0.4675903904274426 0 0.38120033573297152 0.48442634992442057 0 0.3944208343110962 0.47305259584339332 0 0.38120033573297152 0.48442634992442057 0 0.3944208343110962 0.47305259584339332 0 0.39562515835400552 0.48382872387274839 0 0.36196284501337178 0.5 0 0.38120033573297152 0.48442634992442057 0 0.39080647124379558 0.49999999999999922 0 0.38120033573297152 0.48442634992442057 0 0.39080647124379558 0.49999999999999922 0 0.39562515835400552 0.48382872387274839 0 0.40912633217135602 0.48377127363976219 0 0.39080647124379558 0.49999999999999922 0 0.40912633217135602 0.48377127363976219 0 0.39080647124379558 0.49999999999999922 0 0.39562515835400552 0.48382872387274839 0 0.41375472850504103 0.5 0 0.40912633217135602 0.48377127363976219 0 0.39080647124379558 0.49999999999999922 0 0.40912633217135602 0.48377127363976219 0 0.40257181831080802 0.47789339995616598 0 0.39562515835400552 0.48382872387274839 0 0.40882198151684829 0.470458307354371 0 0.40257181831080802 0.47789339995616598 0 0.3944208343110962 0.47305259584339332 0 0.40257181831080802 0.47789339995616598 0 0.3944208343110962 0.47305259584339332 0 0.39562515835400552 0.48382872387274839 0 0.34137977846588119 0.091947059702449957 0 0.3184977734976509 0.082531855017860187 0 0.34137977846588119 0.091947059702449957 0 0.33853514524224232 0.092154422351098803 0 0.3184977734976509 0.082531855017860187 0 0.33853514524224232 0.092154422351098803 0 0.3184977734976509 0.082531855017860187 0 0.3305269393921435 0.093893314460775035 0 0.34137977846588119 0.091947059702449957 0 0.33488127772135701 0.070909675734900868 0 0.3184977734976509 0.082531855017860187 0 0.33488127772135701 0.070909675734900868 0 0.35624300874513559 0.071190975121652081 0 0.33828509493208109 0.051113002016081502 0 0.3184977734976509 0.082531855017860187 0 0.31750720709783492 0.060828210965220328 0 0.30506359630307739 0.067813250175554993 0 0.33488127772135701 0.070909675734900868 0 0.32846421329825382 0.059059627678852658 0 0.31750720709783492 0.060828210965220328 0 0.33488127772135701 0.070909675734900868 0 0.3184977734976509 0.082531855017860187 0 0.31750720709783492 0.060828210965220328 0 0.3184977734976509 0.082531855017860187 0 0.3254096333834442 0.096971455496547829 0 0.3305269393921435 0.093893314460775035 0 0.3184977734976509 0.082531855017860187 0 0.3254096333834442 0.096971455496547829 0 0.31111548734401751 0.094174984339189319 0 0.3254096333834442 0.096971455496547829 0 0.33219394353324039 0.1121017755840282 0 0.31111548734401751 0.094174984339189319 0 0.33219394353324039 0.1121017755840282 0 0.31111548734401751 0.094174984339189319 0 0.33219394353324039 0.1121017755840282 0 0.31151194808720201 0.1150643222194616 0 0.31111548734401751 0.094174984339189319 0 0.33219394353324039 0.1121017755840282 0 0.31151194808720201 0.1150643222194616 0 0.32387679174541939 0.1297141718462434 0 0.33219394353324039 0.1121017755840282 0 0.32387679174541939 0.1297141718462434 0 0.35327239972246333 0.1300285668288671 0 0.33219394353324039 0.1121017755840282 0 0.35327239972246333 0.1300285668288671 0 0.33219394353324039 0.1121017755840282 0 0.34279585490336462 0.1026082003979065 0 0.35159211237321392 0.11222190062690381 0 0.33853514524224232 0.092154422351098803 0 0.3305269393921435 0.093893314460775035 0 0.33650548478629722 0.09727411407467923 0 0.3254096333834442 0.096971455496547829 0 0.33351858274250701 0.1005678965871936 0 0.3305269393921435 0.093893314460775035 0 0.33351858274250701 0.1005678965871936 0 0.3305269393921435 0.093893314460775035 0 0.33650548478629722 0.09727411407467923 0 0.3254096333834442 0.096971455496547829 0 0.33219394353324039 0.1121017755840282 0 0.33351858274250701 0.1005678965871936 0 0.33219394353324039 0.1121017755840282 0 0.33351858274250701 0.1005678965871936 0 0.34279585490336462 0.1026082003979065 0 0.33351858274250701 0.1005678965871936 0 0.34279585490336462 0.1026082003979065 0 0.33650548478629722 0.09727411407467923 0 0.33853514524224232 0.092154422351098803 0 0.34279585490336462 0.1026082003979065 0 0.33650548478629722 0.09727411407467923 0 0.34279585490336462 0.1026082003979065 0 0.35159211237321392 0.11222190062690381 0 0.36426178343411147 0.1013622643870397 0 0.33853514524224232 0.092154422351098803 0 0.34279585490336462 0.1026082003979065 0 0.36426178343411147 0.1013622643870397 0 0.34137977846588119 0.091947059702449957 0 0.33853514524224232 0.092154422351098803 0 0.36426178343411147 0.1013622643870397 0 0.33853514524224232 0.092154422351098803 0 0.36426178343411147 0.1013622643870397 0 0.34137977846588119 0.091947059702449957 0 0.36426178343411147 0.1013622643870397 0 0.33219394353324039 0.1121017755840282 0 0.35159211237321392 0.11222190062690381 0 0.35327239972246333 0.1300285668288671 0 0.35159211237321392 0.11222190062690381 0 0.36649271172908648 0.1176987398754743 0 0.35327239972246333 0.1300285668288671 0 0.35159211237321392 0.11222190062690381 0 0.36649271172908648 0.1176987398754743 0 0.36426178343411147 0.1013622643870397 0 0.36649271172908648 0.1176987398754743 0 0.36938385952287339 0.13266757129752671 0 0.38138511069115272 0.12353481432135879 0 0.36649271172908648 0.1176987398754743 0 0.36426178343411147 0.1013622643870397 0 0.3795225325030368 0.1068242515199407 0 0.36426178343411147 0.1013622643870397 0 0.3795225325030368 0.1068242515199407 0 0.36426178343411147 0.1013622643870397 0 0.3742009225581896 0.091268948227223284 0 0.3795225325030368 0.1068242515199407 0 0.3742009225581896 0.091268948227223284 0 0.35754778501084228 0.087847667021068221 0 0.35624300874513559 0.071190975121652081 0 0.36426178343411147 0.1013622643870397 0 0.3742009225581896 0.091268948227223284 0 0.35754778501084228 0.087847667021068221 0 0.3742009225581896 0.091268948227223284 0 0.35624300874513559 0.071190975121652081 0 0.34137977846588119 0.091947059702449957 0 0.35754778501084228 0.087847667021068221 0 0.35624300874513559 0.071190975121652081 0 0.34137977846588119 0.091947059702449957 0 0.36426178343411147 0.1013622643870397 0 0.35754778501084228 0.087847667021068221 0 0.34137977846588119 0.091947059702449957 0 0.33488127772135701 0.070909675734900868 0 0.35624300874513559 0.071190975121652081 0 0.3742009225581896 0.091268948227223284 0 0.35624300874513559 0.071190975121652081 0 0.37575225644292037 0.071709270247263784 0 0.35624300874513559 0.071190975121652081 0 0.36737709041569239 0.056764699852256018 0 0.37575225644292037 0.071709270247263784 0 0.36737709041569239 0.056764699852256018 0 0.36443667806580698 0.054513224756226962 0 0.39058826119953283 0.057913447496371839 0 0.36443667806580698 0.054513224756226962 0 0.36984281421283938 0.03924660656396721 0 0.37608467898805159 0.048096788967416412 0 0.36984281421283938 0.03924660656396721 0 0.35576481933353549 0.041718099984820838 0 0.3798040161112804 0.028996110171619349 0 0.35576481933353549 0.041718099984820838 0 0.36136411866671431 0.026161729739540451 0 0.37786156531075732 0.02725125369877367 0 0.35576481933353549 0.041718099984820838 0 0.3798040161112804 0.028996110171619349 0 0.37786156531075732 0.02725125369877367 0 0.35576481933353549 0.041718099984820838 0 0.3798040161112804 0.028996110171619349 0 0.36984281421283938 0.03924660656396721 0 0.37726993283737248 0.041439113600633092 0 0.37608467898805159 0.048096788967416412 0 0.36984281421283938 0.03924660656396721 0 0.37675727284589372 0.036323400775862158 0 0.37726993283737248 0.041439113600633092 0 0.36443667806580698 0.054513224756226962 0 0.36984281421283938 0.03924660656396721 0 0.35576481933353549 0.041718099984820838 0 0.35576481933353549 0.041718099984820838 0 0.36136411866671431 0.026161729739540451 0 0.34099279295720591 0.031691385536231111 0 0.35576481933353549 0.041718099984820838 0 0.34539840685914608 0.044617690611648012 0 0.34099279295720591 0.031691385536231111 0 0.35624300874513559 0.071190975121652081 0 0.34416591963185211 0.055615952208139578 0 0.33828509493208109 0.051113002016081502 0 0.36443667806580698 0.054513224756226962 0 0.34416591963185211 0.055615952208139578 0 0.33828509493208109 0.051113002016081502 0 0.36737709041569239 0.056764699852256018 0 0.34416591963185211 0.055615952208139578 0 0.35624300874513559 0.071190975121652081 0 0.33828509493208109 0.051113002016081502 0 0.35624300874513559 0.071190975121652081 0 0.36737709041569239 0.056764699852256018 0 0.34416591963185211 0.055615952208139578 0 0.36443667806580698 0.054513224756226962 0 0.33828509493208109 0.051113002016081502 0 0.36443667806580698 0.054513224756226962 0 0.34539840685914608 0.044617690611648012 0 0.33828509493208109 0.051113002016081502 0 0.36443667806580698 0.054513224756226962 0 0.35576481933353549 0.041718099984820838 0 0.34539840685914608 0.044617690611648012 0 0.36737709041569239 0.056764699852256018 0 0.36443667806580698 0.054513224756226962 0 0.34416591963185211 0.055615952208139578 0 0.35686418876597309 0.010252504770385159 0 0.37537418671591988 0.012891754799621079 0 0.3700201466167648 -0.002195575246397889 0 0.35686418876597309 0.010252504770385159 0 0.37786156531075732 0.02725125369877367 0 0.36136411866671431 0.026161729739540451 0 0.35686418876597309 0.010252504770385159 0 0.37786156531075732 0.02725125369877367 0 0.35686418876597309 0.010252504770385159 0 0.37537418671591988 0.012891754799621079 0 0.37786156531075732 0.02725125369877367 0 0.36136411866671431 0.026161729739540451 0 0.35686418876597309 0.010252504770385159 0 0.34167945108238768 0.015605415956853899 0 0.36136411866671431 0.026161729739540451 0 0.34167945108238768 0.015605415956853899 0 0.34099279295720591 0.031691385536231111 0 0.35686418876597309 0.010252504770385159 0 0.34167945108238768 0.015605415956853899 0 0.33586681222118892 -0.0067462441580033658 0 0.35686418876597309 0.010252504770385159 0 0.33586681222118892 -0.0067462441580033658 0 0.34167945108238768 0.015605415956853899 0 0.32490055802469708 0.021190940670656921 0 0.33586681222118892 -0.0067462441580033658 0 0.34167945108238768 0.015605415956853899 0 0.32490055802469708 0.021190940670656921 0 0.34099279295720591 0.031691385536231111 0 0.32490055802469708 0.021190940670656921 0 0.34099279295720591 0.031691385536231111 0 0.32801258046435111 0.036170166979635328 0 0.32490055802469708 0.021190940670656921 0 0.31497710433926901 0.036033128519756527 0 0.30595588987094691 0.026092456194660541 0 0.32490055802469708 0.021190940670656921 0 0.31046320235639918 0.0067575729804437252 0 0.30595588987094691 0.026092456194660541 0 0.32490055802469708 0.021190940670656921 0 0.32801258046435111 0.036170166979635328 0 0.31497710433926901 0.036033128519756527 0 0.32490055802469708 0.021190940670656921 0 0.31046320235639918 0.0067575729804437252 0 0.33586681222118892 -0.0067462441580033658 0 0.33488127772135701 0.070909675734900868 0 0.32846421329825382 0.059059627678852658 0 0.33828509493208109 0.051113002016081502 0 0.33828509493208109 0.051113002016081502 0 0.33632782521092219 0.048924662700562782 0 0.31456469921871788 0.048028881697348168 0 0.34539840685914608 0.044617690611648012 0 0.33828509493208109 0.051113002016081502 0 0.33632782521092219 0.048924662700562782 0 0.33828509493208109 0.051113002016081502 0 0.33632782521092219 0.048924662700562782 0 0.34539840685914608 0.044617690611648012 0 0.33609782728063148 0.04111054955314445 0 0.34099279295720591 0.031691385536231111 0 0.34539840685914608 0.044617690611648012 0 0.33632782521092219 0.048924662700562782 0 0.33609782728063148 0.04111054955314445 0 0.33609782728063148 0.04111054955314445 0 0.34099279295720591 0.031691385536231111 0 0.32801258046435111 0.036170166979635328 0 0.33632782521092219 0.048924662700562782 0 0.33609782728063148 0.04111054955314445 0 0.33051084790212298 0.042529329228536181 0 0.33632782521092219 0.048924662700562782 0 0.33051084790212298 0.042529329228536181 0 0.32327528761916352 0.043108517346294839 0 0.33609782728063148 0.04111054955314445 0 0.33051084790212298 0.042529329228536181 0 0.32801258046435111 0.036170166979635328 0 0.33632782521092219 0.048924662700562782 0 0.32327528761916352 0.043108517346294839 0 0.31456469921871788 0.048028881697348168 0 0.33051084790212298 0.042529329228536181 0 0.32327528761916352 0.043108517346294839 0 0.32801258046435111 0.036170166979635328 0 0.32327528761916352 0.043108517346294839 0 0.32801258046435111 0.036170166979635328 0 0.31497710433926901 0.036033128519756527 0 0.32327528761916352 0.043108517346294839 0 0.31497710433926901 0.036033128519756527 0 0.31456469921871788 0.048028881697348168 0 0.33828509493208109 0.051113002016081502 0 0.31456469921871788 0.048028881697348168 0 0.32846421329825382 0.059059627678852658 0 0.33828509493208109 0.051113002016081502 0 0.31456469921871788 0.048028881697348168 0 0.32846421329825382 0.059059627678852658 0 0.31456469921871788 0.048028881697348168 0 0.31750720709783492 0.060828210965220328 0 0.31456469921871788 0.048028881697348168 0 0.31750720709783492 0.060828210965220328 0 0.30386903740065402 0.05697431224277244 0 0.31750720709783492 0.060828210965220328 0 0.30386903740065402 0.05697431224277244 0 0.30506359630307739 0.067813250175554993 0 0.31456469921871788 0.048028881697348168 0 0.30386903740065402 0.05697431224277244 0 0.29084430350535467 0.044944761378613682 0 0.30386903740065402 0.05697431224277244 0 0.29325963230024937 0.057606978803657879 0 0.29690158384745241 0.06457818982176422 0 0.31456469921871788 0.048028881697348168 0 0.30257644158749403 0.037675663858353942 0 0.29084430350535467 0.044944761378613682 0 0.31456469921871788 0.048028881697348168 0 0.29084430350535467 0.044944761378613682 0 0.30257644158749403 0.037675663858353942 0 0.28728110375769011 0.032980092644635972 0 0.30595588987094691 0.026092456194660541 0 0.31497710433926901 0.036033128519756527 0 0.31456469921871788 0.048028881697348168 0 0.30257644158749403 0.037675663858353942 0 0.31497710433926901 0.036033128519756527 0 0.30257644158749403 0.037675663858353942 0 0.30595588987094691 0.026092456194660541 0 0.28728110375769011 0.032980092644635972 0 0.28354425329012439 0.021068516806879451 0 0.27754771987688809 0.040797440569893019 0 0.30257644158749403 0.037675663858353942 0 0.29084430350535467 0.044944761378613682 0 0.28728110375769011 0.032980092644635972 0 0.28728110375769011 0.032980092644635972 0 0.2844924432277231 0.043204628682168907 0 0.27754771987688809 0.040797440569893019 0 0.29084430350535467 0.044944761378613682 0 0.28728110375769011 0.032980092644635972 0 0.2844924432277231 0.043204628682168907 0 0.2844924432277231 0.043204628682168907 0 0.28229664577095948 0.054096220135532967 0 0.27754771987688809 0.040797440569893019 0 0.29084430350535467 0.044944761378613682 0 0.2844924432277231 0.043204628682168907 0 0.28229664577095948 0.054096220135532967 0 0.29084430350535467 0.044944761378613682 0 0.28229664577095948 0.054096220135532967 0 0.29325963230024937 0.057606978803657879 0 0.28229664577095948 0.054096220135532967 0 0.28695696052130792 0.062426000594819037 0 0.29325963230024937 0.057606978803657879 0 0.28229664577095948 0.054096220135532967 0 0.28695696052130792 0.062426000594819037 0 0.27961998430175328 0.060695812266760227 0 0.28695696052130792 0.062426000594819037 0 0.29325963230024937 0.057606978803657879 0 0.29690158384745241 0.06457818982176422 0 0.30386903740065402 0.05697431224277244 0 0.29084430350535467 0.044944761378613682 0 0.29325963230024937 0.057606978803657879 0 0.31046320235639918 0.0067575729804437252 0 0.29633736445586178 0.016145334388179639 0 0.2895407867033607 0.0013395930438658619 0 0.31046320235639918 0.0067575729804437252 0 0.30595588987094691 0.026092456194660541 0 0.29633736445586178 0.016145334388179639 0 0.28728110375769011 0.032980092644635972 0 0.29633736445586178 0.016145334388179639 0 0.28354425329012439 0.021068516806879451 0 0.28728110375769011 0.032980092644635972 0 0.30595588987094691 0.026092456194660541 0 0.29633736445586178 0.016145334388179639 0 0.29633736445586178 0.016145334388179639 0 0.28354425329012439 0.021068516806879451 0 0.2895407867033607 0.0013395930438658619 0 0.28354425329012439 0.021068516806879451 0 0.2895407867033607 0.0013395930438658619 0 0.27605408581287011 0.0090157940159830471 0 0.28354425329012439 0.021068516806879451 0 0.2895407867033607 0.0013395930438658619 0 0.2895407867033607 0.0013395930438658619 0 0.27605408581287011 0.0090157940159830471 0 0.26778398551549509 -0.0036893303100333872 0 0.27605408581287011 0.0090157940159830471 0 0.26417056773795178 0.0090152440179189393 0 0.26778398551549509 -0.0036893303100333872 0 0.27605408581287011 0.0090157940159830471 0 0.26936383070045983 0.02007531215695801 0 0.26417056773795178 0.0090152440179189393 0 0.28354425329012439 0.021068516806879451 0 0.27754771987688809 0.040797440569893019 0 0.28354425329012439 0.021068516806879451 0 0.27605408581287011 0.0090157940159830471 0 0.26936383070045983 0.02007531215695801 0 0.28354425329012439 0.021068516806879451 0 0.26936383070045983 0.02007531215695801 0 0.27332262009486957 0.033728107725222278 0 0.26936383070045983 0.02007531215695801 0 0.26667678125960848 0.028969541142501901 0 0.27332262009486957 0.033728107725222278 0 0.26936383070045983 0.02007531215695801 0 0.26667678125960848 0.028969541142501901 0 0.25978705670837199 0.02772172808684556 0 0.26667678125960848 0.028969541142501901 0 0.25978705670837199 0.02772172808684556 0 0.26423361753473251 0.034353016600981737 0 0.24818833723327199 0.02644705719899533 0 0.25978705670837199 0.02772172808684556 0 0.25442723867738032 0.016379625870619269 0 0.24818833723327199 0.02644705719899533 0 0.25978705670837199 0.02772172808684556 0 0.25704478259505842 0.035809011079610743 0 0.26936383070045983 0.02007531215695801 0 0.25978705670837199 0.02772172808684556 0 0.25442723867738032 0.016379625870619269 0 0.26936383070045983 0.02007531215695801 0 0.25442723867738032 0.016379625870619269 0 0.26417056773795178 0.0090152440179189393 0 0.25442723867738032 0.016379625870619269 0 0.26417056773795178 0.0090152440179189393 0 0.25322369798355371 0.0032948183560677501 0 0.26417056773795178 0.0090152440179189393 0 0.25322369798355371 0.0032948183560677501 0 0.26778398551549509 -0.0036893303100333872 0 0.28229664577095948 0.054096220135532967 0 0.27155118646365262 0.060526364332906778 0 0.27754771987688809 0.040797440569893019 0 0.26803735397675288 0.057537922442449492 0 0.27155118646365262 0.060526364332906778 0 0.27754771987688809 0.040797440569893019 0 0.27155118646365262 0.060526364332906778 0 0.27754771987688809 0.040797440569893019 0 0.26803735397675288 0.057537922442449492 0 0.26717674565759131 0.061414912581717808 0 0.27155118646365262 0.060526364332906778 0 0.26803735397675288 0.057537922442449492 0 0.26717674565759131 0.061414912581717808 0 0.26717674565759131 0.061414912581717808 0 0.27082486665434358 0.062915996334918609 0 0.26717674565759131 0.061414912581717808 0 0.27155118646365262 0.060526364332906778 0 0.27082486665434358 0.062915996334918609 0 0.27155118646365262 0.060526364332906778 0 0.27082486665434358 0.062915996334918609 0 0.26803735397675288 0.057537922442449492 0 0.27155118646365262 0.060526364332906778 0 0.27155118646365262 0.060526364332906778 0 0.27961998430175328 0.060695812266760227 0 0.27767514445109232 0.065734664003783444 0 0.28229664577095948 0.054096220135532967 0 0.27155118646365262 0.060526364332906778 0 0.27961998430175328 0.060695812266760227 0 0.28354425329012439 0.021068516806879451 0 0.27754771987688809 0.040797440569893019 0 0.27332262009486957 0.033728107725222278 0 0.26803735397675288 0.057537922442449492 0 0.27754771987688809 0.040797440569893019 0 0.27332262009486957 0.033728107725222278 0 0.26803735397675288 0.057537922442449492 0 0.27332262009486957 0.033728107725222278 0 0.26337349528673171 0.044011131262296957 0 0.26803735397675288 0.057537922442449492 0 0.27332262009486957 0.033728107725222278 0 0.26667678125960848 0.028969541142501901 0 0.27332262009486957 0.033728107725222278 0 0.26423361753473251 0.034353016600981737 0 0.27332262009486957 0.033728107725222278 0 0.26337349528673171 0.044011131262296957 0 0.26423361753473251 0.034353016600981737 0 0.25978705670837199 0.02772172808684556 0 0.26423361753473251 0.034353016600981737 0 0.25704478259505842 0.035809011079610743 0 0.26337349528673171 0.044011131262296957 0 0.26423361753473251 0.034353016600981737 0 0.25704478259505842 0.035809011079610743 0 0.2492733855269578 0.041579555173777823 0 0.24818833723327199 0.02644705719899533 0 0.25704478259505842 0.035809011079610743 0 0.2492733855269578 0.041579555173777823 0 0.26337349528673171 0.044011131262296957 0 0.25704478259505842 0.035809011079610743 0 0.2492733855269578 0.041579555173777823 0 0.26803735397675288 0.057537922442449492 0 0.26337349528673171 0.044011131262296957 0 0.2492733855269578 0.041579555173777823 0 0.26803735397675288 0.057537922442449492 0 0.24629062771517271 0.052820950830226497 0 0.2492733855269578 0.041579555173777823 0 0.26803735397675288 0.057537922442449492 0 0.24874122334595 0.07170785510379532 0 0.24629062771517271 0.052820950830226497 0 0.26717674565759131 0.061414912581717808 0 0.24629062771517271 0.052820950830226497 0 0.26717674565759131 0.061414912581717808 0 0.24629062771517271 0.052820950830226497 0 0.26803735397675288 0.057537922442449492 0 0.26717674565759131 0.061414912581717808 0 0.24874122334595 0.07170785510379532 0 0.26717674565759131 0.061414912581717808 0 0.26207170159221099 0.084412837492877896 0 0.26717674565759131 0.061414912581717808 0 0.26207170159221099 0.084412837492877896 0 0.26717674565759131 0.061414912581717808 0 0.26459661937193729 0.083407271434054076 0 0.26207170159221099 0.084412837492877896 0 0.24736227196270541 0.090270970101712061 0 0.24874122334595 0.07170785510379532 0 0.26207170159221099 0.084412837492877896 0 0.24736227196270541 0.090270970101712061 0 0.26207170159221099 0.084412837492877896 0 0.24736227196270541 0.090270970101712061 0 0.26016144869860108 0.09301841504440217 0 0.25459763100830068 0.096141582858552177 0 0.24736227196270541 0.090270970101712061 0 0.26207170159221099 0.084412837492877896 0 0.26016144869860108 0.09301841504440217 0 0.24736227196270541 0.090270970101712061 0 0.25459763100830068 0.096141582858552177 0 0.26459661937193729 0.083407271434054076 0 0.26207170159221099 0.084412837492877896 0 0.26207170159221099 0.084412837492877896 0 0.26016144869860108 0.09301841504440217 0 0.26459661937193729 0.083407271434054076 0 0.2619867778419176 0.09199379318438361 0 0.26207170159221099 0.084412837492877896 0 0.2619867778419176 0.09199379318438361 0 0.26016144869860108 0.09301841504440217 0 0.26459661937193729 0.083407271434054076 0 0.26207170159221099 0.084412837492877896 0 0.2619867778419176 0.09199379318438361 0 0.2619867778419176 0.09199379318438361 0 0.26016144869860108 0.09301841504440217 0 0.26459661937193729 0.083407271434054076 0 0.28765643041333783 0.074223541376674432 0 0.26459661937193729 0.083407271434054076 0 0.27601190449835611 0.084120993139366301 0 0.28765643041333783 0.074223541376674432 0 0.2619867778419176 0.09199379318438361 0 0.27601190449835611 0.084120993139366301 0 0.27597760534302263 0.093816081557894046 0 0.2619867778419176 0.09199379318438361 0 0.27601190449835611 0.084120993139366301 0 0.26459661937193729 0.083407271434054076 0 0.2619867778419176 0.09199379318438361 0 0.27601190449835611 0.084120993139366301 0 0.27601190449835611 0.084120993139366301 0 0.28527214605629803 0.093542631019163408 0 0.27597760534302263 0.093816081557894046 0 0.26459661937193729 0.083407271434054076 0 0.27082486665434358 0.062915996334918609 0 0.26717674565759131 0.061414912581717808 0 0.26459661937193729 0.083407271434054076 0 0.27082486665434358 0.062915996334918609 0 0.26459661937193729 0.083407271434054076 0 0.27082486665434358 0.062915996334918609 0 0.27767514445109232 0.065734664003783444 0 0.26459661937193729 0.083407271434054076 0 0.27767514445109232 0.065734664003783444 0 0.28765643041333783 0.074223541376674432 0 0.27155118646365262 0.060526364332906778 0 0.27082486665434358 0.062915996334918609 0 0.27767514445109232 0.065734664003783444 0 0.27082486665434358 0.062915996334918609 0 0.27767514445109232 0.065734664003783444 0 0.27155118646365262 0.060526364332906778 0 0.27767514445109232 0.065734664003783444 0 0.27767514445109232 0.065734664003783444 0 0.28765643041333783 0.074223541376674432 0 0.27767514445109232 0.065734664003783444 0 0.29306802488508721 0.072068336257275281 0 0.28695696052130792 0.062426000594819037 0 0.27961998430175328 0.060695812266760227 0 0.27767514445109232 0.065734664003783444 0 0.28695696052130792 0.062426000594819037 0 0.27767514445109232 0.065734664003783444 0 0.29306802488508721 0.072068336257275281 0 0.28695696052130792 0.062426000594819037 0 0.29306802488508721 0.072068336257275281 0 0.29690158384745241 0.06457818982176422 0 0.29561576852942001 0.073116650333272012 0 0.29306802488508721 0.072068336257275281 0 0.29561576852942001 0.073116650333272012 0 0.29306802488508721 0.072068336257275281 0 0.29003703115479512 0.076248193094349867 0 0.29306802488508721 0.072068336257275281 0 0.28765643041333783 0.074223541376674432 0 0.29306802488508721 0.072068336257275281 0 0.29003703115479512 0.076248193094349867 0 0.28765643041333783 0.074223541376674432 0 0.29561576852942001 0.073116650333272012 0 0.29003703115479512 0.076248193094349867 0 0.27767514445109232 0.065734664003783444 0 0.29306802488508721 0.072068336257275281 0 0.28765643041333783 0.074223541376674432 0 0.29003703115479512 0.076248193094349867 0 0.28765643041333783 0.074223541376674432 0 0.27601190449835611 0.084120993139366301 0 0.29003703115479512 0.076248193094349867 0 0.27601190449835611 0.084120993139366301 0 0.29003703115479512 0.076248193094349867 0 0.28765643041333783 0.074223541376674432 0 0.27601190449835611 0.084120993139366301 0 0.29003703115479512 0.076248193094349867 0 0.28870857493654689 0.086239244916881869 0 0.27601190449835611 0.084120993139366301 0 0.28870857493654689 0.086239244916881869 0 0.28527214605629803 0.093542631019163408 0 0.28870857493654689 0.086239244916881869 0 0.28527214605629803 0.093542631019163408 0 0.29246213629446111 0.095768124011444758 0 0.28870857493654689 0.086239244916881869 0 0.29698271976236568 0.089899813846382556 0 0.29246213629446111 0.095768124011444758 0 0.29003703115479512 0.076248193094349867 0 0.28870857493654689 0.086239244916881869 0 0.29698271976236568 0.089899813846382556 0 0.29561576852942001 0.073116650333272012 0 0.29003703115479512 0.076248193094349867 0 0.31111548734401751 0.094174984339189319 0 0.29003703115479512 0.076248193094349867 0 0.31111548734401751 0.094174984339189319 0 0.29003703115479512 0.076248193094349867 0 0.29698271976236568 0.089899813846382556 0 0.31111548734401751 0.094174984339189319 0 0.3184977734976509 0.082531855017860187 0 0.29561576852942001 0.073116650333272012 0 0.31111548734401751 0.094174984339189319 0 0.3184977734976509 0.082531855017860187 0 0.29561576852942001 0.073116650333272012 0 0.3184977734976509 0.082531855017860187 0 0.29561576852942001 0.073116650333272012 0 0.30506359630307739 0.067813250175554993 0 0.31750720709783492 0.060828210965220328 0 0.30506359630307739 0.067813250175554993 0 0.29306802488508721 0.072068336257275281 0 0.30506359630307739 0.067813250175554993 0 0.29690158384745241 0.06457818982176422 0 0.30386903740065402 0.05697431224277244 0 0.30506359630307739 0.067813250175554993 0 0.29690158384745241 0.06457818982176422 0 0.29306802488508721 0.072068336257275281 0 0.30506359630307739 0.067813250175554993 0 0.29561576852942001 0.073116650333272012 0 0.30506359630307739 0.067813250175554993 0 0.29561576852942001 0.073116650333272012 0 0.29306802488508721 0.072068336257275281 0 0.30506359630307739 0.067813250175554993 0 0.31151194808720201 0.1150643222194616 0 0.30247500772594699 0.1071381656543656 0 0.29129275041579278 0.1172303442398579 0 0.31151194808720201 0.1150643222194616 0 0.29622008012258699 0.12991313160987961 0 0.32387679174541939 0.1297141718462434 0 0.31151194808720201 0.1150643222194616 0 0.29129275041579278 0.1172303442398579 0 0.29622008012258699 0.12991313160987961 0 0.31151194808720201 0.1150643222194616 0 0.31111548734401751 0.094174984339189319 0 0.30247500772594699 0.1071381656543656 0 0.31111548734401751 0.094174984339189319 0 0.30128354362195031 0.098124169066782854 0 0.30247500772594699 0.1071381656543656 0 0.29698271976236568 0.089899813846382556 0 0.30128354362195031 0.098124169066782854 0 0.29246213629446111 0.095768124011444758 0 0.29698271976236568 0.089899813846382556 0 0.31111548734401751 0.094174984339189319 0 0.30128354362195031 0.098124169066782854 0 0.30128354362195031 0.098124169066782854 0 0.30247500772594699 0.1071381656543656 0 0.29260899031297011 0.10538418601464609 0 0.29260899031297011 0.10538418601464609 0 0.29246213629446111 0.095768124011444758 0 0.28702757351663483 0.1001100210532227 0 0.30128354362195031 0.098124169066782854 0 0.29260899031297011 0.10538418601464609 0 0.29246213629446111 0.095768124011444758 0 0.28527214605629803 0.093542631019163408 0 0.29246213629446111 0.095768124011444758 0 0.28702757351663483 0.1001100210532227 0 0.28527214605629803 0.093542631019163408 0 0.28702757351663483 0.1001100210532227 0 0.28108272677848523 0.099874609951530163 0 0.29260899031297011 0.10538418601464609 0 0.28356239405763972 0.106033323917978 0 0.28664880997705461 0.11131452551203889 0 0.29260899031297011 0.10538418601464609 0 0.28702757351663483 0.1001100210532227 0 0.28356239405763972 0.106033323917978 0 0.28702757351663483 0.1001100210532227 0 0.28356239405763972 0.106033323917978 0 0.28108272677848523 0.099874609951530163 0 0.28356239405763972 0.106033323917978 0 0.2814598539497668 0.10990299155730229 0 0.28664880997705461 0.11131452551203889 0 0.27786688771157569 0.1150217509861922 0 0.29622008012258699 0.12991313160987961 0 0.28664880997705461 0.11131452551203889 0 0.29129275041579278 0.1172303442398579 0 0.27786688771157569 0.1150217509861922 0 0.27786688771157569 0.1150217509861922 0 0.27913813953766042 0.12972245958528131 0 0.29622008012258699 0.12991313160987961 0 0.29129275041579278 0.1172303442398579 0 0.27786688771157569 0.1150217509861922 0 0.29622008012258699 0.12991313160987961 0 0.2814598539497668 0.10990299155730229 0 0.28664880997705461 0.11131452551203889 0 0.27786688771157569 0.1150217509861922 0 0.30247500772594699 0.1071381656543656 0 0.29260899031297011 0.10538418601464609 0 0.29129275041579278 0.1172303442398579 0 0.29260899031297011 0.10538418601464609 0 0.28664880997705461 0.11131452551203889 0 0.29129275041579278 0.1172303442398579 0 0.27418517611644572 0.1163335826691398 0 0.26638390190257438 0.1102685147937751 0 0.25655208948606423 0.10927836717886751 0 0.27786688771157569 0.1150217509861922 0 0.27418517611644572 0.1163335826691398 0 0.27913813953766042 0.12972245958528131 0 0.27418517611644572 0.1163335826691398 0 0.27248198541775659 0.12784311929978001 0 0.27913813953766042 0.12972245958528131 0 0.2814598539497668 0.10990299155730229 0 0.27786688771157569 0.1150217509861922 0 0.27702128122739278 0.10689832557857171 0 0.27786688771157569 0.1150217509861922 0 0.27418517611644572 0.1163335826691398 0 0.26638390190257438 0.1102685147937751 0 0.27418517611644572 0.1163335826691398 0 0.26888095198589312 0.11979825388229511 0 0.26487973471170051 0.1148861259760711 0 0.27418517611644572 0.1163335826691398 0 0.26888095198589312 0.11979825388229511 0 0.27248198541775659 0.12784311929978001 0 0.26888095198589312 0.11979825388229511 0 0.26519442307348812 0.1188177922564181 0 0.26487973471170051 0.1148861259760711 0 0.26888095198589312 0.11979825388229511 0 0.26562400985315288 0.1251654340079911 0 0.27248198541775659 0.12784311929978001 0 0.26888095198589312 0.11979825388229511 0 0.26519442307348812 0.1188177922564181 0 0.26562400985315288 0.1251654340079911 0 0.27786688771157569 0.1150217509861922 0 0.26638390190257438 0.1102685147937751 0 0.25872482925013801 0.09949030162923457 0 0.27786688771157569 0.1150217509861922 0 0.25872482925013801 0.09949030162923457 0 0.27786688771157569 0.1150217509861922 0 0.27150352658480642 0.1040925172930806 0 0.25872482925013801 0.09949030162923457 0 0.28527214605629803 0.093542631019163408 0 0.27597760534302263 0.093816081557894046 0 0.28108272677848523 0.099874609951530163 0 0.27597760534302263 0.093816081557894046 0 0.28108272677848523 0.099874609951530163 0 0.27461357126647679 0.10027579108255071 0 0.27786688771157569 0.1150217509861922 0 0.27702128122739278 0.10689832557857171 0 0.27150352658480642 0.1040925172930806 0 0.27461357126647679 0.10027579108255071 0 0.27702128122739278 0.10689832557857171 0 0.27150352658480642 0.1040925172930806 0 0.28356239405763972 0.106033323917978 0 0.28108272677848523 0.099874609951530163 0 0.27702128122739278 0.10689832557857171 0 0.28108272677848523 0.099874609951530163 0 0.27461357126647679 0.10027579108255071 0 0.27702128122739278 0.10689832557857171 0 0.28356239405763972 0.106033323917978 0 0.2814598539497668 0.10990299155730229 0 0.27702128122739278 0.10689832557857171 0 0.2619867778419176 0.09199379318438361 0 0.27597760534302263 0.093816081557894046 0 0.26850219741802223 0.0981363484555835 0 0.27150352658480642 0.1040925172930806 0 0.26850219741802223 0.0981363484555835 0 0.25872482925013801 0.09949030162923457 0 0.27461357126647679 0.10027579108255071 0 0.27150352658480642 0.1040925172930806 0 0.26850219741802223 0.0981363484555835 0 0.27597760534302263 0.093816081557894046 0 0.27461357126647679 0.10027579108255071 0 0.26850219741802223 0.0981363484555835 0 0.2619867778419176 0.09199379318438361 0 0.26850219741802223 0.0981363484555835 0 0.25872482925013801 0.09949030162923457 0 0.2619867778419176 0.09199379318438361 0 0.26016144869860108 0.09301841504440217 0 0.25872482925013801 0.09949030162923457 0 0.2619867778419176 0.09199379318438361 0 0.25872482925013801 0.09949030162923457 0 0.26016144869860108 0.09301841504440217 0 0.25872482925013801 0.09949030162923457 0 0.26016144869860108 0.09301841504440217 0 0.25872482925013801 0.09949030162923457 0 0.25459763100830068 0.096141582858552177 0 0.26638390190257438 0.1102685147937751 0 0.25872482925013801 0.09949030162923457 0 0.26054083413963042 0.1068609537315081 0 0.26638390190257438 0.1102685147937751 0 0.26054083413963042 0.1068609537315081 0 0.25655208948606423 0.10927836717886751 0 0.25872482925013801 0.09949030162923457 0 0.258042440935632 0.10497087790269199 0 0.26054083413963042 0.1068609537315081 0 0.25872482925013801 0.09949030162923457 0 0.258042440935632 0.10497087790269199 0 0.258042440935632 0.10497087790269199 0 0.26054083413963042 0.1068609537315081 0 0.25655208948606423 0.10927836717886751 0 0.25872482925013801 0.09949030162923457 0 0.25655208948606423 0.10927836717886751 0 0.25872482925013801 0.09949030162923457 0 0.25655208948606423 0.10927836717886751 0 0.25459763100830068 0.096141582858552177 0 0.24174744587836799 0.1033548466348798 0 0.25655208948606423 0.10927836717886751 0 0.25459763100830068 0.096141582858552177 0 0.25872482925013801 0.09949030162923457 0 0.258042440935632 0.10497087790269199 0 0.25655208948606423 0.10927836717886751 0 0.25872482925013801 0.09949030162923457 0 0.25459763100830068 0.096141582858552177 0 0.26016144869860108 0.09301841504440217 0 0.25459763100830068 0.096141582858552177 0 0.27418517611644572 0.1163335826691398 0 0.25655208948606423 0.10927836717886751 0 0.26487973471170051 0.1148861259760711 0 0.27418517611644572 0.1163335826691398 0 0.25655208948606423 0.10927836717886751 0 0.2613903323121034 0.11972876860365821 0 0.25824300399834771 0.11754386918627879 0 0.25813574029091341 0.12532111527980791 0 0.2613903323121034 0.11972876860365821 0 0.25824300399834771 0.11754386918627879 0 0.26064106818342869 0.11649387083006101 0 0.2613903323121034 0.11972876860365821 0 0.26303182906276251 0.1167652494283456 0 0.26064106818342869 0.11649387083006101 0 0.2613903323121034 0.11972876860365821 0 0.25813574029091341 0.12532111527980791 0 0.26562400985315288 0.1251654340079911 0 0.2613903323121034 0.11972876860365821 0 0.26519442307348812 0.1188177922564181 0 0.26562400985315288 0.1251654340079911 0 0.2613903323121034 0.11972876860365821 0 0.26519442307348812 0.1188177922564181 0 0.26303182906276251 0.1167652494283456 0 0.26487973471170051 0.1148861259760711 0 0.2618287337373767 0.1148464313763837 0 0.2589676606418963 0.1122376160430168 0 0.25655208948606423 0.10927836717886751 0 0.26487973471170051 0.1148861259760711 0 0.2589676606418963 0.1122376160430168 0 0.26519442307348812 0.1188177922564181 0 0.26487973471170051 0.1148861259760711 0 0.26303182906276251 0.1167652494283456 0 0.26487973471170051 0.1148861259760711 0 0.2618287337373767 0.1148464313763837 0 0.26303182906276251 0.1167652494283456 0 0.2618287337373767 0.1148464313763837 0 0.26303182906276251 0.1167652494283456 0 0.26064106818342869 0.11649387083006101 0 0.2618287337373767 0.1148464313763837 0 0.26064106818342869 0.11649387083006101 0 0.26015078570541528 0.1146524558252945 0 0.2618287337373767 0.1148464313763837 0 0.2589676606418963 0.1122376160430168 0 0.26015078570541528 0.1146524558252945 0 0.2589676606418963 0.1122376160430168 0 0.26015078570541528 0.1146524558252945 0 0.25777400528710798 0.1147846643059361 0 0.25824300399834771 0.11754386918627879 0 0.26015078570541528 0.1146524558252945 0 0.25777400528710798 0.1147846643059361 0 0.25824300399834771 0.11754386918627879 0 0.26064106818342869 0.11649387083006101 0 0.26015078570541528 0.1146524558252945 0 0.24646482385440791 0.1109165710353929 0 0.25655208948606423 0.10927836717886751 0 0.255186127323073 0.11543194682551421 0 0.25824300399834771 0.11754386918627879 0 0.25777400528710798 0.1147846643059361 0 0.255186127323073 0.11543194682551421 0 0.2589676606418963 0.1122376160430168 0 0.25777400528710798 0.1147846643059361 0 0.255186127323073 0.11543194682551421 0 0.25655208948606423 0.10927836717886751 0 0.255186127323073 0.11543194682551421 0 0.25655208948606423 0.10927836717886751 0 0.2589676606418963 0.1122376160430168 0 0.255186127323073 0.11543194682551421 0 0.255186127323073 0.11543194682551421 0 0.25238596385504641 0.12804651946228041 0 0.24420216851797599 0.1292372680552665 0 0.255186127323073 0.11543194682551421 0 0.25238596385504641 0.12804651946228041 0 0.255186127323073 0.11543194682551421 0 0.25238596385504641 0.12804651946228041 0 0.25813574029091341 0.12532111527980791 0 0.25824300399834771 0.11754386918627879 0 0.255186127323073 0.11543194682551421 0 0.25813574029091341 0.12532111527980791 0 0.25238596385504641 0.12804651946228041 0 0.25813574029091341 0.12532111527980791 0 0.26818611498992623 0.1403022215883418 0 0.24420216851797599 0.1292372680552665 0 0.26818611498992623 0.1403022215883418 0 0.24301228879775941 0.13939302681245261 0 0.24420216851797599 0.1292372680552665 0 0.26818611498992623 0.1403022215883418 0 0.24420216851797599 0.1292372680552665 0 0.25238596385504641 0.12804651946228041 0 0.26818611498992623 0.1403022215883418 0 0.25813574029091341 0.12532111527980791 0 0.26562400985315288 0.1251654340079911 0 0.26818611498992623 0.1403022215883418 0 0.27248198541775659 0.12784311929978001 0 0.26818611498992623 0.1403022215883418 0 0.27913813953766042 0.12972245958528131 0 0.26562400985315288 0.1251654340079911 0 0.27248198541775659 0.12784311929978001 0 0.26818611498992623 0.1403022215883418 0 0.26818611498992623 0.1403022215883418 0 0.27913813953766042 0.12972245958528131 0 0.28414721419066807 0.1482284927670183 0 0.26818611498992623 0.1403022215883418 0 0.26583546295036609 0.16369396270660089 0 0.28414721419066807 0.1482284927670183 0 0.26818611498992623 0.1403022215883418 0 0.25486404381895789 0.1523024957907583 0 0.26583546295036609 0.16369396270660089 0 0.24301228879775941 0.13939302681245261 0 0.26818611498992623 0.1403022215883418 0 0.25486404381895789 0.1523024957907583 0 0.2424223085377801 0.16582077205563811 0 0.25486404381895789 0.1523024957907583 0 0.26583546295036609 0.16369396270660089 0 0.2424223085377801 0.16582077205563811 0 0.26032431562704572 0.18342712708893841 0 0.26583546295036609 0.16369396270660089 0 0.26032431562704572 0.18342712708893841 0 0.27712404590978218 0.18082877805207789 0 0.26583546295036609 0.16369396270660089 0 0.27712404590978218 0.18082877805207789 0 0.26583546295036609 0.16369396270660089 0 0.28977860037431658 0.16805367250728201 0 0.26583546295036609 0.16369396270660089 0 0.28977860037431658 0.16805367250728201 0 0.28414721419066807 0.1482284927670183 0 0.27712404590978218 0.18082877805207789 0 0.28977860037431658 0.16805367250728201 0 0.29478084704188562 0.18627619782702401 0 0.28977860037431658 0.16805367250728201 0 0.29478084704188562 0.18627619782702401 0 0.31259037162619269 0.16725562300018509 0 0.29478084704188562 0.18627619782702401 0 0.31732062797233113 0.1926592597090995 0 0.31259037162619269 0.16725562300018509 0 0.28977860037431658 0.16805367250728201 0 0.29946190776947251 0.15165108642358641 0 0.31259037162619269 0.16725562300018509 0 0.29946190776947251 0.15165108642358641 0 0.31457327253359829 0.14480451223356691 0 0.31259037162619269 0.16725562300018509 0 0.29946190776947251 0.15165108642358641 0 0.29622008012258699 0.12991313160987961 0 0.31457327253359829 0.14480451223356691 0 0.29622008012258699 0.12991313160987961 0 0.31457327253359829 0.14480451223356691 0 0.29622008012258699 0.12991313160987961 0 0.32387679174541939 0.1297141718462434 0 0.31457327253359829 0.14480451223356691 0 0.27913813953766042 0.12972245958528131 0 0.29622008012258699 0.12991313160987961 0 0.28414721419066807 0.1482284927670183 0 0.29946190776947251 0.15165108642358641 0 0.29622008012258699 0.12991313160987961 0 0.28414721419066807 0.1482284927670183 0 0.28977860037431658 0.16805367250728201 0 0.29946190776947251 0.15165108642358641 0 0.28414721419066807 0.1482284927670183 0 0.27355486584907379 0.24364475180805101 0 0.25452501640087027 0.2374112721999547 0 0.26408278890255732 0.22479217687295791 0 0.25404003316197471 0.25208422786308371 0 0.27355486584907379 0.24364475180805101 0 0.25452501640087027 0.2374112721999547 0 0.24523436150048811 0.24199469982198529 0 0.25404003316197471 0.25208422786308371 0 0.25452501640087027 0.2374112721999547 0 0.24868260911088891 0.2303107595792985 0 0.2471090749199483 0.2357199094212839 0 0.25452501640087027 0.2374112721999547 0 0.24868260911088891 0.2303107595792985 0 0.25452501640087027 0.2374112721999547 0 0.26408278890255732 0.22479217687295791 0 0.24868260911088891 0.2303107595792985 0 0.26408278890255732 0.22479217687295791 0 0.25357276657721323 0.21641202867955539 0 0.27355486584907379 0.24364475180805101 0 0.26408278890255732 0.22479217687295791 0 0.28109637724199782 0.22150209212538899 0 0.26408278890255732 0.22479217687295791 0 0.28109637724199782 0.22150209212538899 0 0.27306509823529962 0.19947215684549871 0 0.26408278890255732 0.22479217687295791 0 0.25357276657721323 0.21641202867955539 0 0.27306509823529962 0.19947215684549871 0 0.25357276657721323 0.21641202867955539 0 0.25471258750952741 0.20148162901819469 0 0.27306509823529962 0.19947215684549871 0 0.25357276657721323 0.21641202867955539 0 0.27306509823529962 0.19947215684549871 0 0.2418323282778008 0.1922485172988235 0 0.26032431562704572 0.18342712708893841 0 0.25471258750952741 0.20148162901819469 0 0.26032431562704572 0.18342712708893841 0 0.25471258750952741 0.20148162901819469 0 0.27306509823529962 0.19947215684549871 0 0.26032431562704572 0.18342712708893841 0 0.27712404590978218 0.18082877805207789 0 0.27306509823529962 0.19947215684549871 0 0.29478084704188562 0.18627619782702401 0 0.27306509823529962 0.19947215684549871 0 0.29788838547339219 0.20777731020547871 0 0.27712404590978218 0.18082877805207789 0 0.29478084704188562 0.18627619782702401 0 0.27306509823529962 0.19947215684549871 0 0.29478084704188562 0.18627619782702401 0 0.29788838547339219 0.20777731020547871 0 0.31732062797233113 0.1926592597090995 0 0.29788838547339219 0.20777731020547871 0 0.31916040529159301 0.2166328624030785 0 0.31732062797233113 0.1926592597090995 0 0.28109637724199782 0.22150209212538899 0 0.27306509823529962 0.19947215684549871 0 0.29788838547339219 0.20777731020547871 0 0.28109637724199782 0.22150209212538899 0 0.29788838547339219 0.20777731020547871 0 0.29668368374297521 0.23238313674276659 0 0.27355486584907379 0.24364475180805101 0 0.28109637724199782 0.22150209212538899 0 0.29668368374297521 0.23238313674276659 0 0.29788838547339219 0.20777731020547871 0 0.29668368374297521 0.23238313674276659 0 0.31916040529159301 0.2166328624030785 0 0.29692855903906679 0.25537037528416417 0 0.29668368374297521 0.23238313674276659 0 0.32448256229391081 0.244023600812113 0 0.29692855903906679 0.25537037528416417 0 0.27355486584907379 0.24364475180805101 0 0.29668368374297521 0.23238313674276659 0 0.32448256229391081 0.244023600812113 0 0.33724611662768478 0.226971671205 0 0.35052125483258301 0.2434514759103418 0 0.32448256229391081 0.244023600812113 0 0.33724611662768478 0.226971671205 0 0.31916040529159301 0.2166328624030785 0 0.29668368374297521 0.23238313674276659 0 0.32448256229391081 0.244023600812113 0 0.31916040529159301 0.2166328624030785 0 0.33724611662768478 0.226971671205 0 0.31916040529159301 0.2166328624030785 0 0.34036716376080012 0.20191553243135291 0 0.31916040529159301 0.2166328624030785 0 0.31732062797233113 0.1926592597090995 0 0.34036716376080012 0.20191553243135291 0 0.31732062797233113 0.1926592597090995 0 0.34036716376080012 0.20191553243135291 0 0.33327910971122948 0.1769249887409369 0 0.34036716376080012 0.20191553243135291 0 0.33327910971122948 0.1769249887409369 0 0.35363051640006049 0.1838751638919715 0 0.34036716376080012 0.20191553243135291 0 0.36940151407566268 0.20038014978660379 0 0.35363051640006049 0.1838751638919715 0 0.36940151407566268 0.20038014978660379 0 0.35418005050780299 0.2186338278764331 0 0.36970064025412291 0.2313836502337521 0 0.34036716376080012 0.20191553243135291 0 0.36940151407566268 0.20038014978660379 0 0.35418005050780299 0.2186338278764331 0 0.33724611662768478 0.226971671205 0 0.34036716376080012 0.20191553243135291 0 0.35418005050780299 0.2186338278764331 0 0.33724611662768478 0.226971671205 0 0.35418005050780299 0.2186338278764331 0 0.35052125483258301 0.2434514759103418 0 0.35418005050780299 0.2186338278764331 0 0.36970064025412291 0.2313836502337521 0 0.35052125483258301 0.2434514759103418 0 0.37478492512234668 0.26235925763296819 0 0.36970064025412291 0.2313836502337521 0 0.35052125483258301 0.2434514759103418 0 0.33497932682518311 0.1519205034936916 0 0.32387679174541939 0.1297141718462434 0 0.35327239972246333 0.1300285668288671 0 0.33497932682518311 0.1519205034936916 0 0.31457327253359829 0.14480451223356691 0 0.31259037162619269 0.16725562300018509 0 0.33497932682518311 0.1519205034936916 0 0.32387679174541939 0.1297141718462434 0 0.31457327253359829 0.14480451223356691 0 0.33497932682518311 0.1519205034936916 0 0.31259037162619269 0.16725562300018509 0 0.33327910971122948 0.1769249887409369 0 0.31732062797233113 0.1926592597090995 0 0.31259037162619269 0.16725562300018509 0 0.33327910971122948 0.1769249887409369 0 0.33497932682518311 0.1519205034936916 0 0.33327910971122948 0.1769249887409369 0 0.34907151432127381 0.16521020144779211 0 0.34907151432127381 0.16521020144779211 0 0.35363051640006049 0.1838751638919715 0 0.37277469716236061 0.17385369407461371 0 0.33327910971122948 0.1769249887409369 0 0.34907151432127381 0.16521020144779211 0 0.35363051640006049 0.1838751638919715 0 0.36940151407566268 0.20038014978660379 0 0.35363051640006049 0.1838751638919715 0 0.37277469716236061 0.17385369407461371 0 0.37277469716236061 0.17385369407461371 0 0.36285879787080821 0.15032831482926681 0 0.3843829660287168 0.1587008111838667 0 0.34907151432127381 0.16521020144779211 0 0.37277469716236061 0.17385369407461371 0 0.36285879787080821 0.15032831482926681 0 0.36285879787080821 0.15032831482926681 0 0.36938385952287339 0.13266757129752671 0 0.38232915319187621 0.14145147187989651 0 0.33497932682518311 0.1519205034936916 0 0.36285879787080821 0.15032831482926681 0 0.35327239972246333 0.1300285668288671 0 0.33497932682518311 0.1519205034936916 0 0.34907151432127381 0.16521020144779211 0 0.36285879787080821 0.15032831482926681 0 0.36649271172908648 0.1176987398754743 0 0.35327239972246333 0.1300285668288671 0 0.36938385952287339 0.13266757129752671 0 0.36285879787080821 0.15032831482926681 0 0.35327239972246333 0.1300285668288671 0 0.36938385952287339 0.13266757129752671 0 0.39421974672685411 0.13240309148155921 0 0.38232915319187621 0.14145147187989651 0 0.38138511069115272 0.12353481432135879 0 0.36938385952287339 0.13266757129752671 0 0.38232915319187621 0.14145147187989651 0 0.38138511069115272 0.12353481432135879 0 0.39421974672685411 0.13240309148155921 0 0.41199731756477831 0.13352747615702071 0 0.3942733283070321 0.11371104406223111 0 0.39421974672685411 0.13240309148155921 0 0.40120830104283178 0.15077536395034899 0 0.41199731756477831 0.13352747615702071 0 0.39421974672685411 0.13240309148155921 0 0.40120830104283178 0.15077536395034899 0 0.38232915319187621 0.14145147187989651 0 0.36285879787080821 0.15032831482926681 0 0.38232915319187621 0.14145147187989651 0 0.3843829660287168 0.1587008111838667 0 0.40120830104283178 0.15077536395034899 0 0.38232915319187621 0.14145147187989651 0 0.3843829660287168 0.1587008111838667 0 0.37277469716236061 0.17385369407461371 0 0.3843829660287168 0.1587008111838667 0 0.39936082591505218 0.176604797209717 0 0.37277469716236061 0.17385369407461371 0 0.39936082591505218 0.176604797209717 0 0.38992891259608609 0.19548318162929729 0 0.40120830104283178 0.15077536395034899 0 0.39936082591505218 0.176604797209717 0 0.41410660213767347 0.1652382216241598 0 0.40120830104283178 0.15077536395034899 0 0.3843829660287168 0.1587008111838667 0 0.39936082591505218 0.176604797209717 0 0.40120830104283178 0.15077536395034899 0 0.41410660213767347 0.1652382216241598 0 0.42972130682252457 0.1533439082518103 0 0.39936082591505218 0.176604797209717 0 0.41410660213767347 0.1652382216241598 0 0.42626679864566441 0.18172907206941921 0 0.42626679864566441 0.18172907206941921 0 0.42972130682252457 0.1533439082518103 0 0.45055708181009879 0.1690731760043504 0 0.41410660213767347 0.1652382216241598 0 0.42626679864566441 0.18172907206941921 0 0.42972130682252457 0.1533439082518103 0 0.42972130682252457 0.1533439082518103 0 0.43054248402473921 0.1250848439374013 0 0.44904083753606949 0.1441389705362057 0 0.42972130682252457 0.1533439082518103 0 0.43054248402473921 0.1250848439374013 0 0.41199731756477831 0.13352747615702071 0 0.43054248402473921 0.1250848439374013 0 0.41199731756477831 0.13352747615702071 0 0.41135066019799099 0.1182158826350982 0 0.40120830104283178 0.15077536395034899 0 0.42972130682252457 0.1533439082518103 0 0.41199731756477831 0.13352747615702071 0 0.42972130682252457 0.1533439082518103 0 0.41199731756477831 0.13352747615702071 0 0.40097752291506289 0.25902709479471048 0 0.39333580902427501 0.24081282939082621 0 0.41286841049430861 0.24788583003777651 0 0.37478492512234668 0.26235925763296819 0 0.36970064025412291 0.2313836502337521 0 0.39333580902427501 0.24081282939082621 0 0.36970064025412291 0.2313836502337521 0 0.39333580902427501 0.24081282939082621 0 0.39338333076520482 0.2163019563834182 0 0.39338333076520482 0.2163019563834182 0 0.41736514745474701 0.23222376298023259 0 0.39333580902427501 0.24081282939082621 0 0.39338333076520482 0.2163019563834182 0 0.41736514745474701 0.23222376298023259 0 0.39338333076520482 0.2163019563834182 0 0.38992891259608609 0.19548318162929729 0 0.41508715600771068 0.20488700545500521 0 0.36940151407566268 0.20038014978660379 0 0.39338333076520482 0.2163019563834182 0 0.36940151407566268 0.20038014978660379 0 0.39338333076520482 0.2163019563834182 0 0.38992891259608609 0.19548318162929729 0 0.36940151407566268 0.20038014978660379 0 0.36970064025412291 0.2313836502337521 0 0.39338333076520482 0.2163019563834182 0 0.36940151407566268 0.20038014978660379 0 0.37277469716236061 0.17385369407461371 0 0.38992891259608609 0.19548318162929729 0 0.39936082591505218 0.176604797209717 0 0.38992891259608609 0.19548318162929729 0 0.41508715600771068 0.20488700545500521 0 0.39936082591505218 0.176604797209717 0 0.42626679864566441 0.18172907206941921 0 0.41508715600771068 0.20488700545500521 0 0.42626679864566441 0.18172907206941921 0 0.44140000057487638 0.20455834627575151 0 0.44473765559285833 0.18692520255949671 0 0.42626679864566441 0.18172907206941921 0 0.41508715600771068 0.20488700545500521 0 0.44140000057487638 0.20455834627575151 0 0.41508715600771068 0.20488700545500521 0 0.43790507610234408 0.2273079216372012 0 0.44140000057487638 0.20455834627575151 0 0.39338333076520482 0.2163019563834182 0 0.41508715600771068 0.20488700545500521 0 0.41736514745474701 0.23222376298023259 0 0.41508715600771068 0.20488700545500521 0 0.41736514745474701 0.23222376298023259 0 0.43790507610234408 0.2273079216372012 0 0.42717012070777932 0.25569493195645271 0 0.41736514745474701 0.23222376298023259 0 0.44134696414428898 0.24814556957704689 0 0.41736514745474701 0.23222376298023259 0 0.44134696414428898 0.24814556957704689 0 0.41736514745474701 0.23222376298023259 0 0.44134696414428898 0.24814556957704689 0 0.43790507610234408 0.2273079216372012 0 0.39333580902427501 0.24081282939082621 0 0.41736514745474701 0.23222376298023259 0 0.41286841049430861 0.24788583003777651 0 0.42717012070777932 0.25569493195645271 0 0.41736514745474701 0.23222376298023259 0 0.41286841049430861 0.24788583003777651 0 0.45336271850049548 0.25236276911819511 0 0.45602225988021539 0.23816249748875179 0 0.48180965237011408 0.2487438147612096 0 0.45336271850049548 0.25236276911819511 0 0.45602225988021539 0.23816249748875179 0 0.44134696414428898 0.24814556957704689 0 0.44600400848591359 0.23698591979390529 0 0.43790507610234408 0.2273079216372012 0 0.45336271850049548 0.25236276911819511 0 0.44134696414428898 0.24814556957704689 0 0.44600400848591359 0.23698591979390529 0 0.45336271850049548 0.25236276911819511 0 0.45602225988021539 0.23816249748875179 0 0.44600400848591359 0.23698591979390529 0 0.45602225988021539 0.23816249748875179 0 0.44600400848591359 0.23698591979390529 0 0.45492939023952461 0.2194397610932603 0 0.44600400848591359 0.23698591979390529 0 0.43790507610234408 0.2273079216372012 0 0.45492939023952461 0.2194397610932603 0 0.45602225988021539 0.23816249748875179 0 0.45492939023952461 0.2194397610932603 0 0.47419086539053962 0.2296972043723752 0 0.45492939023952461 0.2194397610932603 0 0.46072674134079361 0.19234021588846559 0 0.47847088324409548 0.2092058758105422 0 0.45492939023952461 0.2194397610932603 0 0.44140000057487638 0.20455834627575151 0 0.46072674134079361 0.19234021588846559 0 0.43790507610234408 0.2273079216372012 0 0.45492939023952461 0.2194397610932603 0 0.44140000057487638 0.20455834627575151 0 0.44140000057487638 0.20455834627575151 0 0.46072674134079361 0.19234021588846559 0 0.44473765559285833 0.18692520255949671 0 0.46072674134079361 0.19234021588846559 0 0.4812983336831132 0.1885899983914231 0 0.47847088324409548 0.2092058758105422 0 0.4812983336831132 0.1885899983914231 0 0.5 0.19797878532577309 0 0.47847088324409548 0.2092058758105422 0 0.5 0.19797878532577309 0 0.47847088324409548 0.2092058758105422 0 0.5 0.22793385045351919 0 0.47847088324409548 0.2092058758105422 0 0.47419086539053962 0.2296972043723752 0 0.5 0.22793385045351919 0 0.45492939023952461 0.2194397610932603 0 0.47847088324409548 0.2092058758105422 0 0.47419086539053962 0.2296972043723752 0 0.5 0.25788891558126559 0 0.5 0.22793385045351919 0 0.48180965237011408 0.2487438147612096 0 0.47419086539053962 0.2296972043723752 0 0.5 0.22793385045351919 0 0.48180965237011408 0.2487438147612096 0 0.45602225988021539 0.23816249748875179 0 0.47419086539053962 0.2296972043723752 0 0.48180965237011408 0.2487438147612096 0 0.46287167922105149 0.15545842773829099 0 0.44904083753606949 0.1441389705362057 0 0.45055708181009879 0.1690731760043504 0 0.46287167922105149 0.15545842773829099 0 0.46355845200513762 0.13850516077978961 0 0.47909635670674228 0.14767892477560191 0 0.46287167922105149 0.15545842773829099 0 0.46355845200513762 0.13850516077978961 0 0.44904083753606949 0.1441389705362057 0 0.46355845200513762 0.13850516077978961 0 0.47795750643906171 0.12649365297180731 0 0.4559740449914913 0.1245921335342187 0 0.46355845200513762 0.13850516077978961 0 0.44904083753606949 0.1441389705362057 0 0.4559740449914913 0.1245921335342187 0 0.43054248402473921 0.1250848439374013 0 0.44904083753606949 0.1441389705362057 0 0.4559740449914913 0.1245921335342187 0 0.42972130682252457 0.1533439082518103 0 0.44904083753606949 0.1441389705362057 0 0.45055708181009879 0.1690731760043504 0 0.42626679864566441 0.18172907206941921 0 0.45055708181009879 0.1690731760043504 0 0.44473765559285833 0.18692520255949671 0 0.46072674134079361 0.19234021588846559 0 0.45055708181009879 0.1690731760043504 0 0.44473765559285833 0.18692520255949671 0 0.46072674134079361 0.19234021588846559 0 0.45055708181009879 0.1690731760043504 0 0.4752785409050499 0.1685484481011886 0 0.46287167922105149 0.15545842773829099 0 0.45055708181009879 0.1690731760043504 0 0.4752785409050499 0.1685484481011886 0 0.45055708181009879 0.1690731760043504 0 0.4752785409050499 0.1685484481011886 0 0.46287167922105149 0.15545842773829099 0 0.4752785409050499 0.1685484481011886 0 0.47909635670674228 0.14767892477560191 0 0.46072674134079361 0.19234021588846559 0 0.4812983336831132 0.1885899983914231 0 0.4752785409050499 0.1685484481011886 0 0.4812983336831132 0.1885899983914231 0 0.4752785409050499 0.1685484481011886 0 0.50000000000000111 0.1680237201980268 0 0.4812983336831132 0.1885899983914231 0 0.5 0.19797878532577309 0 0.50000000000000111 0.1680237201980268 0 0.4752785409050499 0.1685484481011886 0 0.50000000000000111 0.1680237201980268 0 0.4752785409050499 0.1685484481011886 0 0.50000000000000111 0.1680237201980268 0 0.47909635670674228 0.14767892477560191 0 0.50000000000000111 0.1680237201980268 0 0.5 0.14405257421324749 0 0.47909635670674228 0.14767892477560191 0 0.46355845200513762 0.13850516077978961 0 0.47909635670674228 0.14767892477560191 0 0.47795750643906171 0.12649365297180731 0 0.5 0.14405257421324749 0 0.47795750643906171 0.12649365297180731 0 0.5 0.12008142822846821 0 0.5 0.14405257421324749 0 0.47909635670674228 0.14767892477560191 0 0.47795750643906171 0.12649365297180731 0 0.47795750643906171 0.12649365297180731 0 0.5 0.12008142822846821 0 0.48437617198066579 0.1083096126220475 0 0.48437617198066579 0.1083096126220475 0 0.5 0.096110282243688894 0 0.4787628640296252 0.09057766153942011 0 0.5 0.12008142822846821 0 0.48437617198066579 0.1083096126220475 0 0.5 0.096110282243688894 0 0.48437617198066579 0.1083096126220475 0 0.4787628640296252 0.09057766153942011 0 0.46516048943464161 0.10828503812685281 0 0.47795750643906171 0.12649365297180731 0 0.48437617198066579 0.1083096126220475 0 0.46516048943464161 0.10828503812685281 0 0.49999999999999389 0.072139136258909636 0 0.47264706529987838 0.068582714068275596 0 0.5 0.096110282243688894 0 0.49999999999999389 0.072139136258909636 0 0.4787628640296252 0.09057766153942011 0 0.49999999999999389 0.072139136258909636 0 0.4787628640296252 0.09057766153942011 0 0.47264706529987838 0.068582714068275596 0 0.47264706529987838 0.068582714068275596 0 0.44529413059976319 0.065026291877640793 0 0.47264706529987838 0.068582714068275596 0 0.45009241250792742 0.089848104882156193 0 0.44529413059976319 0.065026291877640793 0 0.4787628640296252 0.09057766153942011 0 0.47264706529987838 0.068582714068275596 0 0.45009241250792742 0.089848104882156193 0 0.45009241250792742 0.089848104882156193 0 0.44529413059976319 0.065026291877640793 0 0.42710943965072512 0.080764761008918995 0 0.4559740449914913 0.1245921335342187 0 0.46516048943464161 0.10828503812685281 0 0.44660059903698529 0.1095612823054605 0 0.47795750643906171 0.12649365297180731 0 0.4559740449914913 0.1245921335342187 0 0.46516048943464161 0.10828503812685281 0 0.45009241250792742 0.089848104882156193 0 0.46516048943464161 0.10828503812685281 0 0.44660059903698529 0.1095612823054605 0 0.4787628640296252 0.09057766153942011 0 0.45009241250792742 0.089848104882156193 0 0.46516048943464161 0.10828503812685281 0 0.45009241250792742 0.089848104882156193 0 0.44660059903698529 0.1095612823054605 0 0.42999027194599682 0.1018780191517587 0 0.43054248402473921 0.1250848439374013 0 0.4559740449914913 0.1245921335342187 0 0.44660059903698529 0.1095612823054605 0 0.43054248402473921 0.1250848439374013 0 0.44660059903698529 0.1095612823054605 0 0.42999027194599682 0.1018780191517587 0 0.43054248402473921 0.1250848439374013 0 0.41661501870526302 0.10782610780512 0 0.42999027194599682 0.1018780191517587 0 0.43054248402473921 0.1250848439374013 0 0.41135066019799099 0.1182158826350982 0 0.41661501870526302 0.10782610780512 0 0.43054248402473921 0.1250848439374013 0 0.41135066019799099 0.1182158826350982 0 0.41135066019799099 0.1182158826350982 0 0.41661501870526302 0.10782610780512 0 0.40605193543095291 0.1101899923625959 0 0.41199731756477831 0.13352747615702071 0 0.40856435551682457 0.1195913393650266 0 0.41135066019799099 0.1182158826350982 0 0.41661501870526302 0.10782610780512 0 0.42999027194599682 0.1018780191517587 0 0.41050144950628809 0.092342992232264526 0 0.41661501870526302 0.10782610780512 0 0.41050144950628809 0.092342992232264526 0 0.40408322644931421 0.10337105767737099 0 0.41661501870526302 0.10782610780512 0 0.40605193543095291 0.1101899923625959 0 0.40408322644931421 0.10337105767737099 0 0.45009241250792742 0.089848104882156193 0 0.42999027194599682 0.1018780191517587 0 0.42710943965072512 0.080764761008918995 0 0.42999027194599682 0.1018780191517587 0 0.42710943965072512 0.080764761008918995 0 0.41050144950628809 0.092342992232264526 0 0.44529413059976319 0.065026291877640793 0 0.42710943965072512 0.080764761008918995 0 0.41794119589964812 0.061469869687005997 0 0.44529413059976319 0.065026291877640793 0 0.41794119589964812 0.061469869687005997 0 0.42710943965072512 0.080764761008918995 0 0.40780427562880051 0.074340584248736047 0 0.41794119589964812 0.061469869687005997 0 0.42710943965072512 0.080764761008918995 0 0.40780427562880051 0.074340584248736047 0 0.41050144950628809 0.092342992232264526 0 0.41050144950628809 0.092342992232264526 0 0.39288103188780799 0.079211850819119467 0 0.39173805803946632 0.094638931286680023 0 0.40780427562880051 0.074340584248736047 0 0.41050144950628809 0.092342992232264526 0 0.39288103188780799 0.079211850819119467 0 0.40780427562880051 0.074340584248736047 0 0.39058826119953283 0.057913447496371839 0 0.41794119589964812 0.061469869687005997 0 0.40780427562880051 0.074340584248736047 0 0.39288103188780799 0.079211850819119467 0 0.39058826119953283 0.057913447496371839 0 0.39288103188780799 0.079211850819119467 0 0.37575225644292037 0.071709270247263784 0 0.39058826119953283 0.057913447496371839 0 0.3742009225581896 0.091268948227223284 0 0.39288103188780799 0.079211850819119467 0 0.39173805803946632 0.094638931286680023 0 0.3742009225581896 0.091268948227223284 0 0.39288103188780799 0.079211850819119467 0 0.37575225644292037 0.071709270247263784 0 0.3742009225581896 0.091268948227223284 0 0.39215883637124299 0.11134692133279479 0 0.39173805803946632 0.094638931286680023 0 0.3742009225581896 0.091268948227223284 0 0.39215883637124299 0.11134692133279479 0 0.3742009225581896 0.091268948227223284 0 0.3795225325030368 0.1068242515199407 0 0.39215883637124299 0.11134692133279479 0 0.3795225325030368 0.1068242515199407 0 0.39215883637124299 0.11134692133279479 0 0.3795225325030368 0.1068242515199407 0 0.38138511069115272 0.12353481432135879 0 0.3942733283070321 0.11371104406223111 0 0.36649271172908648 0.1176987398754743 0 0.3795225325030368 0.1068242515199407 0 0.38138511069115272 0.12353481432135879 0 0.39421974672685411 0.13240309148155921 0 0.38138511069115272 0.12353481432135879 0 0.3942733283070321 0.11371104406223111 0 0.3795225325030368 0.1068242515199407 0 0.3942733283070321 0.11371104406223111 0 0.3795225325030368 0.1068242515199407 0 0.39215883637124299 0.11134692133279479 0 0.3942733283070321 0.11371104406223111 0 0.41135066019799099 0.1182158826350982 0 0.39215883637124299 0.11134692133279479 0 0.40605193543095291 0.1101899923625959 0 0.41135066019799099 0.1182158826350982 0 0.39215883637124299 0.11134692133279479 0 0.3942733283070321 0.11371104406223111 0 0.41135066019799099 0.1182158826350982 0 0.39215883637124299 0.11134692133279479 0 0.41199731756477831 0.13352747615702071 0 0.40856435551682457 0.1195913393650266 0 0.3942733283070321 0.11371104406223111 0 0.41199731756477831 0.13352747615702071 0 0.3942733283070321 0.11371104406223111 0 0.40856435551682457 0.1195913393650266 0 0.41135066019799099 0.1182158826350982 0 0.3942733283070321 0.11371104406223111 0 0.39215883637124299 0.11134692133279479 0 0.3942733283070321 0.11371104406223111 0 0.40856435551682457 0.1195913393650266 0 0.3942733283070321 0.11371104406223111 0 0.39215883637124299 0.11134692133279479 0 0.40408322644931421 0.10337105767737099 0 0.39173805803946632 0.094638931286680023 0 0.39215883637124299 0.11134692133279479 0 0.40605193543095291 0.1101899923625959 0 0.40408322644931421 0.10337105767737099 0 0.41050144950628809 0.092342992232264526 0 0.40408322644931421 0.10337105767737099 0 0.39173805803946632 0.094638931286680023 0 0.4038432128890253 0.016274120358417851 0 0.39452024459155199 0.029629145094844 0 0.3798040161112804 0.028996110171619349 0 0.4038432128890253 0.016274120358417851 0 0.39452024459155199 0.029629145094844 0 0.40714332068978548 0.032011032787191827 0 0.4038432128890253 0.016274120358417851 0 0.3798040161112804 0.028996110171619349 0 0.4038432128890253 0.016274120358417851 0 0.39390920682105918 0.0040204267233196643 0 0.38813729234829519 0.016219836643301819 0 0.4038432128890253 0.016274120358417851 0 0.39390920682105918 0.0040204267233196643 0 0.40369857438468087 -0.0060371637805465179 0 0.39390920682105918 0.0040204267233196643 0 0.38212023564171321 0.001094655884648786 0 0.38813729234829519 0.016219836643301819 0 0.38212023564171321 0.001094655884648786 0 0.37537418671591988 0.012891754799621079 0 0.3700201466167648 -0.002195575246397889 0 0.38212023564171321 0.001094655884648786 0 0.37537418671591988 0.012891754799621079 0 0.38813729234829519 0.016219836643301819 0 0.38029426512156322 0.021339738828328979 0 0.38813729234829519 0.016219836643301819 0 0.3798040161112804 0.028996110171619349 0 0.4038432128890253 0.016274120358417851 0 0.38813729234829519 0.016219836643301819 0 0.3798040161112804 0.028996110171619349 0 0.37537418671591988 0.012891754799621079 0 0.38029426512156322 0.021339738828328979 0 0.37786156531075732 0.02725125369877367 0 0.37537418671591988 0.012891754799621079 0 0.38029426512156322 0.021339738828328979 0 0.38813729234829519 0.016219836643301819 0 0.39452024459155199 0.029629145094844 0 0.3798040161112804 0.028996110171619349 0 0.384792923869274 0.033192425096464057 0 0.38029426512156322 0.021339738828328979 0 0.3798040161112804 0.028996110171619349 0 0.37786156531075732 0.02725125369877367 0 0.36984281421283938 0.03924660656396721 0 0.3798040161112804 0.028996110171619349 0 0.37675727284589372 0.036323400775862158 0 0.3798040161112804 0.028996110171619349 0 0.38012370578730592 0.033949837724153123 0 0.37675727284589372 0.036323400775862158 0 0.3798040161112804 0.028996110171619349 0 0.38012370578730592 0.033949837724153123 0 0.384792923869274 0.033192425096464057 0 0.38012370578730592 0.033949837724153123 0 0.38115894465086869 0.037510150111343843 0 0.384792923869274 0.033192425096464057 0 0.38012370578730592 0.033949837724153123 0 0.38115894465086869 0.037510150111343843 0 0.37675727284589372 0.036323400775862158 0 0.38115894465086869 0.037510150111343843 0 0.37675727284589372 0.036323400775862158 0 0.37726993283737248 0.041439113600633092 0 0.37726993283737248 0.041439113600633092 0 0.38325871491723518 0.0441773091346798 0 0.37608467898805159 0.048096788967416412 0 0.38115894465086869 0.037510150111343843 0 0.37726993283737248 0.041439113600633092 0 0.38325871491723518 0.0441773091346798 0 0.38115894465086869 0.037510150111343843 0 0.38325871491723518 0.0441773091346798 0 0.38884635116990662 0.036871995634108659 0 0.38325871491723518 0.0441773091346798 0 0.38884635116990662 0.036871995634108659 0 0.39118926401298038 0.043344116461786472 0 0.39452024459155199 0.029629145094844 0 0.38884635116990662 0.036871995634108659 0 0.384792923869274 0.033192425096464057 0 0.38115894465086869 0.037510150111343843 0 0.38884635116990662 0.036871995634108659 0 0.384792923869274 0.033192425096464057 0 0.36737709041569239 0.056764699852256018 0 0.39058826119953283 0.057913447496371839 0 0.36443667806580698 0.054513224756226962 0 0.37608467898805159 0.048096788967416412 0 0.39058826119953283 0.057913447496371839 0 0.36737709041569239 0.056764699852256018 0 0.37575225644292037 0.071709270247263784 0 0.39058826119953283 0.057913447496371839 0 0.36443667806580698 0.054513224756226962 0 0.39058826119953283 0.057913447496371839 0 0.38325871491723518 0.0441773091346798 0 0.37608467898805159 0.048096788967416412 0 0.39058826119953283 0.057913447496371839 0 0.38325871491723518 0.0441773091346798 0 0.39058826119953283 0.057913447496371839 0 0.39118926401298038 0.043344116461786472 0 0.39058826119953283 0.057913447496371839 0 0.39917917489280202 0.048669550515315511 0 0.40824027372044169 0.058787065978875973 0 0.39058826119953283 0.057913447496371839 0 0.40824027372044169 0.058787065978875973 0 0.39058826119953283 0.057913447496371839 0 0.41794119589964812 0.061469869687005997 0 0.40824027372044169 0.058787065978875973 0 0.39058826119953283 0.057913447496371839 0 0.41794119589964812 0.061469869687005997 0 0.39058826119953283 0.057913447496371839 0 0.39917917489280202 0.048669550515315511 0 0.39118926401298038 0.043344116461786472 0 0.39917917489280202 0.048669550515315511 0 0.40803146459590139 0.044566129264659721 0 0.40824027372044169 0.058787065978875973 0 0.39452024459155199 0.029629145094844 0 0.38884635116990662 0.036871995634108659 0 0.39784661093515339 0.038736993374884177 0 0.39917917489280202 0.048669550515315511 0 0.39784661093515339 0.038736993374884177 0 0.39118926401298038 0.043344116461786472 0 0.38884635116990662 0.036871995634108659 0 0.39784661093515339 0.038736993374884177 0 0.39118926401298038 0.043344116461786472 0 0.39917917489280202 0.048669550515315511 0 0.39784661093515339 0.038736993374884177 0 0.40803146459590139 0.044566129264659721 0 0.39452024459155199 0.029629145094844 0 0.39784661093515339 0.038736993374884177 0 0.40714332068978548 0.032011032787191827 0 0.39784661093515339 0.038736993374884177 0 0.40714332068978548 0.032011032787191827 0 0.40803146459590139 0.044566129264659721 0 0.40714332068978548 0.032011032787191827 0 0.40803146459590139 0.044566129264659721 0 0.41964440497126981 0.040250358009145122 0 0.40803146459590139 0.044566129264659721 0 0.41964440497126981 0.040250358009145122 0 0.41733432138732551 0.050785193364838402 0 0.40714332068978548 0.032011032787191827 0 0.41964440497126981 0.040250358009145122 0 0.41891932927970088 0.026081136014491389 0 0.40824027372044169 0.058787065978875973 0 0.41733432138732551 0.050785193364838402 0 0.42589228624135061 0.059660684461379461 0 0.40824027372044169 0.058787065978875973 0 0.42589228624135061 0.059660684461379461 0 0.41794119589964812 0.061469869687005997 0 0.40824027372044169 0.058787065978875973 0 0.42589228624135061 0.059660684461379461 0 0.40803146459590139 0.044566129264659721 0 0.40824027372044169 0.058787065978875973 0 0.41733432138732551 0.050785193364838402 0 0.41964440497126981 0.040250358009145122 0 0.41733432138732551 0.050785193364838402 0 0.42647272639553008 0.050672874727357403 0 0.44529413059976319 0.065026291877640793 0 0.42589228624135061 0.059660684461379461 0 0.43583307009461808 0.053135938561971199 0 0.44529413059976319 0.065026291877640793 0 0.41794119589964812 0.061469869687005997 0 0.42589228624135061 0.059660684461379461 0 0.42589228624135061 0.059660684461379461 0 0.42647272639553008 0.050672874727357403 0 0.43583307009461808 0.053135938561971199 0 0.41733432138732551 0.050785193364838402 0 0.42589228624135061 0.059660684461379461 0 0.42647272639553008 0.050672874727357403 0 0.42647272639553008 0.050672874727357403 0 0.43583307009461808 0.053135938561971199 0 0.4340740022190257 0.043822740937536728 0 0.41964440497126981 0.040250358009145122 0 0.42987588244635011 0.033334548906864728 0 0.41891932927970088 0.026081136014491389 0 0.41964440497126981 0.040250358009145122 0 0.4340740022190257 0.043822740937536728 0 0.42987588244635011 0.033334548906864728 0 0.41964440497126981 0.040250358009145122 0 0.42647272639553008 0.050672874727357403 0 0.4340740022190257 0.043822740937536728 0 0.4340740022190257 0.043822740937536728 0 0.42987588244635011 0.033334548906864728 0 0.44528176508543132 0.032905620831071007 0 0.42987588244635011 0.033334548906864728 0 0.43184963590009789 0.021236349906575389 0 0.44528176508543132 0.032905620831071007 0 0.43184963590009789 0.021236349906575389 0 0.42259879527057942 0.015927249454054739 0 0.43188165484739188 0.01287087804949661 0 0.43184963590009789 0.021236349906575389 0 0.42259879527057942 0.015927249454054739 0 0.41891932927970088 0.026081136014491389 0 0.42987588244635011 0.033334548906864728 0 0.43184963590009789 0.021236349906575389 0 0.41891932927970088 0.026081136014491389 0 0.4038432128890253 0.016274120358417851 0 0.42259879527057942 0.015927249454054739 0 0.41891932927970088 0.026081136014491389 0 0.4038432128890253 0.016274120358417851 0 0.40714332068978548 0.032011032787191827 0 0.41891932927970088 0.026081136014491389 0 0.4038432128890253 0.016274120358417851 0 0.41402040698134779 -0.0025911497673051101 0 0.40369857438468087 -0.0060371637805465179 0 0.4038432128890253 0.016274120358417851 0 0.42788240966677021 0.003552130545216341 0 0.4038432128890253 0.016274120358417851 0 0.42101935538117791 0.0050386314779034547 0 0.41402040698134779 -0.0025911497673051101 0 0.4038432128890253 0.016274120358417851 0 0.42259879527057942 0.015927249454054739 0 0.42788240966677021 0.003552130545216341 0 0.4038432128890253 0.016274120358417851 0 0.42101935538117791 0.0050386314779034547 0 0.42788240966677021 0.003552130545216341 0 0.42788240966677021 0.003552130545216341 0 0.43188165484739188 0.01287087804949661 0 0.44740740452026229 0.01137317045841814 0 0.42259879527057942 0.015927249454054739 0 0.42788240966677021 0.003552130545216341 0 0.43188165484739188 0.01287087804949661 0 0.43184963590009789 0.021236349906575389 0 0.43188165484739188 0.01287087804949661 0 0.44740740452026229 0.01137317045841814 0 0.42788240966677021 0.003552130545216341 0 0.44740740452026229 0.01137317045841814 0 0.45192160644451512 -0.0091698592679851504 0 0.43184963590009789 0.021236349906575389 0 0.44740740452026229 0.01137317045841814 0 0.44528176508543132 0.032905620831071007 0 0.44740740452026229 0.01137317045841814 0 0.44528176508543132 0.032905620831071007 0 0.46875558315454652 0.02621282055229885 0 0.44740740452026229 0.01137317045841814 0 0.4740075662235973 0.0028935560396234419 0 0.46875558315454652 0.02621282055229885 0 0.44740740452026229 0.01137317045841814 0 0.4740075662235973 0.0028935560396234419 0 0.45192160644451512 -0.0091698592679851504 0 0.44529413059976319 0.065026291877640793 0 0.44587589901867808 0.047550444472131762 0 0.4614262583005877 0.04791767975015173 0 0.44529413059976319 0.065026291877640793 0 0.43583307009461808 0.053135938561971199 0 0.44587589901867808 0.047550444472131762 0 0.43583307009461808 0.053135938561971199 0 0.4340740022190257 0.043822740937536728 0 0.44587589901867808 0.047550444472131762 0 0.44587589901867808 0.047550444472131762 0 0.44528176508543132 0.032905620831071007 0 0.4614262583005877 0.04791767975015173 0 0.4340740022190257 0.043822740937536728 0 0.44587589901867808 0.047550444472131762 0 0.44528176508543132 0.032905620831071007 0 0.44528176508543132 0.032905620831071007 0 0.4614262583005877 0.04791767975015173 0 0.46875558315454652 0.02621282055229885 0 0.47264706529987838 0.068582714068275596 0 0.44529413059976319 0.065026291877640793 0 0.4614262583005877 0.04791767975015173 0 0.47264706529987838 0.068582714068275596 0 0.4614262583005877 0.04791767975015173 0 0.48053199367993171 0.043851827509569327 0 0.4614262583005877 0.04791767975015173 0 0.48053199367993171 0.043851827509569327 0 0.46875558315454652 0.02621282055229885 0 0.48053199367993171 0.043851827509569327 0 0.5 0.04545089247058498 0 0.5 0.018762648682260189 0 0.49999999999999389 0.072139136258909636 0 0.47264706529987838 0.068582714068275596 0 0.48053199367993171 0.043851827509569327 0 0.49999999999999389 0.072139136258909636 0 0.48053199367993171 0.043851827509569327 0 0.5 0.04545089247058498 0 0.48053199367993171 0.043851827509569327 0 0.46875558315454652 0.02621282055229885 0 0.5 0.018762648682260189 0 0.4740075662235973 0.0028935560396234419 0 0.46875558315454652 0.02621282055229885 0 0.5 0.018762648682260189 0 0.4740075662235973 0.0028935560396234419 0 0.5 0.018762648682260189 0 0.5 -0.0079255951060647756 0 0.4740075662235973 0.0028935560396234419 0 0.5 -0.0079255951060647756 0 0.47596080322225992 -0.02189184908118659 0 0.47596080322225992 -0.02189184908118659 0 0.50000000000000377 -0.034613838894389633 0 0.5 -0.0079255951060647756 0 0.47596080322225992 -0.02189184908118659 0 0.50000000000000377 -0.034613838894389633 0 0.47596080322225992 -0.02189184908118659 0 0.50000000000000377 -0.034613838894389633 0 0.48339532061042467 -0.042675677639817791 0 0.50000000000000377 -0.034613838894389633 0 0.5 -0.052291970509826757 0 0.48339532061042467 -0.042675677639817791 0 0.5 -0.052291970509826757 0 0.48378938215607542 -0.060491629721736481 0 0.49999999999999678 -0.069970102125263903 0 0.5 -0.052291970509826757 0 0.48378938215607542 -0.060491629721736481 0 0.48339532061042467 -0.042675677639817791 0 0.48378938215607542 -0.060491629721736481 0 0.47035919737641452 -0.05083356829212015 0 0.48339532061042467 -0.042675677639817791 0 0.48378938215607542 -0.060491629721736481 0 0.47035919737641452 -0.05083356829212015 0 0.46263532094350251 -0.0655193079319734 0 0.47596080322225992 -0.02189184908118659 0 0.48339532061042467 -0.042675677639817791 0 0.46122373864745198 -0.034064038759572521 0 0.47035919737641452 -0.05083356829212015 0 0.48339532061042467 -0.042675677639817791 0 0.46122373864745198 -0.034064038759572521 0 0.46122373864745198 -0.034064038759572521 0 0.45641225836005789 -0.05051217933658872 0 0.44483042593949818 -0.041063070916932051 0 0.47035919737641452 -0.05083356829212015 0 0.46122373864745198 -0.034064038759572521 0 0.45641225836005789 -0.05051217933658872 0 0.45641225836005789 -0.05051217933658872 0 0.44526353314296241 -0.062107813217869068 0 0.46263532094350251 -0.0655193079319734 0 0.47035919737641452 -0.05083356829212015 0 0.45641225836005789 -0.05051217933658872 0 0.46263532094350251 -0.0655193079319734 0 0.45641225836005789 -0.05051217933658872 0 0.44526353314296241 -0.062107813217869068 0 0.44483042593949818 -0.041063070916932051 0 0.44526353314296241 -0.062107813217869068 0 0.44483042593949818 -0.041063070916932051 0 0.42768193525564641 -0.052738548234870043 0 0.46122373864745198 -0.034064038759572521 0 0.44483042593949818 -0.041063070916932051 0 0.44260817666721519 -0.025216613737701819 0 0.44483042593949818 -0.041063070916932051 0 0.44260817666721519 -0.025216613737701819 0 0.43454865465473302 -0.032105158367880783 0 0.46122373864745198 -0.034064038759572521 0 0.44260817666721519 -0.025216613737701819 0 0.45192160644451512 -0.0091698592679851504 0 0.42788240966677021 0.003552130545216341 0 0.45192160644451512 -0.0091698592679851504 0 0.44260817666721519 -0.025216613737701819 0 0.45192160644451512 -0.0091698592679851504 0 0.43543049063324413 -0.012350052332502739 0 0.42788240966677021 0.003552130545216341 0 0.45192160644451512 -0.0091698592679851504 0 0.43543049063324413 -0.012350052332502739 0 0.4740075662235973 0.0028935560396234419 0 0.47596080322225992 -0.02189184908118659 0 0.45192160644451512 -0.0091698592679851504 0 0.47596080322225992 -0.02189184908118659 0 0.45192160644451512 -0.0091698592679851504 0 0.47596080322225992 -0.02189184908118659 0 0.46122373864745198 -0.034064038759572521 0 0.45192160644451512 -0.0091698592679851504 0 0.47621403880257929 -0.099362679963144546 0 0.45825176112352212 -0.1171944005084963 0 0.47461064769812122 -0.12772964805397971 0 0.50000000000000433 -0.1143432737178363 0 0.47621403880257929 -0.099362679963144546 0 0.47461064769812122 -0.12772964805397971 0 0.50000000000000433 -0.1143432737178363 0 0.47461064769812122 -0.12772964805397971 0 0.49999999999998102 -0.1000967699598443 0 0.47621403880257929 -0.099362679963144546 0 0.49999999999998102 -0.1000967699598443 0 0.47621403880257929 -0.099362679963144546 0 0.48785951469139027 -0.086657123706384981 0 0.50000000000000433 -0.1143432737178363 0 0.49999999999998102 -0.1000967699598443 0 0.47621403880257929 -0.099362679963144546 0 0.47621403880257929 -0.099362679963144546 0 0.48785951469139027 -0.086657123706384981 0 0.47522401996300467 -0.077198942777287505 0 0.47621403880257929 -0.099362679963144546 0 0.47522401996300467 -0.077198942777287505 0 0.46460819440086443 -0.0896918568577834 0 0.49999999999998102 -0.1000967699598443 0 0.48785951469139027 -0.086657123706384981 0 0.49999999999999678 -0.069970102125263903 0 0.49999999999999678 -0.069970102125263903 0 0.47522401996300467 -0.077198942777287505 0 0.48785951469139027 -0.086657123706384981 0 0.49999999999999678 -0.069970102125263903 0 0.47522401996300467 -0.077198942777287505 0 0.48378938215607542 -0.060491629721736481 0 0.49999999999999678 -0.069970102125263903 0 0.47522401996300467 -0.077198942777287505 0 0.48378938215607542 -0.060491629721736481 0 0.47522401996300467 -0.077198942777287505 0 0.46263532094350251 -0.0655193079319734 0 0.47522401996300467 -0.077198942777287505 0 0.46263532094350251 -0.0655193079319734 0 0.4504480399260129 -0.084427783429311939 0 0.44526353314296241 -0.062107813217869068 0 0.46263532094350251 -0.0655193079319734 0 0.4504480399260129 -0.084427783429311939 0 0.44526353314296241 -0.062107813217869068 0 0.4504480399260129 -0.084427783429311939 0 0.43069868055782679 -0.078899440675300136 0 0.4504480399260129 -0.084427783429311939 0 0.45242807760517778 -0.098628589966444233 0 0.42864211640777627 -0.097894499969741214 0 0.4504480399260129 -0.084427783429311939 0 0.42567205988902129 -0.091656624081337568 0 0.47522401996300467 -0.077198942777287505 0 0.4504480399260129 -0.084427783429311939 0 0.47522401996300467 -0.077198942777287505 0 0.4504480399260129 -0.084427783429311939 0 0.46460819440086443 -0.0896918568577834 0 0.4504480399260129 -0.084427783429311939 0 0.46460819440086443 -0.0896918568577834 0 0.45242807760517778 -0.098628589966444233 0 0.47621403880257929 -0.099362679963144546 0 0.45242807760517778 -0.098628589966444233 0 0.45825176112352212 -0.1171944005084963 0 0.47621403880257929 -0.099362679963144546 0 0.45242807760517778 -0.098628589966444233 0 0.47621403880257929 -0.099362679963144546 0 0.46460819440086443 -0.0896918568577834 0 0.45242807760517778 -0.098628589966444233 0 0.45242807760517778 -0.098628589966444233 0 0.42864211640777627 -0.097894499969741214 0 0.45242807760517778 -0.098628589966444233 0 0.43893170590200609 -0.1195052611799315 0 0.42864211640777627 -0.097894499969741214 0 0.45242807760517778 -0.098628589966444233 0 0.43893170590200609 -0.1195052611799315 0 0.45825176112352212 -0.1171944005084963 0 0.42080162445294911 -0.1170697999396166 0 0.40604313277712428 -0.1171380761358455 0 0.41368108829086198 -0.13554811058748131 0 0.42080162445294911 -0.1170697999396166 0 0.40662173914453831 -0.097214899993173481 0 0.40604313277712428 -0.1171380761358455 0 0.43893170590200609 -0.1195052611799315 0 0.42080162445294911 -0.1170697999396166 0 0.430889964195386 -0.135117951771525 0 0.43893170590200609 -0.1195052611799315 0 0.42080162445294911 -0.1170697999396166 0 0.42864211640777627 -0.097894499969741214 0 0.43893170590200609 -0.1195052611799315 0 0.42864211640777627 -0.097894499969741214 0 0.42864211640777627 -0.097894499969741214 0 0.42567205988902129 -0.091656624081337568 0 0.42864211640777627 -0.097894499969741214 0 0.40662173914453831 -0.097214899993173481 0 0.42567205988902129 -0.091656624081337568 0 0.42080162445294911 -0.1170697999396166 0 0.42864211640777627 -0.097894499969741214 0 0.40662173914453831 -0.097214899993173481 0 0.42864211640777627 -0.097894499969741214 0 0.40662173914453831 -0.097214899993173481 0 0.40662173914453831 -0.097214899993173481 0 0.42567205988902129 -0.091656624081337568 0 0.40662173914453831 -0.097214899993173481 0 0.41829766411352998 -0.087706900461061957 0 0.42567205988902129 -0.091656624081337568 0 0.40662173914453831 -0.097214899993173481 0 0.41020628866808312 -0.08357079425946129 0 0.41829766411352998 -0.087706900461061957 0 0.41020628866808312 -0.08357079425946129 0 0.42012861486432151 -0.07981881462850364 0 0.41094109939792961 -0.074512111623280808 0 0.41020628866808312 -0.08357079425946129 0 0.41094109939792961 -0.074512111623280808 0 0.40556094342569721 -0.078918860306745137 0 0.41020628866808312 -0.08357079425946129 0 0.42012861486432151 -0.07981881462850364 0 0.41829766411352998 -0.087706900461061957 0 0.42012861486432151 -0.07981881462850364 0 0.41829766411352998 -0.087706900461061957 0 0.42254342745458301 -0.084546146485576762 0 0.41829766411352998 -0.087706900461061957 0 0.42461385466063262 -0.08943412331831832 0 0.42254342745458301 -0.084546146485576762 0 0.42567205988902129 -0.091656624081337568 0 0.42461385466063262 -0.08943412331831832 0 0.43069868055782679 -0.078899440675300136 0 0.4504480399260129 -0.084427783429311939 0 0.42567205988902129 -0.091656624081337568 0 0.43069868055782679 -0.078899440675300136 0 0.4504480399260129 -0.084427783429311939 0 0.42864211640777627 -0.097894499969741214 0 0.42567205988902129 -0.091656624081337568 0 0.42567205988902129 -0.091656624081337568 0 0.42461385466063262 -0.08943412331831832 0 0.41829766411352998 -0.087706900461061957 0 0.42567205988902129 -0.091656624081337568 0 0.42461385466063262 -0.08943412331831832 0 0.42012861486432151 -0.07981881462850364 0 0.43069868055782679 -0.078899440675300136 0 0.42254342745458301 -0.084546146485576762 0 0.42461385466063262 -0.08943412331831832 0 0.43069868055782679 -0.078899440675300136 0 0.42254342745458301 -0.084546146485576762 0 0.43069868055782679 -0.078899440675300136 0 0.42085386234523608 -0.065266903626460593 0 0.41911482919747139 -0.073234494934215744 0 0.43069868055782679 -0.078899440675300136 0 0.42085386234523608 -0.065266903626460593 0 0.42768193525564641 -0.052738548234870043 0 0.44526353314296241 -0.062107813217869068 0 0.43069868055782679 -0.078899440675300136 0 0.42768193525564641 -0.052738548234870043 0 0.43069868055782679 -0.078899440675300136 0 0.42768193525564641 -0.052738548234870043 0 0.42012861486432151 -0.07981881462850364 0 0.43069868055782679 -0.078899440675300136 0 0.41911482919747139 -0.073234494934215744 0 0.42085386234523608 -0.065266903626460593 0 0.41911482919747139 -0.073234494934215744 0 0.41247118756252621 -0.068972059658544485 0 0.41911482919747139 -0.073234494934215744 0 0.41094109939792961 -0.074512111623280808 0 0.41247118756252621 -0.068972059658544485 0 0.42012861486432151 -0.07981881462850364 0 0.41911482919747139 -0.073234494934215744 0 0.41094109939792961 -0.074512111623280808 0 0.41094109939792961 -0.074512111623280808 0 0.41247118756252621 -0.068972059658544485 0 0.40519344017519737 -0.069697512887539489 0 0.42085386234523608 -0.065266903626460593 0 0.41247118756252621 -0.068972059658544485 0 0.40625270669679608 -0.06214927522122575 0 0.41247118756252621 -0.068972059658544485 0 0.40519344017519737 -0.069697512887539489 0 0.40625270669679608 -0.06214927522122575 0 0.40519344017519737 -0.069697512887539489 0 0.3909339432522656 -0.07145852807871525 0 0.40625270669679608 -0.06214927522122575 0 0.41094109939792961 -0.074512111623280808 0 0.40094221169150912 -0.074554002884685597 0 0.40556094342569721 -0.078918860306745137 0 0.40519344017519737 -0.069697512887539489 0 0.40094221169150912 -0.074554002884685597 0 0.3909339432522656 -0.07145852807871525 0 0.41094109939792961 -0.074512111623280808 0 0.40519344017519737 -0.069697512887539489 0 0.40094221169150912 -0.074554002884685597 0 0.40094221169150912 -0.074554002884685597 0 0.3909339432522656 -0.07145852807871525 0 0.39616481607021642 -0.077435810443283751 0 0.3909339432522656 -0.07145852807871525 0 0.39616481607021642 -0.077435810443283751 0 0.39262893539182381 -0.080692178350181262 0 0.39181446083091098 -0.066763706552935329 0 0.38421934743036401 -0.068446750892908373 0 0.38398729378694407 -0.058429379279077209 0 0.38421934743036401 -0.068446750892908373 0 0.37813424473731178 -0.068262582352726586 0 0.38398729378694407 -0.058429379279077209 0 0.37813424473731178 -0.068262582352726586 0 0.38294139036628899 -0.080331335386894381 0 0.37353404377441052 -0.075370636612477671 0 0.38421934743036401 -0.068446750892908373 0 0.37813424473731178 -0.068262582352726586 0 0.38294139036628899 -0.080331335386894381 0 0.39181446083091098 -0.066763706552935329 0 0.38294139036628899 -0.080331335386894381 0 0.39181446083091098 -0.066763706552935329 0 0.38421934743036401 -0.068446750892908373 0 0.38294139036628899 -0.080331335386894381 0 0.3909339432522656 -0.07145852807871525 0 0.39181446083091098 -0.066763706552935329 0 0.38294139036628899 -0.080331335386894381 0 0.38598565568847482 -0.085166122563822014 0 0.39289996883908601 -0.089154852807517448 0 0.39262893539182381 -0.080692178350181262 0 0.3909339432522656 -0.07145852807871525 0 0.38598565568847482 -0.085166122563822014 0 0.39262893539182381 -0.080692178350181262 0 0.3909339432522656 -0.07145852807871525 0 0.37406831990166722 -0.093898964220853504 0 0.3909339432522656 -0.07145852807871525 0 0.38598565568847482 -0.085166122563822014 0 0.37406831990166722 -0.093898964220853504 0 0.3909339432522656 -0.07145852807871525 0 0.38294139036628899 -0.080331335386894381 0 0.37406831990166722 -0.093898964220853504 0 0.38294139036628899 -0.080331335386894381 0 0.37406831990166722 -0.093898964220853504 0 0.38598565568847482 -0.085166122563822014 0 0.38240509603332101 -0.092127683864182172 0 0.37406831990166722 -0.093898964220853504 0 0.38240509603332101 -0.092127683864182172 0 0.39289996883908601 -0.089154852807517448 0 0.38960421283109031 -0.096689699614190994 0 0.38598565568847482 -0.085166122563822014 0 0.38240509603332101 -0.092127683864182172 0 0.39289996883908601 -0.089154852807517448 0 0.39289996883908601 -0.089154852807517448 0 0.39262893539182381 -0.080692178350181262 0 0.40015417394526698 -0.083038532459552866 0 0.39616481607021642 -0.077435810443283751 0 0.39262893539182381 -0.080692178350181262 0 0.40015417394526698 -0.083038532459552866 0 0.40094221169150912 -0.074554002884685597 0 0.40556094342569721 -0.078918860306745137 0 0.40015417394526698 -0.083038532459552866 0 0.40094221169150912 -0.074554002884685597 0 0.39616481607021642 -0.077435810443283751 0 0.40015417394526698 -0.083038532459552866 0 0.41020628866808312 -0.08357079425946129 0 0.40556094342569721 -0.078918860306745137 0 0.40015417394526698 -0.083038532459552866 0 0.40662173914453831 -0.097214899993173481 0 0.39289996883908601 -0.089154852807517448 0 0.40015417394526698 -0.083038532459552866 0 0.40662173914453831 -0.097214899993173481 0 0.41020628866808312 -0.08357079425946129 0 0.40015417394526698 -0.083038532459552866 0 0.40662173914453831 -0.097214899993173481 0 0.3851668720105898 -0.10347474583943909 0 0.38960421283109031 -0.096689699614190994 0 0.40662173914453831 -0.097214899993173481 0 0.3851668720105898 -0.10347474583943909 0 0.40662173914453831 -0.097214899993173481 0 0.39289996883908601 -0.089154852807517448 0 0.38960421283109031 -0.096689699614190994 0 0.40662173914453831 -0.097214899993173481 0 0.38960421283109031 -0.096689699614190994 0 0.40662173914453831 -0.097214899993173481 0 0.3851668720105898 -0.10347474583943909 0 0.39374350655696688 -0.1137959578468639 0 0.38960421283109031 -0.096689699614190994 0 0.37237061700676077 -0.09615783082836224 0 0.3851668720105898 -0.10347474583943909 0 0.38960421283109031 -0.096689699614190994 0 0.37237061700676077 -0.09615783082836224 0 0.38240509603332101 -0.092127683864182172 0 0.38960421283109031 -0.096689699614190994 0 0.37237061700676077 -0.09615783082836224 0 0.38240509603332101 -0.092127683864182172 0 0.37406831990166722 -0.093898964220853504 0 0.37237061700676077 -0.09615783082836224 0 0.3785150876385216 -0.1195111518185689 0 0.39374350655696688 -0.1137959578468639 0 0.39237070121405998 -0.13164091544729051 0 0.3851668720105898 -0.10347474583943909 0 0.3785150876385216 -0.1195111518185689 0 0.36371200487664068 -0.10973459168570281 0 0.3851668720105898 -0.10347474583943909 0 0.3785150876385216 -0.1195111518185689 0 0.39374350655696688 -0.1137959578468639 0 0.40662173914453831 -0.097214899993173481 0 0.39374350655696688 -0.1137959578468639 0 0.40604313277712428 -0.1171380761358455 0 0.39374350655696688 -0.1137959578468639 0 0.40604313277712428 -0.1171380761358455 0 0.39237070121405998 -0.13164091544729051 0 0.41728163952739061 -0.019334187549187701 0 0.42284227266732188 -0.010769512158268201 0 0.42466518995346408 -0.026577655794440151 0 0.41728163952739061 -0.019334187549187701 0 0.41227128108974659 -0.029924501558089681 0 0.42466518995346408 -0.026577655794440151 0 0.41227128108974659 -0.029924501558089681 0 0.40863720631140932 -0.019892986955346081 0 0.40014031603924488 -0.033106741091830219 0 0.41728163952739061 -0.019334187549187701 0 0.41227128108974659 -0.029924501558089681 0 0.40863720631140932 -0.019892986955346081 0 0.41728163952739061 -0.019334187549187701 0 0.40863720631140932 -0.019892986955346081 0 0.41436166681859882 -0.01226683791037885 0 0.40863720631140932 -0.019892986955346081 0 0.41436166681859882 -0.01226683791037885 0 0.40369857438468087 -0.0060371637805465179 0 0.42101935538117791 0.0050386314779034547 0 0.41402040698134779 -0.0025911497673051101 0 0.42284227266732188 -0.010769512158268201 0 0.41402040698134779 -0.0025911497673051101 0 0.41436166681859882 -0.01226683791037885 0 0.40369857438468087 -0.0060371637805465179 0 0.41402040698134779 -0.0025911497673051101 0 0.41436166681859882 -0.01226683791037885 0 0.42284227266732188 -0.010769512158268201 0 0.41728163952739061 -0.019334187549187701 0 0.41436166681859882 -0.01226683791037885 0 0.42284227266732188 -0.010769512158268201 0 0.42284227266732188 -0.010769512158268201 0 0.43543049063324413 -0.012350052332502739 0 0.42769414368384923 -0.02254750278133769 0 0.42101935538117791 0.0050386314779034547 0 0.42284227266732188 -0.010769512158268201 0 0.42101935538117791 0.0050386314779034547 0 0.42788240966677021 0.003552130545216341 0 0.42284227266732188 -0.010769512158268201 0 0.42788240966677021 0.003552130545216341 0 0.42284227266732188 -0.010769512158268201 0 0.43543049063324413 -0.012350052332502739 0 0.42284227266732188 -0.010769512158268201 0 0.42466518995346408 -0.026577655794440151 0 0.42284227266732188 -0.010769512158268201 0 0.42769414368384923 -0.02254750278133769 0 0.42466518995346408 -0.026577655794440151 0 0.44260817666721519 -0.025216613737701819 0 0.43543049063324413 -0.012350052332502739 0 0.42769414368384923 -0.02254750278133769 0 0.42769414368384923 -0.02254750278133769 0 0.42466518995346408 -0.026577655794440151 0 0.43454865465473302 -0.032105158367880783 0 0.42769414368384923 -0.02254750278133769 0 0.42466518995346408 -0.026577655794440151 0 0.44260817666721519 -0.025216613737701819 0 0.42769414368384923 -0.02254750278133769 0 0.43454865465473302 -0.032105158367880783 0 0.42466518995346408 -0.026577655794440151 0 0.43454865465473302 -0.032105158367880783 0 0.42768193525564641 -0.052738548234870043 0 0.42466518995346408 -0.026577655794440151 0 0.42768193525564641 -0.052738548234870043 0 0.44483042593949818 -0.041063070916932051 0 0.43454865465473302 -0.032105158367880783 0 0.42768193525564641 -0.052738548234870043 0 0.42085386234523608 -0.065266903626460593 0 0.42768193525564641 -0.052738548234870043 0 0.40779956660286398 -0.049018091936576927 0 0.42085386234523608 -0.065266903626460593 0 0.40779956660286398 -0.049018091936576927 0 0.40625270669679608 -0.06214927522122575 0 0.42466518995346408 -0.026577655794440151 0 0.42768193525564641 -0.052738548234870043 0 0.40779956660286398 -0.049018091936576927 0 0.42466518995346408 -0.026577655794440151 0 0.40779956660286398 -0.049018091936576927 0 0.41227128108974659 -0.029924501558089681 0 0.42466518995346408 -0.026577655794440151 0 0.40779956660286398 -0.049018091936576927 0 0.41227128108974659 -0.029924501558089681 0 0.40779956660286398 -0.049018091936576927 0 0.40014031603924488 -0.033106741091830219 0 0.40779956660286398 -0.049018091936576927 0 0.40014031603924488 -0.033106741091830219 0 0.3912967176308087 -0.04756724484766426 0 0.40014031603924488 -0.033106741091830219 0 0.3912967176308087 -0.04756724484766426 0 0.38547037370043469 -0.032308846426106139 0 0.3909339432522656 -0.07145852807871525 0 0.40779956660286398 -0.049018091936576927 0 0.40625270669679608 -0.06214927522122575 0 0.3909339432522656 -0.07145852807871525 0 0.39181446083091098 -0.066763706552935329 0 0.40779956660286398 -0.049018091936576927 0 0.39181446083091098 -0.066763706552935329 0 0.40779956660286398 -0.049018091936576927 0 0.3912967176308087 -0.04756724484766426 0 0.3909339432522656 -0.07145852807871525 0 0.40779956660286398 -0.049018091936576927 0 0.3912967176308087 -0.04756724484766426 0 0.38398729378694407 -0.058429379279077209 0 0.37514153202862571 -0.045861082966856079 0 0.39181446083091098 -0.066763706552935329 0 0.3912967176308087 -0.04756724484766426 0 0.38398729378694407 -0.058429379279077209 0 0.38398729378694407 -0.058429379279077209 0 0.37514153202862571 -0.045861082966856079 0 0.37192531576168952 -0.05914395824800911 0 0.37813424473731178 -0.068262582352726586 0 0.38398729378694407 -0.058429379279077209 0 0.37192531576168952 -0.05914395824800911 0 0.3912967176308087 -0.04756724484766426 0 0.38547037370043469 -0.032308846426106139 0 0.37514153202862571 -0.045861082966856079 0 0.38547037370043469 -0.032308846426106139 0 0.37514153202862571 -0.045861082966856079 0 0.36877413775607049 -0.02995327657106206 0 0.38547037370043469 -0.032308846426106139 0 0.37927030083329177 -0.015743113788958679 0 0.36877413775607049 -0.02995327657106206 0 0.38547037370043469 -0.032308846426106139 0 0.37927030083329177 -0.015743113788958679 0 0.39536675090020662 -0.019928774827198261 0 0.40014031603924488 -0.033106741091830219 0 0.38547037370043469 -0.032308846426106139 0 0.39536675090020662 -0.019928774827198261 0 0.40863720631140932 -0.019892986955346081 0 0.40014031603924488 -0.033106741091830219 0 0.39536675090020662 -0.019928774827198261 0 0.40863720631140932 -0.019892986955346081 0 0.39536675090020662 -0.019928774827198261 0 0.40369857438468087 -0.0060371637805465179 0 0.39536675090020662 -0.019928774827198261 0 0.40369857438468087 -0.0060371637805465179 0 0.39174671884158141 -0.0074493154892236006 0 0.39390920682105918 0.0040204267233196643 0 0.40369857438468087 -0.0060371637805465179 0 0.39174671884158141 -0.0074493154892236006 0 0.38212023564171321 0.001094655884648786 0 0.37927030083329177 -0.015743113788958679 0 0.39174671884158141 -0.0074493154892236006 0 0.38212023564171321 0.001094655884648786 0 0.37927030083329177 -0.015743113788958679 0 0.3700201466167648 -0.002195575246397889 0 0.37927030083329177 -0.015743113788958679 0 0.39536675090020662 -0.019928774827198261 0 0.39174671884158141 -0.0074493154892236006 0 0.39390920682105918 0.0040204267233196643 0 0.38212023564171321 0.001094655884648786 0 0.39174671884158141 -0.0074493154892236006 0 0.35686418876597309 0.010252504770385159 0 0.3700201466167648 -0.002195575246397889 0 0.35727920934793722 -0.0129667368589869 0 0.37927030083329177 -0.015743113788958679 0 0.3700201466167648 -0.002195575246397889 0 0.35727920934793722 -0.0129667368589869 0 0.36877413775607049 -0.02995327657106206 0 0.35727920934793722 -0.0129667368589869 0 0.35227314840285812 -0.03152257084722427 0 0.37927030083329177 -0.015743113788958679 0 0.36877413775607049 -0.02995327657106206 0 0.35727920934793722 -0.0129667368589869 0 0.35727920934793722 -0.0129667368589869 0 0.33875503928457851 -0.02222753562310531 0 0.35227314840285812 -0.03152257084722427 0 0.35727920934793722 -0.0129667368589869 0 0.33586681222118892 -0.0067462441580033658 0 0.33875503928457851 -0.02222753562310531 0 0.35686418876597309 0.010252504770385159 0 0.35727920934793722 -0.0129667368589869 0 0.33586681222118892 -0.0067462441580033658 0 0.33586681222118892 -0.0067462441580033658 0 0.33875503928457851 -0.02222753562310531 0 0.31486943567640469 -0.023744993086391868 0 0.33875503928457851 -0.02222753562310531 0 0.31486943567640469 -0.023744993086391868 0 0.33348659077450338 -0.036157133164920148 0 0.33875503928457851 -0.02222753562310531 0 0.33348659077450338 -0.036157133164920148 0 0.35227314840285812 -0.03152257084722427 0 0.31046320235639918 0.0067575729804437252 0 0.33586681222118892 -0.0067462441580033658 0 0.3153830815233527 -0.0087530987426132929 0 0.33586681222118892 -0.0067462441580033658 0 0.31486943567640469 -0.023744993086391868 0 0.3153830815233527 -0.0087530987426132929 0 0.33586681222118892 -0.0067462441580033658 0 0.31486943567640469 -0.023744993086391868 0 0.32115491610998381 -0.052976688016941227 0 0.32092150739102382 -0.073097043805500014 0 0.30601744289912669 -0.055409131432484229 0 0.32115491610998381 -0.052976688016941227 0 0.31197137499350902 -0.041008225260955711 0 0.30601744289912669 -0.055409131432484229 0 0.31486943567640469 -0.023744993086391868 0 0.33348659077450338 -0.036157133164920148 0 0.31197137499350902 -0.041008225260955711 0 0.32115491610998381 -0.052976688016941227 0 0.33348659077450338 -0.036157133164920148 0 0.31197137499350902 -0.041008225260955711 0 0.33348659077450338 -0.036157133164920148 0 0.3363568723602065 -0.050864743298462772 0 0.35116628403686417 -0.048621598638038131 0 0.32115491610998381 -0.052976688016941227 0 0.33348659077450338 -0.036157133164920148 0 0.3363568723602065 -0.050864743298462772 0 0.32115491610998381 -0.052976688016941227 0 0.3363568723602065 -0.050864743298462772 0 0.33388625794764348 -0.064812423232177271 0 0.3363568723602065 -0.050864743298462772 0 0.34794047334546518 -0.063974584280765273 0 0.33388625794764348 -0.064812423232177271 0 0.3363568723602065 -0.050864743298462772 0 0.35116628403686417 -0.048621598638038131 0 0.34794047334546518 -0.063974584280765273 0 0.35116628403686417 -0.048621598638038131 0 0.35914505774559541 -0.060409417065886872 0 0.36392372675137458 -0.051574144679805103 0 0.35116628403686417 -0.048621598638038131 0 0.36240463436463582 -0.041692596330413237 0 0.36392372675137458 -0.051574144679805103 0 0.35116628403686417 -0.048621598638038131 0 0.35914505774559541 -0.060409417065886872 0 0.34794047334546518 -0.063974584280765273 0 0.35116628403686417 -0.048621598638038131 0 0.35227314840285812 -0.03152257084722427 0 0.36240463436463582 -0.041692596330413237 0 0.33348659077450338 -0.036157133164920148 0 0.35116628403686417 -0.048621598638038131 0 0.35227314840285812 -0.03152257084722427 0 0.37514153202862571 -0.045861082966856079 0 0.36877413775607049 -0.02995327657106206 0 0.36240463436463582 -0.041692596330413237 0 0.36877413775607049 -0.02995327657106206 0 0.35227314840285812 -0.03152257084722427 0 0.36240463436463582 -0.041692596330413237 0 0.37514153202862571 -0.045861082966856079 0 0.36240463436463582 -0.041692596330413237 0 0.36392372675137458 -0.051574144679805103 0 0.35914505774559541 -0.060409417065886872 0 0.36392372675137458 -0.051574144679805103 0 0.37192531576168952 -0.05914395824800911 0 0.37514153202862571 -0.045861082966856079 0 0.36392372675137458 -0.051574144679805103 0 0.37192531576168952 -0.05914395824800911 0 0.37813424473731178 -0.068262582352726586 0 0.37192531576168952 -0.05914395824800911 0 0.3680772617285144 -0.06977757947088653 0 0.35914505774559541 -0.060409417065886872 0 0.37192531576168952 -0.05914395824800911 0 0.3680772617285144 -0.06977757947088653 0 0.35914505774559541 -0.060409417065886872 0 0.3680772617285144 -0.06977757947088653 0 0.35837286676988928 -0.071968688592424085 0 0.3680772617285144 -0.06977757947088653 0 0.36498327826552668 -0.083111049239403226 0 0.35837286676988928 -0.071968688592424085 0 0.3680772617285144 -0.06977757947088653 0 0.37353404377441052 -0.075370636612477671 0 0.36498327826552668 -0.083111049239403226 0 0.37813424473731178 -0.068262582352726586 0 0.3680772617285144 -0.06977757947088653 0 0.37353404377441052 -0.075370636612477671 0 0.38294139036628899 -0.080331335386894381 0 0.37353404377441052 -0.075370636612477671 0 0.36498327826552668 -0.083111049239403226 0 0.36498327826552668 -0.083111049239403226 0 0.37237061700676077 -0.09615783082836224 0 0.34241852099989789 -0.095233439592861846 0 0.38294139036628899 -0.080331335386894381 0 0.36498327826552668 -0.083111049239403226 0 0.37406831990166722 -0.093898964220853504 0 0.36498327826552668 -0.083111049239403226 0 0.37406831990166722 -0.093898964220853504 0 0.37237061700676077 -0.09615783082836224 0 0.36498327826552668 -0.083111049239403226 0 0.3449175019875389 -0.076917716904771144 0 0.34241852099989789 -0.095233439592861846 0 0.36498327826552668 -0.083111049239403226 0 0.3449175019875389 -0.076917716904771144 0 0.35837286676988928 -0.071968688592424085 0 0.3449175019875389 -0.076917716904771144 0 0.34794047334546518 -0.063974584280765273 0 0.35837286676988928 -0.071968688592424085 0 0.35914505774559541 -0.060409417065886872 0 0.34794047334546518 -0.063974584280765273 0 0.35837286676988928 -0.071968688592424085 0 0.36371200487664068 -0.10973459168570281 0 0.35664352332635268 -0.13060513793896061 0 0.36779594019891898 -0.12729788290040461 0 0.3785150876385216 -0.1195111518185689 0 0.36371200487664068 -0.10973459168570281 0 0.36779594019891898 -0.12729788290040461 0 0.36371200487664068 -0.10973459168570281 0 0.37237061700676077 -0.09615783082836224 0 0.34241852099989789 -0.095233439592861846 0 0.3851668720105898 -0.10347474583943909 0 0.36371200487664068 -0.10973459168570281 0 0.37237061700676077 -0.09615783082836224 0 0.3851668720105898 -0.10347474583943909 0 0.36371200487664068 -0.10973459168570281 0 0.36371200487664068 -0.10973459168570281 0 0.37237061700676077 -0.09615783082836224 0 0.37406831990166722 -0.093898964220853504 0 0.37237061700676077 -0.09615783082836224 0 0.36371200487664068 -0.10973459168570281 0 0.34332012240242971 -0.1020930362129598 0 0.34241852099989789 -0.095233439592861846 0 0.36371200487664068 -0.10973459168570281 0 0.35002252173753962 -0.112446561286345 0 0.34332012240242971 -0.1020930362129598 0 0.37237061700676077 -0.09615783082836224 0 0.34241852099989789 -0.095233439592861846 0 0.35002252173753962 -0.112446561286345 0 0.34025414842832208 -0.11782241666052221 0 0.34332012240242971 -0.1020930362129598 0 0.36371200487664068 -0.10973459168570281 0 0.35355367174401742 -0.1211945845718113 0 0.34779048707731292 -0.1340798558009649 0 0.36371200487664068 -0.10973459168570281 0 0.35664352332635268 -0.13060513793896061 0 0.34779048707731292 -0.1340798558009649 0 0.36371200487664068 -0.10973459168570281 0 0.34779048707731292 -0.1340798558009649 0 0.36371200487664068 -0.10973459168570281 0 0.35002252173753962 -0.112446561286345 0 0.35355367174401742 -0.1211945845718113 0 0.36371200487664068 -0.10973459168570281 0 0.35355367174401742 -0.1211945845718113 0 0.35002252173753962 -0.112446561286345 0 0.35355367174401742 -0.1211945845718113 0 0.34025414842832208 -0.11782241666052221 0 0.35355367174401742 -0.1211945845718113 0 0.34025414842832208 -0.11782241666052221 0 0.34381162934489939 -0.12854128697128539 0 0.33094534805706732 -0.1177437606496905 0 0.31854024801571379 -0.1183964408803808 0 0.33718817445421712 -0.13355179710808501 0 0.34025414842832208 -0.11782241666052221 0 0.33378984816934337 -0.1086297847084315 0 0.34332012240242971 -0.1020930362129598 0 0.33094534805706732 -0.1177437606496905 0 0.34025414842832208 -0.11782241666052221 0 0.33718817445421712 -0.13355179710808501 0 0.34025414842832208 -0.11782241666052221 0 0.34332012240242971 -0.1020930362129598 0 0.33094534805706732 -0.1177437606496905 0 0.33378984816934337 -0.1086297847084315 0 0.32495432121773932 -0.110318363891034 0 0.33094534805706732 -0.1177437606496905 0 0.34025414842832208 -0.11782241666052221 0 0.33378984816934337 -0.1086297847084315 0 0.33378984816934337 -0.1086297847084315 0 0.32725903490077729 -0.10071499943534749 0 0.32495432121773932 -0.110318363891034 0 0.33378984816934337 -0.1086297847084315 0 0.33669688161811212 -0.1016678149874002 0 0.32725903490077729 -0.10071499943534749 0 0.33378984816934337 -0.1086297847084315 0 0.34332012240242971 -0.1020930362129598 0 0.33669688161811212 -0.1016678149874002 0 0.34332012240242971 -0.1020930362129598 0 0.33669688161811212 -0.1016678149874002 0 0.34241852099989789 -0.095233439592861846 0 0.33669688161811212 -0.1016678149874002 0 0.34241852099989789 -0.095233439592861846 0 0.32725903490077729 -0.10071499943534749 0 0.34241852099989789 -0.095233439592861846 0 0.31246642499303512 -0.0943090483573608 0 0.34241852099989789 -0.095233439592861846 0 0.32725903490077729 -0.10071499943534749 0 0.31246642499303512 -0.0943090483573608 0 0.32725903490077729 -0.10071499943534749 0 0.31716114910448651 -0.10565591717263 0 0.31246642499303512 -0.0943090483573608 0 0.32725903490077729 -0.10071499943534749 0 0.31716114910448651 -0.10565591717263 0 0.32495432121773932 -0.110318363891034 0 0.33094534805706732 -0.1177437606496905 0 0.32495432121773932 -0.110318363891034 0 0.31854024801571379 -0.1183964408803808 0 0.31716114910448651 -0.10565591717263 0 0.32495432121773932 -0.110318363891034 0 0.31854024801571379 -0.1183964408803808 0 0.31716114910448651 -0.10565591717263 0 0.31854024801571379 -0.1183964408803808 0 0.30531265091832138 -0.10738965970164049 0 0.3449175019875389 -0.076917716904771144 0 0.33388625794764348 -0.064812423232177271 0 0.32092150739102382 -0.073097043805500014 0 0.3449175019875389 -0.076917716904771144 0 0.34794047334546518 -0.063974584280765273 0 0.33388625794764348 -0.064812423232177271 0 0.3449175019875389 -0.076917716904771144 0 0.34241852099989789 -0.095233439592861846 0 0.32092150739102382 -0.073097043805500014 0 0.34241852099989789 -0.095233439592861846 0 0.32092150739102382 -0.073097043805500014 0 0.31246642499303512 -0.0943090483573608 0 0.32115491610998381 -0.052976688016941227 0 0.33388625794764348 -0.064812423232177271 0 0.32092150739102382 -0.073097043805500014 0 0.32092150739102382 -0.073097043805500014 0 0.28819319405889499 -0.06706419956831737 0 0.31246642499303512 -0.0943090483573608 0 0.32092150739102382 -0.073097043805500014 0 0.28819319405889499 -0.06706419956831737 0 0.30601744289912669 -0.055409131432484229 0 0.28251432898617262 -0.093384657121855619 0 0.28819319405889499 -0.06706419956831737 0 0.31246642499303512 -0.0943090483573608 0 0.28251432898617262 -0.093384657121855619 0 0.28819319405889499 -0.06706419956831737 0 0.28251432898617262 -0.093384657121855619 0 0.28819319405889499 -0.06706419956831737 0 0.2788070763813692 -0.075616481315712358 0 0.30531265091832138 -0.10738965970164049 0 0.29209333803684512 -0.1204183792118467 0 0.30316218715013699 -0.13585617877411299 0 0.31854024801571379 -0.1183964408803808 0 0.30531265091832138 -0.10738965970164049 0 0.30316218715013699 -0.13585617877411299 0 0.30531265091832138 -0.10738965970164049 0 0.30316218715013699 -0.13585617877411299 0 0.30531265091832138 -0.10738965970164049 0 0.31246642499303512 -0.0943090483573608 0 0.2913954051317153 -0.1063448066268642 0 0.28251432898617262 -0.093384657121855619 0 0.31246642499303512 -0.0943090483573608 0 0.31716114910448651 -0.10565591717263 0 0.30531265091832138 -0.10738965970164049 0 0.31246642499303512 -0.0943090483573608 0 0.28251432898617262 -0.093384657121855619 0 0.31246642499303512 -0.0943090483573608 0 0.2913954051317153 -0.1063448066268642 0 0.28251432898617262 -0.093384657121855619 0 0.2913954051317153 -0.1063448066268642 0 0.27794998204403759 -0.11453953550188679 0 0.30531265091832138 -0.10738965970164049 0 0.2913954051317153 -0.1063448066268642 0 0.29209333803684512 -0.1204183792118467 0 0.2913954051317153 -0.1063448066268642 0 0.29209333803684512 -0.1204183792118467 0 0.27794998204403759 -0.11453953550188679 0 0.27794998204403759 -0.11453953550188679 0 0.25915390151091949 -0.11811210275817149 0 0.27338563510190422 -0.1356944138819183 0 0.29209333803684512 -0.1204183792118467 0 0.27794998204403759 -0.11453953550188679 0 0.27338563510190422 -0.1356944138819183 0 0.28251432898617262 -0.093384657121855619 0 0.27794998204403759 -0.11453953550188679 0 0.25666672159796139 -0.092586939936295867 0 0.28251432898617262 -0.093384657121855619 0 0.27794998204403759 -0.11453953550188679 0 0.25915390151091949 -0.11811210275817149 0 0.25666672159796139 -0.092586939936295867 0 0.23839025179526999 -0.1151992729885977 0 0.27794998204403759 -0.11453953550188679 0 0.25915390151091949 -0.11811210275817149 0 0.25666672159796139 -0.092586939936295867 0 0.28819319405889499 -0.06706419956831737 0 0.27512965144911827 -0.070681904186227995 0 0.27783686619476677 -0.05372527893061739 0 0.26897876163713708 -0.070467118147906876 0 0.27512965144911827 -0.070681904186227995 0 0.27783686619476677 -0.05372527893061739 0 0.26897876163713708 -0.070467118147906876 0 0.26180167325791431 -0.066706815846455908 0 0.27783686619476677 -0.05372527893061739 0 0.27067132333055188 -0.076788874412469815 0 0.26897876163713708 -0.070467118147906876 0 0.26145119023330071 -0.079000043976386408 0 0.27067132333055188 -0.076788874412469815 0 0.26897876163713708 -0.070467118147906876 0 0.2788070763813692 -0.075616481315712358 0 0.26897876163713708 -0.070467118147906876 0 0.27512965144911827 -0.070681904186227995 0 0.28819319405889499 -0.06706419956831737 0 0.2788070763813692 -0.075616481315712358 0 0.27512965144911827 -0.070681904186227995 0 0.26897876163713708 -0.070467118147906876 0 0.2788070763813692 -0.075616481315712358 0 0.26897876163713708 -0.070467118147906876 0 0.2788070763813692 -0.075616481315712358 0 0.27512965144911827 -0.070681904186227995 0 0.28251432898617262 -0.093384657121855619 0 0.25666672159796139 -0.092586939936295867 0 0.28251432898617262 -0.093384657121855619 0 0.27051227275229911 -0.08315566172012806 0 0.25666672159796139 -0.092586939936295867 0 0.28251432898617262 -0.093384657121855619 0 0.2788070763813692 -0.075616481315712358 0 0.27051227275229911 -0.08315566172012806 0 0.27067132333055188 -0.076788874412469815 0 0.27051227275229911 -0.08315566172012806 0 0.26145119023330071 -0.079000043976386408 0 0.27067132333055188 -0.076788874412469815 0 0.2788070763813692 -0.075616481315712358 0 0.27051227275229911 -0.08315566172012806 0 0.26145119023330071 -0.079000043976386408 0 0.25666672159796139 -0.092586939936295867 0 0.24423239209720191 -0.080930297464084477 0 0.27051227275229911 -0.08315566172012806 0 0.26145119023330071 -0.079000043976386408 0 0.25666672159796139 -0.092586939936295867 0 0.26180167325791431 -0.066706815846455908 0 0.25764566998465072 -0.070071372177431313 0 0.24120587699226881 -0.055916030502087773 0 0.26145119023330071 -0.079000043976386408 0 0.25764566998465072 -0.070071372177431313 0 0.24423239209720191 -0.080930297464084477 0 0.25764566998465072 -0.070071372177431313 0 0.24423239209720191 -0.080930297464084477 0 0.26897876163713708 -0.070467118147906876 0 0.26145119023330071 -0.079000043976386408 0 0.25764566998465072 -0.070071372177431313 0 0.26897876163713708 -0.070467118147906876 0 0.26180167325791431 -0.066706815846455908 0 0.25764566998465072 -0.070071372177431313 0 0.26897876163713708 -0.070467118147906876 0 0.25764566998465072 -0.070071372177431313 0 0.26897876163713708 -0.070467118147906876 0 0.26180167325791431 -0.066706815846455908 0 0.26180167325791431 -0.066706815846455908 0 0.25764566998465072 -0.070071372177431313 0 0.26180167325791431 -0.066706815846455908 0 0.26029261894245981 -0.048826031507571623 0 0.24120587699226881 -0.055916030502087773 0 0.26180167325791431 -0.066706815846455908 0 0.24120587699226881 -0.055916030502087773 0 0.26180167325791431 -0.066706815846455908 0 0.26029261894245981 -0.048826031507571623 0 0.27783686619476677 -0.05372527893061739 0 0.26180167325791431 -0.066706815846455908 0 0.27783686619476677 -0.05372527893061739 0 0.26029261894245981 -0.048826031507571623 0 0.27783686619476677 -0.05372527893061739 0 0.27031708646619812 -0.033638605470610219 0 0.27783686619476677 -0.05372527893061739 0 0.27031708646619812 -0.033638605470610219 0 0.28437966209514692 -0.033534114227583768 0 0.26029261894245981 -0.048826031507571623 0 0.27031708646619812 -0.033638605470610219 0 0.25030159180115191 -0.034143426788088307 0 0.26029261894245981 -0.048826031507571623 0 0.25030159180115191 -0.034143426788088307 0 0.24120587699226881 -0.055916030502087773 0 0.25030159180115191 -0.034143426788088307 0 0.26299580833271302 -0.019789195105520681 0 0.2464198669495459 -0.012097030270161889 0 0.27031708646619812 -0.033638605470610219 0 0.25030159180115191 -0.034143426788088307 0 0.26299580833271302 -0.019789195105520681 0 0.25322369798355371 0.0032948183560677501 0 0.26778398551549509 -0.0036893303100333872 0 0.2464198669495459 -0.012097030270161889 0 0.26299580833271302 -0.019789195105520681 0 0.26778398551549509 -0.0036893303100333872 0 0.2464198669495459 -0.012097030270161889 0 0.26299580833271302 -0.019789195105520681 0 0.26778398551549509 -0.0036893303100333872 0 0.28231604015163769 -0.018351258625531171 0 0.2895407867033607 0.0013395930438658619 0 0.26778398551549509 -0.0036893303100333872 0 0.28231604015163769 -0.018351258625531171 0 0.27031708646619812 -0.033638605470610219 0 0.26299580833271302 -0.019789195105520681 0 0.28231604015163769 -0.018351258625531171 0 0.27031708646619812 -0.033638605470610219 0 0.28231604015163769 -0.018351258625531171 0 0.28437966209514692 -0.033534114227583768 0 0.28231604015163769 -0.018351258625531171 0 0.29600028882747859 -0.03087980289019443 0 0.28437966209514692 -0.033534114227583768 0 0.28231604015163769 -0.018351258625531171 0 0.29600028882747859 -0.03087980289019443 0 0.30132541624728598 -0.01217829343577128 0 0.2895407867033607 0.0013395930438658619 0 0.28231604015163769 -0.018351258625531171 0 0.30132541624728598 -0.01217829343577128 0 0.31046320235639918 0.0067575729804437252 0 0.2895407867033607 0.0013395930438658619 0 0.30132541624728598 -0.01217829343577128 0 0.31046320235639918 0.0067575729804437252 0 0.3153830815233527 -0.0087530987426132929 0 0.30132541624728598 -0.01217829343577128 0 0.31486943567640469 -0.023744993086391868 0 0.3153830815233527 -0.0087530987426132929 0 0.30132541624728598 -0.01217829343577128 0 0.31486943567640469 -0.023744993086391868 0 0.29600028882747859 -0.03087980289019443 0 0.30132541624728598 -0.01217829343577128 0 0.31486943567640469 -0.023744993086391868 0 0.31197137499350902 -0.041008225260955711 0 0.29387205913161968 -0.04074374201477949 0 0.31486943567640469 -0.023744993086391868 0 0.29600028882747859 -0.03087980289019443 0 0.29387205913161968 -0.04074374201477949 0 0.31486943567640469 -0.023744993086391868 0 0.29387205913161968 -0.04074374201477949 0 0.31197137499350902 -0.041008225260955711 0 0.30601744289912669 -0.055409131432484229 0 0.29387205913161968 -0.04074374201477949 0 0.28819319405889499 -0.06706419956831737 0 0.27783686619476677 -0.05372527893061739 0 0.29387205913161968 -0.04074374201477949 0 0.28819319405889499 -0.06706419956831737 0 0.29387205913161968 -0.04074374201477949 0 0.27783686619476677 -0.05372527893061739 0 0.29387205913161968 -0.04074374201477949 0 0.28819319405889499 -0.06706419956831737 0 0.30601744289912669 -0.055409131432484229 0 0.29387205913161968 -0.04074374201477949 0 0.27783686619476677 -0.05372527893061739 0 0.28437966209514692 -0.033534114227583768 0 0.29387205913161968 -0.04074374201477949 0 0.29600028882747859 -0.03087980289019443 0 0.28437966209514692 -0.033534114227583768 0 0.29387205913161968 -0.04074374201477949 0 0.29600028882747859 -0.03087980289019443 0 0.29387205913161968 -0.04074374201477949 0 0.28925369461552242 -0.21547475378801551 0 0.29798535605087828 -0.20438389051808681 0 0.27851755886665591 -0.20371457102860641 0 0.28925369461552242 -0.21547475378801551 0 0.28465086540799672 -0.2254021489655588 0 0.27851755886665591 -0.20371457102860641 0 0.28925369461552242 -0.21547475378801551 0 0.29798535605087828 -0.20438389051808681 0 0.29625974568445868 -0.22722646109941139 0 0.28994099481116897 -0.19128490440727269 0 0.29798535605087828 -0.20438389051808681 0 0.29971096641729777 -0.18154131993676231 0 0.28994099481116897 -0.19128490440727269 0 0.27851755886665591 -0.20371457102860641 0 0.28355009790984409 -0.17549983614563519 0 0.28994099481116897 -0.19128490440727269 0 0.29798535605087828 -0.20438389051808681 0 0.27851755886665591 -0.20371457102860641 0 0.30866677822314281 -0.19370433905286669 0 0.29798535605087828 -0.20438389051808681 0 0.29971096641729777 -0.18154131993676231 0 0.29798535605087828 -0.20438389051808681 0 0.29971096641729777 -0.18154131993676231 0 0.30866677822314281 -0.19370433905286669 0 0.30817512199612251 -0.208018461664154 0 0.29798535605087828 -0.20438389051808681 0 0.29798535605087828 -0.20438389051808681 0 0.29625974568445868 -0.22722646109941139 0 0.30367267472900389 -0.2178556058656746 0 0.31200739898088131 -0.22851072207886541 0 0.31883562653249692 -0.20986103607638071 0 0.29798535605087828 -0.20438389051808681 0 0.30367267472900389 -0.2178556058656746 0 0.29625974568445868 -0.22722646109941139 0 0.30817512199612251 -0.208018461664154 0 0.29798535605087828 -0.20438389051808681 0 0.30367267472900389 -0.2178556058656746 0 0.30817512199612251 -0.208018461664154 0 0.30367267472900389 -0.2178556058656746 0 0.31883562653249692 -0.20986103607638071 0 0.30367267472900389 -0.2178556058656746 0 0.31883562653249692 -0.20986103607638071 0 0.31200739898088131 -0.22851072207886541 0 0.30517917142926537 -0.24716040808135001 0 0.29625974568445868 -0.22722646109941139 0 0.30367267472900389 -0.2178556058656746 0 0.31200739898088131 -0.22851072207886541 0 0.29625974568445868 -0.22722646109941139 0 0.31200739898088131 -0.22851072207886541 0 0.30517917142926537 -0.24716040808135001 0 0.30517917142926537 -0.24716040808135001 0 0.28765229627979871 -0.24304032400626949 0 0.29625974568445868 -0.22722646109941139 0 0.28765229627979871 -0.24304032400626949 0 0.29625974568445868 -0.22722646109941139 0 0.28465086540799672 -0.2254021489655588 0 0.28765229627979871 -0.24304032400626949 0 0.28465086540799672 -0.2254021489655588 0 0.27348501982346762 -0.23192930591157759 0 0.28925369461552242 -0.21547475378801551 0 0.29625974568445868 -0.22722646109941139 0 0.28465086540799672 -0.2254021489655588 0 0.28465086540799672 -0.2254021489655588 0 0.27348501982346762 -0.23192930591157759 0 0.27851755886665591 -0.20371457102860641 0 0.27348501982346762 -0.23192930591157759 0 0.25787859859726192 -0.24372773219337371 0 0.26845248078028039 -0.26014404079454911 0 0.28765229627979871 -0.24304032400626949 0 0.27348501982346762 -0.23192930591157759 0 0.26845248078028039 -0.26014404079454911 0 0.27348501982346762 -0.23192930591157759 0 0.26845248078028039 -0.26014404079454911 0 0.27348501982346762 -0.23192930591157759 0 0.25787859859726192 -0.24372773219337371 0 0.2485278721491469 -0.22983386195931649 0 0.27348501982346762 -0.23192930591157759 0 0.25806059678156651 -0.21160485628964759 0 0.2485278721491469 -0.22983386195931649 0 0.27348501982346762 -0.23192930591157759 0 0.27851755886665591 -0.20371457102860641 0 0.27348501982346762 -0.23192930591157759 0 0.25806059678156651 -0.21160485628964759 0 0.27851755886665591 -0.20371457102860641 0 0.27851755886665591 -0.20371457102860641 0 0.26140201073716351 -0.19316186481753209 0 0.27335445324682811 -0.1824409541049711 0 0.25806059678156651 -0.21160485628964759 0 0.27851755886665591 -0.20371457102860641 0 0.26140201073716351 -0.19316186481753209 0 0.27851755886665591 -0.20371457102860641 0 0.28355009790984409 -0.17549983614563519 0 0.25806059678156651 -0.21160485628964759 0 0.26140201073716351 -0.19316186481753209 0 0.24624710011957149 -0.19756578472926509 0 0.26140201073716351 -0.19316186481753209 0 0.25030889548151403 -0.1837077448593728 0 0.24624710011957149 -0.19756578472926509 0 0.25969225384889538 -0.18295045636353721 0 0.2550208565069661 -0.17514012483034949 0 0.27335445324682811 -0.1824409541049711 0 0.26140201073716351 -0.19316186481753209 0 0.25030889548151403 -0.1837077448593728 0 0.25969225384889538 -0.18295045636353721 0 0.25030889548151403 -0.1837077448593728 0 0.25969225384889538 -0.18295045636353721 0 0.2550208565069661 -0.17514012483034949 0 0.2550208565069661 -0.17514012483034949 0 0.2530488896403309 -0.16079061319898569 0 0.27335445324682811 -0.1824409541049711 0 0.26140201073716351 -0.19316186481753209 0 0.25969225384889538 -0.18295045636353721 0 0.27335445324682811 -0.1824409541049711 0 0.2530488896403309 -0.16079061319898569 0 0.272260185211738 -0.168331689764908 0 0.26878477807763418 -0.16016356734556891 0 0.2530488896403309 -0.16079061319898569 0 0.26878477807763418 -0.16016356734556891 0 0.26293682869207591 -0.15391070786642169 0 0.2530488896403309 -0.16079061319898569 0 0.27335445324682811 -0.1824409541049711 0 0.272260185211738 -0.168331689764908 0 0.27899515764395177 -0.15443660918041571 0 0.28355009790984409 -0.17549983614563519 0 0.2530488896403309 -0.16079061319898569 0 0.272260185211738 -0.168331689764908 0 0.27335445324682811 -0.1824409541049711 0 0.272260185211738 -0.168331689764908 0 0.26878477807763418 -0.16016356734556891 0 0.27899515764395177 -0.15443660918041571 0 0.272260185211738 -0.168331689764908 0 0.27335445324682811 -0.1824409541049711 0 0.28355009790984409 -0.17549983614563519 0 0.27851755886665591 -0.20371457102860641 0 0.27335445324682811 -0.1824409541049711 0 0.28355009790984409 -0.17549983614563519 0 0.25915390151091949 -0.11811210275817149 0 0.25133622254172122 -0.13557462765415079 0 0.27338563510190422 -0.1356944138819183 0 0.25133622254172122 -0.13557462765415079 0 0.27338563510190422 -0.1356944138819183 0 0.25133622254172122 -0.13557462765415079 0 0.25208407187516418 -0.1419613505697605 0 0.27338563510190422 -0.1356944138819183 0 0.26557247671991108 -0.14774187414890411 0 0.25208407187516418 -0.1419613505697605 0 0.27142481771649529 -0.14478242884651979 0 0.25208407187516418 -0.1419613505697605 0 0.27142481771649529 -0.14478242884651979 0 0.2530488896403309 -0.16079061319898569 0 0.25208407187516418 -0.1419613505697605 0 0.26293682869207591 -0.15391070786642169 0 0.26557247671991108 -0.14774187414890411 0 0.25208407187516418 -0.1419613505697605 0 0.26293682869207591 -0.15391070786642169 0 0.27899515764395177 -0.15443660918041571 0 0.27142481771649529 -0.14478242884651979 0 0.28858263695303038 -0.1472851012626637 0 0.25208407187516418 -0.1419613505697605 0 0.27142481771649529 -0.14478242884651979 0 0.27338563510190422 -0.1356944138819183 0 0.27142481771649529 -0.14478242884651979 0 0.28858263695303038 -0.1472851012626637 0 0.27142481771649529 -0.14478242884651979 0 0.27338563510190422 -0.1356944138819183 0 0.28952553314766588 -0.14199879033185039 0 0.26878477807763418 -0.16016356734556891 0 0.27009527632936597 -0.15279308215900331 0 0.27899515764395177 -0.15443660918041571 0 0.26557247671991108 -0.14774187414890411 0 0.27009527632936597 -0.15279308215900331 0 0.27142481771649529 -0.14478242884651979 0 0.26878477807763418 -0.16016356734556891 0 0.26293682869207591 -0.15391070786642169 0 0.27009527632936597 -0.15279308215900331 0 0.26557247671991108 -0.14774187414890411 0 0.26293682869207591 -0.15391070786642169 0 0.27009527632936597 -0.15279308215900331 0 0.27009527632936597 -0.15279308215900331 0 0.27899515764395177 -0.15443660918041571 0 0.27142481771649529 -0.14478242884651979 0 0.27794998204403759 -0.11453953550188679 0 0.27338563510190422 -0.1356944138819183 0 0.27142481771649529 -0.14478242884651979 0 0.27338563510190422 -0.1356944138819183 0 0.27338563510190422 -0.1356944138819183 0 0.30316218715013699 -0.13585617877411299 0 0.29209333803684512 -0.1204183792118467 0 0.27338563510190422 -0.1356944138819183 0 0.30316218715013699 -0.13585617877411299 0 0.27338563510190422 -0.1356944138819183 0 0.28952553314766588 -0.14199879033185039 0 0.30316218715013699 -0.13585617877411299 0 0.27142481771649529 -0.14478242884651979 0 0.28952553314766588 -0.14199879033185039 0 0.28858263695303038 -0.1472851012626637 0 0.28858263695303038 -0.1472851012626637 0 0.30013596324633868 -0.14897029159077979 0 0.28952553314766588 -0.14199879033185039 0 0.28858263695303038 -0.1472851012626637 0 0.30013596324633868 -0.14897029159077979 0 0.28952553314766588 -0.14199879033185039 0 0.28858263695303038 -0.1472851012626637 0 0.28858263695303038 -0.1472851012626637 0 0.30013596324633868 -0.14897029159077979 0 0.29372711844303928 -0.1600295372122347 0 0.30316218715013699 -0.13585617877411299 0 0.30143657678371732 -0.15869874935543771 0 0.30013596324633868 -0.14897029159077979 0 0.30316218715013699 -0.13585617877411299 0 0.30143657678371732 -0.15869874935543771 0 0.30316218715013699 -0.13585617877411299 0 0.30143657678371732 -0.15869874935543771 0 0.31253980123811259 -0.14771969478669131 0 0.30013596324633868 -0.14897029159077979 0 0.29372711844303928 -0.1600295372122347 0 0.30143657678371732 -0.15869874935543771 0 0.30143657678371732 -0.15869874935543771 0 0.31557079919726838 -0.1590044961535387 0 0.31253980123811259 -0.14771969478669131 0 0.28952553314766588 -0.14199879033185039 0 0.30013596324633868 -0.14897029159077979 0 0.30316218715013699 -0.13585617877411299 0 0.30316218715013699 -0.13585617877411299 0 0.31993283661344418 -0.13594728745244961 0 0.31253980123811259 -0.14771969478669131 0 0.30316218715013699 -0.13585617877411299 0 0.31993283661344418 -0.13594728745244961 0 0.28994099481116897 -0.19128490440727269 0 0.28355009790984409 -0.17549983614563519 0 0.29971096641729777 -0.18154131993676231 0 0.28355009790984409 -0.17549983614563519 0 0.29493031732226571 -0.16969370770665679 0 0.29971096641729777 -0.18154131993676231 0 0.27899515764395177 -0.15443660918041571 0 0.28858263695303038 -0.1472851012626637 0 0.28355009790984409 -0.17549983614563519 0 0.28858263695303038 -0.1472851012626637 0 0.28355009790984409 -0.17549983614563519 0 0.28858263695303038 -0.1472851012626637 0 0.28355009790984409 -0.17549983614563519 0 0.29372711844303928 -0.1600295372122347 0 0.29372711844303928 -0.1600295372122347 0 0.29493031732226571 -0.16969370770665679 0 0.30143657678371732 -0.15869874935543771 0 0.28355009790984409 -0.17549983614563519 0 0.29372711844303928 -0.1600295372122347 0 0.29493031732226571 -0.16969370770665679 0 0.30143657678371732 -0.15869874935543771 0 0.29971096641729777 -0.18154131993676231 0 0.30143657678371732 -0.15869874935543771 0 0.30809610970482848 -0.16795036279156811 0 0.29971096641729777 -0.18154131993676231 0 0.29493031732226571 -0.16969370770665679 0 0.30143657678371732 -0.15869874935543771 0 0.29971096641729777 -0.18154131993676231 0 0.30143657678371732 -0.15869874935543771 0 0.30809610970482848 -0.16795036279156811 0 0.31557079919726838 -0.1590044961535387 0 0.29971096641729777 -0.18154131993676231 0 0.31498869866721663 -0.1848028620899877 0 0.3156660964210305 -0.17255688572053399 0 0.30809610970482848 -0.16795036279156811 0 0.29971096641729777 -0.18154131993676231 0 0.3156660964210305 -0.17255688572053399 0 0.30866677822314281 -0.19370433905286669 0 0.29971096641729777 -0.18154131993676231 0 0.31498869866721663 -0.1848028620899877 0 0.32729102930978993 -0.18432716657830939 0 0.3156660964210305 -0.17255688572053399 0 0.33199725769327038 -0.160182781354547 0 0.31498869866721663 -0.1848028620899877 0 0.32729102930978993 -0.18432716657830939 0 0.3156660964210305 -0.17255688572053399 0 0.3156660964210305 -0.17255688572053399 0 0.31557079919726838 -0.1590044961535387 0 0.33199725769327038 -0.160182781354547 0 0.30809610970482848 -0.16795036279156811 0 0.3156660964210305 -0.17255688572053399 0 0.31557079919726838 -0.1590044961535387 0 0.32729102930978993 -0.18432716657830939 0 0.34572674800851178 -0.17666980330527179 0 0.34152908302092871 -0.19789605564194099 0 0.32729102930978993 -0.18432716657830939 0 0.33199725769327038 -0.160182781354547 0 0.34572674800851178 -0.17666980330527179 0 0.32729102930978993 -0.18432716657830939 0 0.33199725769327038 -0.160182781354547 0 0.31854024801571379 -0.1183964408803808 0 0.30316218715013699 -0.13585617877411299 0 0.31993283661344418 -0.13594728745244961 0 0.31993283661344418 -0.13594728745244961 0 0.32334883616376942 -0.1477785311756023 0 0.33670348607675138 -0.13603839613078461 0 0.31854024801571379 -0.1183964408803808 0 0.31993283661344418 -0.13594728745244961 0 0.33718817445421712 -0.13355179710808501 0 0.31854024801571379 -0.1183964408803808 0 0.33718817445421712 -0.13355179710808501 0 0.31557079919726838 -0.1590044961535387 0 0.33199725769327038 -0.160182781354547 0 0.32334883616376942 -0.1477785311756023 0 0.31993283661344418 -0.13594728745244961 0 0.32334883616376942 -0.1477785311756023 0 0.31253980123811259 -0.14771969478669131 0 0.31557079919726838 -0.1590044961535387 0 0.32334883616376942 -0.1477785311756023 0 0.31253980123811259 -0.14771969478669131 0 0.33199725769327038 -0.160182781354547 0 0.34027166502062639 -0.13605778071504529 0 0.33670348607675138 -0.13603839613078461 0 0.33199725769327038 -0.160182781354547 0 0.32334883616376942 -0.1477785311756023 0 0.33670348607675138 -0.13603839613078461 0 0.33199725769327038 -0.160182781354547 0 0.33670348607675138 -0.13603839613078461 0 0.31993283661344418 -0.13594728745244961 0 0.33670348607675138 -0.13603839613078461 0 0.31993283661344418 -0.13594728745244961 0 0.33670348607675138 -0.13603839613078461 0 0.33718817445421712 -0.13355179710808501 0 0.34025414842832208 -0.11782241666052221 0 0.33718817445421712 -0.13355179710808501 0 0.34381162934489939 -0.12854128697128539 0 0.34025414842832208 -0.11782241666052221 0 0.33718817445421712 -0.13355179710808501 0 0.34027166502062639 -0.13605778071504529 0 0.33670348607675138 -0.13603839613078461 0 0.33718817445421712 -0.13355179710808501 0 0.34027166502062639 -0.13605778071504529 0 0.33718817445421712 -0.13355179710808501 0 0.34027166502062639 -0.13605778071504529 0 0.33670348607675138 -0.13603839613078461 0 0.33670348607675138 -0.13603839613078461 0 0.33718817445421712 -0.13355179710808501 0 0.34027166502062639 -0.13605778071504529 0 0.33718817445421712 -0.13355179710808501 0 0.34381162934489939 -0.12854128697128539 0 0.33199725769327038 -0.160182781354547 0 0.34027166502062639 -0.13605778071504529 0 0.36359383050920879 -0.15501193774405861 0 0.35355367174401742 -0.1211945845718113 0 0.34381162934489939 -0.12854128697128539 0 0.34779048707731292 -0.1340798558009649 0 0.34027166502062639 -0.13605778071504529 0 0.34884821061351562 -0.13610437388577321 0 0.35664352332635268 -0.13060513793896061 0 0.34779048707731292 -0.1340798558009649 0 0.34884821061351562 -0.13610437388577321 0 0.34027166502062639 -0.13605778071504529 0 0.34779048707731292 -0.1340798558009649 0 0.34884821061351562 -0.13610437388577321 0 0.34027166502062639 -0.13605778071504529 0 0.34381162934489939 -0.12854128697128539 0 0.34779048707731292 -0.1340798558009649 0 0.35664352332635268 -0.13060513793896061 0 0.34884821061351562 -0.13610437388577321 0 0.36374720336072303 -0.13810563056468389 0 0.34884821061351562 -0.13610437388577321 0 0.36359383050920879 -0.15501193774405861 0 0.36374720336072303 -0.13810563056468389 0 0.34027166502062639 -0.13605778071504529 0 0.36359383050920879 -0.15501193774405861 0 0.34027166502062639 -0.13605778071504529 0 0.34884821061351562 -0.13610437388577321 0 0.36359383050920879 -0.15501193774405861 0 0.36359383050920879 -0.15501193774405861 0 0.36374720336072303 -0.13810563056468389 0 0.37656812491251679 -0.13846106794218549 0 0.3785150876385216 -0.1195111518185689 0 0.36779594019891898 -0.12729788290040461 0 0.37656812491251679 -0.13846106794218549 0 0.36374720336072303 -0.13810563056468389 0 0.36779594019891898 -0.12729788290040461 0 0.37656812491251679 -0.13846106794218549 0 0.35664352332635268 -0.13060513793896061 0 0.36374720336072303 -0.13810563056468389 0 0.36779594019891898 -0.12729788290040461 0 0.33199725769327038 -0.160182781354547 0 0.36359383050920879 -0.15501193774405861 0 0.34572674800851178 -0.17666980330527179 0 0.34572674800851178 -0.17666980330527179 0 0.36422253950936112 -0.1859310752075029 0 0.34152908302092871 -0.19789605564194099 0 0.36359383050920879 -0.15501193774405861 0 0.34572674800851178 -0.17666980330527179 0 0.36422253950936112 -0.1859310752075029 0 0.36359383050920879 -0.15501193774405861 0 0.36422253950936112 -0.1859310752075029 0 0.38691599599779503 -0.1739660947730671 0 0.36422253950936112 -0.1859310752075029 0 0.37220629557919183 -0.19612338441269381 0 0.37910290544765168 -0.18685571494790659 0 0.36422253950936112 -0.1859310752075029 0 0.37220629557919183 -0.19612338441269381 0 0.35685044422528578 -0.20027094664828951 0 0.37220629557919183 -0.19612338441269381 0 0.3556522221671049 -0.2162457527497984 0 0.35685044422528578 -0.20027094664828951 0 0.37220629557919183 -0.19612338441269381 0 0.3556522221671049 -0.2162457527497984 0 0.37273333868611941 -0.2093978965492076 0 0.3556522221671049 -0.2162457527497984 0 0.3731990688381891 -0.2228302363117915 0 0.37220629557919183 -0.19612338441269381 0 0.37273333868611941 -0.2093978965492076 0 0.3556522221671049 -0.2162457527497984 0 0.34913249600123192 -0.20719712371303781 0 0.34152908302092871 -0.19789605564194099 0 0.34144894007629428 -0.2139395960038605 0 0.3556522221671049 -0.2162457527497984 0 0.34913249600123192 -0.20719712371303781 0 0.35685044422528578 -0.20027094664828951 0 0.3556522221671049 -0.2162457527497984 0 0.34913249600123192 -0.20719712371303781 0 0.34144894007629428 -0.2139395960038605 0 0.36422253950936112 -0.1859310752075029 0 0.35685044422528578 -0.20027094664828951 0 0.34152908302092871 -0.19789605564194099 0 0.36422253950936112 -0.1859310752075029 0 0.34152908302092871 -0.19789605564194099 0 0.34913249600123192 -0.20719712371303781 0 0.35685044422528578 -0.20027094664828951 0 0.34152908302092871 -0.19789605564194099 0 0.32729102930978993 -0.18432716657830939 0 0.34152908302092871 -0.19789605564194099 0 0.32289957828838461 -0.19876131457419149 0 0.34152908302092871 -0.19789605564194099 0 0.31883562653249692 -0.20986103607638071 0 0.34152908302092871 -0.19789605564194099 0 0.34144894007629428 -0.2139395960038605 0 0.31883562653249692 -0.20986103607638071 0 0.34144894007629428 -0.2139395960038605 0 0.31883562653249692 -0.20986103607638071 0 0.32331405575278033 -0.23055000204260581 0 0.31883562653249692 -0.20986103607638071 0 0.32289957828838461 -0.19876131457419149 0 0.30817512199612251 -0.208018461664154 0 0.31883562653249692 -0.20986103607638071 0 0.32289957828838461 -0.19876131457419149 0 0.30866677822314281 -0.19370433905286669 0 0.30817512199612251 -0.208018461664154 0 0.32289957828838461 -0.19876131457419149 0 0.34152908302092871 -0.19789605564194099 0 0.31883562653249692 -0.20986103607638071 0 0.32289957828838461 -0.19876131457419149 0 0.30866677822314281 -0.19370433905286669 0 0.31498869866721663 -0.1848028620899877 0 0.32289957828838461 -0.19876131457419149 0 0.31498869866721663 -0.1848028620899877 0 0.32729102930978993 -0.18432716657830939 0 0.32289957828838461 -0.19876131457419149 0 0.30517917142926537 -0.24716040808135001 0 0.32331405575278033 -0.23055000204260581 0 0.30517917142926537 -0.24716040808135001 0 0.32331405575278033 -0.23055000204260581 0 0.322544075342931 -0.25649048942400782 0 0.31200739898088131 -0.22851072207886541 0 0.30517917142926537 -0.24716040808135001 0 0.32331405575278033 -0.23055000204260581 0 0.31200739898088131 -0.22851072207886541 0 0.31883562653249692 -0.20986103607638071 0 0.31200739898088131 -0.22851072207886541 0 0.31883562653249692 -0.20986103607638071 0 0.32331405575278033 -0.23055000204260581 0 0.34144894007629428 -0.2139395960038605 0 0.32331405575278033 -0.23055000204260581 0 0.34144894007629428 -0.2139395960038605 0 0.32331405575278033 -0.23055000204260581 0 0.33909814875501798 -0.23636812108690311 0 0.33909814875501798 -0.23636812108690311 0 0.322544075342931 -0.25649048942400782 0 0.32331405575278033 -0.23055000204260581 0 0.33909814875501798 -0.23636812108690311 0 0.322544075342931 -0.25649048942400782 0 0.33909814875501798 -0.23636812108690311 0 0.35007299243335749 -0.24785688602667111 0 0.33700232267718733 -0.25494009872172468 0 0.33909814875501798 -0.23636812108690311 0 0.322544075342931 -0.25649048942400782 0 0.33700232267718733 -0.25494009872172468 0 0.33909814875501798 -0.23636812108690311 0 0.35007299243335749 -0.24785688602667111 0 0.35471840821638012 -0.232162972911199 0 0.35007299243335749 -0.24785688602667111 0 0.35471840821638012 -0.232162972911199 0 0.36225179838031341 -0.2439392928582107 0 0.35007299243335749 -0.24785688602667111 0 0.36225179838031341 -0.2439392928582107 0 0.36124693131331159 -0.25807728632712912 0 0.3556522221671049 -0.2162457527497984 0 0.33909814875501798 -0.23636812108690311 0 0.3556522221671049 -0.2162457527497984 0 0.33909814875501798 -0.23636812108690311 0 0.35471840821638012 -0.232162972911199 0 0.3556522221671049 -0.2162457527497984 0 0.34144894007629428 -0.2139395960038605 0 0.33909814875501798 -0.23636812108690311 0 0.35471840821638012 -0.232162972911199 0 0.3731990688381891 -0.2228302363117915 0 0.36225179838031341 -0.2439392928582107 0 0.3556522221671049 -0.2162457527497984 0 0.35471840821638012 -0.232162972911199 0 0.3731990688381891 -0.2228302363117915 0 0.3731990688381891 -0.2228302363117915 0 0.36225179838031341 -0.2439392928582107 0 0.3731990688381891 -0.2228302363117915 0 0.36225179838031341 -0.2439392928582107 0 0.38186963046980549 -0.2367879359972051 0 0.36225179838031341 -0.2439392928582107 0 0.38186963046980549 -0.2367879359972051 0 0.37510228513818711 -0.25237727586059511 0 0.38186963046980549 -0.2367879359972051 0 0.39206528024080278 -0.24921397013056479 0 0.37510228513818711 -0.25237727586059511 0 0.39206528024080278 -0.24921397013056479 0 0.40137725565661481 -0.22692044649349019 0 0.4148006158986044 -0.24103970595398019 0 0.39206528024080278 -0.24921397013056479 0 0.4148006158986044 -0.24103970595398019 0 0.40884184876520419 -0.25890250189124958 0 0.38186963046980549 -0.2367879359972051 0 0.39206528024080278 -0.24921397013056479 0 0.40137725565661481 -0.22692044649349019 0 0.40137725565661481 -0.22692044649349019 0 0.39915185452682361 -0.21610044156742811 0 0.41396763236883027 -0.21470461273584779 0 0.40137725565661481 -0.22692044649349019 0 0.38700545273377529 -0.2233412248148075 0 0.39915185452682361 -0.21610044156742811 0 0.38186963046980549 -0.2367879359972051 0 0.40137725565661481 -0.22692044649349019 0 0.38700545273377529 -0.2233412248148075 0 0.3731990688381891 -0.2228302363117915 0 0.38186963046980549 -0.2367879359972051 0 0.38700545273377529 -0.2233412248148075 0 0.3731990688381891 -0.2228302363117915 0 0.38414633929606479 -0.2017211797653724 0 0.37273333868611941 -0.2093978965492076 0 0.3731990688381891 -0.2228302363117915 0 0.38414633929606479 -0.2017211797653724 0 0.3731990688381891 -0.2228302363117915 0 0.38675328488958288 -0.2095276895359276 0 0.38414633929606479 -0.2017211797653724 0 0.3731990688381891 -0.2228302363117915 0 0.38700545273377529 -0.2233412248148075 0 0.38675328488958288 -0.2095276895359276 0 0.38675328488958288 -0.2095276895359276 0 0.38414633929606479 -0.2017211797653724 0 0.39287005569986072 -0.20314648074516001 0 0.38414633929606479 -0.2017211797653724 0 0.38373621375160438 -0.1885238144486111 0 0.39509360975394031 -0.18061212321895309 0 0.38414633929606479 -0.2017211797653724 0 0.39509360975394031 -0.18061212321895309 0 0.37999921147615667 -0.19503406661491049 0 0.38373621375160438 -0.1885238144486111 0 0.37910290544765168 -0.18685571494790659 0 0.37999921147615667 -0.19503406661491049 0 0.38414633929606479 -0.2017211797653724 0 0.38373621375160438 -0.1885238144486111 0 0.37220629557919183 -0.19612338441269381 0 0.37999921147615667 -0.19503406661491049 0 0.37910290544765168 -0.18685571494790659 0 0.37220629557919183 -0.19612338441269381 0 0.37273333868611941 -0.2093978965492076 0 0.38414633929606479 -0.2017211797653724 0 0.37220629557919183 -0.19612338441269381 0 0.37999921147615667 -0.19503406661491049 0 0.38414633929606479 -0.2017211797653724 0 0.38414633929606479 -0.2017211797653724 0 0.39694758591794982 -0.18886739411602391 0 0.39509360975394031 -0.18061212321895309 0 0.39694758591794982 -0.18886739411602391 0 0.3969424320709618 -0.1972324897541754 0 0.40101572763622523 -0.19231380306325679 0 0.38414633929606479 -0.2017211797653724 0 0.39694758591794982 -0.18886739411602391 0 0.3969424320709618 -0.1972324897541754 0 0.38414633929606479 -0.2017211797653724 0 0.3969424320709618 -0.1972324897541754 0 0.39287005569986072 -0.20314648074516001 0 0.3969424320709618 -0.1972324897541754 0 0.400612395600416 -0.20053006859666331 0 0.39287005569986072 -0.20314648074516001 0 0.3969424320709618 -0.1972324897541754 0 0.4059814476455269 -0.19573306963025069 0 0.400612395600416 -0.20053006859666331 0 0.4059814476455269 -0.19573306963025069 0 0.400612395600416 -0.20053006859666331 0 0.40665564698531481 -0.2060082342570673 0 0.3969424320709618 -0.1972324897541754 0 0.4059814476455269 -0.19573306963025069 0 0.40101572763622523 -0.19231380306325679 0 0.4059814476455269 -0.19573306963025069 0 0.40101572763622523 -0.19231380306325679 0 0.40419144491046238 -0.1874222587525772 0 0.39694758591794982 -0.18886739411602391 0 0.40101572763622523 -0.19231380306325679 0 0.40419144491046238 -0.1874222587525772 0 0.38675328488958288 -0.2095276895359276 0 0.40665564698531481 -0.2060082342570673 0 0.38675328488958288 -0.2095276895359276 0 0.39915185452682361 -0.21610044156742811 0 0.40665564698531481 -0.2060082342570673 0 0.38675328488958288 -0.2095276895359276 0 0.39287005569986072 -0.20314648074516001 0 0.40665564698531481 -0.2060082342570673 0 0.38700545273377529 -0.2233412248148075 0 0.38675328488958288 -0.2095276895359276 0 0.39915185452682361 -0.21610044156742811 0 0.400612395600416 -0.20053006859666331 0 0.39287005569986072 -0.20314648074516001 0 0.40665564698531481 -0.2060082342570673 0 0.41396763236883027 -0.21470461273584779 0 0.40665564698531481 -0.2060082342570673 0 0.42655800908104652 -0.20248877897820619 0 0.40665564698531481 -0.2060082342570673 0 0.42655800908104652 -0.20248877897820619 0 0.39915185452682361 -0.21610044156742811 0 0.41396763236883027 -0.21470461273584779 0 0.40665564698531481 -0.2060082342570673 0 0.41396763236883027 -0.21470461273584779 0 0.42655800908104652 -0.20248877897820619 0 0.40665564698531481 -0.2060082342570673 0 0.41640017291144837 -0.19588579121564459 0 0.42655800908104652 -0.20248877897820619 0 0.4059814476455269 -0.19573306963025069 0 0.41640017291144837 -0.19588579121564459 0 0.41453364601533049 -0.1862870086825022 0 0.4059814476455269 -0.19573306963025069 0 0.40419144491046238 -0.1874222587525772 0 0.41453364601533049 -0.1862870086825022 0 0.4059814476455269 -0.19573306963025069 0 0.40665564698531481 -0.2060082342570673 0 0.41640017291144837 -0.19588579121564459 0 0.41640017291144837 -0.19588579121564459 0 0.42581299264578848 -0.18832250896932939 0 0.41453364601533049 -0.1862870086825022 0 0.42655800908104652 -0.20248877897820619 0 0.444302871767289 -0.18527179670816579 0 0.42581299264578848 -0.18832250896932939 0 0.42655800908104652 -0.20248877897820619 0 0.444302871767289 -0.18527179670816579 0 0.41640017291144837 -0.19588579121564459 0 0.42581299264578848 -0.18832250896932939 0 0.42655800908104652 -0.20248877897820619 0 0.42655800908104652 -0.20248877897820619 0 0.43237997939727391 -0.21969514264188619 0 0.44995934289594253 -0.19835057932979169 0 0.41396763236883027 -0.21470461273584779 0 0.42655800908104652 -0.20248877897820619 0 0.43237997939727391 -0.21969514264188619 0 0.43237997939727391 -0.21969514264188619 0 0.43199948472716282 -0.23703470349933331 0 0.4148006158986044 -0.24103970595398019 0 0.43237997939727391 -0.21969514264188619 0 0.4148006158986044 -0.24103970595398019 0 0.43199948472716282 -0.23703470349933331 0 0.4148006158986044 -0.24103970595398019 0 0.42892204251950339 -0.2594807324876427 0 0.43199948472716282 -0.23703470349933331 0 0.44338493428344739 -0.24574379201886831 0 0.42892204251950339 -0.2594807324876427 0 0.43237997939727391 -0.21969514264188619 0 0.4148006158986044 -0.24103970595398019 0 0.41563137083033092 -0.22558997695630109 0 0.41396763236883027 -0.21470461273584779 0 0.43237997939727391 -0.21969514264188619 0 0.41563137083033092 -0.22558997695630109 0 0.40137725565661481 -0.22692044649349019 0 0.4148006158986044 -0.24103970595398019 0 0.41563137083033092 -0.22558997695630109 0 0.40137725565661481 -0.22692044649349019 0 0.41396763236883027 -0.21470461273584779 0 0.40137725565661481 -0.22692044649349019 0 0.41396763236883027 -0.21470461273584779 0 0.41563137083033092 -0.22558997695630109 0 0.39237070121405998 -0.13164091544729051 0 0.39988799210863701 -0.14408364481314989 0 0.41368108829086198 -0.13554811058748131 0 0.40604313277712428 -0.1171380761358455 0 0.39237070121405998 -0.13164091544729051 0 0.41368108829086198 -0.13554811058748131 0 0.39237070121405998 -0.13164091544729051 0 0.37656812491251679 -0.13846106794218549 0 0.38605620033535121 -0.1499684147877679 0 0.3785150876385216 -0.1195111518185689 0 0.39237070121405998 -0.13164091544729051 0 0.37656812491251679 -0.13846106794218549 0 0.36359383050920879 -0.15501193774405861 0 0.37656812491251679 -0.13846106794218549 0 0.38605620033535121 -0.1499684147877679 0 0.39237070121405998 -0.13164091544729051 0 0.38605620033535121 -0.1499684147877679 0 0.39988799210863701 -0.14408364481314989 0 0.38605620033535121 -0.1499684147877679 0 0.39988799210863701 -0.14408364481314989 0 0.39700055726989097 -0.15664682800685811 0 0.39988799210863701 -0.14408364481314989 0 0.39700055726989097 -0.15664682800685811 0 0.40766935758353628 -0.1563629578155839 0 0.40291487034120532 -0.16553079014728059 0 0.39700055726989097 -0.15664682800685811 0 0.38691599599779503 -0.1739660947730671 0 0.40291487034120532 -0.16553079014728059 0 0.38691599599779503 -0.1739660947730671 0 0.40291487034120532 -0.16553079014728059 0 0.39700055726989097 -0.15664682800685811 0 0.40766935758353628 -0.1563629578155839 0 0.40291487034120532 -0.16553079014728059 0 0.40766935758353628 -0.1563629578155839 0 0.38605620033535121 -0.1499684147877679 0 0.39700055726989097 -0.15664682800685811 0 0.38691599599779503 -0.1739660947730671 0 0.36359383050920879 -0.15501193774405861 0 0.38691599599779503 -0.1739660947730671 0 0.36359383050920879 -0.15501193774405861 0 0.38605620033535121 -0.1499684147877679 0 0.38691599599779503 -0.1739660947730671 0 0.36422253950936112 -0.1859310752075029 0 0.38691599599779503 -0.1739660947730671 0 0.37910290544765168 -0.18685571494790659 0 0.36422253950936112 -0.1859310752075029 0 0.38691599599779503 -0.1739660947730671 0 0.38691599599779503 -0.1739660947730671 0 0.38753717637180268 -0.18155585423065651 0 0.39509360975394031 -0.18061212321895309 0 0.38373621375160438 -0.1885238144486111 0 0.38753717637180268 -0.18155585423065651 0 0.39509360975394031 -0.18061212321895309 0 0.38691599599779503 -0.1739660947730671 0 0.37910290544765168 -0.18685571494790659 0 0.38753717637180268 -0.18155585423065651 0 0.38373621375160438 -0.1885238144486111 0 0.37910290544765168 -0.18685571494790659 0 0.38753717637180268 -0.18155585423065651 0 0.40291487034120532 -0.16553079014728059 0 0.38691599599779503 -0.1739660947730671 0 0.39509360975394031 -0.18061212321895309 0 0.39694758591794982 -0.18886739411602391 0 0.39665445354372708 -0.18451779314135289 0 0.39509360975394031 -0.18061212321895309 0 0.39694758591794982 -0.18886739411602391 0 0.39665445354372708 -0.18451779314135289 0 0.40021252966215071 -0.18382207331845951 0 0.39665445354372708 -0.18451779314135289 0 0.39509360975394031 -0.18061212321895309 0 0.40021252966215071 -0.18382207331845951 0 0.38691599599779503 -0.1739660947730671 0 0.39509360975394031 -0.18061212321895309 0 0.40291487034120532 -0.16553079014728059 0 0.39509360975394031 -0.18061212321895309 0 0.40549068313545528 -0.17742909809594989 0 0.40291487034120532 -0.16553079014728059 0 0.39509360975394031 -0.18061212321895309 0 0.40549068313545528 -0.17742909809594989 0 0.40419144491046238 -0.1874222587525772 0 0.40021252966215071 -0.18382207331845951 0 0.39509360975394031 -0.18061212321895309 0 0.40549068313545528 -0.17742909809594989 0 0.40021252966215071 -0.18382207331845951 0 0.39694758591794982 -0.18886739411602391 0 0.40419144491046238 -0.1874222587525772 0 0.40021252966215071 -0.18382207331845951 0 0.42581299264578848 -0.18832250896932939 0 0.41453364601533049 -0.1862870086825022 0 0.42235201908535791 -0.17050045814039369 0 0.40549068313545528 -0.17742909809594989 0 0.41453364601533049 -0.1862870086825022 0 0.42235201908535791 -0.17050045814039369 0 0.40549068313545528 -0.17742909809594989 0 0.40419144491046238 -0.1874222587525772 0 0.41453364601533049 -0.1862870086825022 0 0.42235201908535791 -0.17050045814039369 0 0.44127751826325029 -0.16493106072254701 0 0.444302871767289 -0.18527179670816579 0 0.42581299264578848 -0.18832250896932939 0 0.42235201908535791 -0.17050045814039369 0 0.444302871767289 -0.18527179670816579 0 0.42235201908535791 -0.17050045814039369 0 0.42606808286872072 -0.1533234062687002 0 0.44127751826325029 -0.16493106072254701 0 0.40291487034120532 -0.16553079014728059 0 0.40766935758353628 -0.1563629578155839 0 0.42606808286872072 -0.1533234062687002 0 0.40291487034120532 -0.16553079014728059 0 0.42606808286872072 -0.1533234062687002 0 0.40291487034120532 -0.16553079014728059 0 0.42235201908535791 -0.17050045814039369 0 0.42606808286872072 -0.1533234062687002 0 0.40291487034120532 -0.16553079014728059 0 0.40549068313545528 -0.17742909809594989 0 0.42235201908535791 -0.17050045814039369 0 0.41182663021293903 -0.1473295298712288 0 0.42606808286872072 -0.1533234062687002 0 0.41368108829086198 -0.13554811058748131 0 0.40766935758353628 -0.1563629578155839 0 0.41182663021293903 -0.1473295298712288 0 0.42606808286872072 -0.1533234062687002 0 0.39988799210863701 -0.14408364481314989 0 0.40766935758353628 -0.1563629578155839 0 0.41182663021293903 -0.1473295298712288 0 0.39988799210863701 -0.14408364481314989 0 0.41182663021293903 -0.1473295298712288 0 0.41368108829086198 -0.13554811058748131 0 0.42606808286872072 -0.1533234062687002 0 0.430889964195386 -0.135117951771525 0 0.44922129539623712 -0.14111602239012119 0 0.42606808286872072 -0.1533234062687002 0 0.430889964195386 -0.135117951771525 0 0.41368108829086198 -0.13554811058748131 0 0.42080162445294911 -0.1170697999396166 0 0.430889964195386 -0.135117951771525 0 0.41368108829086198 -0.13554811058748131 0 0.45825176112352212 -0.1171944005084963 0 0.44922129539623712 -0.14111602239012119 0 0.47461064769812122 -0.12772964805397971 0 0.44922129539623712 -0.14111602239012119 0 0.47461064769812122 -0.12772964805397971 0 0.44922129539623712 -0.14111602239012119 0 0.47041229806123103 -0.14236165737458781 0 0.47461064769812122 -0.12772964805397971 0 0.43893170590200609 -0.1195052611799315 0 0.430889964195386 -0.135117951771525 0 0.44922129539623712 -0.14111602239012119 0 0.43893170590200609 -0.1195052611799315 0 0.45825176112352212 -0.1171944005084963 0 0.44922129539623712 -0.14111602239012119 0 0.43893170590200609 -0.1195052611799315 0 0.44922129539623712 -0.14111602239012119 0 0.42606808286872072 -0.1533234062687002 0 0.44922129539623712 -0.14111602239012119 0 0.44127751826325029 -0.16493106072254701 0 0.42606808286872072 -0.1533234062687002 0 0.44922129539623712 -0.14111602239012119 0 0.44922129539623712 -0.14111602239012119 0 0.46204773445353348 -0.16805481443812731 0 0.44922129539623712 -0.14111602239012119 0 0.46204773445353348 -0.16805481443812731 0 0.47041229806123103 -0.14236165737458781 0 0.44922129539623712 -0.14111602239012119 0 0.46204773445353348 -0.16805481443812731 0 0.44127751826325029 -0.16493106072254701 0 0.46204773445353348 -0.16805481443812731 0 0.44127751826325029 -0.16493106072254701 0 0.444302871767289 -0.18527179670816579 0 0.46204773445353348 -0.16805481443812731 0 0.444302871767289 -0.18527179670816579 0 0.46675991992270621 -0.1779516052682695 0 0.47013600328087812 -0.185042241033678 0 0.44995934289594253 -0.19835057932979169 0 0.444302871767289 -0.18527179670816579 0 0.46675991992270621 -0.1779516052682695 0 0.44995934289594253 -0.19835057932979169 0 0.46204773445353348 -0.16805481443812731 0 0.444302871767289 -0.18527179670816579 0 0.46675991992270621 -0.1779516052682695 0 0.46204773445353348 -0.16805481443812731 0 0.46675991992270621 -0.1779516052682695 0 0.46675991992270621 -0.1779516052682695 0 0.47013600328087812 -0.185042241033678 0 0.46675991992270621 -0.1779516052682695 0 0.48388214138120561 -0.17390417728894431 0 0.47927416581767118 -0.18397687174081401 0 0.46675991992270621 -0.1779516052682695 0 0.47013600328087812 -0.185042241033678 0 0.47927416581767118 -0.18397687174081401 0 0.48388214138120561 -0.17390417728894431 0 0.47927416581767118 -0.18397687174081401 0 0.48987334582395858 -0.18140433091368091 0 0.48987334582395858 -0.18140433091368091 0 0.5 -0.16492372169971509 0 0.5 -0.19225537639104809 0 0.48388214138120561 -0.17390417728894431 0 0.48987334582395858 -0.18140433091368091 0 0.5 -0.16492372169971509 0 0.47927416581767118 -0.18397687174081401 0 0.48987334582395858 -0.18140433091368091 0 0.48552241192915191 -0.19206174635411891 0 0.48388214138120561 -0.17390417728894431 0 0.5 -0.16492372169971509 0 0.48337995996135552 -0.1577718361383266 0 0.46675991992270621 -0.1779516052682695 0 0.48388214138120561 -0.17390417728894431 0 0.48337995996135552 -0.1577718361383266 0 0.46204773445353348 -0.16805481443812731 0 0.46675991992270621 -0.1779516052682695 0 0.48337995996135552 -0.1577718361383266 0 0.46204773445353348 -0.16805481443812731 0 0.48337995996135552 -0.1577718361383266 0 0.47713463147989749 -0.15341672773068571 0 0.46675991992270621 -0.1779516052682695 0 0.48337995996135552 -0.1577718361383266 0 0.46204773445353348 -0.16805481443812731 0 0.47713463147989749 -0.15341672773068571 0 0.46204773445353348 -0.16805481443812731 0 0.47041229806123103 -0.14236165737458781 0 0.47713463147989749 -0.15341672773068571 0 0.48337995996135552 -0.1577718361383266 0 0.47713463147989749 -0.15341672773068571 0 0.48456351921585428 -0.1397192317593817 0 0.47041229806123103 -0.14236165737458781 0 0.47713463147989749 -0.15341672773068571 0 0.48456351921585428 -0.1397192317593817 0 0.48337995996135552 -0.1577718361383266 0 0.50000000000000311 -0.1375920670083822 0 0.48456351921585428 -0.1397192317593817 0 0.5 -0.16492372169971509 0 0.48337995996135552 -0.1577718361383266 0 0.50000000000000311 -0.1375920670083822 0 0.48337995996135552 -0.1577718361383266 0 0.50000000000000311 -0.1375920670083822 0 0.50000000000000433 -0.1143432737178363 0 0.50000000000000311 -0.1375920670083822 0 0.48456351921585428 -0.1397192317593817 0 0.50000000000000433 -0.1143432737178363 0 0.48456351921585428 -0.1397192317593817 0 0.47461064769812122 -0.12772964805397971 0 0.47041229806123103 -0.14236165737458781 0 0.48456351921585428 -0.1397192317593817 0 0.47461064769812122 -0.12772964805397971 0 0.46695018322910392 -0.22473955239466681 0 0.44975785303280541 -0.2255898949688982 0 0.46528918090086291 -0.2095084705765255 0 0.46695018322910392 -0.22473955239466681 0 0.46086119099944728 -0.24298014516654151 0 0.44975785303280541 -0.2255898949688982 0 0.46086119099944728 -0.24298014516654151 0 0.44338493428344739 -0.24574379201886831 0 0.44975785303280541 -0.2255898949688982 0 0.43199948472716282 -0.23703470349933331 0 0.44338493428344739 -0.24574379201886831 0 0.44975785303280541 -0.2255898949688982 0 0.46086119099944728 -0.24298014516654151 0 0.44338493428344739 -0.24574379201886831 0 0.45165913482636821 -0.26068325523694041 0 0.43237997939727391 -0.21969514264188619 0 0.43199948472716282 -0.23703470349933331 0 0.44975785303280541 -0.2255898949688982 0 0.43237997939727391 -0.21969514264188619 0 0.44975785303280541 -0.2255898949688982 0 0.44995934289594253 -0.19835057932979169 0 0.43237997939727391 -0.21969514264188619 0 0.44995934289594253 -0.19835057932979169 0 0.42655800908104652 -0.20248877897820619 0 0.444302871767289 -0.18527179670816579 0 0.44995934289594253 -0.19835057932979169 0 0.42655800908104652 -0.20248877897820619 0 0.44995934289594253 -0.19835057932979169 0 0.46675991992270621 -0.1779516052682695 0 0.44995934289594253 -0.19835057932979169 0 0.44995934289594253 -0.19835057932979169 0 0.46774087741254722 -0.19520616284195491 0 0.47013600328087812 -0.185042241033678 0 0.44995934289594253 -0.19835057932979169 0 0.46774087741254722 -0.19520616284195491 0 0.44995934289594253 -0.19835057932979169 0 0.46774087741254722 -0.19520616284195491 0 0.46528918090086291 -0.2095084705765255 0 0.44975785303280541 -0.2255898949688982 0 0.44995934289594253 -0.19835057932979169 0 0.46528918090086291 -0.2095084705765255 0 0.46695018322910392 -0.22473955239466681 0 0.46528918090086291 -0.2095084705765255 0 0.48029579162163721 -0.21558854579597769 0 0.46528918090086291 -0.2095084705765255 0 0.47801733861628259 -0.20339364304417529 0 0.48029579162163721 -0.21558854579597769 0 0.47801733861628259 -0.20339364304417529 0 0.48029579162163721 -0.21558854579597769 0 0.48876710843341442 -0.20457726853354019 0 0.46774087741254722 -0.19520616284195491 0 0.47801733861628259 -0.20339364304417529 0 0.48552241192915191 -0.19206174635411891 0 0.47927416581767118 -0.18397687174081401 0 0.46774087741254722 -0.19520616284195491 0 0.48552241192915191 -0.19206174635411891 0 0.46774087741254722 -0.19520616284195491 0 0.48552241192915191 -0.19206174635411891 0 0.47013600328087812 -0.185042241033678 0 0.47927416581767118 -0.18397687174081401 0 0.46774087741254722 -0.19520616284195491 0 0.46774087741254722 -0.19520616284195491 0 0.46528918090086291 -0.2095084705765255 0 0.47801733861628259 -0.20339364304417529 0 0.47801733861628259 -0.20339364304417529 0 0.48552241192915191 -0.19206174635411891 0 0.48876710843341442 -0.20457726853354019 0 0.48987334582395858 -0.18140433091368091 0 0.48552241192915191 -0.19206174635411891 0 0.5 -0.19225537639104809 0 0.48552241192915191 -0.19206174635411891 0 0.5 -0.19225537639104809 0 0.48876710843341442 -0.20457726853354019 0 0.5 -0.19225537639104809 0 0.48876710843341442 -0.20457726853354019 0 0.5 -0.21958703108238101 0 0.48029579162163721 -0.21558854579597769 0 0.48876710843341442 -0.20457726853354019 0 0.5 -0.21958703108238101 0 0.5 -0.21958703108238101 0 0.48033598971293961 -0.23536730169414519 0 0.5 -0.24691868577371379 0 0.48029579162163721 -0.21558854579597769 0 0.5 -0.21958703108238101 0 0.48033598971293961 -0.23536730169414519 0 0.46695018322910392 -0.22473955239466681 0 0.46086119099944728 -0.24298014516654151 0 0.48033598971293961 -0.23536730169414519 0 0.46695018322910392 -0.22473955239466681 0 0.48029579162163721 -0.21558854579597769 0 0.48033598971293961 -0.23536730169414519 0 0.46086119099944728 -0.24298014516654151 0 0.48033598971293961 -0.23536730169414519 0 0.47450143065275591 -0.2599846894272051 0 0.48033598971293961 -0.23536730169414519 0 0.5 -0.24691868577371379 0 0.47450143065275591 -0.2599846894272051 0 0.5 -0.24691868577371379 0 0.50000000000000222 -0.27425034046504659 0 0.47450143065275591 -0.2599846894272051 0 0.50000000000000222 -0.27425034046504659 0 0.47605513413645029 -0.28008102786359129 0 0.47450143065275591 -0.2599846894272051 0 0.47605513413645029 -0.28008102786359129 0 0.47450143065275591 -0.2599846894272051 0 0.45931845050930209 -0.27772900618102819 0 0.46086119099944728 -0.24298014516654151 0 0.47450143065275591 -0.2599846894272051 0 0.45165913482636821 -0.26068325523694041 0 0.47450143065275591 -0.2599846894272051 0 0.45931845050930209 -0.27772900618102819 0 0.45165913482636821 -0.26068325523694041 0 0.45931845050930209 -0.27772900618102819 0 0.44355941821905998 -0.27577600561597132 0 0.45165913482636821 -0.26068325523694041 0 0.44338493428344739 -0.24574379201886831 0 0.45165913482636821 -0.26068325523694041 0 0.42892204251950339 -0.2594807324876427 0 0.44355941821905998 -0.27577600561597132 0 0.45165913482636821 -0.26068325523694041 0 0.42892204251950339 -0.2594807324876427 0 0.44743457629936911 -0.29125199491084608 0 0.45088585771739531 -0.31517042999936162 0 0.43686388954492023 -0.30206384222820981 0 0.45088585771739531 -0.31517042999936162 0 0.43602078127065758 -0.31524868357114688 0 0.43686388954492023 -0.30206384222820981 0 0.45931845050930209 -0.27772900618102819 0 0.44355941821905998 -0.27577600561597132 0 0.44743457629936911 -0.29125199491084608 0 0.44355941821905998 -0.27577600561597132 0 0.44743457629936911 -0.29125199491084608 0 0.42611848489587972 -0.28658767974219163 0 0.47605513413645029 -0.28008102786359129 0 0.45931845050930209 -0.27772900618102819 0 0.46516191830632447 -0.295844547827811 0 0.45931845050930209 -0.27772900618102819 0 0.44743457629936911 -0.29125199491084608 0 0.46516191830632447 -0.295844547827811 0 0.44743457629936911 -0.29125199491084608 0 0.46516191830632447 -0.295844547827811 0 0.45088585771739531 -0.31517042999936162 0 0.46516191830632447 -0.295844547827811 0 0.47218478901913252 -0.31616939882945228 0 0.45088585771739531 -0.31517042999936162 0 0.4860923945095682 -0.29520986964724988 0 0.47218478901913252 -0.31616939882945228 0 0.50000000000000222 -0.27425034046504659 0 0.4860923945095682 -0.29520986964724988 0 0.5 -0.307151228172029 0 0.46516191830632447 -0.295844547827811 0 0.4860923945095682 -0.29520986964724988 0 0.47218478901913252 -0.31616939882945228 0 0.47605513413645029 -0.28008102786359129 0 0.46516191830632447 -0.295844547827811 0 0.4860923945095682 -0.29520986964724988 0 0.50000000000000222 -0.27425034046504659 0 0.47605513413645029 -0.28008102786359129 0 0.4860923945095682 -0.29520986964724988 0 0.50000000000000222 -0.27425034046504659 0 0.4860923945095682 -0.29520986964724988 0 0.4860923945095682 -0.29520986964724988 0 0.5 -0.307151228172029 0 0.47218478901913252 -0.31616939882945228 0 0.5 -0.307151228172029 0 0.47500442815187882 -0.33618410333150461 0 0.5 -0.35237408365171952 0 0.5 -0.307151228172029 0 0.47500442815187882 -0.33618410333150461 0 0.47218478901913252 -0.31616939882945228 0 0.47500442815187882 -0.33618410333150461 0 0.5 -0.35237408365171952 0 0.46252966193221051 -0.36479181955861489 0 0.5 -0.35237408365171952 0 0.46252966193221051 -0.36479181955861489 0 0.4680243894331878 -0.39009447735167219 0 0.46252966193221051 -0.36479181955861489 0 0.44439653888602387 -0.37108278870097211 0 0.45518384933885458 -0.37953704158418422 0 0.46252966193221051 -0.36479181955861489 0 0.4490308344886651 -0.35295870566956811 0 0.45703493443123322 -0.33948916176555749 0 0.47500442815187882 -0.33618410333150461 0 0.46252966193221051 -0.36479181955861489 0 0.45703493443123322 -0.33948916176555749 0 0.46252966193221051 -0.36479181955861489 0 0.45703493443123322 -0.33948916176555749 0 0.4490308344886651 -0.35295870566956811 0 0.44439653888602387 -0.37108278870097211 0 0.43547581015886039 -0.35374612963373181 0 0.44432011104097457 -0.34600420025309703 0 0.4490308344886651 -0.35295870566956811 0 0.45042795048268808 -0.34263813410543531 0 0.4490308344886651 -0.35295870566956811 0 0.45703493443123322 -0.33948916176555749 0 0.45042795048268808 -0.34263813410543531 0 0.44432011104097457 -0.34600420025309703 0 0.4490308344886651 -0.35295870566956811 0 0.43547581015886039 -0.35374612963373181 0 0.44432011104097457 -0.34600420025309703 0 0.43877314986606192 -0.33818418946214152 0 0.43547581015886039 -0.35374612963373181 0 0.46252966193221051 -0.36479181955861489 0 0.4490308344886651 -0.35295870566956811 0 0.44439653888602387 -0.37108278870097211 0 0.47218478901913252 -0.31616939882945228 0 0.45845081404400378 -0.32484725803309861 0 0.45088585771739531 -0.31517042999936162 0 0.47218478901913252 -0.31616939882945228 0 0.45845081404400378 -0.32484725803309861 0 0.45827718352869679 -0.33712892801165451 0 0.47218478901913252 -0.31616939882945228 0 0.45827718352869679 -0.33712892801165451 0 0.45845081404400378 -0.32484725803309861 0 0.45465012105844921 -0.33200612518688721 0 0.44755831468875862 -0.32470483606049327 0 0.47500442815187882 -0.33618410333150461 0 0.45703493443123322 -0.33948916176555749 0 0.45827718352869679 -0.33712892801165451 0 0.47500442815187882 -0.33618410333150461 0 0.47218478901913252 -0.31616939882945228 0 0.45827718352869679 -0.33712892801165451 0 0.45703493443123322 -0.33948916176555749 0 0.4547926195999189 -0.33699511694280199 0 0.45042795048268808 -0.34263813410543531 0 0.45703493443123322 -0.33948916176555749 0 0.45827718352869679 -0.33712892801165451 0 0.4547926195999189 -0.33699511694280199 0 0.45845081404400378 -0.32484725803309861 0 0.45827718352869679 -0.33712892801165451 0 0.45465012105844921 -0.33200612518688721 0 0.4547926195999189 -0.33699511694280199 0 0.45465012105844921 -0.33200612518688721 0 0.45190540097192972 -0.33615439765103378 0 0.45827718352869679 -0.33712892801165451 0 0.4547926195999189 -0.33699511694280199 0 0.45465012105844921 -0.33200612518688721 0 0.45465012105844921 -0.33200612518688721 0 0.44749393872662357 -0.33307274595813069 0 0.44755831468875862 -0.32470483606049327 0 0.45465012105844921 -0.33200612518688721 0 0.44749393872662357 -0.33307274595813069 0 0.45190540097192972 -0.33615439765103378 0 0.4547926195999189 -0.33699511694280199 0 0.45042795048268808 -0.34263813410543531 0 0.45190540097192972 -0.33615439765103378 0 0.45042795048268808 -0.34263813410543531 0 0.45190540097192972 -0.33615439765103378 0 0.44691761172297523 -0.33872250108465612 0 0.44749393872662357 -0.33307274595813069 0 0.45190540097192972 -0.33615439765103378 0 0.44691761172297523 -0.33872250108465612 0 0.44432011104097457 -0.34600420025309703 0 0.45042795048268808 -0.34263813410543531 0 0.44691761172297523 -0.33872250108465612 0 0.44432011104097457 -0.34600420025309703 0 0.44691761172297523 -0.33872250108465612 0 0.43877314986606192 -0.33818418946214152 0 0.44749393872662357 -0.33307274595813069 0 0.44691761172297523 -0.33872250108465612 0 0.43877314986606192 -0.33818418946214152 0 0.44749393872662357 -0.33307274595813069 0 0.43877314986606192 -0.33818418946214152 0 0.43784837531542259 -0.32788377361433518 0 0.44749393872662357 -0.33307274595813069 0 0.43784837531542259 -0.32788377361433518 0 0.44755831468875862 -0.32470483606049327 0 0.43784837531542259 -0.32788377361433518 0 0.44755831468875862 -0.32470483606049327 0 0.43602078127065758 -0.31524868357114688 0 0.45845081404400378 -0.32484725803309861 0 0.44755831468875862 -0.32470483606049327 0 0.45088585771739531 -0.31517042999936162 0 0.44755831468875862 -0.32470483606049327 0 0.45088585771739531 -0.31517042999936162 0 0.43602078127065758 -0.31524868357114688 0 0.43784837531542259 -0.32788377361433518 0 0.42583518759170652 -0.33528639298719382 0 0.41775460495295358 -0.31793141321765611 0 0.43784837531542259 -0.32788377361433518 0 0.43602078127065758 -0.31524868357114688 0 0.41775460495295358 -0.31793141321765611 0 0.43877314986606192 -0.33818418946214152 0 0.43784837531542259 -0.32788377361433518 0 0.42583518759170652 -0.33528639298719382 0 0.43877314986606192 -0.33818418946214152 0 0.42583518759170652 -0.33528639298719382 0 0.43547581015886039 -0.35374612963373181 0 0.41250416259223432 -0.33960725990233392 0 0.41775460495295358 -0.31793141321765611 0 0.39805431729583179 -0.33510365622952631 0 0.41250416259223432 -0.33960725990233392 0 0.41775460495295358 -0.31793141321765611 0 0.42583518759170652 -0.33528639298719382 0 0.41250416259223432 -0.33960725990233392 0 0.41775460495295358 -0.31793141321765611 0 0.42583518759170652 -0.33528639298719382 0 0.41250416259223432 -0.33960725990233392 0 0.42034794007649889 -0.35298104146800569 0 0.43547581015886039 -0.35374612963373181 0 0.42034794007649889 -0.35298104146800569 0 0.42578668388574042 -0.37577956855813549 0 0.44439653888602387 -0.37108278870097211 0 0.43547581015886039 -0.35374612963373181 0 0.42578668388574042 -0.37577956855813549 0 0.42583518759170652 -0.33528639298719382 0 0.43547581015886039 -0.35374612963373181 0 0.42034794007649889 -0.35298104146800569 0 0.41250416259223432 -0.33960725990233392 0 0.42034794007649889 -0.35298104146800569 0 0.40725372023151529 -0.36128310658701179 0 0.41250416259223432 -0.33960725990233392 0 0.40725372023151529 -0.36128310658701179 0 0.40725372023151529 -0.36128310658701179 0 0.42578668388574042 -0.37577956855813549 0 0.40193856510946419 -0.3832261124550107 0 0.40725372023151529 -0.36128310658701179 0 0.42578668388574042 -0.37577956855813549 0 0.42034794007649889 -0.35298104146800569 0 0.40725372023151529 -0.36128310658701179 0 0.42578668388574042 -0.37577956855813549 0 0.40725372023151529 -0.36128310658701179 0 0.39425043507280438 -0.36432915978129837 0 0.40193856510946419 -0.3832261124550107 0 0.40725372023151529 -0.36128310658701179 0 0.40193856510946419 -0.3832261124550107 0 0.39425043507280438 -0.36432915978129837 0 0.38081427771294768 -0.36737052156009248 0 0.40193856510946419 -0.3832261124550107 0 0.40725372023151529 -0.36128310658701179 0 0.38699517723729038 -0.34543689852307891 0 0.39805431729583179 -0.33510365622952631 0 0.40725372023151529 -0.36128310658701179 0 0.39425043507280438 -0.36432915978129837 0 0.38699517723729038 -0.34543689852307891 0 0.40725372023151529 -0.36128310658701179 0 0.38699517723729038 -0.34543689852307891 0 0.41250416259223432 -0.33960725990233392 0 0.40725372023151529 -0.36128310658701179 0 0.39805431729583179 -0.33510365622952631 0 0.38699517723729038 -0.34543689852307891 0 0.38081427771294768 -0.36737052156009248 0 0.37640125955739012 -0.35149107478397351 0 0.38465179156333151 -0.34360390505586791 0 0.36805061276354478 -0.3427907498460791 0 0.39425043507280438 -0.36432915978129837 0 0.38699517723729038 -0.34543689852307891 0 0.38081427771294768 -0.36737052156009248 0 0.38699517723729038 -0.34543689852307891 0 0.37640125955739012 -0.35149107478397351 0 0.38081427771294768 -0.36737052156009248 0 0.38699517723729038 -0.34543689852307891 0 0.38465179156333151 -0.34360390505586791 0 0.38699517723729038 -0.34543689852307891 0 0.37640125955739012 -0.35149107478397351 0 0.38465179156333151 -0.34360390505586791 0 0.41775460495295358 -0.31793141321765611 0 0.39401776620237461 -0.32051644503610022 0 0.39805431729583179 -0.33510365622952631 0 0.38699517723729038 -0.34543689852307891 0 0.39401776620237461 -0.32051644503610022 0 0.39805431729583179 -0.33510365622952631 0 0.38699517723729038 -0.34543689852307891 0 0.39401776620237461 -0.32051644503610022 0 0.38465179156333151 -0.34360390505586791 0 0.37858644206980091 -0.32769985780377792 0 0.36805061276354478 -0.3427907498460791 0 0.38699517723729038 -0.34543689852307891 0 0.39401776620237461 -0.32051644503610022 0 0.38465179156333151 -0.34360390505586791 0 0.39401776620237461 -0.32051644503610022 0 0.38465179156333151 -0.34360390505586791 0 0.37858644206980091 -0.32769985780377792 0 0.39401776620237461 -0.32051644503610022 0 0.37858644206980091 -0.32769985780377792 0 0.37861767820969228 -0.30691821554646831 0 0.41775460495295358 -0.31793141321765611 0 0.39401776620237461 -0.32051644503610022 0 0.40104035516745928 -0.29559599154912142 0 0.39401776620237461 -0.32051644503610022 0 0.37861767820969228 -0.30691821554646831 0 0.40104035516745928 -0.29559599154912142 0 0.39401776620237461 -0.32051644503610022 0 0.40104035516745928 -0.29559599154912142 0 0.40104035516745928 -0.29559599154912142 0 0.38498320530945151 -0.287592927137584 0 0.39655653748852282 -0.27284147297554762 0 0.38498320530945151 -0.287592927137584 0 0.37764450162479901 -0.26965755496232408 0 0.36873774536035581 -0.28861226174546889 0 0.37861767820969228 -0.30691821554646831 0 0.40104035516745928 -0.29559599154912142 0 0.38498320530945151 -0.287592927137584 0 0.37861767820969228 -0.30691821554646831 0 0.38498320530945151 -0.287592927137584 0 0.36873774536035581 -0.28861226174546889 0 0.38498320530945151 -0.287592927137584 0 0.37764450162479901 -0.26965755496232408 0 0.39655653748852282 -0.27284147297554762 0 0.39206528024080278 -0.24921397013056479 0 0.37764450162479901 -0.26965755496232408 0 0.39655653748852282 -0.27284147297554762 0 0.39206528024080278 -0.24921397013056479 0 0.37764450162479901 -0.26965755496232408 0 0.37510228513818711 -0.25237727586059511 0 0.39206528024080278 -0.24921397013056479 0 0.39655653748852282 -0.27284147297554762 0 0.40884184876520419 -0.25890250189124958 0 0.40104035516745928 -0.29559599154912142 0 0.39655653748852282 -0.27284147297554762 0 0.4136044294752057 -0.2739163227279473 0 0.39655653748852282 -0.27284147297554762 0 0.4136044294752057 -0.2739163227279473 0 0.40884184876520419 -0.25890250189124958 0 0.4148006158986044 -0.24103970595398019 0 0.40884184876520419 -0.25890250189124958 0 0.42892204251950339 -0.2594807324876427 0 0.4136044294752057 -0.2739163227279473 0 0.40884184876520419 -0.25890250189124958 0 0.42892204251950339 -0.2594807324876427 0 0.4136044294752057 -0.2739163227279473 0 0.42892204251950339 -0.2594807324876427 0 0.42611848489587972 -0.28658767974219163 0 0.44355941821905998 -0.27577600561597132 0 0.42892204251950339 -0.2594807324876427 0 0.42611848489587972 -0.28658767974219163 0 0.44743457629936911 -0.29125199491084608 0 0.42611848489587972 -0.28658767974219163 0 0.43686388954492023 -0.30206384222820981 0 0.43602078127065758 -0.31524868357114688 0 0.41775460495295358 -0.31793141321765611 0 0.42179240152309172 -0.30222108271158582 0 0.42611848489587972 -0.28658767974219163 0 0.43686388954492023 -0.30206384222820981 0 0.42179240152309172 -0.30222108271158582 0 0.43602078127065758 -0.31524868357114688 0 0.43686388954492023 -0.30206384222820981 0 0.42179240152309172 -0.30222108271158582 0 0.41775460495295358 -0.31793141321765611 0 0.40104035516745928 -0.29559599154912142 0 0.42179240152309172 -0.30222108271158582 0 0.40104035516745928 -0.29559599154912142 0 0.4136044294752057 -0.2739163227279473 0 0.42611848489587972 -0.28658767974219163 0 0.40104035516745928 -0.29559599154912142 0 0.42611848489587972 -0.28658767974219163 0 0.42179240152309172 -0.30222108271158582 0 0.5 -0.5 0 0.478892924595126 -0.45923392689990328 0 0.5 -0.41454166856117469 0 0.5 -0.5 0 0.47943423265092072 -0.49342116463239621 0 0.40014079662082208 -0.5 0 0.43983937115661631 -0.46972557693384148 0 0.47943423265092072 -0.49342116463239621 0 0.40014079662082208 -0.5 0 0.43983937115661631 -0.46972557693384148 0 0.46715606132834708 -0.47012790102379598 0 0.47943423265092072 -0.49342116463239621 0 0.5 -0.5 0 0.47943423265092072 -0.49342116463239621 0 0.478892924595126 -0.45923392689990328 0 0.46715606132834708 -0.47012790102379598 0 0.47943423265092072 -0.49342116463239621 0 0.478892924595126 -0.45923392689990328 0 0.46715606132834708 -0.47012790102379598 0 0.47943423265092072 -0.49342116463239621 0 0.478892924595126 -0.45923392689990328 0 0.45487789000577361 -0.44683463741519602 0 0.47188936358571532 -0.4304781897668572 0 0.46715606132834708 -0.47012790102379598 0 0.45487789000577361 -0.44683463741519602 0 0.46715606132834708 -0.47012790102379598 0 0.478892924595126 -0.45923392689990328 0 0.45487789000577361 -0.44683463741519602 0 0.43983937115661631 -0.46972557693384148 0 0.46715606132834708 -0.47012790102379598 0 0.45487789000577361 -0.44683463741519602 0 0.43983937115661631 -0.46972557693384148 0 0.45487789000577361 -0.44683463741519602 0 0.43095981599733307 -0.44753658110846528 0 0.45487789000577361 -0.44683463741519602 0 0.43408281430989271 -0.43319973453275151 0 0.43095981599733307 -0.44753658110846528 0 0.45487789000577361 -0.44683463741519602 0 0.44259971868320003 -0.42354137380659601 0 0.45487789000577361 -0.44683463741519602 0 0.44259971868320003 -0.42354137380659601 0 0.43408281430989271 -0.43319973453275151 0 0.45487789000577361 -0.44683463741519602 0 0.44259971868320003 -0.42354137380659601 0 0.45959372781066021 -0.42263882295877442 0 0.44259971868320003 -0.42354137380659601 0 0.45186952978880229 -0.40983589673226128 0 0.45959372781066021 -0.42263882295877442 0 0.44259971868320003 -0.42354137380659601 0 0.45186952978880229 -0.40983589673226128 0 0.44161148704613862 -0.40579593671517361 0 0.44259971868320003 -0.42354137380659601 0 0.44161148704613862 -0.40579593671517361 0 0.43098246877755192 -0.41858878846052949 0 0.45186952978880229 -0.40983589673226128 0 0.45959372781066021 -0.42263882295877442 0 0.46285261119418991 -0.40477249250038388 0 0.45959372781066021 -0.42263882295877442 0 0.4735191169341651 -0.41539713514472942 0 0.46285261119418991 -0.40477249250038388 0 0.45959372781066021 -0.42263882295877442 0 0.47188936358571532 -0.4304781897668572 0 0.4735191169341651 -0.41539713514472942 0 0.45487789000577361 -0.44683463741519602 0 0.45959372781066021 -0.42263882295877442 0 0.47188936358571532 -0.4304781897668572 0 0.5 -0.41454166856117469 0 0.4735191169341651 -0.41539713514472942 0 0.4680243894331878 -0.39009447735167219 0 0.478892924595126 -0.45923392689990328 0 0.47188936358571532 -0.4304781897668572 0 0.5 -0.41454166856117469 0 0.47188936358571532 -0.4304781897668572 0 0.5 -0.41454166856117469 0 0.4735191169341651 -0.41539713514472942 0 0.5 -0.35237408365171952 0 0.5 -0.41454166856117469 0 0.4680243894331878 -0.39009447735167219 0 0.4735191169341651 -0.41539713514472942 0 0.4680243894331878 -0.39009447735167219 0 0.46252966193221051 -0.36479181955861489 0 0.45518384933885458 -0.37953704158418422 0 0.4680243894331878 -0.39009447735167219 0 0.45518384933885458 -0.37953704158418422 0 0.4680243894331878 -0.39009447735167219 0 0.44431964753996511 -0.39027603052925969 0 0.46252966193221051 -0.36479181955861489 0 0.4680243894331878 -0.39009447735167219 0 0.4735191169341651 -0.41539713514472942 0 0.4680243894331878 -0.39009447735167219 0 0.46285261119418991 -0.40477249250038388 0 0.4680243894331878 -0.39009447735167219 0 0.46285261119418991 -0.40477249250038388 0 0.44431964753996511 -0.39027603052925969 0 0.46285261119418991 -0.40477249250038388 0 0.44431964753996511 -0.39027603052925969 0 0.45186952978880229 -0.40983589673226128 0 0.44161148704613862 -0.40579593671517361 0 0.44431964753996511 -0.39027603052925969 0 0.45186952978880229 -0.40983589673226128 0 0.46285261119418991 -0.40477249250038388 0 0.44431964753996511 -0.39027603052925969 0 0.44439653888602387 -0.37108278870097211 0 0.44431964753996511 -0.39027603052925969 0 0.42578668388574042 -0.37577956855813549 0 0.44439653888602387 -0.37108278870097211 0 0.45518384933885458 -0.37953704158418422 0 0.44431964753996511 -0.39027603052925969 0 0.44431964753996511 -0.39027603052925969 0 0.42578668388574042 -0.37577956855813549 0 0.42627525148907153 -0.39512359141131242 0 0.44431964753996511 -0.39027603052925969 0 0.42578668388574042 -0.37577956855813549 0 0.44161148704613862 -0.40579593671517361 0 0.44431964753996511 -0.39027603052925969 0 0.42627525148907153 -0.39512359141131242 0 0.44161148704613862 -0.40579593671517361 0 0.42627525148907153 -0.39512359141131242 0 0.41380476734409732 -0.40903711363024231 0 0.41288573556315727 -0.39366710087554208 0 0.39662340998741341 -0.40516911832300972 0 0.41380476734409732 -0.40903711363024231 0 0.42627525148907153 -0.39512359141131242 0 0.41288573556315727 -0.39366710087554208 0 0.41380476734409732 -0.40903711363024231 0 0.42578668388574042 -0.37577956855813549 0 0.41288573556315727 -0.39366710087554208 0 0.40193856510946419 -0.3832261124550107 0 0.42578668388574042 -0.37577956855813549 0 0.42627525148907153 -0.39512359141131242 0 0.41288573556315727 -0.39366710087554208 0 0.38081427771294768 -0.36737052156009248 0 0.37463337818860382 -0.38930414459710588 0 0.3737028077843495 -0.38742295831448542 0 0.38081427771294768 -0.36737052156009248 0 0.38897026210220897 -0.39170162293651239 0 0.37463337818860382 -0.38930414459710588 0 0.38081427771294768 -0.36737052156009248 0 0.37463337818860382 -0.38930414459710588 0 0.38081427771294768 -0.36737052156009248 0 0.40193856510946419 -0.3832261124550107 0 0.38897026210220897 -0.39170162293651239 0 0.38599804764205609 -0.41227829054531151 0 0.37463337818860382 -0.38930414459710588 0 0.38897026210220897 -0.39170162293651239 0 0.39662340998741341 -0.40516911832300972 0 0.38599804764205609 -0.41227829054531151 0 0.38599804764205609 -0.41227829054531151 0 0.36755341006792419 -0.41442821452601158 0 0.37463337818860382 -0.38930414459710588 0 0.38897026210220897 -0.39170162293651239 0 0.38599804764205609 -0.41227829054531151 0 0.37463337818860382 -0.38930414459710588 0 0.40193856510946419 -0.3832261124550107 0 0.38897026210220897 -0.39170162293651239 0 0.39662340998741341 -0.40516911832300972 0 0.41288573556315727 -0.39366710087554208 0 0.40193856510946419 -0.3832261124550107 0 0.39662340998741341 -0.40516911832300972 0 0.40193856510946419 -0.3832261124550107 0 0.39662340998741341 -0.40516911832300972 0 0.38599804764205609 -0.41227829054531151 0 0.41380476734409732 -0.40903711363024231 0 0.39662340998741341 -0.40516911832300972 0 0.38599804764205609 -0.41227829054531151 0 0.41380476734409732 -0.40903711363024231 0 0.40147331832312588 -0.42054231308375889 0 0.38599804764205609 -0.41227829054531151 0 0.41380476734409732 -0.40903711363024231 0 0.38599804764205609 -0.41227829054531151 0 0.36755341006792419 -0.41442821452601158 0 0.38599804764205609 -0.41227829054531151 0 0.37837193070639508 -0.43074191130029282 0 0.36755341006792419 -0.41442821452601158 0 0.38599804764205609 -0.41227829054531151 0 0.37837193070639508 -0.43074191130029282 0 0.39716653888589531 -0.43485585418744782 0 0.37837193070639508 -0.43074191130029282 0 0.39716653888589531 -0.43485585418744782 0 0.38455236834147782 -0.44235831893697952 0 0.38599804764205609 -0.41227829054531151 0 0.39716653888589531 -0.43485585418744782 0 0.40147331832312588 -0.42054231308375889 0 0.38599804764205609 -0.41227829054531151 0 0.39716653888589531 -0.43485585418744782 0 0.40147331832312588 -0.42054231308375889 0 0.39716653888589531 -0.43485585418744782 0 0.40988830344794153 -0.42850982814637428 0 0.39716653888589531 -0.43485585418744782 0 0.40988830344794153 -0.42850982814637428 0 0.41424956646142452 -0.44145335337101582 0 0.40988830344794153 -0.42850982814637428 0 0.42255857874347952 -0.42798536962106742 0 0.41424956646142452 -0.44145335337101582 0 0.40147331832312588 -0.42054231308375889 0 0.40988830344794153 -0.42850982814637428 0 0.41380476734409732 -0.40903711363024231 0 0.40988830344794153 -0.42850982814637428 0 0.41380476734409732 -0.40903711363024231 0 0.42255857874347952 -0.42798536962106742 0 0.44161148704613862 -0.40579593671517361 0 0.41380476734409732 -0.40903711363024231 0 0.43098246877755192 -0.41858878846052949 0 0.44161148704613862 -0.40579593671517361 0 0.41380476734409732 -0.40903711363024231 0 0.41380476734409732 -0.40903711363024231 0 0.43098246877755192 -0.41858878846052949 0 0.42255857874347952 -0.42798536962106742 0 0.43408281430989271 -0.43319973453275151 0 0.42255857874347952 -0.42798536962106742 0 0.43095981599733307 -0.44753658110846528 0 0.44259971868320003 -0.42354137380659601 0 0.43098246877755192 -0.41858878846052949 0 0.43408281430989271 -0.43319973453275151 0 0.43098246877755192 -0.41858878846052949 0 0.43408281430989271 -0.43319973453275151 0 0.42255857874347952 -0.42798536962106742 0 0.42255857874347952 -0.42798536962106742 0 0.43095981599733307 -0.44753658110846528 0 0.41424956646142452 -0.44145335337101582 0 0.43983937115661631 -0.46972557693384148 0 0.42706067288056998 -0.45966910190407051 0 0.41707216494033877 -0.46659444091922031 0 0.43983937115661631 -0.46972557693384148 0 0.43095981599733307 -0.44753658110846528 0 0.42706067288056998 -0.45966910190407051 0 0.43095981599733307 -0.44753658110846528 0 0.42706067288056998 -0.45966910190407051 0 0.42037133942799187 -0.45481980865475502 0 0.42037133942799187 -0.45481980865475502 0 0.41707216494033877 -0.46659444091922031 0 0.40833503012973449 -0.45743341782958391 0 0.42706067288056998 -0.45966910190407051 0 0.42037133942799187 -0.45481980865475502 0 0.41707216494033877 -0.46659444091922031 0 0.41707216494033877 -0.46659444091922031 0 0.40833503012973449 -0.45743341782958391 0 0.39424227281986102 -0.46676003377889269 0 0.43095981599733307 -0.44753658110846528 0 0.42037133942799187 -0.45481980865475502 0 0.41424956646142452 -0.44145335337101582 0 0.42037133942799187 -0.45481980865475502 0 0.40833503012973449 -0.45743341782958391 0 0.41424956646142452 -0.44145335337101582 0 0.39716653888589531 -0.43485585418744782 0 0.40833503012973449 -0.45743341782958391 0 0.41424956646142452 -0.44145335337101582 0 0.39716653888589531 -0.43485585418744782 0 0.39345157537004599 -0.45057062730194619 0 0.38455236834147782 -0.44235831893697952 0 0.39716653888589531 -0.43485585418744782 0 0.40833503012973449 -0.45743341782958391 0 0.39345157537004599 -0.45057062730194619 0 0.39716653888589531 -0.43485585418744782 0 0.40833503012973449 -0.45743341782958391 0 0.39345157537004599 -0.45057062730194619 0 0.38455236834147782 -0.44235831893697952 0 0.38182359321740972 -0.45292134106576409 0 0.38455236834147782 -0.44235831893697952 0 0.38182359321740972 -0.45292134106576409 0 0.37194820352764257 -0.4427018608294464 0 0.37837193070639508 -0.43074191130029282 0 0.38455236834147782 -0.44235831893697952 0 0.37194820352764257 -0.4427018608294464 0 0.38182359321740972 -0.45292134106576409 0 0.39424227281986102 -0.46676003377889269 0 0.37141238069938332 -0.46692562663856529 0 0.39345157537004599 -0.45057062730194619 0 0.38182359321740972 -0.45292134106576409 0 0.39424227281986102 -0.46676003377889269 0 0.39424227281986102 -0.46676003377889269 0 0.37141238069938332 -0.46692562663856529 0 0.40833503012973449 -0.45743341782958391 0 0.39345157537004599 -0.45057062730194619 0 0.39424227281986102 -0.46676003377889269 0 0.41707216494033877 -0.46659444091922031 0 0.39424227281986102 -0.46676003377889269 0 0.41707216494033877 -0.46659444091922031 0 0.39424227281986102 -0.46676003377889269 0 0.40014079662082208 -0.5 0 0.39424227281986102 -0.46676003377889269 0 0.40014079662082208 -0.5 0 0.37141238069938332 -0.46692562663856529 0 0.43983937115661631 -0.46972557693384148 0 0.41707216494033877 -0.46659444091922031 0 0.40014079662082208 -0.5 0 0.40014079662082208 -0.5 0 0.32546065004022617 -0.5 0 0.3462765218470546 -0.48033279556006703 0 0.32546065004022617 -0.5 0 0.3462765218470546 -0.48033279556006703 0 0.30631021868456298 -0.48072311486568892 0 0.3462765218470546 -0.48033279556006703 0 0.32575259645842791 -0.46725681235791028 0 0.30631021868456298 -0.48072311486568892 0 0.3462765218470546 -0.48033279556006703 0 0.3485824885789055 -0.46709121949823779 0 0.32575259645842791 -0.46725681235791028 0 0.40014079662082208 -0.5 0 0.3462765218470546 -0.48033279556006703 0 0.37141238069938332 -0.46692562663856529 0 0.3462765218470546 -0.48033279556006703 0 0.3485824885789055 -0.46709121949823779 0 0.37141238069938332 -0.46692562663856529 0 0.3485824885789055 -0.46709121949823779 0 0.37141238069938332 -0.46692562663856529 0 0.35324569388809701 -0.44989359131069062 0 0.3485824885789055 -0.46709121949823779 0 0.35324569388809701 -0.44989359131069062 0 0.33806214337105372 -0.45777686618061397 0 0.38182359321740972 -0.45292134106576409 0 0.37141238069938332 -0.46692562663856529 0 0.35324569388809701 -0.44989359131069062 0 0.3485824885789055 -0.46709121949823779 0 0.37141238069938332 -0.46692562663856529 0 0.36060935802898147 -0.43906997082244181 0 0.37194820352764257 -0.4427018608294464 0 0.35324569388809701 -0.44989359131069062 0 0.38182359321740972 -0.45292134106576409 0 0.35324569388809701 -0.44989359131069062 0 0.37837193070639508 -0.43074191130029282 0 0.36060935802898147 -0.43906997082244181 0 0.37194820352764257 -0.4427018608294464 0 0.38182359321740972 -0.45292134106576409 0 0.37194820352764257 -0.4427018608294464 0 0.35324569388809701 -0.44989359131069062 0 0.36060935802898147 -0.43906997082244181 0 0.35324569388809701 -0.44989359131069062 0 0.34315104194743368 -0.43483422324315929 0 0.32466779455878442 -0.44686584155561709 0 0.32761501992215097 -0.43116249501185328 0 0.34315104194743368 -0.43483422324315929 0 0.35324569388809701 -0.44989359131069062 0 0.33806214337105372 -0.45777686618061397 0 0.32466779455878442 -0.44686584155561709 0 0.35324569388809701 -0.44989359131069062 0 0.32466779455878442 -0.44686584155561709 0 0.34315104194743368 -0.43483422324315929 0 0.35324569388809701 -0.44989359131069062 0 0.32466779455878442 -0.44686584155561709 0 0.3485824885789055 -0.46709121949823779 0 0.32575259645842791 -0.46725681235791028 0 0.3485824885789055 -0.46709121949823779 0 0.33806214337105372 -0.45777686618061397 0 0.32575259645842791 -0.46725681235791028 0 0.33806214337105372 -0.45777686618061397 0 0.32575259645842791 -0.46725681235791028 0 0.32466779455878442 -0.44686584155561709 0 0.32575259645842791 -0.46725681235791028 0 0.30904716904302271 -0.45792120175055678 0 0.30631021868456298 -0.48072311486568892 0 0.32575259645842791 -0.46725681235791028 0 0.32466779455878442 -0.44686584155561709 0 0.30904716904302271 -0.45792120175055678 0 0.32466779455878442 -0.44686584155561709 0 0.31800868577585262 -0.43516031519895321 0 0.30735360635596409 -0.43632211706289747 0 0.32466779455878442 -0.44686584155561709 0 0.32761501992215097 -0.43116249501185328 0 0.31800868577585262 -0.43516031519895321 0 0.32761501992215097 -0.43116249501185328 0 0.32339131420283213 -0.41656724990055422 0 0.31239832226651099 -0.42629080716544471 0 0.32761501992215097 -0.43116249501185328 0 0.31800868577585262 -0.43516031519895321 0 0.31239832226651099 -0.42629080716544471 0 0.31800868577585262 -0.43516031519895321 0 0.31239832226651099 -0.42629080716544471 0 0.30735360635596409 -0.43632211706289747 0 0.32339131420283213 -0.41656724990055422 0 0.31120060169272079 -0.4133373498197 0 0.31239832226651099 -0.42629080716544471 0 0.32339131420283213 -0.41656724990055422 0 0.319673984964159 -0.40346676889879052 0 0.31120060169272079 -0.4133373498197 0 0.319673984964159 -0.40346676889879052 0 0.30884060304287331 -0.40229515593698711 0 0.31120060169272079 -0.4133373498197 0 0.32339131420283213 -0.41656724990055422 0 0.33281994217864741 -0.40778505865636938 0 0.319673984964159 -0.40346676889879052 0 0.32761501992215097 -0.43116249501185328 0 0.32339131420283213 -0.41656724990055422 0 0.33796042338316851 -0.41787760036937549 0 0.32339131420283213 -0.41656724990055422 0 0.33281994217864741 -0.40778505865636938 0 0.33796042338316851 -0.41787760036937549 0 0.33281994217864741 -0.40778505865636938 0 0.33796042338316851 -0.41787760036937549 0 0.34601675315157321 -0.40486547886918423 0 0.32761501992215097 -0.43116249501185328 0 0.33796042338316851 -0.41787760036937549 0 0.34315104194743368 -0.43483422324315929 0 0.33796042338316851 -0.41787760036937549 0 0.34315104194743368 -0.43483422324315929 0 0.35231855835687692 -0.42655250224024699 0 0.36060935802898147 -0.43906997082244181 0 0.34315104194743368 -0.43483422324315929 0 0.35231855835687692 -0.42655250224024699 0 0.37837193070639508 -0.43074191130029282 0 0.36060935802898147 -0.43906997082244181 0 0.36755341006792419 -0.41442821452601158 0 0.36060935802898147 -0.43906997082244181 0 0.35231855835687692 -0.42655250224024699 0 0.36755341006792419 -0.41442821452601158 0 0.36060935802898147 -0.43906997082244181 0 0.36755341006792419 -0.41442821452601158 0 0.33796042338316851 -0.41787760036937549 0 0.35231855835687692 -0.42655250224024699 0 0.36755341006792419 -0.41442821452601158 0 0.33796042338316851 -0.41787760036937549 0 0.36755341006792419 -0.41442821452601158 0 0.34601675315157321 -0.40486547886918423 0 0.33796042338316851 -0.41787760036937549 0 0.36755341006792419 -0.41442821452601158 0 0.36755341006792419 -0.41442821452601158 0 0.34601675315157321 -0.40486547886918423 0 0.35566250251704978 -0.3975177511027051 0 0.34601675315157321 -0.40486547886918423 0 0.34667365318154342 -0.39629832909528578 0 0.35566250251704978 -0.3975177511027051 0 0.34667365318154342 -0.39629832909528578 0 0.34795812186604658 -0.38666189116531141 0 0.33705723519150399 -0.3961481952439429 0 0.34667365318154342 -0.39629832909528578 0 0.35566250251704978 -0.3975177511027051 0 0.34795812186604658 -0.38666189116531141 0 0.36755341006792419 -0.41442821452601158 0 0.35566250251704978 -0.3975177511027051 0 0.36706103815962848 -0.39187921332532882 0 0.36755341006792419 -0.41442821452601158 0 0.37463337818860382 -0.38930414459710588 0 0.36755341006792419 -0.41442821452601158 0 0.36706103815962848 -0.39187921332532882 0 0.37463337818860382 -0.38930414459710588 0 0.35566250251704978 -0.3975177511027051 0 0.36706103815962848 -0.39187921332532882 0 0.35924801608749379 -0.38543857686598643 0 0.38081427771294768 -0.36737052156009248 0 0.36848073339739068 -0.37517807712711049 0 0.3737028077843495 -0.38742295831448542 0 0.36848073339739068 -0.37517807712711049 0 0.3737028077843495 -0.38742295831448542 0 0.36599997940964812 -0.38379980358563692 0 0.36706103815962848 -0.39187921332532882 0 0.3737028077843495 -0.38742295831448542 0 0.36599997940964812 -0.38379980358563692 0 0.36706103815962848 -0.39187921332532882 0 0.37463337818860382 -0.38930414459710588 0 0.3737028077843495 -0.38742295831448542 0 0.37463337818860382 -0.38930414459710588 0 0.3737028077843495 -0.38742295831448542 0 0.36706103815962848 -0.39187921332532882 0 0.36599997940964812 -0.38379980358563692 0 0.35924801608749379 -0.38543857686598643 0 0.36599997940964812 -0.38379980358563692 0 0.36207090148421361 -0.37959838259465167 0 0.35924801608749379 -0.38543857686598643 0 0.36848073339739068 -0.37517807712711049 0 0.36599997940964812 -0.38379980358563692 0 0.36207090148421361 -0.37959838259465167 0 0.36848073339739068 -0.37517807712711049 0 0.36207090148421361 -0.37959838259465167 0 0.3554566368260581 -0.37480617727887811 0 0.36207090148421361 -0.37959838259465167 0 0.35924801608749379 -0.38543857686598643 0 0.3554566368260581 -0.37480617727887811 0 0.35924801608749379 -0.38543857686598643 0 0.34795812186604658 -0.38666189116531141 0 0.3554566368260581 -0.37480617727887811 0 0.35566250251704978 -0.3975177511027051 0 0.35924801608749379 -0.38543857686598643 0 0.34795812186604658 -0.38666189116531141 0 0.34795812186604658 -0.38666189116531141 0 0.34537995690420659 -0.3737828605913362 0 0.3554566368260581 -0.37480617727887811 0 0.34795812186604658 -0.38666189116531141 0 0.33323562740676532 -0.37769939737979058 0 0.34537995690420659 -0.3737828605913362 0 0.34795812186604658 -0.38666189116531141 0 0.33323562740676532 -0.37769939737979058 0 0.33705723519150399 -0.3961481952439429 0 0.33323562740676532 -0.37769939737979058 0 0.33705723519150399 -0.3961481952439429 0 0.319673984964159 -0.40346676889879052 0 0.33281994217864741 -0.40778505865636938 0 0.33705723519150399 -0.3961481952439429 0 0.319673984964159 -0.40346676889879052 0 0.33281994217864741 -0.40778505865636938 0 0.34601675315157321 -0.40486547886918423 0 0.33705723519150399 -0.3961481952439429 0 0.34601675315157321 -0.40486547886918423 0 0.34667365318154342 -0.39629832909528578 0 0.33705723519150399 -0.3961481952439429 0 0.33323562740676532 -0.37769939737979058 0 0.319673984964159 -0.40346676889879052 0 0.31422368515007948 -0.393427126581603 0 0.319673984964159 -0.40346676889879052 0 0.31422368515007948 -0.393427126581603 0 0.30884060304287331 -0.40229515593698711 0 0.33323562740676532 -0.37769939737979058 0 0.319673984964159 -0.40346676889879052 0 0.31422368515007948 -0.393427126581603 0 0.30591552541026101 -0.37751124227982003 0 0.32002671755222051 -0.36641101040373808 0 0.33323562740676532 -0.37769939737979058 0 0.31422368515007948 -0.393427126581603 0 0.32002671755222051 -0.36641101040373808 0 0.31422368515007948 -0.393427126581603 0 0.32002671755222051 -0.36641101040373808 0 0.30591552541026101 -0.37751124227982003 0 0.29934269892459558 -0.39453707190143028 0 0.28871394442674109 -0.38265385864092483 0 0.31422368515007948 -0.393427126581603 0 0.30591552541026101 -0.37751124227982003 0 0.29934269892459558 -0.39453707190143028 0 0.31422368515007948 -0.393427126581603 0 0.30884060304287331 -0.40229515593698711 0 0.29934269892459558 -0.39453707190143028 0 0.30884060304287331 -0.40229515593698711 0 0.29934269892459558 -0.39453707190143028 0 0.29896657827583012 -0.40866065312134409 0 0.28871394442674109 -0.38265385864092483 0 0.27786210523133942 -0.40981541802129928 0 0.29934269892459558 -0.39453707190143028 0 0.27786210523133942 -0.40981541802129928 0 0.29896657827583012 -0.40866065312134409 0 0.29934269892459558 -0.39453707190143028 0 0.28871394442674109 -0.38265385864092483 0 0.27786210523133942 -0.40981541802129928 0 0.28871394442674109 -0.38265385864092483 0 0.26416245427686541 -0.38049931320234009 0 0.26125098829365018 -0.39969694482297641 0 0.28871394442674109 -0.38265385864092483 0 0.26416245427686541 -0.38049931320234009 0 0.27571190406721402 -0.36345127203525351 0 0.26416245427686541 -0.38049931320234009 0 0.24971336314328341 -0.36520417674804972 0 0.24502858373403441 -0.39146921073642488 0 0.26416245427686541 -0.38049931320234009 0 0.26125098829365018 -0.39969694482297641 0 0.24502858373403441 -0.39146921073642488 0 0.28871394442674109 -0.38265385864092483 0 0.26125098829365018 -0.39969694482297641 0 0.27786210523133942 -0.40981541802129928 0 0.26125098829365018 -0.39969694482297641 0 0.25610826383841628 -0.42120346698794331 0 0.2333640889907381 -0.41241884790723538 0 0.26125098829365018 -0.39969694482297641 0 0.27786210523133942 -0.40981541802129928 0 0.25610826383841628 -0.42120346698794331 0 0.25610826383841628 -0.42120346698794331 0 0.26701026603593758 -0.43697697740167368 0 0.2518592606704963 -0.43815060111373921 0 0.27786210523133942 -0.40981541802129928 0 0.26701026603593758 -0.43697697740167368 0 0.28078102790119369 -0.4274552938509788 0 0.27786210523133942 -0.40981541802129928 0 0.26701026603593758 -0.43697697740167368 0 0.27786210523133942 -0.40981541802129928 0 0.25610826383841628 -0.42120346698794331 0 0.26701026603593758 -0.43697697740167368 0 0.26701026603593758 -0.43697697740167368 0 0.28078102790119369 -0.4274552938509788 0 0.27712236562531017 -0.4375193999175232 0 0.28078102790119369 -0.4274552938509788 0 0.28865243891263809 -0.43215364344327012 0 0.27712236562531017 -0.4375193999175232 0 0.28865243891263809 -0.43215364344327012 0 0.28959476197880307 -0.44168956347039928 0 0.27712236562531017 -0.4375193999175232 0 0.28865243891263809 -0.43215364344327012 0 0.29503220707493127 -0.43614369036708622 0 0.29829711678041942 -0.42866378264525379 0 0.28865243891263809 -0.43215364344327012 0 0.29503220707493127 -0.43614369036708622 0 0.28959476197880307 -0.44168956347039928 0 0.28865243891263809 -0.43215364344327012 0 0.29108715411517122 -0.42145013040837909 0 0.29829711678041942 -0.42866378264525379 0 0.28078102790119369 -0.4274552938509788 0 0.28865243891263809 -0.43215364344327012 0 0.29108715411517122 -0.42145013040837909 0 0.27786210523133942 -0.40981541802129928 0 0.28078102790119369 -0.4274552938509788 0 0.29108715411517122 -0.42145013040837909 0 0.27786210523133942 -0.40981541802129928 0 0.29108715411517122 -0.42145013040837909 0 0.29896657827583012 -0.40866065312134409 0 0.29108715411517122 -0.42145013040837909 0 0.30377653118007591 -0.4205559058691733 0 0.29896657827583012 -0.40866065312134409 0 0.30377653118007591 -0.4205559058691733 0 0.29896657827583012 -0.40866065312134409 0 0.31120060169272079 -0.4133373498197 0 0.30884060304287331 -0.40229515593698711 0 0.29896657827583012 -0.40866065312134409 0 0.31120060169272079 -0.4133373498197 0 0.30377653118007591 -0.4205559058691733 0 0.31120060169272079 -0.4133373498197 0 0.31239832226651099 -0.42629080716544471 0 0.30377653118007591 -0.4205559058691733 0 0.31239832226651099 -0.42629080716544471 0 0.29829711678041942 -0.42866378264525379 0 0.31239832226651099 -0.42629080716544471 0 0.30735360635596409 -0.43632211706289747 0 0.29829711678041942 -0.42866378264525379 0 0.29503220707493127 -0.43614369036708622 0 0.30735360635596409 -0.43632211706289747 0 0.29829711678041942 -0.42866378264525379 0 0.29108715411517122 -0.42145013040837909 0 0.30377653118007591 -0.4205559058691733 0 0.29829711678041942 -0.42866378264525379 0 0.32466779455878442 -0.44686584155561709 0 0.30904716904302271 -0.45792120175055678 0 0.29608989522947149 -0.44383809180054362 0 0.32466779455878442 -0.44686584155561709 0 0.29608989522947149 -0.44383809180054362 0 0.32466779455878442 -0.44686584155561709 0 0.30735360635596409 -0.43632211706289747 0 0.29608989522947149 -0.44383809180054362 0 0.30904716904302271 -0.45792120175055678 0 0.29860320416278402 -0.45529674645956592 0 0.29608989522947149 -0.44383809180054362 0 0.29503220707493127 -0.43614369036708622 0 0.30735360635596409 -0.43632211706289747 0 0.29608989522947149 -0.44383809180054362 0 0.30904716904302271 -0.45792120175055678 0 0.29721119201091789 -0.46522563712477349 0 0.30631021868456298 -0.48072311486568892 0 0.30904716904302271 -0.45792120175055678 0 0.29721119201091789 -0.46522563712477349 0 0.29860320416278402 -0.45529674645956592 0 0.28932919617959602 -0.45338424297023883 0 0.27756010650442758 -0.45518222858252849 0 0.28072062580449653 -0.47155582870540619 0 0.29721119201091789 -0.46522563712477349 0 0.28932919617959602 -0.45338424297023883 0 0.28072062580449653 -0.47155582870540619 0 0.29721119201091789 -0.46522563712477349 0 0.29860320416278402 -0.45529674645956592 0 0.28932919617959602 -0.45338424297023883 0 0.28932919617959602 -0.45338424297023883 0 0.28959476197880307 -0.44168956347039928 0 0.27756010650442758 -0.45518222858252849 0 0.29860320416278402 -0.45529674645956592 0 0.28932919617959602 -0.45338424297023883 0 0.29608989522947149 -0.44383809180054362 0 0.28932919617959602 -0.45338424297023883 0 0.29608989522947149 -0.44383809180054362 0 0.28959476197880307 -0.44168956347039928 0 0.29503220707493127 -0.43614369036708622 0 0.29608989522947149 -0.44383809180054362 0 0.28959476197880307 -0.44168956347039928 0 0.28959476197880307 -0.44168956347039928 0 0.26138620688844749 -0.44792543592233808 0 0.26701026603593758 -0.43697697740167368 0 0.27712236562531017 -0.4375193999175232 0 0.26138620688844749 -0.44792543592233808 0 0.28959476197880307 -0.44168956347039928 0 0.26138620688844749 -0.44792543592233808 0 0.27756010650442758 -0.45518222858252849 0 0.28959476197880307 -0.44168956347039928 0 0.27712236562531017 -0.4375193999175232 0 0.26138620688844749 -0.44792543592233808 0 0.26701026603593758 -0.43697697740167368 0 0.26138620688844749 -0.44792543592233808 0 0.2518592606704963 -0.43815060111373921 0 0.26138620688844749 -0.44792543592233808 0 0.26339579246569877 -0.46312143350125029 0 0.23317765179809191 -0.45416130837427687 0 0.26138620688844749 -0.44792543592233808 0 0.26339579246569877 -0.46312143350125029 0 0.27756010650442758 -0.45518222858252849 0 0.26339579246569877 -0.46312143350125029 0 0.27756010650442758 -0.45518222858252849 0 0.28072062580449653 -0.47155582870540619 0 0.28072062580449653 -0.47155582870540619 0 0.2532296876789632 -0.47497352743918242 0 0.27004646425256568 -0.5 0 0.26339579246569877 -0.46312143350125029 0 0.28072062580449653 -0.47155582870540619 0 0.2532296876789632 -0.47497352743918242 0 0.32546065004022617 -0.5 0 0.27004646425256568 -0.5 0 0.30631021868456298 -0.48072311486568892 0 0.28072062580449653 -0.47155582870540619 0 0.27004646425256568 -0.5 0 0.30631021868456298 -0.48072311486568892 0 0.29721119201091789 -0.46522563712477349 0 0.28072062580449653 -0.47155582870540619 0 0.30631021868456298 -0.48072311486568892 0 0.33743581475864359 -0.28536266187014298 0 0.3388307833371127 -0.27886836189579028 0 0.34706744656536048 -0.28007479224216619 0 0.33743581475864359 -0.28536266187014298 0 0.3388307833371127 -0.27886836189579028 0 0.33743581475864359 -0.28536266187014298 0 0.33163278235650262 -0.31237877804800812 0 0.33743581475864359 -0.28536266187014298 0 0.33163278235650262 -0.31237877804800812 0 0.34308905326158867 -0.30070827197480321 0 0.33743581475864359 -0.28536266187014298 0 0.33163278235650262 -0.31237877804800812 0 0.32364365619397351 -0.29600562892690968 0 0.33163278235650262 -0.31237877804800812 0 0.32364365619397351 -0.29600562892690968 0 0.30954970221622308 -0.30462347215273478 0 0.31296692944630888 -0.29314018565426941 0 0.32364365619397351 -0.29600562892690968 0 0.30954970221622308 -0.30462347215273478 0 0.31296692944630888 -0.29314018565426941 0 0.32364365619397351 -0.29600562892690968 0 0.31569414790308259 -0.28159305760617132 0 0.33743581475864359 -0.28536266187014298 0 0.32364365619397351 -0.29600562892690968 0 0.31569414790308259 -0.28159305760617132 0 0.33743581475864359 -0.28536266187014298 0 0.31569414790308259 -0.28159305760617132 0 0.33743581475864359 -0.28536266187014298 0 0.31569414790308259 -0.28159305760617132 0 0.32852563272885182 -0.27784073863383552 0 0.31569414790308259 -0.28159305760617132 0 0.31275786215232049 -0.27168837282467972 0 0.32066228436037369 -0.27402337931129878 0 0.31275786215232049 -0.27168837282467972 0 0.32001527731196461 -0.26686042829596718 0 0.31054181011664339 -0.26140137874582919 0 0.31275786215232049 -0.27168837282467972 0 0.32001527731196461 -0.26686042829596718 0 0.32066228436037369 -0.27402337931129878 0 0.32001527731196461 -0.26686042829596718 0 0.32631850170564902 -0.27213429919584042 0 0.32066228436037369 -0.27402337931129878 0 0.32001527731196461 -0.26686042829596718 0 0.32631850170564902 -0.27213429919584042 0 0.32861545200372733 -0.26431566092564712 0 0.32631850170564902 -0.27213429919584042 0 0.32066228436037369 -0.27402337931129878 0 0.32852563272885182 -0.27784073863383552 0 0.31569414790308259 -0.28159305760617132 0 0.32066228436037369 -0.27402337931129878 0 0.32852563272885182 -0.27784073863383552 0 0.30517917142926537 -0.24716040808135001 0 0.322544075342931 -0.25649048942400782 0 0.31054181011664339 -0.26140137874582919 0 0.32001527731196461 -0.26686042829596718 0 0.322544075342931 -0.25649048942400782 0 0.31054181011664339 -0.26140137874582919 0 0.32001527731196461 -0.26686042829596718 0 0.322544075342931 -0.25649048942400782 0 0.32861545200372733 -0.26431566092564712 0 0.322544075342931 -0.25649048942400782 0 0.32861545200372733 -0.26431566092564712 0 0.33700232267718733 -0.25494009872172468 0 0.32861545200372733 -0.26431566092564712 0 0.33700232267718733 -0.25494009872172468 0 0.3370936559567923 -0.26597622971595652 0 0.33700232267718733 -0.25494009872172468 0 0.3370936559567923 -0.26597622971595652 0 0.34612034525793539 -0.26165354425485998 0 0.32852563272885182 -0.27784073863383552 0 0.33374486488877292 -0.2728357791174113 0 0.3388307833371127 -0.27886836189579028 0 0.33743581475864359 -0.28536266187014298 0 0.32852563272885182 -0.27784073863383552 0 0.3388307833371127 -0.27886836189579028 0 0.32631850170564902 -0.27213429919584042 0 0.32852563272885182 -0.27784073863383552 0 0.33374486488877292 -0.2728357791174113 0 0.32631850170564902 -0.27213429919584042 0 0.32861545200372733 -0.26431566092564712 0 0.33374486488877292 -0.2728357791174113 0 0.32861545200372733 -0.26431566092564712 0 0.33374486488877292 -0.2728357791174113 0 0.3370936559567923 -0.26597622971595652 0 0.34349817463331772 -0.27223575233246988 0 0.3370936559567923 -0.26597622971595652 0 0.34612034525793539 -0.26165354425485998 0 0.33374486488877292 -0.2728357791174113 0 0.34349817463331772 -0.27223575233246988 0 0.3370936559567923 -0.26597622971595652 0 0.33374486488877292 -0.2728357791174113 0 0.34349817463331772 -0.27223575233246988 0 0.3388307833371127 -0.27886836189579028 0 0.34349817463331772 -0.27223575233246988 0 0.3388307833371127 -0.27886836189579028 0 0.34706744656536048 -0.28007479224216619 0 0.34349817463331772 -0.27223575233246988 0 0.34706744656536048 -0.28007479224216619 0 0.35711558672006172 -0.27354793744083078 0 0.34349817463331772 -0.27223575233246988 0 0.35711558672006172 -0.27354793744083078 0 0.34612034525793539 -0.26165354425485998 0 0.34706744656536048 -0.28007479224216619 0 0.35711558672006172 -0.27354793744083078 0 0.35357832102308678 -0.28816147489813743 0 0.35007299243335749 -0.24785688602667111 0 0.33700232267718733 -0.25494009872172468 0 0.34612034525793539 -0.26165354425485998 0 0.35711558672006172 -0.27354793744083078 0 0.34612034525793539 -0.26165354425485998 0 0.36124693131331159 -0.25807728632712912 0 0.35007299243335749 -0.24785688602667111 0 0.34612034525793539 -0.26165354425485998 0 0.36124693131331159 -0.25807728632712912 0 0.37764450162479901 -0.26965755496232408 0 0.37510228513818711 -0.25237727586059511 0 0.36124693131331159 -0.25807728632712912 0 0.36225179838031341 -0.2439392928582107 0 0.37510228513818711 -0.25237727586059511 0 0.36124693131331159 -0.25807728632712912 0 0.37764450162479901 -0.26965755496232408 0 0.35711558672006172 -0.27354793744083078 0 0.36124693131331159 -0.25807728632712912 0 0.37764450162479901 -0.26965755496232408 0 0.35711558672006172 -0.27354793744083078 0 0.36873774536035581 -0.28861226174546889 0 0.36873774536035581 -0.28861226174546889 0 0.35357832102308678 -0.28816147489813743 0 0.36087634202934032 -0.30211297570133377 0 0.35711558672006172 -0.27354793744083078 0 0.36873774536035581 -0.28861226174546889 0 0.35357832102308678 -0.28816147489813743 0 0.33743581475864359 -0.28536266187014298 0 0.35357832102308678 -0.28816147489813743 0 0.33743581475864359 -0.28536266187014298 0 0.34706744656536048 -0.28007479224216619 0 0.35357832102308678 -0.28816147489813743 0 0.33743581475864359 -0.28536266187014298 0 0.34308905326158867 -0.30070827197480321 0 0.35357832102308678 -0.28816147489813743 0 0.34308905326158867 -0.30070827197480321 0 0.36087634202934032 -0.30211297570133377 0 0.3603589122919777 -0.32616465434179109 0 0.34308905326158867 -0.30070827197480321 0 0.35357832102308678 -0.28816147489813743 0 0.36087634202934032 -0.30211297570133377 0 0.37861767820969228 -0.30691821554646831 0 0.36873774536035581 -0.28861226174546889 0 0.36087634202934032 -0.30211297570133377 0 0.37861767820969228 -0.30691821554646831 0 0.36087634202934032 -0.30211297570133377 0 0.3603589122919777 -0.32616465434179109 0 0.37858644206980091 -0.32769985780377792 0 0.37861767820969228 -0.30691821554646831 0 0.3603589122919777 -0.32616465434179109 0 0.37858644206980091 -0.32769985780377792 0 0.3603589122919777 -0.32616465434179109 0 0.36805061276354478 -0.3427907498460791 0 0.3603589122919777 -0.32616465434179109 0 0.34679726984937148 -0.35193202586079081 0 0.3603589122919777 -0.32616465434179109 0 0.34679726984937148 -0.35193202586079081 0 0.3423644242317993 -0.33453707324987059 0 0.3603589122919777 -0.32616465434179109 0 0.36805061276354478 -0.3427907498460791 0 0.34679726984937148 -0.35193202586079081 0 0.33163278235650262 -0.31237877804800812 0 0.34308905326158867 -0.30070827197480321 0 0.3603589122919777 -0.32616465434179109 0 0.33163278235650262 -0.31237877804800812 0 0.3603589122919777 -0.32616465434179109 0 0.3423644242317993 -0.33453707324987059 0 0.37640125955739012 -0.35149107478397351 0 0.38081427771294768 -0.36737052156009248 0 0.36600013168445039 -0.36059477107615401 0 0.36848073339739068 -0.37517807712711049 0 0.36600013168445039 -0.36059477107615401 0 0.3554566368260581 -0.37480617727887811 0 0.38081427771294768 -0.36737052156009248 0 0.36848073339739068 -0.37517807712711049 0 0.36600013168445039 -0.36059477107615401 0 0.36805061276354478 -0.3427907498460791 0 0.36600013168445039 -0.36059477107615401 0 0.34679726984937148 -0.35193202586079081 0 0.37640125955739012 -0.35149107478397351 0 0.36805061276354478 -0.3427907498460791 0 0.36600013168445039 -0.36059477107615401 0 0.36600013168445039 -0.36059477107615401 0 0.34679726984937148 -0.35193202586079081 0 0.3554566368260581 -0.37480617727887811 0 0.34679726984937148 -0.35193202586079081 0 0.34537995690420659 -0.3737828605913362 0 0.3554566368260581 -0.37480617727887811 0 0.33323562740676532 -0.37769939737979058 0 0.33171275220581908 -0.35441984147836231 0 0.32002671755222051 -0.36641101040373808 0 0.33323562740676532 -0.37769939737979058 0 0.34679726984937148 -0.35193202586079081 0 0.33323562740676532 -0.37769939737979058 0 0.34679726984937148 -0.35193202586079081 0 0.34537995690420659 -0.3737828605913362 0 0.33323562740676532 -0.37769939737979058 0 0.34679726984937148 -0.35193202586079081 0 0.33171275220581908 -0.35441984147836231 0 0.34679726984937148 -0.35193202586079081 0 0.33171275220581908 -0.35441984147836231 0 0.3423644242317993 -0.33453707324987059 0 0.33171275220581908 -0.35441984147836231 0 0.32002671755222051 -0.36641101040373808 0 0.32582974995436148 -0.33939489422587321 0 0.32002671755222051 -0.36641101040373808 0 0.32582974995436148 -0.33939489422587321 0 0.31500009593534162 -0.35119999692538878 0 0.32002671755222051 -0.36641101040373808 0 0.32582974995436148 -0.33939489422587321 0 0.33163278235650262 -0.31237877804800812 0 0.32582974995436148 -0.33939489422587321 0 0.33163278235650262 -0.31237877804800812 0 0.3423644242317993 -0.33453707324987059 0 0.32582974995436148 -0.33939489422587321 0 0.33171275220581908 -0.35441984147836231 0 0.3423644242317993 -0.33453707324987059 0 0.32582974995436148 -0.33939489422587321 0 0.31500009593534162 -0.35119999692538878 0 0.32582974995436148 -0.33939489422587321 0 0.31041762281754448 -0.32833073988017608 0 0.33163278235650262 -0.31237877804800812 0 0.32582974995436148 -0.33939489422587321 0 0.31041762281754448 -0.32833073988017608 0 0.33163278235650262 -0.31237877804800812 0 0.31041762281754448 -0.32833073988017608 0 0.30954970221622308 -0.30462347215273478 0 0.31041762281754448 -0.32833073988017608 0 0.29592063247569211 -0.31558436997640987 0 0.30954970221622308 -0.30462347215273478 0 0.31041762281754448 -0.32833073988017608 0 0.29132656616613523 -0.33188180257029998 0 0.29592063247569211 -0.31558436997640987 0 0.31041762281754448 -0.32833073988017608 0 0.29132656616613523 -0.33188180257029998 0 0.29956578362214281 -0.35549229926055048 0 0.31041762281754448 -0.32833073988017608 0 0.29956578362214281 -0.35549229926055048 0 0.29132656616613523 -0.33188180257029998 0 0.28219501787468609 -0.34702129220438421 0 0.27282035448602859 -0.33554085100614839 0 0.29132656616613523 -0.33188180257029998 0 0.29592063247569211 -0.31558436997640987 0 0.27986439667319313 -0.31630171845149863 0 0.29132656616613523 -0.33188180257029998 0 0.27986439667319313 -0.31630171845149863 0 0.27282035448602859 -0.33554085100614839 0 0.30591552541026101 -0.37751124227982003 0 0.28871394442674109 -0.38265385864092483 0 0.29956578362214281 -0.35549229926055048 0 0.30591552541026101 -0.37751124227982003 0 0.32002671755222051 -0.36641101040373808 0 0.29956578362214281 -0.35549229926055048 0 0.31500009593534162 -0.35119999692538878 0 0.32002671755222051 -0.36641101040373808 0 0.29956578362214281 -0.35549229926055048 0 0.31500009593534162 -0.35119999692538878 0 0.31041762281754448 -0.32833073988017608 0 0.29956578362214281 -0.35549229926055048 0 0.29956578362214281 -0.35549229926055048 0 0.28219501787468609 -0.34702129220438421 0 0.27571190406721402 -0.36345127203525351 0 0.29132656616613523 -0.33188180257029998 0 0.29956578362214281 -0.35549229926055048 0 0.28219501787468609 -0.34702129220438421 0 0.28871394442674109 -0.38265385864092483 0 0.29956578362214281 -0.35549229926055048 0 0.27571190406721402 -0.36345127203525351 0 0.28871394442674109 -0.38265385864092483 0 0.29956578362214281 -0.35549229926055048 0 0.28219501787468609 -0.34702129220438421 0 0.27571190406721402 -0.36345127203525351 0 0.2669677564247489 -0.35003134695070198 0 0.28219501787468609 -0.34702129220438421 0 0.2669677564247489 -0.35003134695070198 0 0.27282035448602859 -0.33554085100614839 0 0.2669677564247489 -0.35003134695070198 0 0.2543981425525324 -0.33893914275967452 0 0.24971336314328341 -0.36520417674804972 0 0.2543981425525324 -0.33893914275967452 0 0.24971336314328341 -0.36520417674804972 0 0.26416245427686541 -0.38049931320234009 0 0.27571190406721402 -0.36345127203525351 0 0.24971336314328341 -0.36520417674804972 0 0.27571190406721402 -0.36345127203525351 0 0.2669677564247489 -0.35003134695070198 0 0.24971336314328341 -0.36520417674804972 0 0.27986439667319313 -0.31630171845149863 0 0.27282035448602859 -0.33554085100614839 0 0.27986439667319313 -0.31630171845149863 0 0.27282035448602859 -0.33554085100614839 0 0.2590829219617814 -0.31267410877129931 0 0.2669677564247489 -0.35003134695070198 0 0.27282035448602859 -0.33554085100614839 0 0.2543981425525324 -0.33893914275967452 0 0.27282035448602859 -0.33554085100614839 0 0.2543981425525324 -0.33893914275967452 0 0.2590829219617814 -0.31267410877129931 0 0.2543981425525324 -0.33893914275967452 0 0.2590829219617814 -0.31267410877129931 0 0.24087195768162309 -0.32614810142562012 0 0.2543981425525324 -0.33893914275967452 0 0.2590829219617814 -0.31267410877129931 0 0.2590829219617814 -0.31267410877129931 0 0.26376770137103039 -0.2864090747829241 0 0.27385105082646688 -0.29718155094811333 0 0.2590829219617814 -0.31267410877129931 0 0.26376770137103039 -0.2864090747829241 0 0.24821325608307901 -0.29522124281265988 0 0.2590829219617814 -0.31267410877129931 0 0.26376770137103039 -0.2864090747829241 0 0.26376770137103039 -0.2864090747829241 0 0.24785603391849151 -0.27709942466880599 0 0.24821325608307901 -0.29522124281265988 0 0.26376770137103039 -0.2864090747829241 0 0.27275834958840189 -0.28372268528309152 0 0.2724225943816766 -0.27409056785933389 0 0.26376770137103039 -0.2864090747829241 0 0.27275834958840189 -0.28372268528309152 0 0.27385105082646688 -0.29718155094811333 0 0.28072449650403741 -0.28691913250301798 0 0.27385105082646688 -0.29718155094811333 0 0.2869084388603575 -0.29706258589684881 0 0.27275834958840189 -0.28372268528309152 0 0.28072449650403741 -0.28691913250301798 0 0.27385105082646688 -0.29718155094811333 0 0.27275834958840189 -0.28372268528309152 0 0.28072449650403741 -0.28691913250301798 0 0.27996448038040939 -0.28063895974691061 0 0.27986439667319313 -0.31630171845149863 0 0.2590829219617814 -0.31267410877129931 0 0.27385105082646688 -0.29718155094811333 0 0.27986439667319313 -0.31630171845149863 0 0.27385105082646688 -0.29718155094811333 0 0.2869084388603575 -0.29706258589684881 0 0.27986439667319313 -0.31630171845149863 0 0.2869084388603575 -0.29706258589684881 0 0.29592063247569211 -0.31558436997640987 0 0.27986439667319313 -0.31630171845149863 0 0.2869084388603575 -0.29706258589684881 0 0.2869084388603575 -0.29706258589684881 0 0.30298021147195658 -0.29033858393126172 0 0.29395248104752192 -0.27782345334219888 0 0.28072449650403741 -0.28691913250301798 0 0.2869084388603575 -0.29706258589684881 0 0.29395248104752192 -0.27782345334219888 0 0.2869084388603575 -0.29706258589684881 0 0.29395248104752192 -0.27782345334219888 0 0.28072449650403741 -0.28691913250301798 0 0.29395248104752192 -0.27782345334219888 0 0.27996448038040939 -0.28063895974691061 0 0.31569414790308259 -0.28159305760617132 0 0.30298021147195658 -0.29033858393126172 0 0.29395248104752192 -0.27782345334219888 0 0.31296692944630888 -0.29314018565426941 0 0.31569414790308259 -0.28159305760617132 0 0.30298021147195658 -0.29033858393126172 0 0.31296692944630888 -0.29314018565426941 0 0.30298021147195658 -0.29033858393126172 0 0.30954970221622308 -0.30462347215273478 0 0.2869084388603575 -0.29706258589684881 0 0.30298021147195658 -0.29033858393126172 0 0.30954970221622308 -0.30462347215273478 0 0.29592063247569211 -0.31558436997640987 0 0.2869084388603575 -0.29706258589684881 0 0.30954970221622308 -0.30462347215273478 0 0.30517917142926537 -0.24716040808135001 0 0.31054181011664339 -0.26140137874582919 0 0.2976408850071105 -0.26774945168120262 0 0.30517917142926537 -0.24716040808135001 0 0.2976408850071105 -0.26774945168120262 0 0.31275786215232049 -0.27168837282467972 0 0.2976408850071105 -0.26774945168120262 0 0.29395248104752192 -0.27782345334219888 0 0.31275786215232049 -0.27168837282467972 0 0.2976408850071105 -0.26774945168120262 0 0.31275786215232049 -0.27168837282467972 0 0.31054181011664339 -0.26140137874582919 0 0.2976408850071105 -0.26774945168120262 0 0.31569414790308259 -0.28159305760617132 0 0.29395248104752192 -0.27782345334219888 0 0.31569414790308259 -0.28159305760617132 0 0.31275786215232049 -0.27168837282467972 0 0.29395248104752192 -0.27782345334219888 0 0.2976408850071105 -0.26774945168120262 0 0.28600938745522969 -0.26471871668720698 0 0.2976408850071105 -0.26774945168120262 0 0.29395248104752192 -0.27782345334219888 0 0.29395248104752192 -0.27782345334219888 0 0.27996448038040939 -0.28063895974691061 0 0.2724225943816766 -0.27409056785933389 0 0.29395248104752192 -0.27782345334219888 0 0.28600938745522969 -0.26471871668720698 0 0.27658132089261911 -0.27335422882897692 0 0.2976408850071105 -0.26774945168120262 0 0.29395248104752192 -0.27782345334219888 0 0.28600938745522969 -0.26471871668720698 0 0.29395248104752192 -0.27782345334219888 0 0.2724225943816766 -0.27409056785933389 0 0.28600938745522969 -0.26471871668720698 0 0.27658132089261911 -0.27335422882897692 0 0.30517917142926537 -0.24716040808135001 0 0.28600938745522969 -0.26471871668720698 0 0.30517917142926537 -0.24716040808135001 0 0.2976408850071105 -0.26774945168120262 0 0.28600938745522969 -0.26471871668720698 0 0.30517917142926537 -0.24716040808135001 0 0.28765229627979871 -0.24304032400626949 0 0.28600938745522969 -0.26471871668720698 0 0.28600938745522969 -0.26471871668720698 0 0.26845248078028039 -0.26014404079454911 0 0.28765229627979871 -0.24304032400626949 0 0.28600938745522969 -0.26471871668720698 0 0.26845248078028039 -0.26014404079454911 0 0.26376770137103039 -0.2864090747829241 0 0.26845248078028039 -0.26014404079454911 0 0.2724225943816766 -0.27409056785933389 0 0.28600938745522969 -0.26471871668720698 0 0.26845248078028039 -0.26014404079454911 0 0.27658132089261911 -0.27335422882897692 0 0.26376770137103039 -0.2864090747829241 0 0.26845248078028039 -0.26014404079454911 0 0.29395248104752192 -0.27782345334219888 0 0.27658132089261911 -0.27335422882897692 0 0.2724225943816766 -0.27409056785933389 0 0.27275834958840189 -0.28372268528309152 0 0.27996448038040939 -0.28063895974691061 0 0.2724225943816766 -0.27409056785933389 0 0.26845248078028039 -0.26014404079454911 0 0.27658132089261911 -0.27335422882897692 0 0.2724225943816766 -0.27409056785933389 0 0.26376770137103039 -0.2864090747829241 0 0.26845248078028039 -0.26014404079454911 0 0.24785603391849151 -0.27709942466880599 0 0.26845248078028039 -0.26014404079454911 0 0.2410490216361528 -0.25300372010805161 0 0.26845248078028039 -0.26014404079454911 0 0.2410490216361528 -0.25300372010805161 0 0.24785603391849151 -0.27709942466880599 0 0.25787859859726192 -0.24372773219337371 0 0.26845248078028039 -0.26014404079454911 0 0.2410490216361528 -0.25300372010805161 0 0.2410490216361528 -0.25300372010805161 0 0.24785603391849151 -0.27709942466880599 0 0.23139485578507429 -0.27647983237136509 0 0.23139485578507429 -0.27647983237136509 0 0.2171028506536257 -0.26700629366950379 0 0.21674952071488601 -0.28686299221921707 0 0.2410490216361528 -0.25300372010805161 0 0.23139485578507429 -0.27647983237136509 0 0.2171028506536257 -0.26700629366950379 0 0.2410490216361528 -0.25300372010805161 0 0.2171028506536257 -0.26700629366950379 0 0.2136455624920251 -0.24586339942155419 0 0.2171028506536257 -0.26700629366950379 0 0.1960217485778272 -0.26205501631648559 0 0.2136455624920251 -0.24586339942155419 0 0.2171028506536257 -0.26700629366950379 0 0.2037572178097509 -0.27803645254629672 0 0.1960217485778272 -0.26205501631648559 0 0.2171028506536257 -0.26700629366950379 0 0.2037572178097509 -0.27803645254629672 0 0.21674952071488601 -0.28686299221921707 0 0.2037572178097509 -0.27803645254629672 0 0.1960217485778272 -0.26205501631648559 0 0.18672217274589489 -0.28463667424064248 0 0.1960217485778272 -0.26205501631648559 0 0.2136455624920251 -0.24586339942155419 0 0.1970165427207646 -0.2431475676051908 0 0.1960217485778272 -0.26205501631648559 0 0.1970165427207646 -0.2431475676051908 0 0.18013525364959199 -0.24590787480667409 0 0.19163287831415901 -0.30538761534618902 0 0.20219697373587131 -0.29192032270869461 0 0.2153952098199983 -0.30425933719731207 0 0.2037572178097509 -0.27803645254629672 0 0.20219697373587131 -0.29192032270869461 0 0.18672217274589489 -0.28463667424064248 0 0.19163287831415901 -0.30538761534618902 0 0.20219697373587131 -0.29192032270869461 0 0.18672217274589489 -0.28463667424064248 0 0.20219697373587131 -0.29192032270869461 0 0.21674952071488601 -0.28686299221921707 0 0.2153952098199983 -0.30425933719731207 0 0.2037572178097509 -0.27803645254629672 0 0.20219697373587131 -0.29192032270869461 0 0.21674952071488601 -0.28686299221921707 0 0.19163287831415901 -0.30538761534618902 0 0.2153952098199983 -0.30425933719731207 0 0.20381788977078771 -0.32236963909420019 0 0.2153952098199983 -0.30425933719731207 0 0.2333373149176502 -0.29099433783704243 0 0.2370223082464416 -0.30892926800322767 0 0.2153952098199983 -0.30425933719731207 0 0.2370223082464416 -0.30892926800322767 0 0.22300958304019269 -0.32335118517261402 0 0.21674952071488601 -0.28686299221921707 0 0.2153952098199983 -0.30425933719731207 0 0.2333373149176502 -0.29099433783704243 0 0.23139485578507429 -0.27647983237136509 0 0.21674952071488601 -0.28686299221921707 0 0.2333373149176502 -0.29099433783704243 0 0.24785603391849151 -0.27709942466880599 0 0.2333373149176502 -0.29099433783704243 0 0.24821325608307901 -0.29522124281265988 0 0.24785603391849151 -0.27709942466880599 0 0.23139485578507429 -0.27647983237136509 0 0.2333373149176502 -0.29099433783704243 0 0.2333373149176502 -0.29099433783704243 0 0.24821325608307901 -0.29522124281265988 0 0.2370223082464416 -0.30892926800322767 0 0.2590829219617814 -0.31267410877129931 0 0.24821325608307901 -0.29522124281265988 0 0.2370223082464416 -0.30892926800322767 0 0.2590829219617814 -0.31267410877129931 0 0.2370223082464416 -0.30892926800322767 0 0.24087195768162309 -0.32614810142562012 0 0.2543981425525324 -0.33893914275967452 0 0.24087195768162309 -0.32614810142562012 0 0.2308468326071676 -0.34684680242128502 0 0.24087195768162309 -0.32614810142562012 0 0.22300958304019269 -0.32335118517261402 0 0.2308468326071676 -0.34684680242128502 0 0.22300958304019269 -0.32335118517261402 0 0.2308468326071676 -0.34684680242128502 0 0.21275128108028149 -0.33749920242868869 0 0.2370223082464416 -0.30892926800322767 0 0.24087195768162309 -0.32614810142562012 0 0.22300958304019269 -0.32335118517261402 0 0.24971336314328341 -0.36520417674804972 0 0.2308468326071676 -0.34684680242128502 0 0.229200177642885 -0.36995291413531828 0 0.2543981425525324 -0.33893914275967452 0 0.24971336314328341 -0.36520417674804972 0 0.2308468326071676 -0.34684680242128502 0 0.229200177642885 -0.36995291413531828 0 0.20725651587090471 -0.36571099534901208 0 0.22031030243082139 -0.38906492162812378 0 0.2308468326071676 -0.34684680242128502 0 0.229200177642885 -0.36995291413531828 0 0.20725651587090471 -0.36571099534901208 0 0.2308468326071676 -0.34684680242128502 0 0.20725651587090471 -0.36571099534901208 0 0.21275128108028149 -0.33749920242868869 0 0.20725651587090471 -0.36571099534901208 0 0.21275128108028149 -0.33749920242868869 0 0.194202729310988 -0.34235706906990038 0 0.20725651587090471 -0.36571099534901208 0 0.194202729310988 -0.34235706906990038 0 0.180238718969634 -0.3612454971324468 0 0.20725651587090471 -0.36571099534901208 0 0.194202729310988 -0.34235706906990038 0 0.20725651587090471 -0.36571099534901208 0 0.19261827162763251 -0.374541644607297 0 0.180238718969634 -0.3612454971324468 0 0.22300958304019269 -0.32335118517261402 0 0.20381788977078771 -0.32236963909420019 0 0.21275128108028149 -0.33749920242868869 0 0.2153952098199983 -0.30425933719731207 0 0.22300958304019269 -0.32335118517261402 0 0.20381788977078771 -0.32236963909420019 0 0.20381788977078771 -0.32236963909420019 0 0.21275128108028149 -0.33749920242868869 0 0.194202729310988 -0.34235706906990038 0 0.20381788977078771 -0.32236963909420019 0 0.194202729310988 -0.34235706906990038 0 0.18384400034678741 -0.32250280289756078 0 0.19163287831415901 -0.30538761534618902 0 0.20381788977078771 -0.32236963909420019 0 0.18384400034678741 -0.32250280289756078 0 0.18384400034678741 -0.32250280289756078 0 0.17702055828029431 -0.33666004199980942 0 0.15719449589681389 -0.32866913917705798 0 0.194202729310988 -0.34235706906990038 0 0.18384400034678741 -0.32250280289756078 0 0.17702055828029431 -0.33666004199980942 0 0.15719449589681389 -0.32866913917705798 0 0.16581699513551909 -0.35306125248096398 0 0.17702055828029431 -0.33666004199980942 0 0.15719449589681389 -0.32866913917705798 0 0.16581699513551909 -0.35306125248096398 0 0.18384400034678741 -0.32250280289756078 0 0.15719449589681389 -0.32866913917705798 0 0.17186855286937899 -0.30453082832045192 0 0.180238718969634 -0.3612454971324468 0 0.1834568796589737 -0.38583095226508418 0 0.17443949437422429 -0.37745336578486988 0 0.180238718969634 -0.3612454971324468 0 0.16581699513551909 -0.35306125248096398 0 0.17443949437422429 -0.37745336578486988 0 0.180238718969634 -0.3612454971324468 0 0.1834568796589737 -0.38583095226508418 0 0.19261827162763251 -0.374541644607297 0 0.180238718969634 -0.3612454971324468 0 0.1834568796589737 -0.38583095226508418 0 0.17702055828029431 -0.33666004199980942 0 0.180238718969634 -0.3612454971324468 0 0.16581699513551909 -0.35306125248096398 0 0.17702055828029431 -0.33666004199980942 0 0.180238718969634 -0.3612454971324468 0 0.194202729310988 -0.34235706906990038 0 0.17702055828029431 -0.33666004199980942 0 0.180238718969634 -0.3612454971324468 0 0.16581699513551909 -0.35306125248096398 0 0.1602354860011011 -0.36875954027416918 0 0.14952990885070691 -0.36034775620209553 0 0.16581699513551909 -0.35306125248096398 0 0.17443949437422429 -0.37745336578486988 0 0.16581699513551909 -0.35306125248096398 0 0.1602354860011011 -0.36875954027416918 0 0.17443949437422429 -0.37745336578486988 0 0.1602354860011011 -0.36875954027416918 0 0.14673951295096799 -0.37363029079717242 0 0.14952990885070691 -0.36034775620209553 0 0.16581699513551909 -0.35306125248096398 0 0.14952990885070691 -0.36034775620209553 0 0.144826286403443 -0.34676284914488159 0 0.14952990885070691 -0.36034775620209553 0 0.144826286403443 -0.34676284914488159 0 0.12334710111447229 -0.36406834251145731 0 0.144826286403443 -0.34676284914488159 0 0.12334710111447229 -0.36406834251145731 0 0.144826286403443 -0.34676284914488159 0 0.12334710111447229 -0.36406834251145731 0 0.11573058637367541 -0.34380091622275832 0 0.13273239812562251 -0.3803535413873157 0 0.1208593498238435 -0.38006314209191833 0 0.12334710111447229 -0.36406834251145731 0 0.14673951295096799 -0.37363029079717242 0 0.14952990885070691 -0.36034775620209553 0 0.12334710111447229 -0.36406834251145731 0 0.14673951295096799 -0.37363029079717242 0 0.13273239812562251 -0.3803535413873157 0 0.12334710111447229 -0.36406834251145731 0 0.15719449589681389 -0.32866913917705798 0 0.13978194378111039 -0.33004063130878142 0 0.14857199665810869 -0.30427702587315197 0 0.15719449589681389 -0.32866913917705798 0 0.14857199665810869 -0.30427702587315197 0 0.15719449589681389 -0.32866913917705798 0 0.144826286403443 -0.34676284914488159 0 0.13978194378111039 -0.33004063130878142 0 0.15719449589681389 -0.32866913917705798 0 0.16581699513551909 -0.35306125248096398 0 0.144826286403443 -0.34676284914488159 0 0.13978194378111039 -0.33004063130878142 0 0.1249111379911398 -0.32186001205002218 0 0.11573058637367541 -0.34380091622275832 0 0.144826286403443 -0.34676284914488159 0 0.13978194378111039 -0.33004063130878142 0 0.11573058637367541 -0.34380091622275832 0 0.13978194378111039 -0.33004063130878142 0 0.14857199665810869 -0.30427702587315197 0 0.1249111379911398 -0.32186001205002218 0 0.14857199665810869 -0.30427702587315197 0 0.13584279120622419 -0.29064916595208462 0 0.1212075847983899 -0.30357596212866123 0 0.14857199665810869 -0.30427702587315197 0 0.1212075847983899 -0.30357596212866123 0 0.1249111379911398 -0.32186001205002218 0 0.14857199665810869 -0.30427702587315197 0 0.14941647374314521 -0.28066083506566319 0 0.1659314811884508 -0.28303851802095531 0 0.14857199665810869 -0.30427702587315197 0 0.13584279120622419 -0.29064916595208462 0 0.14941647374314521 -0.28066083506566319 0 0.13554841089854469 -0.28148943716570812 0 0.13584279120622419 -0.29064916595208462 0 0.14941647374314521 -0.28066083506566319 0 0.13554841089854469 -0.28148943716570812 0 0.13584279120622419 -0.29064916595208462 0 0.1176113560141319 -0.2851589593963586 0 0.1376178273856396 -0.2676878026278281 0 0.13932302263067731 -0.26948878824872591 0 0.1176113560141319 -0.2851589593963586 0 0.13554841089854469 -0.28148943716570812 0 0.13932302263067731 -0.26948878824872591 0 0.1176113560141319 -0.2851589593963586 0 0.13932302263067731 -0.26948878824872591 0 0.1176113560141319 -0.2851589593963586 0 0.1376178273856396 -0.2676878026278281 0 0.1200034520355143 -0.24749468667538321 0 0.1376178273856396 -0.2676878026278281 0 0.1200034520355143 -0.24749468667538321 0 0.1412434604122122 -0.24631040783256791 0 0.1376178273856396 -0.2676878026278281 0 0.16103468924722281 -0.25381861710109321 0 0.1412434604122122 -0.24631040783256791 0 0.1376178273856396 -0.2676878026278281 0 0.13932302263067731 -0.26948878824872591 0 0.16103468924722281 -0.25381861710109321 0 0.13932302263067731 -0.26948878824872591 0 0.16103468924722281 -0.25381861710109321 0 0.13932302263067731 -0.26948878824872591 0 0.14941647374314521 -0.28066083506566319 0 0.16103468924722281 -0.25381861710109321 0 0.13554841089854469 -0.28148943716570812 0 0.13932302263067731 -0.26948878824872591 0 0.14941647374314521 -0.28066083506566319 0 0.14941647374314521 -0.28066083506566319 0 0.16103468924722281 -0.25381861710109321 0 0.1659314811884508 -0.28303851802095531 0 0.16103468924722281 -0.25381861710109321 0 0.1779690690817976 -0.26589134009717008 0 0.1659314811884508 -0.28303851802095531 0 0.16103468924722281 -0.25381861710109321 0 0.1779690690817976 -0.26589134009717008 0 0.18013525364959199 -0.24590787480667409 0 0.1960217485778272 -0.26205501631648559 0 0.1779690690817976 -0.26589134009717008 0 0.18013525364959199 -0.24590787480667409 0 0.1960217485778272 -0.26205501631648559 0 0.1779690690817976 -0.26589134009717008 0 0.18672217274589489 -0.28463667424064248 0 0.1779690690817976 -0.26589134009717008 0 0.18672217274589489 -0.28463667424064248 0 0.1659314811884508 -0.28303851802095531 0 0.18672217274589489 -0.28463667424064248 0 0.17186855286937899 -0.30453082832045192 0 0.1659314811884508 -0.28303851802095531 0 0.19163287831415901 -0.30538761534618902 0 0.18384400034678741 -0.32250280289756078 0 0.17186855286937899 -0.30453082832045192 0 0.19163287831415901 -0.30538761534618902 0 0.18672217274589489 -0.28463667424064248 0 0.17186855286937899 -0.30453082832045192 0 0.14857199665810869 -0.30427702587315197 0 0.17186855286937899 -0.30453082832045192 0 0.1659314811884508 -0.28303851802095531 0 0.15719449589681389 -0.32866913917705798 0 0.14857199665810869 -0.30427702587315197 0 0.17186855286937899 -0.30453082832045192 0 0.27004646425256568 -0.5 0 0.19840125792562099 -0.499999999999995 0 0.2258071254777905 -0.47806137695806639 0 0.19840125792562099 -0.499999999999995 0 0.1955652389629654 -0.47833395417678298 0 0.19840125792562099 -0.499999999999995 0 0.1955652389629654 -0.47833395417678298 0 0.1857239970351309 -0.48926605560099218 0 0.1955652389629654 -0.47833395417678298 0 0.2258071254777905 -0.47806137695806639 0 0.20496909670773639 -0.46039718082621561 0 0.19840125792562099 -0.499999999999995 0 0.1955652389629654 -0.47833395417678298 0 0.2258071254777905 -0.47806137695806639 0 0.2532296876789632 -0.47497352743918242 0 0.27004646425256568 -0.5 0 0.2258071254777905 -0.47806137695806639 0 0.2532296876789632 -0.47497352743918242 0 0.2258071254777905 -0.47806137695806639 0 0.23317765179809191 -0.45416130837427687 0 0.2258071254777905 -0.47806137695806639 0 0.23317765179809191 -0.45416130837427687 0 0.20496909670773639 -0.46039718082621561 0 0.23317765179809191 -0.45416130837427687 0 0.20496909670773639 -0.46039718082621561 0 0.26339579246569877 -0.46312143350125029 0 0.2532296876789632 -0.47497352743918242 0 0.23317765179809191 -0.45416130837427687 0 0.26138620688844749 -0.44792543592233808 0 0.2518592606704963 -0.43815060111373921 0 0.23317765179809191 -0.45416130837427687 0 0.26138620688844749 -0.44792543592233808 0 0.23317765179809191 -0.45416130837427687 0 0.2518592606704963 -0.43815060111373921 0 0.23317765179809191 -0.45416130837427687 0 0.24161391479158839 -0.43048581688246368 0 0.23317765179809191 -0.45416130837427687 0 0.21274467024756119 -0.44537306322652892 0 0.22596778666418391 -0.43195218695593612 0 0.23317765179809191 -0.45416130837427687 0 0.22596778666418391 -0.43195218695593612 0 0.24161391479158839 -0.43048581688246368 0 0.20738663592967541 -0.43977689630152639 0 0.21274467024756119 -0.44537306322652892 0 0.21231789143938981 -0.43260924517595267 0 0.20738663592967541 -0.43977689630152639 0 0.20306963394956029 -0.44528763306514119 0 0.2014143480821905 -0.43583764373848299 0 0.20738663592967541 -0.43977689630152639 0 0.21274467024756119 -0.44537306322652892 0 0.20306963394956029 -0.44528763306514119 0 0.21274467024756119 -0.44537306322652892 0 0.20306963394956029 -0.44528763306514119 0 0.20202636709778779 -0.45196992376671852 0 0.21274467024756119 -0.44537306322652892 0 0.20496909670773639 -0.46039718082621561 0 0.20202636709778779 -0.45196992376671852 0 0.23317765179809191 -0.45416130837427687 0 0.21274467024756119 -0.44537306322652892 0 0.20496909670773639 -0.46039718082621561 0 0.1955652389629654 -0.47833395417678298 0 0.20496909670773639 -0.46039718082621561 0 0.1927292200003092 -0.45666790835357102 0 0.1955652389629654 -0.47833395417678298 0 0.1927292200003092 -0.45666790835357102 0 0.1955652389629654 -0.47833395417678298 0 0.19047701204926121 -0.46094242075341862 0 0.1927292200003092 -0.45666790835357102 0 0.20496909670773639 -0.46039718082621561 0 0.1927292200003092 -0.45666790835357102 0 0.20202636709778779 -0.45196992376671852 0 0.19047701204926121 -0.46094242075341862 0 0.1927292200003092 -0.45666790835357102 0 0.1876592352144193 -0.45673372923780892 0 0.1927292200003092 -0.45666790835357102 0 0.1876592352144193 -0.45673372923780892 0 0.18777566972406101 -0.44981142861604279 0 0.1927292200003092 -0.45666790835357102 0 0.19595067699787469 -0.4453334870477933 0 0.18989320103765239 -0.43500186253035911 0 0.1927292200003092 -0.45666790835357102 0 0.18989320103765239 -0.43500186253035911 0 0.1927292200003092 -0.45666790835357102 0 0.18777566972406101 -0.44981142861604279 0 0.18989320103765239 -0.43500186253035911 0 0.19521760998379711 -0.43854214036159178 0 0.19595067699787469 -0.4453334870477933 0 0.1916906899727929 -0.43609695451772118 0 0.19595067699787469 -0.4453334870477933 0 0.1916906899727929 -0.43609695451772118 0 0.18989320103765239 -0.43500186253035911 0 0.19521760998379711 -0.43854214036159178 0 0.19821003569121751 -0.44088076654097252 0 0.19595067699787469 -0.4453334870477933 0 0.19821003569121751 -0.44088076654097252 0 0.20306963394956029 -0.44528763306514119 0 0.19595067699787469 -0.4453334870477933 0 0.19821003569121751 -0.44088076654097252 0 0.20306963394956029 -0.44528763306514119 0 0.2014143480821905 -0.43583764373848299 0 0.19521760998379711 -0.43854214036159178 0 0.19821003569121751 -0.44088076654097252 0 0.19632921389935129 -0.43529695882979857 0 0.20306963394956029 -0.44528763306514119 0 0.20202636709778779 -0.45196992376671852 0 0.19595067699787469 -0.4453334870477933 0 0.1927292200003092 -0.45666790835357102 0 0.20202636709778779 -0.45196992376671852 0 0.19595067699787469 -0.4453334870477933 0 0.18989320103765239 -0.43500186253035911 0 0.193210065479164 -0.42351508711829272 0 0.18667504034831339 -0.41041640739772162 0 0.18989320103765239 -0.43500186253035911 0 0.18667504034831339 -0.41041640739772162 0 0.1973860855611401 -0.42692030526330021 0 0.193210065479164 -0.42351508711829272 0 0.19846083006015189 -0.42045811652912207 0 0.1973860855611401 -0.42692030526330021 0 0.19846083006015189 -0.42045811652912207 0 0.20326441538295181 -0.42746054266679712 0 0.1973860855611401 -0.42692030526330021 0 0.19826447490927249 -0.43151164360587502 0 0.20326441538295181 -0.42746054266679712 0 0.2014143480821905 -0.43583764373848299 0 0.19826447490927249 -0.43151164360587502 0 0.20326441538295181 -0.42746054266679712 0 0.19821003569121751 -0.44088076654097252 0 0.2014143480821905 -0.43583764373848299 0 0.19632921389935129 -0.43529695882979857 0 0.2014143480821905 -0.43583764373848299 0 0.19632921389935129 -0.43529695882979857 0 0.19826447490927249 -0.43151164360587502 0 0.19632921389935129 -0.43529695882979857 0 0.19826447490927249 -0.43151164360587502 0 0.1929283116207289 -0.43204276753099607 0 0.1973860855611401 -0.42692030526330021 0 0.19826447490927249 -0.43151164360587502 0 0.1929283116207289 -0.43204276753099607 0 0.1929283116207289 -0.43204276753099607 0 0.18989320103765239 -0.43500186253035911 0 0.193210065479164 -0.42351508711829272 0 0.19521760998379711 -0.43854214036159178 0 0.19632921389935129 -0.43529695882979857 0 0.19377820557052011 -0.43520734882518619 0 0.19521760998379711 -0.43854214036159178 0 0.19377820557052011 -0.43520734882518619 0 0.1916906899727929 -0.43609695451772118 0 0.19632921389935129 -0.43529695882979857 0 0.1929283116207289 -0.43204276753099607 0 0.19377820557052011 -0.43520734882518619 0 0.1929283116207289 -0.43204276753099607 0 0.19210490899723079 -0.4345610298626873 0 0.18989320103765239 -0.43500186253035911 0 0.19377820557052011 -0.43520734882518619 0 0.19210490899723079 -0.4345610298626873 0 0.1916906899727929 -0.43609695451772118 0 0.1929283116207289 -0.43204276753099607 0 0.19377820557052011 -0.43520734882518619 0 0.19210490899723079 -0.4345610298626873 0 0.1916906899727929 -0.43609695451772118 0 0.18989320103765239 -0.43500186253035911 0 0.19210490899723079 -0.4345610298626873 0 0.1916906899727929 -0.43609695451772118 0 0.18989320103765239 -0.43500186253035911 0 0.1973860855611401 -0.42692030526330021 0 0.1929283116207289 -0.43204276753099607 0 0.193210065479164 -0.42351508711829272 0 0.193210065479164 -0.42351508711829272 0 0.1939169242469973 -0.41625106345825691 0 0.18667504034831339 -0.41041640739772162 0 0.193210065479164 -0.42351508711829272 0 0.1939169242469973 -0.41625106345825691 0 0.19846083006015189 -0.42045811652912207 0 0.1968341740193896 -0.41150644481021997 0 0.19418069224578771 -0.40518464808912641 0 0.18667504034831339 -0.41041640739772162 0 0.1939169242469973 -0.41625106345825691 0 0.1968341740193896 -0.41150644481021997 0 0.18667504034831339 -0.41041640739772162 0 0.1968341740193896 -0.41150644481021997 0 0.20469814770209749 -0.41520386531910081 0 0.20485234226760879 -0.40188257102108682 0 0.19846083006015189 -0.42045811652912207 0 0.20469814770209749 -0.41520386531910081 0 0.20326441538295181 -0.42746054266679712 0 0.1939169242469973 -0.41625106345825691 0 0.1968341740193896 -0.41150644481021997 0 0.19846083006015189 -0.42045811652912207 0 0.1968341740193896 -0.41150644481021997 0 0.19846083006015189 -0.42045811652912207 0 0.20469814770209749 -0.41520386531910081 0 0.20469814770209749 -0.41520386531910081 0 0.21626227209603979 -0.41615869782113413 0 0.20326441538295181 -0.42746054266679712 0 0.20469814770209749 -0.41520386531910081 0 0.21626227209603979 -0.41615869782113413 0 0.20485234226760879 -0.40188257102108682 0 0.21626227209603979 -0.41615869782113413 0 0.20326441538295181 -0.42746054266679712 0 0.21231789143938981 -0.43260924517595267 0 0.21626227209603979 -0.41615869782113413 0 0.21231789143938981 -0.43260924517595267 0 0.22596778666418391 -0.43195218695593612 0 0.20738663592967541 -0.43977689630152639 0 0.2014143480821905 -0.43583764373848299 0 0.21231789143938981 -0.43260924517595267 0 0.2014143480821905 -0.43583764373848299 0 0.20326441538295181 -0.42746054266679712 0 0.21231789143938981 -0.43260924517595267 0 0.21274467024756119 -0.44537306322652892 0 0.21231789143938981 -0.43260924517595267 0 0.22596778666418391 -0.43195218695593612 0 0.22596778666418391 -0.43195218695593612 0 0.24161391479158839 -0.43048581688246368 0 0.2333640889907381 -0.41241884790723538 0 0.25610826383841628 -0.42120346698794331 0 0.2518592606704963 -0.43815060111373921 0 0.24161391479158839 -0.43048581688246368 0 0.25610826383841628 -0.42120346698794331 0 0.24161391479158839 -0.43048581688246368 0 0.2333640889907381 -0.41241884790723538 0 0.21626227209603979 -0.41615869782113413 0 0.22596778666418391 -0.43195218695593612 0 0.2333640889907381 -0.41241884790723538 0 0.2333640889907381 -0.41241884790723538 0 0.24502858373403441 -0.39146921073642488 0 0.22031030243082139 -0.38906492162812378 0 0.21626227209603979 -0.41615869782113413 0 0.2333640889907381 -0.41241884790723538 0 0.22031030243082139 -0.38906492162812378 0 0.2333640889907381 -0.41241884790723538 0 0.22031030243082139 -0.38906492162812378 0 0.26125098829365018 -0.39969694482297641 0 0.2333640889907381 -0.41241884790723538 0 0.24502858373403441 -0.39146921073642488 0 0.24971336314328341 -0.36520417674804972 0 0.24502858373403441 -0.39146921073642488 0 0.24971336314328341 -0.36520417674804972 0 0.229200177642885 -0.36995291413531828 0 0.24502858373403441 -0.39146921073642488 0 0.229200177642885 -0.36995291413531828 0 0.24502858373403441 -0.39146921073642488 0 0.22031030243082139 -0.38906492162812378 0 0.20725651587090471 -0.36571099534901208 0 0.22031030243082139 -0.38906492162812378 0 0.19952097201101759 -0.38537913368264481 0 0.20725651587090471 -0.36571099534901208 0 0.22031030243082139 -0.38906492162812378 0 0.21626227209603979 -0.41615869782113413 0 0.22031030243082139 -0.38906492162812378 0 0.20485234226760879 -0.40188257102108682 0 0.22031030243082139 -0.38906492162812378 0 0.20485234226760879 -0.40188257102108682 0 0.19952097201101759 -0.38537913368264481 0 0.20485234226760879 -0.40188257102108682 0 0.19159455078491761 -0.39726910731705511 0 0.19952097201101759 -0.38537913368264481 0 0.1968341740193896 -0.41150644481021997 0 0.20485234226760879 -0.40188257102108682 0 0.19418069224578771 -0.40518464808912641 0 0.20485234226760879 -0.40188257102108682 0 0.19418069224578771 -0.40518464808912641 0 0.19159455078491761 -0.39726910731705511 0 0.19418069224578771 -0.40518464808912641 0 0.19159455078491761 -0.39726910731705511 0 0.18667504034831339 -0.41041640739772162 0 0.20725651587090471 -0.36571099534901208 0 0.19261827162763251 -0.374541644607297 0 0.19952097201101759 -0.38537913368264481 0 0.19261827162763251 -0.374541644607297 0 0.19952097201101759 -0.38537913368264481 0 0.1834568796589737 -0.38583095226508418 0 0.19159455078491761 -0.39726910731705511 0 0.19952097201101759 -0.38537913368264481 0 0.1834568796589737 -0.38583095226508418 0 0.17443949437422429 -0.37745336578486988 0 0.18306199361292941 -0.40184547908877583 0 0.1834568796589737 -0.38583095226508418 0 0.17443949437422429 -0.37745336578486988 0 0.18306199361292941 -0.40184547908877583 0 0.17443949437422429 -0.37745336578486988 0 0.18306199361292941 -0.40184547908877583 0 0.1699565165384864 -0.39219147373696051 0 0.19159455078491761 -0.39726910731705511 0 0.1834568796589737 -0.38583095226508418 0 0.18667504034831339 -0.41041640739772162 0 0.1834568796589737 -0.38583095226508418 0 0.18667504034831339 -0.41041640739772162 0 0.1834568796589737 -0.38583095226508418 0 0.18306199361292941 -0.40184547908877583 0 0.18667504034831339 -0.41041640739772162 0 0.18306199361292941 -0.40184547908877583 0 0.1699565165384864 -0.39219147373696051 0 0.17103987791038719 -0.40450309618882169 0 0.18306199361292941 -0.40184547908877583 0 0.17103987791038719 -0.40450309618882169 0 0.1814131781600461 -0.40758752999736902 0 0.1699565165384864 -0.39219147373696051 0 0.17103987791038719 -0.40450309618882169 0 0.15993177942481909 -0.39557864441750712 0 0.17103987791038719 -0.40450309618882169 0 0.15993177942481909 -0.39557864441750712 0 0.14638679418839309 -0.40849626541203388 0 0.1699565165384864 -0.39219147373696051 0 0.15993177942481909 -0.39557864441750712 0 0.1595700277473481 -0.38298567724053401 0 0.17443949437422429 -0.37745336578486988 0 0.1699565165384864 -0.39219147373696051 0 0.1595700277473481 -0.38298567724053401 0 0.1602354860011011 -0.36875954027416918 0 0.17443949437422429 -0.37745336578486988 0 0.1595700277473481 -0.38298567724053401 0 0.1602354860011011 -0.36875954027416918 0 0.14673951295096799 -0.37363029079717242 0 0.1595700277473481 -0.38298567724053401 0 0.14673951295096799 -0.37363029079717242 0 0.1595700277473481 -0.38298567724053401 0 0.14586341328622179 -0.39002728499933198 0 0.14673951295096799 -0.37363029079717242 0 0.14586341328622179 -0.39002728499933198 0 0.13273239812562251 -0.3803535413873157 0 0.15993177942481909 -0.39557864441750712 0 0.1595700277473481 -0.38298567724053401 0 0.14586341328622179 -0.39002728499933198 0 0.14586341328622179 -0.39002728499933198 0 0.13273239812562251 -0.3803535413873157 0 0.12412735500694751 -0.39493505064503392 0 0.13273239812562251 -0.3803535413873157 0 0.12412735500694751 -0.39493505064503392 0 0.1208593498238435 -0.38006314209191833 0 0.14586341328622179 -0.39002728499933198 0 0.14638679418839309 -0.40849626541203388 0 0.12412735500694751 -0.39493505064503392 0 0.14638679418839309 -0.40849626541203388 0 0.1185943653130178 -0.41089393958744808 0 0.12412735500694751 -0.39493505064503392 0 0.14638679418839309 -0.40849626541203388 0 0.12412735500694751 -0.39493505064503392 0 0.15993177942481909 -0.39557864441750712 0 0.14586341328622179 -0.39002728499933198 0 0.14638679418839309 -0.40849626541203388 0 0.14638679418839309 -0.40849626541203388 0 0.12945713117598301 -0.42527718494859718 0 0.1185943653130178 -0.41089393958744808 0 0.12945713117598301 -0.42527718494859718 0 0.1521605439778134 -0.43517333823265708 0 0.13567485458578729 -0.448289196286278 0 0.14638679418839309 -0.40849626541203388 0 0.12945713117598301 -0.42527718494859718 0 0.1521605439778134 -0.43517333823265708 0 0.14638679418839309 -0.40849626541203388 0 0.1521605439778134 -0.43517333823265708 0 0.16864623336983819 -0.42205748017903449 0 0.1521605439778134 -0.43517333823265708 0 0.16864623336983819 -0.42205748017903449 0 0.1521605439778134 -0.43517333823265708 0 0.16864623336983819 -0.42205748017903449 0 0.16573483381671769 -0.43911683261624462 0 0.16864623336983819 -0.42205748017903449 0 0.17670256027174869 -0.43608133600128551 0 0.16573483381671769 -0.43911683261624462 0 0.17103987791038719 -0.40450309618882169 0 0.14638679418839309 -0.40849626541203388 0 0.16962733287145829 -0.41306172809692981 0 0.14638679418839309 -0.40849626541203388 0 0.16864623336983819 -0.42205748017903449 0 0.14638679418839309 -0.40849626541203388 0 0.16864623336983819 -0.42205748017903449 0 0.16962733287145829 -0.41306172809692981 0 0.16864623336983819 -0.42205748017903449 0 0.17965678171287719 -0.41329759239238029 0 0.18989320103765239 -0.43500186253035911 0 0.17965678171287719 -0.41329759239238029 0 0.18667504034831339 -0.41041640739772162 0 0.16864623336983819 -0.42205748017903449 0 0.16962733287145829 -0.41306172809692981 0 0.17965678171287719 -0.41329759239238029 0 0.17103987791038719 -0.40450309618882169 0 0.16962733287145829 -0.41306172809692981 0 0.17965678171287719 -0.41329759239238029 0 0.17103987791038719 -0.40450309618882169 0 0.17965678171287719 -0.41329759239238029 0 0.1814131781600461 -0.40758752999736902 0 0.18306199361292941 -0.40184547908877583 0 0.1814131781600461 -0.40758752999736902 0 0.18667504034831339 -0.41041640739772162 0 0.17965678171287719 -0.41329759239238029 0 0.1814131781600461 -0.40758752999736902 0 0.18667504034831339 -0.41041640739772162 0 0.18989320103765239 -0.43500186253035911 0 0.16864623336983819 -0.42205748017903449 0 0.18989320103765239 -0.43500186253035911 0 0.16864623336983819 -0.42205748017903449 0 0.17965678171287719 -0.41329759239238029 0 0.18989320103765239 -0.43500186253035911 0 0.16864623336983819 -0.42205748017903449 0 0.17670256027174869 -0.43608133600128551 0 0.18989320103765239 -0.43500186253035911 0 0.17670256027174869 -0.43608133600128551 0 0.18208037526260021 -0.440172852945236 0 0.17851738694434799 -0.45081987712854771 0 0.17618275988476059 -0.44374183802639611 0 0.18401323307134959 -0.44581129240036288 0 0.17851738694434799 -0.45081987712854771 0 0.1776998484129505 -0.456552179461992 0 0.17120073938054131 -0.45123220200337888 0 0.17851738694434799 -0.45081987712854771 0 0.17618275988476059 -0.44374183802639611 0 0.17120073938054131 -0.45123220200337888 0 0.17670256027174869 -0.43608133600128551 0 0.17618275988476059 -0.44374183802639611 0 0.16573483381671769 -0.43911683261624462 0 0.17670256027174869 -0.43608133600128551 0 0.17618275988476059 -0.44374183802639611 0 0.18208037526260021 -0.440172852945236 0 0.18989320103765239 -0.43500186253035911 0 0.18208037526260021 -0.440172852945236 0 0.18401323307134959 -0.44581129240036288 0 0.18777566972406101 -0.44981142861604279 0 0.18989320103765239 -0.43500186253035911 0 0.18401323307134959 -0.44581129240036288 0 0.17618275988476059 -0.44374183802639611 0 0.18208037526260021 -0.440172852945236 0 0.18401323307134959 -0.44581129240036288 0 0.18777566972406101 -0.44981142861604279 0 0.18401323307134959 -0.44581129240036288 0 0.18385690407389799 -0.45446609953290928 0 0.17851738694434799 -0.45081987712854771 0 0.18401323307134959 -0.44581129240036288 0 0.18385690407389799 -0.45446609953290928 0 0.19047701204926121 -0.46094242075341862 0 0.1876592352144193 -0.45673372923780892 0 0.1806900259799068 -0.46227126151247672 0 0.1876592352144193 -0.45673372923780892 0 0.18777566972406101 -0.44981142861604279 0 0.18385690407389799 -0.45446609953290928 0 0.19047701204926121 -0.46094242075341862 0 0.1806900259799068 -0.46227126151247672 0 0.17298031468751371 -0.48047121037671059 0 0.1876592352144193 -0.45673372923780892 0 0.18385690407389799 -0.45446609953290928 0 0.1806900259799068 -0.46227126151247672 0 0.18385690407389799 -0.45446609953290928 0 0.1806900259799068 -0.46227126151247672 0 0.1776998484129505 -0.456552179461992 0 0.17851738694434799 -0.45081987712854771 0 0.18385690407389799 -0.45446609953290928 0 0.1776998484129505 -0.456552179461992 0 0.1806900259799068 -0.46227126151247672 0 0.1776998484129505 -0.456552179461992 0 0.17146684144139809 -0.46446192971202138 0 0.1776998484129505 -0.456552179461992 0 0.17146684144139809 -0.46446192971202138 0 0.17120073938054131 -0.45123220200337888 0 0.17146684144139809 -0.46446192971202138 0 0.15759213853868431 -0.45113306297151079 0 0.14900727366634989 -0.46501884712825781 0 0.17146684144139809 -0.46446192971202138 0 0.15759213853868431 -0.45113306297151079 0 0.17120073938054131 -0.45123220200337888 0 0.1521605439778134 -0.43517333823265708 0 0.15759213853868431 -0.45113306297151079 0 0.16573483381671769 -0.43911683261624462 0 0.15759213853868431 -0.45113306297151079 0 0.17120073938054131 -0.45123220200337888 0 0.16573483381671769 -0.43911683261624462 0 0.17618275988476059 -0.44374183802639611 0 0.17120073938054131 -0.45123220200337888 0 0.16573483381671769 -0.43911683261624462 0 0.1521605439778134 -0.43517333823265708 0 0.15759213853868431 -0.45113306297151079 0 0.13567485458578729 -0.448289196286278 0 0.1521605439778134 -0.43517333823265708 0 0.13567485458578729 -0.448289196286278 0 0.13567485458578729 -0.448289196286278 0 0.1191891651937612 -0.46140505433989892 0 0.12203304576274319 -0.43975504748265359 0 0.12945713117598301 -0.42527718494859718 0 0.13567485458578729 -0.448289196286278 0 0.12203304576274319 -0.43975504748265359 0 0.13567485458578729 -0.448289196286278 0 0.1191891651937612 -0.46140505433989892 0 0.13567485458578729 -0.448289196286278 0 0.13480127744719991 -0.46410976413563299 0 0.1191891651937612 -0.46140505433989892 0 0.13567485458578729 -0.448289196286278 0 0.13480127744719991 -0.46410976413563299 0 0.14900727366634989 -0.46501884712825781 0 0.15759213853868431 -0.45113306297151079 0 0.13567485458578729 -0.448289196286278 0 0.14900727366634989 -0.46501884712825781 0 0.14900727366634989 -0.46501884712825781 0 0.15577652408963519 -0.48266000469618581 0 0.13873200589539489 -0.47945912496791759 0 0.13480127744719991 -0.46410976413563299 0 0.14900727366634989 -0.46501884712825781 0 0.13873200589539489 -0.47945912496791759 0 0.13480127744719991 -0.46410976413563299 0 0.13873200589539489 -0.47945912496791759 0 0.11801755443736479 -0.48060781756800708 0 0.13873200589539489 -0.47945912496791759 0 0.13581988522262109 -0.50000000000000244 0 0.11801755443736479 -0.48060781756800708 0 0.13581988522262109 -0.50000000000000244 0 0.11801755443736479 -0.48060781756800708 0 0.15577652408963519 -0.48266000469618581 0 0.13873200589539489 -0.47945912496791759 0 0.13581988522262109 -0.50000000000000244 0 0.15577652408963519 -0.48266000469618581 0 0.13581988522262109 -0.50000000000000244 0 0.15548361732576529 -0.50000000000000178 0 0.15577652408963519 -0.48266000469618581 0 0.15548361732576529 -0.50000000000000178 0 0.17298031468751371 -0.48047121037671059 0 0.15548361732576529 -0.50000000000000178 0 0.17298031468751371 -0.48047121037671059 0 0.1769424376256932 -0.5 0 0.15548361732576529 -0.50000000000000178 0 0.17298031468751371 -0.48047121037671059 0 0.17146684144139809 -0.46446192971202138 0 0.15577652408963519 -0.48266000469618581 0 0.17298031468751371 -0.48047121037671059 0 0.17146684144139809 -0.46446192971202138 0 0.14900727366634989 -0.46501884712825781 0 0.15577652408963519 -0.48266000469618581 0 0.19047701204926121 -0.46094242075341862 0 0.17298031468751371 -0.48047121037671059 0 0.1806900259799068 -0.46227126151247672 0 0.17146684144139809 -0.46446192971202138 0 0.17298031468751371 -0.48047121037671059 0 0.1955652389629654 -0.47833395417678298 0 0.19047701204926121 -0.46094242075341862 0 0.17298031468751371 -0.48047121037671059 0 0.1955652389629654 -0.47833395417678298 0 0.17298031468751371 -0.48047121037671059 0 0.1857239970351309 -0.48926605560099218 0 0.19840125792562099 -0.499999999999995 0 0.1857239970351309 -0.48926605560099218 0 0.1769424376256932 -0.5 0 0.17298031468751371 -0.48047121037671059 0 0.1857239970351309 -0.48926605560099218 0 0.1769424376256932 -0.5 0 0.074737975103940479 -0.48487994098964171 0 0.071046826552429457 -0.50000000000000733 0 0.059434139084113012 -0.47963991399004141 0 0.071046826552429457 -0.50000000000000733 0 0.059434139084113012 -0.47963991399004141 0 0.074737975103940479 -0.48487994098964171 0 0.05802097188470097 -0.46975988197928431 0 0.059434139084113012 -0.47963991399004141 0 0.074737975103940479 -0.48487994098964171 0 0.071955909258469009 -0.46877079283141743 0 0.05802097188470097 -0.46975988197928431 0 0.074737975103940479 -0.48487994098964171 0 0.071955909258469009 -0.46877079283141743 0 0.082737354296077953 -0.47427357099325013 0 0.074737975103940479 -0.48487994098964171 0 0.05802097188470097 -0.46975988197928431 0 0.074737975103940479 -0.48487994098964171 0 0.082737354296077953 -0.47427357099325013 0 0.094811061721812542 -0.48112121468145302 0 0.082737354296077953 -0.47427357099325013 0 0.094811061721812542 -0.48112121468145302 0 0.1002152236521098 -0.46121563513601083 0 0.074737975103940479 -0.48487994098964171 0 0.091454978323179614 -0.49999999999999939 0 0.094811061721812542 -0.48112121468145302 0 0.074737975103940479 -0.48487994098964171 0 0.091454978323179614 -0.49999999999999939 0 0.074737975103940479 -0.48487994098964171 0 0.071046826552429457 -0.50000000000000733 0 0.091454978323179614 -0.49999999999999939 0 0.1136374317729003 -0.5 0 0.11801755443736479 -0.48060781756800708 0 0.094811061721812542 -0.48112121468145302 0 0.091454978323179614 -0.49999999999999939 0 0.1136374317729003 -0.5 0 0.094811061721812542 -0.48112121468145302 0 0.13581988522262109 -0.50000000000000244 0 0.1136374317729003 -0.5 0 0.11801755443736479 -0.48060781756800708 0 0.11801755443736479 -0.48060781756800708 0 0.094811061721812542 -0.48112121468145302 0 0.1002152236521098 -0.46121563513601083 0 0.11801755443736479 -0.48060781756800708 0 0.1002152236521098 -0.46121563513601083 0 0.1002152236521098 -0.46121563513601083 0 0.1191891651937612 -0.46140505433989892 0 0.1082504500781146 -0.44478934181291102 0 0.11801755443736479 -0.48060781756800708 0 0.1002152236521098 -0.46121563513601083 0 0.1191891651937612 -0.46140505433989892 0 0.13480127744719991 -0.46410976413563299 0 0.11801755443736479 -0.48060781756800708 0 0.1191891651937612 -0.46140505433989892 0 0.1191891651937612 -0.46140505433989892 0 0.12203304576274319 -0.43975504748265359 0 0.1082504500781146 -0.44478934181291102 0 0.1002152236521098 -0.46121563513601083 0 0.1082504500781146 -0.44478934181291102 0 0.082412892866854714 -0.44182345270401441 0 0.1002152236521098 -0.46121563513601083 0 0.082412892866854714 -0.44182345270401441 0 0.082737354296077953 -0.47427357099325013 0 0.1002152236521098 -0.46121563513601083 0 0.07989865607697158 -0.46093656822545309 0 0.1002152236521098 -0.46121563513601083 0 0.082412892866854714 -0.44182345270401441 0 0.07989865607697158 -0.46093656822545309 0 0.071955909258469009 -0.46877079283141743 0 0.082737354296077953 -0.47427357099325013 0 0.07989865607697158 -0.46093656822545309 0 0.071955909258469009 -0.46877079283141743 0 0.07989865607697158 -0.46093656822545309 0 0.064942869781788204 -0.45298741250561531 0 0.071955909258469009 -0.46877079283141743 0 0.064942869781788204 -0.45298741250561531 0 0.05802097188470097 -0.46975988197928431 0 0.082412892866854714 -0.44182345270401441 0 0.07989865607697158 -0.46093656822545309 0 0.064942869781788204 -0.45298741250561531 0 0.082412892866854714 -0.44182345270401441 0 0.064942869781788204 -0.45298741250561531 0 0.064610562081599654 -0.42243127027201799 0 0.082412892866854714 -0.44182345270401441 0 0.064610562081599654 -0.42243127027201799 0 0.085410796704641828 -0.41553833344022301 0 0.082412892866854714 -0.44182345270401441 0 0.064610562081599654 -0.42243127027201799 0 0.064610562081599654 -0.42243127027201799 0 0.085410796704641828 -0.41553833344022301 0 0.071260751408415451 -0.40583032332525898 0 0.082412892866854714 -0.44182345270401441 0 0.085410796704641828 -0.41553833344022301 0 0.10565257718969159 -0.42402980380391259 0 0.1082504500781146 -0.44478934181291102 0 0.10565257718969159 -0.42402980380391259 0 0.1082504500781146 -0.44478934181291102 0 0.082412892866854714 -0.44182345270401441 0 0.10565257718969159 -0.42402980380391259 0 0.12203304576274319 -0.43975504748265359 0 0.1082504500781146 -0.44478934181291102 0 0.10565257718969159 -0.42402980380391259 0 0.12945713117598301 -0.42527718494859718 0 0.12203304576274319 -0.43975504748265359 0 0.10565257718969159 -0.42402980380391259 0 0.12945713117598301 -0.42527718494859718 0 0.10565257718969159 -0.42402980380391259 0 0.1185943653130178 -0.41089393958744808 0 0.10565257718969159 -0.42402980380391259 0 0.10305470430126849 -0.40327026579491432 0 0.10565257718969159 -0.42402980380391259 0 0.1185943653130178 -0.41089393958744808 0 0.10305470430126849 -0.40327026579491432 0 0.085410796704641828 -0.41553833344022301 0 0.10565257718969159 -0.42402980380391259 0 0.10305470430126849 -0.40327026579491432 0 0.10305470430126849 -0.40327026579491432 0 0.1092296532162271 -0.39195520602732847 0 0.1018679158255022 -0.38137383587803358 0 0.10305470430126849 -0.40327026579491432 0 0.1018679158255022 -0.38137383587803358 0 0.084827885114816814 -0.39510276155480978 0 0.10305470430126849 -0.40327026579491432 0 0.1018679158255022 -0.38137383587803358 0 0.1185943653130178 -0.41089393958744808 0 0.10305470430126849 -0.40327026579491432 0 0.1092296532162271 -0.39195520602732847 0 0.1185943653130178 -0.41089393958744808 0 0.1092296532162271 -0.39195520602732847 0 0.12412735500694751 -0.39493505064503392 0 0.12412735500694751 -0.39493505064503392 0 0.1208593498238435 -0.38006314209191833 0 0.1018679158255022 -0.38137383587803358 0 0.1092296532162271 -0.39195520602732847 0 0.12412735500694751 -0.39493505064503392 0 0.1018679158255022 -0.38137383587803358 0 0.12412735500694751 -0.39493505064503392 0 0.1018679158255022 -0.38137383587803358 0 0.1208593498238435 -0.38006314209191833 0 0.1018679158255022 -0.38137383587803358 0 0.12334710111447229 -0.36406834251145731 0 0.1018679158255022 -0.38137383587803358 0 0.1001863568717406 -0.38034937241650962 0 0.10879209213087419 -0.36797725762153549 0 0.1018679158255022 -0.38137383587803358 0 0.1001863568717406 -0.38034937241650962 0 0.092680417082859706 -0.38189565836938699 0 0.1018679158255022 -0.38137383587803358 0 0.1001863568717406 -0.38034937241650962 0 0.1001863568717406 -0.38034937241650962 0 0.092680417082859706 -0.38189565836938699 0 0.078941289569781151 -0.36740614783332631 0 0.1018679158255022 -0.38137383587803358 0 0.084827885114816814 -0.39510276155480978 0 0.1018679158255022 -0.38137383587803358 0 0.092680417082859706 -0.38189565836938699 0 0.084827885114816814 -0.39510276155480978 0 0.083667078469080447 -0.3817485906143725 0 0.076461538166658155 -0.38231907318138902 0 0.078941289569781151 -0.36740614783332631 0 0.092680417082859706 -0.38189565836938699 0 0.083667078469080447 -0.3817485906143725 0 0.078941289569781151 -0.36740614783332631 0 0.084827885114816814 -0.39510276155480978 0 0.073546264855348126 -0.39398280964304111 0 0.076461538166658155 -0.38231907318138902 0 0.083667078469080447 -0.3817485906143725 0 0.084827885114816814 -0.39510276155480978 0 0.076461538166658155 -0.38231907318138902 0 0.092680417082859706 -0.38189565836938699 0 0.083667078469080447 -0.3817485906143725 0 0.084827885114816814 -0.39510276155480978 0 0.085410796704641828 -0.41553833344022301 0 0.10305470430126849 -0.40327026579491432 0 0.084827885114816814 -0.39510276155480978 0 0.085410796704641828 -0.41553833344022301 0 0.084827885114816814 -0.39510276155480978 0 0.071260751408415451 -0.40583032332525898 0 0.084827885114816814 -0.39510276155480978 0 0.073546264855348126 -0.39398280964304111 0 0.071260751408415451 -0.40583032332525898 0 0.073546264855348126 -0.39398280964304111 0 0.071260751408415451 -0.40583032332525898 0 0.061634884731502082 -0.39267908051070671 0 0.076461538166658155 -0.38231907318138902 0 0.061634884731502082 -0.39267908051070671 0 0.076461538166658155 -0.38231907318138902 0 0.061634884731502082 -0.39267908051070671 0 0.061904282875925747 -0.37237526148823941 0 0.073546264855348126 -0.39398280964304111 0 0.076461538166658155 -0.38231907318138902 0 0.061634884731502082 -0.39267908051070671 0 0.051370350477500881 -0.3764161884637201 0 0.045801185216693012 -0.38580832539780119 0 0.043663507306638913 -0.36868104746756258 0 0.051370350477500881 -0.3764161884637201 0 0.061634884731502082 -0.39267908051070671 0 0.045801185216693012 -0.38580832539780119 0 0.051370350477500881 -0.3764161884637201 0 0.061634884731502082 -0.39267908051070671 0 0.061904282875925747 -0.37237526148823941 0 0.071260751408415451 -0.40583032332525898 0 0.061634884731502082 -0.39267908051070671 0 0.04680823129634433 -0.40303908784002201 0 0.061634884731502082 -0.39267908051070671 0 0.04680823129634433 -0.40303908784002201 0 0.045801185216693012 -0.38580832539780119 0 0.061634884731502082 -0.39267908051070671 0 0.04680823129634433 -0.40303908784002201 0 0.04680823129634433 -0.40303908784002201 0 0.02837172461734 -0.38295609391969199 0 0.04680823129634433 -0.40303908784002201 0 0.02837172461734 -0.38295609391969199 0 0.028215565298714249 -0.40094151263492078 0 0.045801185216693012 -0.38580832539780119 0 0.02837172461734 -0.38295609391969199 0 0.043663507306638913 -0.36868104746756258 0 0.04680823129634433 -0.40303908784002201 0 0.045801185216693012 -0.38580832539780119 0 0.02837172461734 -0.38295609391969199 0 0.02837172461734 -0.38295609391969199 0 0.0122991559467155 -0.37891225603134221 0 0.011208636448502229 -0.39508796301279092 0 -0.002178803782163227 -0.37161627006544062 0 0.0122991559467155 -0.37891225603134221 0 0.011208636448502229 -0.39508796301279092 0 -0.002178803782163227 -0.37161627006544062 0 0.011208636448502229 -0.39508796301279092 0 -0.002178803782163227 -0.37161627006544062 0 -0.0066930742226519926 -0.39143820132839208 0 0.011208636448502229 -0.39508796301279092 0 -0.001728596279610697 -0.40597762003102339 0 0.011208636448502229 -0.39508796301279092 0 0.0082246319185010179 -0.41465428951275207 0 -0.0066930742226519926 -0.39143820132839208 0 -0.001728596279610697 -0.40597762003102339 0 0.011208636448502229 -0.39508796301279092 0 0.011208636448502229 -0.39508796301279092 0 0.028215565298714249 -0.40094151263492078 0 0.024596076679173799 -0.41855965596013778 0 0.02837172461734 -0.38295609391969199 0 0.011208636448502229 -0.39508796301279092 0 0.028215565298714249 -0.40094151263492078 0 0.011208636448502229 -0.39508796301279092 0 0.024596076679173799 -0.41855965596013778 0 0.011208636448502229 -0.39508796301279092 0 0.024596076679173799 -0.41855965596013778 0 0.0082246319185010179 -0.41465428951275207 0 0.024596076679173799 -0.41855965596013778 0 0.0082246319185010179 -0.41465428951275207 0 0.01039378864355619 -0.42848339288335913 0 -0.009537301248459449 -0.42510302968362512 0 0.0082246319185010179 -0.41465428951275207 0 0.01039378864355619 -0.42848339288335913 0 0.024596076679173799 -0.41855965596013778 0 0.036208764147486278 -0.43891974197010591 0 0.024596076679173799 -0.41855965596013778 0 0.036208764147486278 -0.43891974197010591 0 0.020713539006084219 -0.44010250100644183 0 0.024596076679173799 -0.41855965596013778 0 0.01039378864355619 -0.42848339288335913 0 0.020713539006084219 -0.44010250100644183 0 0.024596076679173799 -0.41855965596013778 0 0.01039378864355619 -0.42848339288335913 0 0.024596076679173799 -0.41855965596013778 0 0.043950702345966319 -0.42295947833088071 0 0.036208764147486278 -0.43891974197010591 0 0.043950702345966319 -0.42295947833088071 0 0.051347790295756007 -0.43901682978775403 0 0.036208764147486278 -0.43891974197010591 0 0.04680823129634433 -0.40303908784002201 0 0.024596076679173799 -0.41855965596013778 0 0.04680823129634433 -0.40303908784002201 0 0.028215565298714249 -0.40094151263492078 0 0.024596076679173799 -0.41855965596013778 0 0.04680823129634433 -0.40303908784002201 0 0.024596076679173799 -0.41855965596013778 0 0.043950702345966319 -0.42295947833088071 0 0.064610562081599654 -0.42243127027201799 0 0.071260751408415451 -0.40583032332525898 0 0.04680823129634433 -0.40303908784002201 0 0.064610562081599654 -0.42243127027201799 0 0.04680823129634433 -0.40303908784002201 0 0.064610562081599654 -0.42243127027201799 0 0.04680823129634433 -0.40303908784002201 0 0.043950702345966319 -0.42295947833088071 0 0.064610562081599654 -0.42243127027201799 0 0.043950702345966319 -0.42295947833088071 0 0.051347790295756007 -0.43901682978775403 0 0.064942869781788204 -0.45298741250561531 0 0.064610562081599654 -0.42243127027201799 0 0.051347790295756007 -0.43901682978775403 0 0.064942869781788204 -0.45298741250561531 0 0.051347790295756007 -0.43901682978775403 0 0.047821451615799627 -0.45927982798007361 0 0.064942869781788204 -0.45298741250561531 0 0.047821451615799627 -0.45927982798007361 0 0.05802097188470097 -0.46975988197928431 0 0.047821451615799627 -0.45927982798007361 0 0.023714967739582489 -0.4565662814222432 0 0.032020960621095843 -0.47777188036233098 0 0.047821451615799627 -0.45927982798007361 0 0.036208764147486278 -0.43891974197010591 0 0.051347790295756007 -0.43901682978775403 0 0.047821451615799627 -0.45927982798007361 0 0.036208764147486278 -0.43891974197010591 0 0.047821451615799627 -0.45927982798007361 0 0.036208764147486278 -0.43891974197010591 0 0.023714967739582489 -0.4565662814222432 0 0.036208764147486278 -0.43891974197010591 0 0.020713539006084219 -0.44010250100644183 0 0.023714967739582489 -0.4565662814222432 0 -0.0013374034004768371 -0.44947558896604423 0 0.01039378864355619 -0.42848339288335913 0 0.020713539006084219 -0.44010250100644183 0 -0.0013374034004768371 -0.44947558896604423 0 0.020713539006084219 -0.44010250100644183 0 0.023714967739582489 -0.4565662814222432 0 -0.0013374034004768371 -0.44947558896604423 0 0.0068624944475057766 -0.47384814824846327 0 -0.0013374034004768371 -0.44947558896604423 0 0.023714967739582489 -0.4565662814222432 0 0.0068624944475057766 -0.47384814824846327 0 0.023714967739582489 -0.4565662814222432 0 0.0068624944475057766 -0.47384814824846327 0 0.032020960621095843 -0.47777188036233098 0 0.0068624944475057766 -0.47384814824846327 0 0.0150623922954884 -0.49822070753088238 0 0.032020960621095843 -0.47777188036233098 0 -0.015217900669161011 -0.5 0 0.0024053695883212941 -0.48891336768777249 0 0.013537008404702511 -0.5 0 0.0068624944475057766 -0.47384814824846327 0 0.0024053695883212941 -0.48891336768777249 0 0.0150623922954884 -0.49822070753088238 0 0.0068624944475057766 -0.47384814824846327 0 0.0150623922954884 -0.49822070753088238 0 0.0024053695883212941 -0.48891336768777249 0 0.0150623922954884 -0.49822070753088238 0 0.013537008404702511 -0.5 0 0.0150623922954884 -0.49822070753088238 0 0.013537008404702511 -0.5 0 0.042291917478565873 -0.5 0 0.0150623922954884 -0.49822070753088238 0 0.042291917478565873 -0.5 0 0.032020960621095843 -0.47777188036233098 0 0.042291917478565873 -0.5 0 0.032020960621095843 -0.47777188036233098 0 0.059434139084113012 -0.47963991399004141 0 0.047821451615799627 -0.45927982798007361 0 0.032020960621095843 -0.47777188036233098 0 0.059434139084113012 -0.47963991399004141 0 0.047821451615799627 -0.45927982798007361 0 0.05802097188470097 -0.46975988197928431 0 0.059434139084113012 -0.47963991399004141 0 0.047821451615799627 -0.45927982798007361 0 0.059434139084113012 -0.47963991399004141 0 0.071046826552429457 -0.50000000000000733 0 0.042291917478565873 -0.5 0 0.059434139084113012 -0.47963991399004141 0 0.078456545354339768 -0.28525100698693651 0 0.075192778843485145 -0.3004755496101415 0 0.095899689397586599 -0.3008291305439913 0 0.078456545354339768 -0.28525100698693651 0 0.095711127176573443 -0.2751242682777974 0 0.095899689397586599 -0.3008291305439913 0 0.075192778843485145 -0.3004755496101415 0 0.095899689397586599 -0.3008291305439913 0 0.074188022781041252 -0.31649930169162399 0 0.095899689397586599 -0.3008291305439913 0 0.074188022781041252 -0.31649930169162399 0 0.075192778843485145 -0.3004755496101415 0 0.074188022781041252 -0.31649930169162399 0 0.058270312985904418 -0.30816514798469019 0 0.075192778843485145 -0.3004755496101415 0 0.068995976747761104 -0.2945131319279734 0 0.058270312985904418 -0.30816514798469019 0 0.068995976747761104 -0.2945131319279734 0 0.064064269807315097 -0.28416082313012542 0 0.058270312985904418 -0.30816514798469019 0 0.078456545354339768 -0.28525100698693651 0 0.075192778843485145 -0.3004755496101415 0 0.068995976747761104 -0.2945131319279734 0 0.078456545354339768 -0.28525100698693651 0 0.068995976747761104 -0.2945131319279734 0 0.064064269807315097 -0.28416082313012542 0 0.064064269807315097 -0.28416082313012542 0 0.069858226628725775 -0.26015649827556059 0 0.078456545354339768 -0.28525100698693651 0 0.064064269807315097 -0.28416082313012542 0 0.069858226628725775 -0.26015649827556059 0 0.069858226628725775 -0.26015649827556059 0 0.095711127176573443 -0.2751242682777974 0 0.096521476943682558 -0.25181800011133371 0 0.078456545354339768 -0.28525100698693651 0 0.069858226628725775 -0.26015649827556059 0 0.095711127176573443 -0.2751242682777974 0 0.095711127176573443 -0.2751242682777974 0 0.114720785939063 -0.26575264298982931 0 0.1176113560141319 -0.2851589593963586 0 0.095711127176573443 -0.2751242682777974 0 0.096521476943682558 -0.25181800011133371 0 0.114720785939063 -0.26575264298982931 0 0.1376178273856396 -0.2676878026278281 0 0.114720785939063 -0.26575264298982931 0 0.1200034520355143 -0.24749468667538321 0 0.096521476943682558 -0.25181800011133371 0 0.114720785939063 -0.26575264298982931 0 0.1200034520355143 -0.24749468667538321 0 0.1376178273856396 -0.2676878026278281 0 0.114720785939063 -0.26575264298982931 0 0.1176113560141319 -0.2851589593963586 0 0.13584279120622419 -0.29064916595208462 0 0.1176113560141319 -0.2851589593963586 0 0.1212075847983899 -0.30357596212866123 0 0.1176113560141319 -0.2851589593963586 0 0.095899689397586599 -0.3008291305439913 0 0.1212075847983899 -0.30357596212866123 0 0.1176113560141319 -0.2851589593963586 0 0.095899689397586599 -0.3008291305439913 0 0.095711127176573443 -0.2751242682777974 0 0.1176113560141319 -0.2851589593963586 0 0.095899689397586599 -0.3008291305439913 0 0.095899689397586599 -0.3008291305439913 0 0.1212075847983899 -0.30357596212866123 0 0.1047724191350739 -0.31963875894108951 0 0.1212075847983899 -0.30357596212866123 0 0.1249111379911398 -0.32186001205002218 0 0.1047724191350739 -0.31963875894108951 0 0.1249111379911398 -0.32186001205002218 0 0.1047724191350739 -0.31963875894108951 0 0.11573058637367541 -0.34380091622275832 0 0.094619564876377599 -0.33586527524184762 0 0.1047724191350739 -0.31963875894108951 0 0.11573058637367541 -0.34380091622275832 0 0.094619564876377599 -0.33586527524184762 0 0.1047724191350739 -0.31963875894108951 0 0.086339338786571823 -0.32698567366184278 0 0.095899689397586599 -0.3008291305439913 0 0.1047724191350739 -0.31963875894108951 0 0.086339338786571823 -0.32698567366184278 0 0.1018679158255022 -0.38137383587803358 0 0.12334710111447229 -0.36406834251145731 0 0.1018679158255022 -0.38137383587803358 0 0.12334710111447229 -0.36406834251145731 0 0.10879209213087419 -0.36797725762153549 0 0.12334710111447229 -0.36406834251145731 0 0.11573058637367541 -0.34380091622275832 0 0.10879209213087419 -0.36797725762153549 0 0.11573058637367541 -0.34380091622275832 0 0.097402960874061584 -0.35810732382917831 0 0.10879209213087419 -0.36797725762153549 0 0.094619564876377599 -0.33586527524184762 0 0.11573058637367541 -0.34380091622275832 0 0.097402960874061584 -0.35810732382917831 0 0.094619564876377599 -0.33586527524184762 0 0.097402960874061584 -0.35810732382917831 0 0.1001863568717406 -0.38034937241650962 0 0.097402960874061584 -0.35810732382917831 0 0.1001863568717406 -0.38034937241650962 0 0.097402960874061584 -0.35810732382917831 0 0.10879209213087419 -0.36797725762153549 0 0.1001863568717406 -0.38034937241650962 0 0.097402960874061584 -0.35810732382917831 0 0.078941289569781151 -0.36740614783332631 0 0.1001863568717406 -0.38034937241650962 0 0.078941289569781151 -0.36740614783332631 0 0.094619564876377599 -0.33586527524184762 0 0.097402960874061584 -0.35810732382917831 0 0.084740357312199394 -0.34701535865000288 0 0.078941289569781151 -0.36740614783332631 0 0.084740357312199394 -0.34701535865000288 0 0.072564810466095128 -0.35396504242622201 0 0.097402960874061584 -0.35810732382917831 0 0.078941289569781151 -0.36740614783332631 0 0.084740357312199394 -0.34701535865000288 0 0.078941289569781151 -0.36740614783332631 0 0.072564810466095128 -0.35396504242622201 0 0.057696222267823373 -0.35446292325014028 0 0.084740357312199394 -0.34701535865000288 0 0.072564810466095128 -0.35396504242622201 0 0.073102422775426085 -0.33909783780230318 0 0.064643683218506637 -0.34920539315333932 0 0.072564810466095128 -0.35396504242622201 0 0.073102422775426085 -0.33909783780230318 0 0.064643683218506637 -0.34920539315333932 0 0.072564810466095128 -0.35396504242622201 0 0.057696222267823373 -0.35446292325014028 0 0.078941289569781151 -0.36740614783332631 0 0.057696222267823373 -0.35446292325014028 0 0.076461538166658155 -0.38231907318138902 0 0.078941289569781151 -0.36740614783332631 0 0.061904282875925747 -0.37237526148823941 0 0.078941289569781151 -0.36740614783332631 0 0.061904282875925747 -0.37237526148823941 0 0.057696222267823373 -0.35446292325014028 0 0.095899689397586599 -0.3008291305439913 0 0.086339338786571823 -0.32698567366184278 0 0.074188022781041252 -0.31649930169162399 0 0.094619564876377599 -0.33586527524184762 0 0.084740357312199394 -0.34701535865000288 0 0.086339338786571823 -0.32698567366184278 0 0.084740357312199394 -0.34701535865000288 0 0.086339338786571823 -0.32698567366184278 0 0.073102422775426085 -0.33909783780230318 0 0.073102422775426085 -0.33909783780230318 0 0.074188022781041252 -0.31649930169162399 0 0.052476356164494947 -0.33216947283925541 0 0.064643683218506637 -0.34920539315333932 0 0.073102422775426085 -0.33909783780230318 0 0.060945063747813971 -0.34285112352430303 0 0.074188022781041252 -0.31649930169162399 0 0.052476356164494947 -0.33216947283925541 0 0.086339338786571823 -0.32698567366184278 0 0.073102422775426085 -0.33909783780230318 0 0.074188022781041252 -0.31649930169162399 0 0.052476356164494947 -0.33216947283925541 0 0.058270312985904418 -0.30816514798469019 0 0.052476356164494947 -0.33216947283925541 0 0.044648526871603783 -0.31770081170742831 0 0.058270312985904418 -0.30816514798469019 0 0.074188022781041252 -0.31649930169162399 0 0.052476356164494947 -0.33216947283925541 0 0.058270312985904418 -0.30816514798469019 0 0.052476356164494947 -0.33216947283925541 0 0.047583047975914103 -0.35244241635483559 0 0.073102422775426085 -0.33909783780230318 0 0.060945063747813971 -0.34285112352430303 0 0.052476356164494947 -0.33216947283925541 0 0.060945063747813971 -0.34285112352430303 0 0.052476356164494947 -0.33216947283925541 0 0.054181307711507642 -0.34983992205818981 0 0.052476356164494947 -0.33216947283925541 0 0.04071506683574927 -0.34065806194451792 0 0.047583047975914103 -0.35244241635483559 0 0.052476356164494947 -0.33216947283925541 0 0.04071506683574927 -0.34065806194451792 0 0.044648526871603783 -0.31770081170742831 0 0.04071506683574927 -0.34065806194451792 0 0.03015636661650286 -0.3225410253719756 0 0.04071506683574927 -0.34065806194451792 0 0.03015636661650286 -0.3225410253719756 0 0.02636863849756152 -0.33688388254537838 0 0.052476356164494947 -0.33216947283925541 0 0.04071506683574927 -0.34065806194451792 0 0.04071506683574927 -0.34065806194451792 0 0.044648526871603783 -0.31770081170742831 0 0.03015636661650286 -0.3225410253719756 0 0.044648526871603783 -0.31770081170742831 0 0.03015636661650286 -0.3225410253719756 0 0.034491627806478041 -0.30853974567073322 0 0.061904282875925747 -0.37237526148823941 0 0.053259535722039633 -0.3641180164926533 0 0.057696222267823373 -0.35446292325014028 0 0.051370350477500881 -0.3764161884637201 0 0.053259535722039633 -0.3641180164926533 0 0.043663507306638913 -0.36868104746756258 0 0.051370350477500881 -0.3764161884637201 0 0.061904282875925747 -0.37237526148823941 0 0.053259535722039633 -0.3641180164926533 0 0.053259535722039633 -0.3641180164926533 0 0.048773826387857627 -0.3544856011778737 0 0.043663507306638913 -0.36868104746756258 0 0.052476356164494947 -0.33216947283925541 0 0.047583047975914103 -0.35244241635483559 0 0.054181307711507642 -0.34983992205818981 0 0.053259535722039633 -0.3641180164926533 0 0.053244657324237762 -0.3582642649149802 0 0.048773826387857627 -0.3544856011778737 0 0.053244657324237762 -0.3582642649149802 0 0.048773826387857627 -0.3544856011778737 0 0.054181307711507642 -0.34983992205818981 0 0.048773826387857627 -0.3544856011778737 0 0.047583047975914103 -0.35244241635483559 0 0.054181307711507642 -0.34983992205818981 0 0.048773826387857627 -0.3544856011778737 0 0.047583047975914103 -0.35244241635483559 0 0.053259535722039633 -0.3641180164926533 0 0.053244657324237762 -0.3582642649149802 0 0.057696222267823373 -0.35446292325014028 0 0.053244657324237762 -0.3582642649149802 0 0.057696222267823373 -0.35446292325014028 0 0.054181307711507642 -0.34983992205818981 0 0.064643683218506637 -0.34920539315333932 0 0.057696222267823373 -0.35446292325014028 0 0.054181307711507642 -0.34983992205818981 0 0.064643683218506637 -0.34920539315333932 0 0.060945063747813971 -0.34285112352430303 0 0.054181307711507642 -0.34983992205818981 0 0.048773826387857627 -0.3544856011778737 0 0.047583047975914103 -0.35244241635483559 0 0.043663507306638913 -0.36868104746756258 0 0.04071506683574927 -0.34065806194451792 0 0.047583047975914103 -0.35244241635483559 0 0.04071506683574927 -0.34065806194451792 0 0.047583047975914103 -0.35244241635483559 0 0.03985573710467899 -0.35136837444597901 0 0.04071506683574927 -0.34065806194451792 0 0.03985573710467899 -0.35136837444597901 0 0.03205896378917665 -0.35434441690964041 0 0.04071506683574927 -0.34065806194451792 0 0.03205896378917665 -0.35434441690964041 0 0.025431496553892478 -0.35168882095041942 0 0.04071506683574927 -0.34065806194451792 0 0.025431496553892478 -0.35168882095041942 0 0.03985573710467899 -0.35136837444597901 0 0.03205896378917665 -0.35434441690964041 0 0.039065869817875902 -0.35802860257492208 0 0.047583047975914103 -0.35244241635483559 0 0.03985573710467899 -0.35136837444597901 0 0.039065869817875902 -0.35802860257492208 0 0.02837172461734 -0.38295609391969199 0 0.033371525452051833 -0.36592480980272157 0 0.043663507306638913 -0.36868104746756258 0 0.047583047975914103 -0.35244241635483559 0 0.039065869817875902 -0.35802860257492208 0 0.043663507306638913 -0.36868104746756258 0 0.047583047975914103 -0.35244241635483559 0 0.043663507306638913 -0.36868104746756258 0 0.039065869817875902 -0.35802860257492208 0 0.033371525452051833 -0.36592480980272157 0 0.043663507306638913 -0.36868104746756258 0 0.03205896378917665 -0.35434441690964041 0 0.039065869817875902 -0.35802860257492208 0 0.033371525452051833 -0.36592480980272157 0 0.02837172461734 -0.38295609391969199 0 0.0099352179383349771 -0.36287309999936251 0 0.02837172461734 -0.38295609391969199 0 0.023697561729227701 -0.3656138881417908 0 0.0099352179383349771 -0.36287309999936251 0 0.02837172461734 -0.38295609391969199 0 0.033371525452051833 -0.36592480980272157 0 0.023697561729227701 -0.3656138881417908 0 0.02837172461734 -0.38295609391969199 0 0.0122991559467155 -0.37891225603134221 0 0.0099352179383349771 -0.36287309999936251 0 0.03205896378917665 -0.35434441690964041 0 0.033371525452051833 -0.36592480980272157 0 0.023697561729227701 -0.3656138881417908 0 0.023697561729227701 -0.3656138881417908 0 0.025431496553892478 -0.35168882095041942 0 0.0099352179383349771 -0.36287309999936251 0 0.025431496553892478 -0.35168882095041942 0 0.0075807645751098419 -0.34453611388615663 0 0.025431496553892478 -0.35168882095041942 0 0.0075807645751098419 -0.34453611388615663 0 0.02636863849756152 -0.33688388254537838 0 0.025431496553892478 -0.35168882095041942 0 0.0099352179383349771 -0.36287309999936251 0 0.03205896378917665 -0.35434441690964041 0 0.023697561729227701 -0.3656138881417908 0 0.025431496553892478 -0.35168882095041942 0 0.03205896378917665 -0.35434441690964041 0 0.025431496553892478 -0.35168882095041942 0 -0.0096343958099064687 -0.34155580596031437 0 0.0099352179383349771 -0.36287309999936251 0 -0.0096343958099064687 -0.34155580596031437 0 0.0075807645751098419 -0.34453611388615663 0 0.0099352179383349771 -0.36287309999936251 0 0.025431496553892478 -0.35168882095041942 0 0.0075807645751098419 -0.34453611388615663 0 0.0099352179383349771 -0.36287309999936251 0 -0.002178803782163227 -0.37161627006544062 0 0.0122991559467155 -0.37891225603134221 0 0.0099352179383349771 -0.36287309999936251 0 -0.0070150904897389628 -0.35875101633193152 0 -0.002178803782163227 -0.37161627006544062 0 0.0099352179383349771 -0.36287309999936251 0 -0.002178803782163227 -0.37161627006544062 0 0.0099352179383349771 -0.36287309999936251 0 0.03015636661650286 -0.3225410253719756 0 0.019597666397256509 -0.30442398879943339 0 0.03015636661650286 -0.3225410253719756 0 0.014793392922354411 -0.31628120652474823 0 0.019597666397256509 -0.30442398879943339 0 0.03015636661650286 -0.3225410253719756 0 0.01453256369494863 -0.32953892791496292 0 0.014793392922354411 -0.31628120652474823 0 0.03015636661650286 -0.3225410253719756 0 0.02636863849756152 -0.33688388254537838 0 0.01453256369494863 -0.32953892791496292 0 0.0075807645751098419 -0.34453611388615663 0 0.02636863849756152 -0.33688388254537838 0 0.01453256369494863 -0.32953892791496292 0 0.04071506683574927 -0.34065806194451792 0 0.025431496553892478 -0.35168882095041942 0 0.02636863849756152 -0.33688388254537838 0 0.0075807645751098419 -0.34453611388615663 0 0.01453256369494863 -0.32953892791496292 0 0.0034794820758208261 -0.33361449123698089 0 -0.010269967403673339 -0.33738340682189533 0 0.0075807645751098419 -0.34453611388615663 0 0.0034794820758208261 -0.33361449123698089 0 0.01453256369494863 -0.32953892791496292 0 0.0034794820758208261 -0.33361449123698089 0 0.001904989571353899 -0.32214434476741449 0 0.001904989571353899 -0.32214434476741449 0 0.014793392922354411 -0.31628120652474823 0 0.0019518825097332619 -0.30029273945570772 0 0.01453256369494863 -0.32953892791496292 0 0.001904989571353899 -0.32214434476741449 0 0.014793392922354411 -0.31628120652474823 0 0.0019518825097332619 -0.30029273945570772 0 0.0090389661780101715 -0.28630695222689118 0 0.019597666397256509 -0.30442398879943339 0 0.014793392922354411 -0.31628120652474823 0 0.0019518825097332619 -0.30029273945570772 0 0.019597666397256509 -0.30442398879943339 0 -0.0020851015340006161 -0.28052611142458661 0 0.0019518825097332619 -0.30029273945570772 0 0.0090389661780101715 -0.28630695222689118 0 0.0090389661780101715 -0.28630695222689118 0 0.019597666397256509 -0.30442398879943339 0 0.0090389661780101715 -0.28630695222689118 0 0.019597666397256509 -0.30442398879943339 0 0.033821918158706138 -0.27707393290215671 0 0.03015636661650286 -0.3225410253719756 0 0.019597666397256509 -0.30442398879943339 0 0.034491627806478041 -0.30853974567073322 0 0.019597666397256509 -0.30442398879943339 0 0.034491627806478041 -0.30853974567073322 0 0.043330632548044458 -0.29475484461045087 0 0.044648526871603783 -0.31770081170742831 0 0.034491627806478041 -0.30853974567073322 0 0.043330632548044458 -0.29475484461045087 0 0.019597666397256509 -0.30442398879943339 0 0.043330632548044458 -0.29475484461045087 0 0.033821918158706138 -0.27707393290215671 0 0.043330632548044458 -0.29475484461045087 0 0.062049371387241412 -0.28749956346879602 0 0.033821918158706138 -0.27707393290215671 0 0.064064269807315097 -0.28416082313012542 0 0.058270312985904418 -0.30816514798469019 0 0.062049371387241412 -0.28749956346879602 0 0.033821918158706138 -0.27707393290215671 0 0.064064269807315097 -0.28416082313012542 0 0.062049371387241412 -0.28749956346879602 0 0.058270312985904418 -0.30816514798469019 0 0.043330632548044458 -0.29475484461045087 0 0.062049371387241412 -0.28749956346879602 0 0.058270312985904418 -0.30816514798469019 0 0.044648526871603783 -0.31770081170742831 0 0.043330632548044458 -0.29475484461045087 0 0.058270312985904418 -0.30816514798469019 0 0.069858226628725775 -0.26015649827556059 0 0.051624075113339378 -0.26919050519125598 0 0.046498349670861652 -0.24826912251879649 0 0.064064269807315097 -0.28416082313012542 0 0.069858226628725775 -0.26015649827556059 0 0.051624075113339378 -0.26919050519125598 0 0.062049371387241412 -0.28749956346879602 0 0.051624075113339378 -0.26919050519125598 0 0.033821918158706138 -0.27707393290215671 0 0.064064269807315097 -0.28416082313012542 0 0.062049371387241412 -0.28749956346879602 0 0.051624075113339378 -0.26919050519125598 0 0.051624075113339378 -0.26919050519125598 0 0.033821918158706138 -0.27707393290215671 0 0.034240698289148337 -0.25967273023798509 0 0.051624075113339378 -0.26919050519125598 0 0.034240698289148337 -0.25967273023798509 0 0.046498349670861652 -0.24826912251879649 0 0.034240698289148337 -0.25967273023798509 0 0.02296875629887114 -0.2464092256209898 0 0.046498349670861652 -0.24826912251879649 0 0.034240698289148337 -0.25967273023798509 0 0.0055944649301708496 -0.26664830233551728 0 0.02296875629887114 -0.2464092256209898 0 0.0090389661780101715 -0.28630695222689118 0 0.033821918158706138 -0.27707393290215671 0 0.0055944649301708496 -0.26664830233551728 0 0.033821918158706138 -0.27707393290215671 0 0.034240698289148337 -0.25967273023798509 0 0.0055944649301708496 -0.26664830233551728 0 0.033821918158706138 -0.27707393290215671 0 0.0055944649301708496 -0.26664830233551728 0 -0.0020851015340006161 -0.28052611142458661 0 0.0090389661780101715 -0.28630695222689118 0 0.0055944649301708496 -0.26664830233551728 0 0.0055944649301708496 -0.26664830233551728 0 0.0055632338660241776 -0.24332209518663511 0 0.02296875629887114 -0.2464092256209898 0 -0.0080727856436109482 -0.2481099565327444 0 0.0055944649301708496 -0.26664830233551728 0 0.0055632338660241776 -0.24332209518663511 0 0.0055632338660241776 -0.24332209518663511 0 0.0032521440618358652 -0.23009641691855939 0 0.019268989126464159 -0.2308348024940351 0 -0.0084819670471955304 -0.2367225590632196 0 0.0055632338660241776 -0.24332209518663511 0 0.0032521440618358652 -0.23009641691855939 0 -0.0075276580997289226 -0.21896018305478171 0 0.0032521440618358652 -0.23009641691855939 0 0.012041166441398349 -0.21677938876306921 0 0.0032521440618358652 -0.23009641691855939 0 0.019268989126464159 -0.2308348024940351 0 0.012041166441398349 -0.21677938876306921 0 0.019268989126464159 -0.2308348024940351 0 0.028464877365028059 -0.21915571909051779 0 0.012041166441398349 -0.21677938876306921 0 0.019268989126464159 -0.2308348024940351 0 0.028464877365028059 -0.21915571909051779 0 0.041174919052571327 -0.22964645066930789 0 0.0055632338660241776 -0.24332209518663511 0 0.019268989126464159 -0.2308348024940351 0 0.02296875629887114 -0.2464092256209898 0 0.019268989126464159 -0.2308348024940351 0 0.02296875629887114 -0.2464092256209898 0 0.041174919052571327 -0.22964645066930789 0 -0.0075276580997289226 -0.21896018305478171 0 0.003555539334036632 -0.19934620758084881 0 0.012041166441398349 -0.21677938876306921 0 0.003555539334036632 -0.19934620758084881 0 0.012041166441398349 -0.21677938876306921 0 0.02523310686075431 -0.20228300343967229 0 0.028464877365028059 -0.21915571909051779 0 0.012041166441398349 -0.21677938876306921 0 0.02523310686075431 -0.20228300343967229 0 0.02523310686075431 -0.20228300343967229 0 0.033125333554059701 -0.1865598477748947 0 0.018588522793563201 -0.18166153924030251 0 0.003555539334036632 -0.19934620758084881 0 0.02523310686075431 -0.20228300343967229 0 0.018588522793563201 -0.18166153924030251 0 0.048648578511840943 -0.20623258170594561 0 0.049880579816306267 -0.17970719815632741 0 0.033125333554059701 -0.1865598477748947 0 0.02523310686075431 -0.20228300343967229 0 0.048648578511840943 -0.20623258170594561 0 0.033125333554059701 -0.1865598477748947 0 0.028464877365028059 -0.21915571909051779 0 0.02523310686075431 -0.20228300343967229 0 0.048648578511840943 -0.20623258170594561 0 0.028464877365028059 -0.21915571909051779 0 0.048648578511840943 -0.20623258170594561 0 0.041174919052571327 -0.22964645066930789 0 0.048648578511840943 -0.20623258170594561 0 0.059757914812518881 -0.22869522271940709 0 0.066598585428591164 -0.21133354617687591 0 0.048648578511840943 -0.20623258170594561 0 0.067160325985138131 -0.18691533881804831 0 0.049880579816306267 -0.17970719815632741 0 0.048648578511840943 -0.20623258170594561 0 0.066598585428591164 -0.21133354617687591 0 0.067160325985138131 -0.18691533881804831 0 0.069858226628725775 -0.26015649827556059 0 0.046498349670861652 -0.24826912251879649 0 0.059757914812518881 -0.22869522271940709 0 0.02296875629887114 -0.2464092256209898 0 0.046498349670861652 -0.24826912251879649 0 0.041174919052571327 -0.22964645066930789 0 0.048648578511840943 -0.20623258170594561 0 0.041174919052571327 -0.22964645066930789 0 0.059757914812518881 -0.22869522271940709 0 0.046498349670861652 -0.24826912251879649 0 0.041174919052571327 -0.22964645066930789 0 0.059757914812518881 -0.22869522271940709 0 0.069858226628725775 -0.26015649827556059 0 0.059757914812518881 -0.22869522271940709 0 0.080941623453078815 -0.2334444244951252 0 0.069858226628725775 -0.26015649827556059 0 0.096521476943682558 -0.25181800011133371 0 0.080941623453078815 -0.2334444244951252 0 0.096521476943682558 -0.25181800011133371 0 0.080941623453078815 -0.2334444244951252 0 0.102389076685389 -0.22730157072293841 0 0.080941623453078815 -0.2334444244951252 0 0.084774701335263575 -0.20710845477049339 0 0.102389076685389 -0.22730157072293841 0 0.059757914812518881 -0.22869522271940709 0 0.080941623453078815 -0.2334444244951252 0 0.066598585428591164 -0.21133354617687591 0 0.080941623453078815 -0.2334444244951252 0 0.066598585428591164 -0.21133354617687591 0 0.084774701335263575 -0.20710845477049339 0 0.084774701335263575 -0.20710845477049339 0 0.067160325985138131 -0.18691533881804831 0 0.066598585428591164 -0.21133354617687591 0 0.084774701335263575 -0.20710845477049339 0 0.067160325985138131 -0.18691533881804831 0 0.092537347032927528 -0.18889969997864839 0 0.084774701335263575 -0.20710845477049339 0 0.067160325985138131 -0.18691533881804831 0 0.084774701335263575 -0.20710845477049339 0 0.102389076685389 -0.22730157072293841 0 0.084774701335263575 -0.20710845477049339 0 0.10575093398731179 -0.20517541990618701 0 0.102389076685389 -0.22730157072293841 0 0.092537347032927528 -0.18889969997864839 0 0.10575093398731179 -0.20517541990618701 0 0.11404320040195411 -0.17785048998131209 0 0.092537347032927528 -0.18889969997864839 0 0.084774701335263575 -0.20710845477049339 0 0.10575093398731179 -0.20517541990618701 0 0.10575093398731179 -0.20517541990618701 0 0.11404320040195411 -0.17785048998131209 0 0.12592289232087811 -0.19910656028939411 0 0.10575093398731179 -0.20517541990618701 0 0.1284413173888232 -0.22347585252773641 0 0.12592289232087811 -0.19910656028939411 0 0.10575093398731179 -0.20517541990618701 0 0.102389076685389 -0.22730157072293841 0 0.1284413173888232 -0.22347585252773641 0 0.1200034520355143 -0.24749468667538321 0 0.102389076685389 -0.22730157072293841 0 0.1284413173888232 -0.22347585252773641 0 0.1200034520355143 -0.24749468667538321 0 0.102389076685389 -0.22730157072293841 0 0.096521476943682558 -0.25181800011133371 0 0.1200034520355143 -0.24749468667538321 0 0.102389076685389 -0.22730157072293841 0 0.099885875260422058 -0.15149088269105351 0 0.1161887790728692 -0.1476769396888597 0 0.1105045846919957 -0.16013033574144619 0 0.099885875260422058 -0.15149088269105351 0 0.099597293261818404 -0.1347502866929414 0 0.1161887790728692 -0.1476769396888597 0 0.099597293261818404 -0.1347502866929414 0 0.1161887790728692 -0.1476769396888597 0 0.099597293261818404 -0.1347502866929414 0 0.1047785765018954 -0.13712350701568179 0 0.1161887790728692 -0.1476769396888597 0 0.099597293261818404 -0.1347502866929414 0 0.093527805260815264 -0.13002146576964491 0 0.104312872852085 -0.12243825994362539 0 0.099597293261818404 -0.1347502866929414 0 0.093527805260815264 -0.13002146576964491 0 0.099597293261818404 -0.1347502866929414 0 0.093527805260815264 -0.13002146576964491 0 0.092996203934319052 -0.1329056080468716 0 0.099597293261818404 -0.1347502866929414 0 0.1088944047617572 -0.13480079442927331 0 0.104312872852085 -0.12243825994362539 0 0.099597293261818404 -0.1347502866929414 0 0.1047785765018954 -0.13712350701568179 0 0.1088944047617572 -0.13480079442927331 0 0.099597293261818404 -0.1347502866929414 0 0.1088944047617572 -0.13480079442927331 0 0.1047785765018954 -0.13712350701568179 0 0.1088944047617572 -0.13480079442927331 0 0.1088944047617572 -0.13480079442927331 0 0.1161887790728692 -0.1476769396888597 0 0.13638976604354719 -0.13495016646355951 0 0.1088944047617572 -0.13480079442927331 0 0.12800820934211829 -0.12401417466047961 0 0.13638976604354719 -0.13495016646355951 0 0.1047785765018954 -0.13712350701568179 0 0.1088944047617572 -0.13480079442927331 0 0.1161887790728692 -0.1476769396888597 0 0.1088944047617572 -0.13480079442927331 0 0.104312872852085 -0.12243825994362539 0 0.12800820934211829 -0.12401417466047961 0 0.1088944047617572 -0.13480079442927331 0 0.12800820934211829 -0.12401417466047961 0 0.1088944047617572 -0.13480079442927331 0 0.13638976604354719 -0.13495016646355951 0 0.1161887790728692 -0.1476769396888597 0 0.1105045846919957 -0.16013033574144619 0 0.1305387904294309 -0.15561497697083931 0 0.1105045846919957 -0.16013033574144619 0 0.11404320040195411 -0.17785048998131209 0 0.1305387904294309 -0.15561497697083931 0 0.092537347032927528 -0.18889969997864839 0 0.11404320040195411 -0.17785048998131209 0 0.090957573454969964 -0.1674487964172009 0 0.1105045846919957 -0.16013033574144619 0 0.11404320040195411 -0.17785048998131209 0 0.090957573454969964 -0.1674487964172009 0 0.099885875260422058 -0.15149088269105351 0 0.1105045846919957 -0.16013033574144619 0 0.090957573454969964 -0.1674487964172009 0 0.099885875260422058 -0.15149088269105351 0 0.090957573454969964 -0.1674487964172009 0 0.080257725164813276 -0.1505404030764457 0 0.090957573454969964 -0.1674487964172009 0 0.065342325237630991 -0.1650228072456788 0 0.080257725164813276 -0.1505404030764457 0 0.092537347032927528 -0.18889969997864839 0 0.090957573454969964 -0.1674487964172009 0 0.067160325985138131 -0.18691533881804831 0 0.090957573454969964 -0.1674487964172009 0 0.067160325985138131 -0.18691533881804831 0 0.065342325237630991 -0.1650228072456788 0 0.065342325237630991 -0.1650228072456788 0 0.080257725164813276 -0.1505404030764457 0 0.056224073158944461 -0.14994265306170279 0 0.080257725164813276 -0.1505404030764457 0 0.069539210615093855 -0.1345869923500955 0 0.056224073158944461 -0.14994265306170279 0 0.099885875260422058 -0.15149088269105351 0 0.099597293261818404 -0.1347502866929414 0 0.080257725164813276 -0.1505404030764457 0 0.099597293261818404 -0.1347502866929414 0 0.080257725164813276 -0.1505404030764457 0 0.069539210615093855 -0.1345869923500955 0 0.099597293261818404 -0.1347502866929414 0 0.092996203934319052 -0.1329056080468716 0 0.069539210615093855 -0.1345869923500955 0 0.099597293261818404 -0.1347502866929414 0 0.069539210615093855 -0.1345869923500955 0 0.092996203934319052 -0.1329056080468716 0 0.069539210615093855 -0.1345869923500955 0 0.079322302472514483 -0.11895376470488229 0 0.093527805260815264 -0.13002146576964491 0 0.092996203934319052 -0.1329056080468716 0 0.079322302472514483 -0.11895376470488229 0 0.093527805260815264 -0.13002146576964491 0 0.092996203934319052 -0.1329056080468716 0 0.069539210615093855 -0.1345869923500955 0 0.052298963826290519 -0.1211548808236817 0 0.066569319149528045 -0.1206454253796948 0 0.069539210615093855 -0.1345869923500955 0 0.039481127968369292 -0.1344236980072451 0 0.052298963826290519 -0.1211548808236817 0 0.069539210615093855 -0.1345869923500955 0 0.056224073158944461 -0.14994265306170279 0 0.039481127968369292 -0.1344236980072451 0 0.069539210615093855 -0.1345869923500955 0 0.039481127968369292 -0.1344236980072451 0 0.056224073158944461 -0.14994265306170279 0 0.038811693183881758 -0.15444647348478721 0 0.047368807546727579 -0.16279517251764489 0 0.056224073158944461 -0.14994265306170279 0 0.038811693183881758 -0.15444647348478721 0 0.039481127968369292 -0.1344236980072451 0 0.038811693183881758 -0.15444647348478721 0 0.039481127968369292 -0.1344236980072451 0 0.019056913867763529 -0.155566515408149 0 0.034777770017858589 -0.1343981464191871 0 0.039481127968369292 -0.1344236980072451 0 0.022320289212787989 -0.1422177528203018 0 0.034777770017858589 -0.1343981464191871 0 0.039481127968369292 -0.1344236980072451 0 0.034777770017858589 -0.1343981464191871 0 0.029299678594365521 -0.12697140115214181 0 0.037800108132664212 -0.12348471533883321 0 0.034777770017858589 -0.1343981464191871 0 0.039481127968369292 -0.1344236980072451 0 0.037800108132664212 -0.12348471533883321 0 0.039481127968369292 -0.1344236980072451 0 0.052298963826290519 -0.1211548808236817 0 0.039481127968369292 -0.1344236980072451 0 0.052298963826290519 -0.1211548808236817 0 0.037800108132664212 -0.12348471533883321 0 0.067160325985138131 -0.18691533881804831 0 0.065342325237630991 -0.1650228072456788 0 0.049880579816306267 -0.17970719815632741 0 0.065342325237630991 -0.1650228072456788 0 0.049880579816306267 -0.17970719815632741 0 0.047368807546727579 -0.16279517251764489 0 0.065342325237630991 -0.1650228072456788 0 0.056224073158944461 -0.14994265306170279 0 0.047368807546727579 -0.16279517251764489 0 0.049880579816306267 -0.17970719815632741 0 0.047368807546727579 -0.16279517251764489 0 0.031927543377605602 -0.16950432842919569 0 0.038811693183881758 -0.15444647348478721 0 0.047368807546727579 -0.16279517251764489 0 0.031927543377605602 -0.16950432842919569 0 0.049880579816306267 -0.17970719815632741 0 0.031927543377605602 -0.16950432842919569 0 0.033125333554059701 -0.1865598477748947 0 0.031927543377605602 -0.16950432842919569 0 0.033125333554059701 -0.1865598477748947 0 0.018588522793563201 -0.18166153924030251 0 0.031927543377605602 -0.16950432842919569 0 0.018588522793563201 -0.18166153924030251 0 0.019056913867763529 -0.155566515408149 0 0.038811693183881758 -0.15444647348478721 0 0.031927543377605602 -0.16950432842919569 0 0.019056913867763529 -0.155566515408149 0 -0.0013673002328405961 -0.1767093328090546 0 0.018588522793563201 -0.18166153924030251 0 0.019056913867763529 -0.155566515408149 0 -0.0013673002328405961 -0.1767093328090546 0 0.019056913867763529 -0.155566515408149 0 -0.0013673002328405961 -0.1767093328090546 0 0.019056913867763529 -0.155566515408149 0 0.0027310736070901482 -0.15493719994590471 0 -0.0013673002328405961 -0.1767093328090546 0 0.003555539334036632 -0.19934620758084881 0 0.018588522793563201 -0.18166153924030251 0 0.020222670022858619 -0.12863691797839069 0 0.022320289212787989 -0.1422177528203018 0 0.0088678229424013627 -0.13941235935176011 0 0.020222670022858619 -0.12863691797839069 0 0.02665510196196769 -0.1330560545925053 0 0.022320289212787989 -0.1422177528203018 0 0.034777770017858589 -0.1343981464191871 0 0.029299678594365521 -0.12697140115214181 0 0.02665510196196769 -0.1330560545925053 0 0.020222670022858619 -0.12863691797839069 0 0.029299678594365521 -0.12697140115214181 0 0.02665510196196769 -0.1330560545925053 0 0.034777770017858589 -0.1343981464191871 0 0.02665510196196769 -0.1330560545925053 0 0.022320289212787989 -0.1422177528203018 0 0.039481127968369292 -0.1344236980072451 0 0.019056913867763529 -0.155566515408149 0 0.019056913867763529 -0.155566515408149 0 0.022320289212787989 -0.1422177528203018 0 0.0088678229424013627 -0.13941235935176011 0 0.039481127968369292 -0.1344236980072451 0 0.019056913867763529 -0.155566515408149 0 0.022320289212787989 -0.1422177528203018 0 0.019056913867763529 -0.155566515408149 0 0.0027310736070901482 -0.15493719994590471 0 0.0088678229424013627 -0.13941235935176011 0 0.020222670022858619 -0.12863691797839069 0 0.0088678229424013627 -0.13941235935176011 0 0.0015243557028834459 -0.11711868301268021 0 0.020222670022858619 -0.12863691797839069 0 0.0015243557028834459 -0.11711868301268021 0 0.0144479962461943 -0.1082343501681014 0 0.020222670022858619 -0.12863691797839069 0 0.02728947708542654 -0.1146689930447462 0 0.0144479962461943 -0.1082343501681014 0 0.020222670022858619 -0.12863691797839069 0 0.029299678594365521 -0.12697140115214181 0 0.02728947708542654 -0.1146689930447462 0 0.0144479962461943 -0.1082343501681014 0 0.01674231050701382 -0.093658367309864349 0 0.03170108987002046 -0.10050694789866579 0 0.02728947708542654 -0.1146689930447462 0 0.0144479962461943 -0.1082343501681014 0 0.03170108987002046 -0.10050694789866579 0 0.01674231050701382 -0.093658367309864349 0 0.02745527456064175 -0.089089442263575569 0 0.03170108987002046 -0.10050694789866579 0 0.0144479962461943 -0.1082343501681014 0 0.001856719827670471 -0.098182337095309047 0 0.01674231050701382 -0.093658367309864349 0 0.0015243557028834459 -0.11711868301268021 0 0.0144479962461943 -0.1082343501681014 0 0.001856719827670471 -0.098182337095309047 0 0.001856719827670471 -0.098182337095309047 0 0.0065051428120863272 -0.082127796022149757 0 0.01674231050701382 -0.093658367309864349 0 0.0065051428120863272 -0.082127796022149757 0 0.018539693253586439 -0.071597204448153262 0 0.01731060528333208 -0.084118202510935727 0 0.0065051428120863272 -0.082127796022149757 0 0.01674231050701382 -0.093658367309864349 0 0.01731060528333208 -0.084118202510935727 0 0.0065051428120863272 -0.082127796022149757 0 0.018539693253586439 -0.071597204448153262 0 0.00035237720396625368 -0.061086817302918282 0 0.018539693253586439 -0.071597204448153262 0 0.00035237720396625368 -0.061086817302918282 0 0.029337839486141829 -0.062098975348790997 0 0.018539693253586439 -0.071597204448153262 0 0.036998616429076953 -0.080413518666692163 0 0.029337839486141829 -0.062098975348790997 0 0.018539693253586439 -0.071597204448153262 0 0.039278739387756327 -0.087755278287702396 0 0.018539693253586439 -0.071597204448153262 0 0.02745527456064175 -0.089089442263575569 0 0.039278739387756327 -0.087755278287702396 0 0.018539693253586439 -0.071597204448153262 0 0.01731060528333208 -0.084118202510935727 0 0.02745527456064175 -0.089089442263575569 0 0.01674231050701382 -0.093658367309864349 0 0.01731060528333208 -0.084118202510935727 0 0.02745527456064175 -0.089089442263575569 0 0.018539693253586439 -0.071597204448153262 0 0.036998616429076953 -0.080413518666692163 0 0.039278739387756327 -0.087755278287702396 0 0.02745527456064175 -0.089089442263575569 0 0.039278739387756327 -0.087755278287702396 0 0.036114206476440321 -0.094502097047588079 0 0.036998616429076953 -0.080413518666692163 0 0.039278739387756327 -0.087755278287702396 0 0.050747139898636717 -0.081209848062237813 0 0.058323301768317432 -0.063111133394663815 0 0.029337839486141829 -0.062098975348790997 0 0.036998616429076953 -0.080413518666692163 0 0.058323301768317432 -0.063111133394663815 0 0.029337839486141829 -0.062098975348790997 0 0.036998616429076953 -0.080413518666692163 0 0.058323301768317432 -0.063111133394663815 0 0.058323301768317432 -0.063111133394663815 0 0.050747139898636717 -0.081209848062237813 0 0.060228637404373828 -0.081759239016750626 0 0.036998616429076953 -0.080413518666692163 0 0.058323301768317432 -0.063111133394663815 0 0.050747139898636717 -0.081209848062237813 0 0.039278739387756327 -0.087755278287702396 0 0.050747139898636717 -0.081209848062237813 0 0.060818353003097771 -0.090653503469919336 0 0.050747139898636717 -0.081209848062237813 0 0.060228637404373828 -0.081759239016750626 0 0.060818353003097771 -0.090653503469919336 0 0.060017785521926562 -0.10391335212725129 0 0.042153090511964017 -0.099193769589441219 0 0.043653631303676513 -0.1092911725859987 0 0.060017785521926562 -0.10391335212725129 0 0.043653631303676513 -0.1092911725859987 0 0.039278739387756327 -0.087755278287702396 0 0.060818353003097771 -0.090653503469919336 0 0.060017785521926562 -0.10391335212725129 0 0.060017785521926562 -0.10391335212725129 0 0.053375718786791107 -0.1112883554404277 0 0.043653631303676513 -0.1092911725859987 0 0.039278739387756327 -0.087755278287702396 0 0.060017785521926562 -0.10391335212725129 0 0.039278739387756327 -0.087755278287702396 0 0.060017785521926562 -0.10391335212725129 0 0.042153090511964017 -0.099193769589441219 0 0.060017785521926562 -0.10391335212725129 0 0.053375718786791107 -0.1112883554404277 0 0.065116799684213397 -0.10788606364011991 0 0.052298963826290519 -0.1211548808236817 0 0.066569319149528045 -0.1206454253796948 0 0.065116799684213397 -0.10788606364011991 0 0.052298963826290519 -0.1211548808236817 0 0.065116799684213397 -0.10788606364011991 0 0.052298963826290519 -0.1211548808236817 0 0.053375718786791107 -0.1112883554404277 0 0.065116799684213397 -0.10788606364011991 0 0.052298963826290519 -0.1211548808236817 0 0.053375718786791107 -0.1112883554404277 0 0.043653631303676513 -0.1092911725859987 0 0.02728947708542654 -0.1146689930447462 0 0.037800108132664212 -0.12348471533883321 0 0.043653631303676513 -0.1092911725859987 0 0.02728947708542654 -0.1146689930447462 0 0.043653631303676513 -0.1092911725859987 0 0.052298963826290519 -0.1211548808236817 0 0.037800108132664212 -0.12348471533883321 0 0.043653631303676513 -0.1092911725859987 0 0.029299678594365521 -0.12697140115214181 0 0.02728947708542654 -0.1146689930447462 0 0.037800108132664212 -0.12348471533883321 0 0.02728947708542654 -0.1146689930447462 0 0.03170108987002046 -0.10050694789866579 0 0.043653631303676513 -0.1092911725859987 0 0.036114206476440321 -0.094502097047588079 0 0.03170108987002046 -0.10050694789866579 0 0.042153090511964017 -0.099193769589441219 0 0.02745527456064175 -0.089089442263575569 0 0.036114206476440321 -0.094502097047588079 0 0.03170108987002046 -0.10050694789866579 0 0.039278739387756327 -0.087755278287702396 0 0.036114206476440321 -0.094502097047588079 0 0.042153090511964017 -0.099193769589441219 0 0.03170108987002046 -0.10050694789866579 0 0.042153090511964017 -0.099193769589441219 0 0.043653631303676513 -0.1092911725859987 0 0.025695344612614111 0.0095801541182225364 0 0.02812452509478746 -0.0099579005571815878 0 0.006935528729737548 -0.0054826371559186567 0 0.02812452509478746 -0.0099579005571815878 0 0.006935528729737548 -0.0054826371559186567 0 0.01889941714368459 -0.025130787452367569 0 0.006935528729737548 -0.0054826371559186567 0 0.0027408304473846411 -0.028176541972939319 0 0.01889941714368459 -0.025130787452367569 0 0.02812452509478746 -0.0099579005571815878 0 0.01889941714368459 -0.025130787452367569 0 0.035567370731091272 -0.02454493013615917 0 0.01889941714368459 -0.025130787452367569 0 0.02846567832778216 -0.042756626880165419 0 0.035567370731091272 -0.02454493013615917 0 0.01889941714368459 -0.025130787452367569 0 0.02846567832778216 -0.042756626880165419 0 0.0096258971738255473 -0.043108802377643002 0 0.02846567832778216 -0.042756626880165419 0 0.0096258971738255473 -0.043108802377643002 0 0.016945448047928951 -0.052262805477379423 0 0.01889941714368459 -0.025130787452367569 0 0.0096258971738255473 -0.043108802377643002 0 -0.01026660782967455 -0.041229232136501717 0 0.0027408304473846411 -0.028176541972939319 0 0.0096258971738255473 -0.043108802377643002 0 0.0027408304473846411 -0.028176541972939319 0 0.01889941714368459 -0.025130787452367569 0 0.0096258971738255473 -0.043108802377643002 0 0.0096258971738255473 -0.043108802377643002 0 0.00035237720396625368 -0.061086817302918282 0 0.016945448047928951 -0.052262805477379423 0 0.00035237720396625368 -0.061086817302918282 0 0.016945448047928951 -0.052262805477379423 0 0.029337839486141829 -0.062098975348790997 0 0.0096258971738255473 -0.043108802377643002 0 0.00035237720396625368 -0.061086817302918282 0 0.00035237720396625368 -0.061086817302918282 0 0.029337839486141829 -0.062098975348790997 0 0.02846567832778216 -0.042756626880165419 0 0.016945448047928951 -0.052262805477379423 0 0.029337839486141829 -0.062098975348790997 0 0.02846567832778216 -0.042756626880165419 0 0.029337839486141829 -0.062098975348790997 0 0.044041605111135473 -0.049431168693685697 0 0.058323301768317432 -0.063111133394663815 0 0.029337839486141829 -0.062098975348790997 0 0.044041605111135473 -0.049431168693685697 0 0.058323301768317432 -0.063111133394663815 0 0.044041605111135473 -0.049431168693685697 0 0.059903341899081253 -0.040049795258846832 0 0.059903341899081253 -0.040049795258846832 0 0.045154502468205723 -0.035444412579530127 0 0.052999286202529479 -0.022291816621987929 0 0.044041605111135473 -0.049431168693685697 0 0.059903341899081253 -0.040049795258846832 0 0.045154502468205723 -0.035444412579530127 0 0.02846567832778216 -0.042756626880165419 0 0.044041605111135473 -0.049431168693685697 0 0.045154502468205723 -0.035444412579530127 0 0.02846567832778216 -0.042756626880165419 0 0.045154502468205723 -0.035444412579530127 0 0.035567370731091272 -0.02454493013615917 0 0.045154502468205723 -0.035444412579530127 0 0.035567370731091272 -0.02454493013615917 0 0.052999286202529479 -0.022291816621987929 0 0.035567370731091272 -0.02454493013615917 0 0.052999286202529479 -0.022291816621987929 0 0.04138045704507981 -0.013293391242584921 0 0.02812452509478746 -0.0099579005571815878 0 0.035567370731091272 -0.02454493013615917 0 0.04138045704507981 -0.013293391242584921 0 0.059903341899081253 -0.040049795258846832 0 0.052999286202529479 -0.022291816621987929 0 0.073093181043766914 -0.026775388104941698 0 0.052999286202529479 -0.022291816621987929 0 0.049896637954744763 -0.0073960790217490677 0 0.04138045704507981 -0.013293391242584921 0 0.052999286202529479 -0.022291816621987929 0 0.049896637954744763 -0.0073960790217490677 0 0.066530330394949447 -0.012320269852860621 0 0.049896637954744763 -0.0073960790217490677 0 0.040314465242246092 -0.002276229875846851 0 0.04138045704507981 -0.013293391242584921 0 0.025695344612614111 0.0095801541182225364 0 0.02812452509478746 -0.0099579005571815878 0 0.040314465242246092 -0.002276229875846851 0 0.046640351189982193 0.001482106492276504 0 0.049896637954744763 -0.0073960790217490677 0 0.040314465242246092 -0.002276229875846851 0 0.02812452509478746 -0.0099579005571815878 0 0.040314465242246092 -0.002276229875846851 0 0.04138045704507981 -0.013293391242584921 0 0.075461568133428525 0.0044331687040122013 0 0.081703970602104437 -0.011974759962048749 0 0.098011391193308373 -0.0056982583262641584 0 0.075461568133428525 0.0044331687040122013 0 0.049896637954744763 -0.0073960790217490677 0 0.075461568133428525 0.0044331687040122013 0 0.049896637954744763 -0.0073960790217490677 0 0.066530330394949447 -0.012320269852860621 0 0.075461568133428525 0.0044331687040122013 0 0.081703970602104437 -0.011974759962048749 0 0.066530330394949447 -0.012320269852860621 0 0.081703970602104437 -0.011974759962048749 0 0.066530330394949447 -0.012320269852860621 0 0.073093181043766914 -0.026775388104941698 0 0.052999286202529479 -0.022291816621987929 0 0.066530330394949447 -0.012320269852860621 0 0.073093181043766914 -0.026775388104941698 0 0.081703970602104437 -0.011974759962048749 0 0.097837743661838034 -0.031049975793767819 0 0.098011391193308373 -0.0056982583262641584 0 0.081703970602104437 -0.011974759962048749 0 0.073093181043766914 -0.026775388104941698 0 0.097837743661838034 -0.031049975793767819 0 0.078080522715077566 -0.047080554594215653 0 0.097861902682226248 -0.045151270938537998 0 0.097837743661838034 -0.031049975793767819 0 0.073093181043766914 -0.026775388104941698 0 0.078080522715077566 -0.047080554594215653 0 0.097837743661838034 -0.031049975793767819 0 0.078080522715077566 -0.047080554594215653 0 0.097837743661838034 -0.031049975793767819 0 0.059903341899081253 -0.040049795258846832 0 0.073093181043766914 -0.026775388104941698 0 0.078080522715077566 -0.047080554594215653 0 0.058323301768317432 -0.063111133394663815 0 0.078080522715077566 -0.047080554594215653 0 0.058323301768317432 -0.063111133394663815 0 0.059903341899081253 -0.040049795258846832 0 0.078080522715077566 -0.047080554594215653 0 0.058323301768317432 -0.063111133394663815 0 0.078080522715077566 -0.047080554594215653 0 0.081939961595450139 -0.063935815506958552 0 0.078080522715077566 -0.047080554594215653 0 0.094142039140793971 -0.055881476276546937 0 0.081939961595450139 -0.063935815506958552 0 0.078080522715077566 -0.047080554594215653 0 0.094142039140793971 -0.055881476276546937 0 0.097861902682226248 -0.045151270938537998 0 0.094142039140793971 -0.055881476276546937 0 0.081939961595450139 -0.063935815506958552 0 0.1067368008806147 -0.064801708903802782 0 0.094142039140793971 -0.055881476276546937 0 0.1075629424949773 -0.053875431803618333 0 0.097861902682226248 -0.045151270938537998 0 0.094142039140793971 -0.055881476276546937 0 0.1075629424949773 -0.053875431803618333 0 0.1067368008806147 -0.064801708903802782 0 0.1075629424949773 -0.053875431803618333 0 0.1067368008806147 -0.064801708903802782 0 0.1075629424949773 -0.053875431803618333 0 0.1232921759667842 -0.047663851323270827 0 0.1067368008806147 -0.064801708903802782 0 0.1232921759667842 -0.047663851323270827 0 0.1067368008806147 -0.064801708903802782 0 0.1075629424949773 -0.053875431803618333 0 0.1232921759667842 -0.047663851323270827 0 0.1109518143893137 -0.039435966374661548 0 0.1232921759667842 -0.047663851323270827 0 0.1067368008806147 -0.064801708903802782 0 0.13548767730717889 -0.06580567532731052 0 0.1232921759667842 -0.047663851323270827 0 0.1109518143893137 -0.039435966374661548 0 0.124582941869709 -0.030507807285028901 0 0.1109518143893137 -0.039435966374661548 0 0.097861902682226248 -0.045151270938537998 0 0.097837743661838034 -0.031049975793767819 0 0.1075629424949773 -0.053875431803618333 0 0.1109518143893137 -0.039435966374661548 0 0.097861902682226248 -0.045151270938537998 0 0.097837743661838034 -0.031049975793767819 0 0.1175949646085984 -0.015019396993320021 0 0.097837743661838034 -0.031049975793767819 0 0.1175949646085984 -0.015019396993320021 0 0.098011391193308373 -0.0056982583262641584 0 0.1109518143893137 -0.039435966374661548 0 0.097837743661838034 -0.031049975793767819 0 0.1175949646085984 -0.015019396993320021 0 0.1109518143893137 -0.039435966374661548 0 0.124582941869709 -0.030507807285028901 0 0.1175949646085984 -0.015019396993320021 0 0.124582941869709 -0.030507807285028901 0 0.1175949646085984 -0.015019396993320021 0 0.13165260102391191 -0.019660205177744808 0 0.11882011836095251 0.0065886106746579649 0 0.1175949646085984 -0.015019396993320021 0 0.098011391193308373 -0.0056982583262641584 0 0.11882011836095251 0.0065886106746579649 0 0.13735218555535891 0.001011181807127467 0 0.1175949646085984 -0.015019396993320021 0 0.073111172643960082 -0.099610417542301155 0 0.10058413041743761 -0.090581864498492995 0 0.088608598291174498 -0.101420796185217 0 0.073111172643960082 -0.099610417542301155 0 0.10058413041743761 -0.090581864498492995 0 0.083297568291202648 -0.10670285905343881 0 0.088608598291174498 -0.101420796185217 0 0.073111172643960082 -0.099610417542301155 0 0.083297568291202648 -0.10670285905343881 0 0.088608598291174498 -0.101420796185217 0 0.097441521812097198 -0.10878804364663471 0 0.093527805260815264 -0.13002146576964491 0 0.079322302472514483 -0.11895376470488229 0 0.097441521812097198 -0.10878804364663471 0 0.083297568291202648 -0.10670285905343881 0 0.079322302472514483 -0.11895376470488229 0 0.097441521812097198 -0.10878804364663471 0 0.093527805260815264 -0.13002146576964491 0 0.079322302472514483 -0.11895376470488229 0 0.079322302472514483 -0.11895376470488229 0 0.065116799684213397 -0.10788606364011991 0 0.083297568291202648 -0.10670285905343881 0 0.079322302472514483 -0.11895376470488229 0 0.065116799684213397 -0.10788606364011991 0 0.079322302472514483 -0.11895376470488229 0 0.066569319149528045 -0.1206454253796948 0 0.065116799684213397 -0.10788606364011991 0 0.069539210615093855 -0.1345869923500955 0 0.079322302472514483 -0.11895376470488229 0 0.066569319149528045 -0.1206454253796948 0 0.060017785521926562 -0.10391335212725129 0 0.065116799684213397 -0.10788606364011991 0 0.060017785521926562 -0.10391335212725129 0 0.073111172643960082 -0.099610417542301155 0 0.065116799684213397 -0.10788606364011991 0 0.073111172643960082 -0.099610417542301155 0 0.083297568291202648 -0.10670285905343881 0 0.065116799684213397 -0.10788606364011991 0 0.073111172643960082 -0.099610417542301155 0 0.060017785521926562 -0.10391335212725129 0 0.065116799684213397 -0.10788606364011991 0 0.073111172643960082 -0.099610417542301155 0 0.060818353003097771 -0.090653503469919336 0 0.060017785521926562 -0.10391335212725129 0 0.073111172643960082 -0.099610417542301155 0 0.060818353003097771 -0.090653503469919336 0 0.073111172643960082 -0.099610417542301155 0 0.074211161232423301 -0.082716200610011378 0 0.060228637404373828 -0.081759239016750626 0 0.060818353003097771 -0.090653503469919336 0 0.074211161232423301 -0.082716200610011378 0 0.058323301768317432 -0.063111133394663815 0 0.081939961595450139 -0.063935815506958552 0 0.058323301768317432 -0.063111133394663815 0 0.074211161232423301 -0.082716200610011378 0 0.081939961595450139 -0.063935815506958552 0 0.058323301768317432 -0.063111133394663815 0 0.060228637404373828 -0.081759239016750626 0 0.074211161232423301 -0.082716200610011378 0 0.074211161232423301 -0.082716200610011378 0 0.081939961595450139 -0.063935815506958552 0 0.089190063779311518 -0.082965808471458069 0 0.081939961595450139 -0.063935815506958552 0 0.089190063779311518 -0.082965808471458069 0 0.1052689549146623 -0.0663211994006144 0 0.073111172643960082 -0.099610417542301155 0 0.074211161232423301 -0.082716200610011378 0 0.089190063779311518 -0.082965808471458069 0 0.073111172643960082 -0.099610417542301155 0 0.089190063779311518 -0.082965808471458069 0 0.073111172643960082 -0.099610417542301155 0 0.089190063779311518 -0.082965808471458069 0 0.10058413041743761 -0.090581864498492995 0 0.089190063779311518 -0.082965808471458069 0 0.1017080788123951 -0.087804556385465471 0 0.1052689549146623 -0.0663211994006144 0 0.089190063779311518 -0.082965808471458069 0 0.10058413041743761 -0.090581864498492995 0 0.1017080788123951 -0.087804556385465471 0 0.1017080788123951 -0.087804556385465471 0 0.1084674426683357 -0.077888137089068013 0 0.1052689549146623 -0.0663211994006144 0 0.089190063779311518 -0.082965808471458069 0 0.1052689549146623 -0.0663211994006144 0 0.081939961595450139 -0.063935815506958552 0 0.1067368008806147 -0.064801708903802782 0 0.1052689549146623 -0.0663211994006144 0 0.081939961595450139 -0.063935815506958552 0 0.1067368008806147 -0.064801708903802782 0 0.1017080788123951 -0.087804556385465471 0 0.1052689549146623 -0.0663211994006144 0 0.1084674426683357 -0.077888137089068013 0 0.1067368008806147 -0.064801708903802782 0 0.1052689549146623 -0.0663211994006144 0 0.1067368008806147 -0.064801708903802782 0 0.1052689549146623 -0.0663211994006144 0 0.1067368008806147 -0.064801708903802782 0 0.13548767730717889 -0.06580567532731052 0 0.1084674426683357 -0.077888137089068013 0 0.1067368008806147 -0.064801708903802782 0 0.1232061248222129 -0.075206297362028066 0 0.1067368008806147 -0.064801708903802782 0 0.1232061248222129 -0.075206297362028066 0 0.13548767730717889 -0.06580567532731052 0 0.1017080788123951 -0.087804556385465471 0 0.1084674426683357 -0.077888137089068013 0 0.1272797878356694 -0.088593758706814907 0 0.1017080788123951 -0.087804556385465471 0 0.1272797878356694 -0.088593758706814907 0 0.1084674426683357 -0.077888137089068013 0 0.1232061248222129 -0.075206297362028066 0 0.1272797878356694 -0.088593758706814907 0 0.1017080788123951 -0.087804556385465471 0 0.11567178204704499 -0.10568275569041199 0 0.1272797878356694 -0.088593758706814907 0 0.1017080788123951 -0.087804556385465471 0 0.11567178204704499 -0.10568275569041199 0 0.097441521812097198 -0.10878804364663471 0 0.1017080788123951 -0.087804556385465471 0 0.097441521812097198 -0.10878804364663471 0 0.088608598291174498 -0.101420796185217 0 0.10058413041743761 -0.090581864498492995 0 0.097441521812097198 -0.10878804364663471 0 0.10058413041743761 -0.090581864498492995 0 0.1017080788123951 -0.087804556385465471 0 0.097441521812097198 -0.10878804364663471 0 0.093527805260815264 -0.13002146576964491 0 0.097441521812097198 -0.10878804364663471 0 0.104312872852085 -0.12243825994362539 0 0.093527805260815264 -0.13002146576964491 0 0.097441521812097198 -0.10878804364663471 0 0.11567178204704499 -0.10568275569041199 0 0.097441521812097198 -0.10878804364663471 0 0.104312872852085 -0.12243825994362539 0 0.11567178204704499 -0.10568275569041199 0 0.104312872852085 -0.12243825994362539 0 0.12800820934211829 -0.12401417466047961 0 0.12800820934211829 -0.12401417466047961 0 0.14712201392247631 -0.1132275548916801 0 0.13655559816636781 -0.1031347463460832 0 0.12800820934211829 -0.12401417466047961 0 0.14712201392247631 -0.1132275548916801 0 0.11567178204704499 -0.10568275569041199 0 0.12800820934211829 -0.12401417466047961 0 0.13655559816636781 -0.1031347463460832 0 0.12800820934211829 -0.12401417466047961 0 0.14712201392247631 -0.1132275548916801 0 0.1486045981545247 -0.12747252536747111 0 0.14712201392247631 -0.1132275548916801 0 0.16095359288685571 -0.1184472051676727 0 0.1486045981545247 -0.12747252536747111 0 0.15146120268426411 -0.099532086410862586 0 0.13655559816636781 -0.1031347463460832 0 0.1528514968589437 -0.089382961028164357 0 0.14712201392247631 -0.1132275548916801 0 0.15146120268426411 -0.099532086410862586 0 0.16623581850283431 -0.10244093512288061 0 0.14712201392247631 -0.1132275548916801 0 0.15146120268426411 -0.099532086410862586 0 0.13655559816636781 -0.1031347463460832 0 0.11567178204704499 -0.10568275569041199 0 0.13655559816636781 -0.1031347463460832 0 0.1272797878356694 -0.088593758706814907 0 0.1272797878356694 -0.088593758706814907 0 0.13805891541926751 -0.078942206783145619 0 0.1528514968589437 -0.089382961028164357 0 0.1272797878356694 -0.088593758706814907 0 0.1528514968589437 -0.089382961028164357 0 0.13655559816636781 -0.1031347463460832 0 0.1272797878356694 -0.088593758706814907 0 0.1528514968589437 -0.089382961028164357 0 0.1232061248222129 -0.075206297362028066 0 0.1272797878356694 -0.088593758706814907 0 0.13805891541926751 -0.078942206783145619 0 0.1232061248222129 -0.075206297362028066 0 0.13805891541926751 -0.078942206783145619 0 0.13548767730717889 -0.06580567532731052 0 0.13548767730717889 -0.06580567532731052 0 0.16423855373374319 -0.066809641750814969 0 0.13548767730717889 -0.06580567532731052 0 0.1516507619880918 -0.076739651506421189 0 0.16423855373374319 -0.066809641750814969 0 0.13548767730717889 -0.06580567532731052 0 0.16423855373374319 -0.066809641750814969 0 0.16004124225532049 -0.061841453839887157 0 0.13805891541926751 -0.078942206783145619 0 0.13548767730717889 -0.06580567532731052 0 0.1516507619880918 -0.076739651506421189 0 0.13805891541926751 -0.078942206783145619 0 0.1516507619880918 -0.076739651506421189 0 0.1528514968589437 -0.089382961028164357 0 0.15146120268426411 -0.099532086410862586 0 0.1528514968589437 -0.089382961028164357 0 0.15581646250916109 -0.090151240212135456 0 0.1528514968589437 -0.089382961028164357 0 0.15581646250916109 -0.090151240212135456 0 0.17842320588221819 -0.090172163349513806 0 0.1528514968589437 -0.089382961028164357 0 0.17842320588221819 -0.090172163349513806 0 0.15581646250916109 -0.090151240212135456 0 0.16859491992305889 -0.093070393687126218 0 0.17842320588221819 -0.090172163349513806 0 0.1528514968589437 -0.089382961028164357 0 0.1653897445003264 -0.079862578323319361 0 0.17842320588221819 -0.090172163349513806 0 0.1516507619880918 -0.076739651506421189 0 0.1528514968589437 -0.089382961028164357 0 0.1653897445003264 -0.079862578323319361 0 0.1516507619880918 -0.076739651506421189 0 0.1653897445003264 -0.079862578323319361 0 0.16423855373374319 -0.066809641750814969 0 0.1653897445003264 -0.079862578323319361 0 0.16423855373374319 -0.066809641750814969 0 0.17833356117891219 -0.077628002067558224 0 0.16423855373374319 -0.066809641750814969 0 0.1727598808088672 -0.056322389892066158 0 0.1929894301603077 -0.067813608174319001 0 0.16423855373374319 -0.066809641750814969 0 0.1929894301603077 -0.067813608174319001 0 0.16423855373374319 -0.066809641750814969 0 0.17833356117891219 -0.077628002067558224 0 0.1929894301603077 -0.067813608174319001 0 0.17833356117891219 -0.077628002067558224 0 0.19040307974074269 -0.080139672987034255 0 0.1929894301603077 -0.067813608174319001 0 0.16859491992305889 -0.093070393687126218 0 0.17842320588221819 -0.090172163349513806 0 0.17335524666804841 -0.094081054567607611 0 0.17842320588221819 -0.090172163349513806 0 0.17824607109877541 -0.095663109832525739 0 0.17335524666804841 -0.094081054567607611 0 0.1653897445003264 -0.079862578323319361 0 0.17833356117891219 -0.077628002067558224 0 0.17842320588221819 -0.090172163349513806 0 0.17833356117891219 -0.077628002067558224 0 0.1854866420256687 -0.084161575248007242 0 0.19040307974074269 -0.080139672987034255 0 0.17833356117891219 -0.077628002067558224 0 0.17842320588221819 -0.090172163349513806 0 0.1854866420256687 -0.084161575248007242 0 0.18404025852736719 -0.096743595743047278 0 0.18504385230606449 -0.10434071571553651 0 0.19243594079672521 -0.096163448387799222 0 0.17824607109877541 -0.095663109832525739 0 0.18504385230606449 -0.10434071571553651 0 0.16623581850283431 -0.10244093512288061 0 0.18504385230606449 -0.10434071571553651 0 0.18014950107347269 -0.1188522098678762 0 0.16623581850283431 -0.10244093512288061 0 0.18404025852736719 -0.096743595743047278 0 0.17824607109877541 -0.095663109832525739 0 0.18504385230606449 -0.10434071571553651 0 0.17842320588221819 -0.090172163349513806 0 0.18404025852736719 -0.096743595743047278 0 0.19243594079672521 -0.096163448387799222 0 0.17842320588221819 -0.090172163349513806 0 0.18404025852736719 -0.096743595743047278 0 0.17824607109877541 -0.095663109832525739 0 0.17824607109877541 -0.095663109832525739 0 0.17335524666804841 -0.094081054567607611 0 0.16623581850283431 -0.10244093512288061 0 0.17824607109877541 -0.095663109832525739 0 0.16623581850283431 -0.10244093512288061 0 0.18504385230606449 -0.10434071571553651 0 0.18014950107347269 -0.1188522098678762 0 0.1922879604253335 -0.1099500278873989 0 0.18014950107347269 -0.1188522098678762 0 0.16623581850283431 -0.10244093512288061 0 0.18014950107347269 -0.1188522098678762 0 0.16095359288685571 -0.1184472051676727 0 0.16623581850283431 -0.10244093512288061 0 0.14712201392247631 -0.1132275548916801 0 0.16095359288685571 -0.1184472051676727 0 0.16623581850283431 -0.10244093512288061 0 0.18014950107347269 -0.1188522098678762 0 0.16095359288685571 -0.1184472051676727 0 0.16265603278097029 -0.1302428005884553 0 0.14712201392247631 -0.1132275548916801 0 0.16623581850283431 -0.10244093512288061 0 0.15581646250916109 -0.090151240212135456 0 0.16859491992305889 -0.093070393687126218 0 0.16623581850283431 -0.10244093512288061 0 0.15146120268426411 -0.099532086410862586 0 0.15581646250916109 -0.090151240212135456 0 0.16623581850283431 -0.10244093512288061 0 0.15581646250916109 -0.090151240212135456 0 0.16623581850283431 -0.10244093512288061 0 0.16859491992305889 -0.093070393687126218 0 0.17335524666804841 -0.094081054567607611 0 0.16623581850283431 -0.10244093512288061 0 0.13735218555535891 0.001011181807127467 0 0.1449152044553462 -0.019939696741877431 0 0.14216046477152491 0.0049125148476896544 0 0.15727218843160701 -0.01758578836774349 0 0.15849764294065671 -0.0060544572746906826 0 0.14216046477152491 0.0049125148476896544 0 0.15727218843160701 -0.01758578836774349 0 0.14216046477152491 0.0049125148476896544 0 0.1449152044553462 -0.019939696741877431 0 0.15727218843160701 -0.01758578836774349 0 0.14216046477152491 0.0049125148476896544 0 0.13735218555535891 0.001011181807127467 0 0.1449152044553462 -0.019939696741877431 0 0.13735218555535891 0.001011181807127467 0 0.1175949646085984 -0.015019396993320021 0 0.13735218555535891 0.001011181807127467 0 0.1175949646085984 -0.015019396993320021 0 0.13165260102391191 -0.019660205177744808 0 0.13735218555535891 0.001011181807127467 0 0.13165260102391191 -0.019660205177744808 0 0.1449152044553462 -0.019939696741877431 0 0.13165260102391191 -0.019660205177744808 0 0.13984755105295521 -0.030525993742740402 0 0.1449152044553462 -0.019939696741877431 0 0.124582941869709 -0.030507807285028901 0 0.13165260102391191 -0.019660205177744808 0 0.13984755105295521 -0.030525993742740402 0 0.1449152044553462 -0.019939696741877431 0 0.15247822335533329 -0.040890575290882317 0 0.15727218843160701 -0.01758578836774349 0 0.13984755105295521 -0.030525993742740402 0 0.1449152044553462 -0.019939696741877431 0 0.15247822335533329 -0.040890575290882317 0 0.1449152044553462 -0.019939696741877431 0 0.15247822335533329 -0.040890575290882317 0 0.15247822335533329 -0.040890575290882317 0 0.1379109625223634 -0.045605004272587249 0 0.14629243763992239 -0.054068479542427092 0 0.13984755105295521 -0.030525993742740402 0 0.15247822335533329 -0.040890575290882317 0 0.1379109625223634 -0.045605004272587249 0 0.1232921759667842 -0.047663851323270827 0 0.13984755105295521 -0.030525993742740402 0 0.1379109625223634 -0.045605004272587249 0 0.1232921759667842 -0.047663851323270827 0 0.124582941869709 -0.030507807285028901 0 0.13984755105295521 -0.030525993742740402 0 0.1232921759667842 -0.047663851323270827 0 0.13984755105295521 -0.030525993742740402 0 0.1232921759667842 -0.047663851323270827 0 0.13548767730717889 -0.06580567532731052 0 0.1379109625223634 -0.045605004272587249 0 0.13548767730717889 -0.06580567532731052 0 0.1379109625223634 -0.045605004272587249 0 0.14629243763992239 -0.054068479542427092 0 0.13548767730717889 -0.06580567532731052 0 0.14629243763992239 -0.054068479542427092 0 0.16004124225532049 -0.061841453839887157 0 0.15247822335533329 -0.040890575290882317 0 0.14629243763992239 -0.054068479542427092 0 0.16004124225532049 -0.061841453839887157 0 0.15247822335533329 -0.040890575290882317 0 0.16004124225532049 -0.061841453839887157 0 0.1644158146278025 -0.049784627651503079 0 0.1644158146278025 -0.049784627651503079 0 0.1727598808088672 -0.056322389892066158 0 0.1723839120916891 -0.040084091583176683 0 0.15247822335533329 -0.040890575290882317 0 0.16004124225532049 -0.061841453839887157 0 0.16423855373374319 -0.066809641750814969 0 0.16004124225532049 -0.061841453839887157 0 0.1727598808088672 -0.056322389892066158 0 0.16004124225532049 -0.061841453839887157 0 0.1644158146278025 -0.049784627651503079 0 0.1727598808088672 -0.056322389892066158 0 0.1727598808088672 -0.056322389892066158 0 0.18434240851125541 -0.050289724698312777 0 0.1723839120916891 -0.040084091583176683 0 0.1727598808088672 -0.056322389892066158 0 0.18434240851125541 -0.050289724698312777 0 0.1929894301603077 -0.067813608174319001 0 0.1723839120916891 -0.040084091583176683 0 0.18077822909658589 -0.032018797610549231 0 0.17598651952492231 -0.0227560541305885 0 0.18434240851125541 -0.050289724698312777 0 0.1723839120916891 -0.040084091583176683 0 0.18674227588606429 -0.037749552466939278 0 0.1723839120916891 -0.040084091583176683 0 0.18674227588606429 -0.037749552466939278 0 0.18077822909658589 -0.032018797610549231 0 0.18674227588606429 -0.037749552466939278 0 0.18077822909658589 -0.032018797610549231 0 0.18610830639217099 -0.030062433202775862 0 0.15247822335533329 -0.040890575290882317 0 0.1723839120916891 -0.040084091583176683 0 0.15727218843160701 -0.01758578836774349 0 0.15247822335533329 -0.040890575290882317 0 0.1644158146278025 -0.049784627651503079 0 0.1723839120916891 -0.040084091583176683 0 0.1723839120916891 -0.040084091583176683 0 0.15727218843160701 -0.01758578836774349 0 0.1723839120916891 -0.040084091583176683 0 0.1668946229318731 -0.019675061199070819 0 0.17598651952492231 -0.0227560541305885 0 0.1723839120916891 -0.040084091583176683 0 0.15727218843160701 -0.01758578836774349 0 0.1668946229318731 -0.019675061199070819 0 0.1668946229318731 -0.019675061199070819 0 0.17598651952492231 -0.0227560541305885 0 0.16985348277487761 -0.0099868764823510571 0 0.18077822909658589 -0.032018797610549231 0 0.18438258456793261 -0.021379302004443181 0 0.17598651952492231 -0.0227560541305885 0 0.18077822909658589 -0.032018797610549231 0 0.18610830639217099 -0.030062433202775862 0 0.18438258456793261 -0.021379302004443181 0 0.18438258456793261 -0.021379302004443181 0 0.17598651952492231 -0.0227560541305885 0 0.17878486519392331 -0.011645355321630489 0 0.17598651952492231 -0.0227560541305885 0 0.17878486519392331 -0.011645355321630489 0 0.16985348277487761 -0.0099868764823510571 0 0.17878486519392331 -0.011645355321630489 0 0.17506184651935949 -0.0021247232161890161 0 0.16985348277487761 -0.0099868764823510571 0 0.18438258456793261 -0.021379302004443181 0 0.17878486519392331 -0.011645355321630489 0 0.18863989258252481 -0.001979820774580698 0 0.17878486519392331 -0.011645355321630489 0 0.17506184651935949 -0.0021247232161890161 0 0.18863989258252481 -0.001979820774580698 0 0.1628037813635097 0.0015330777282007481 0 0.17506184651935949 -0.0021247232161890161 0 0.16985348277487761 -0.0099868764823510571 0 0.1668946229318731 -0.019675061199070819 0 0.16985348277487761 -0.0099868764823510571 0 0.15849764294065671 -0.0060544572746906826 0 0.15727218843160701 -0.01758578836774349 0 0.1668946229318731 -0.019675061199070819 0 0.15849764294065671 -0.0060544572746906826 0 0.1628037813635097 0.0015330777282007481 0 0.16985348277487761 -0.0099868764823510571 0 0.15849764294065671 -0.0060544572746906826 0 0.1628037813635097 0.0015330777282007481 0 0.15453230216132671 0.0032055715019124438 0 0.15849764294065671 -0.0060544572746906826 0 0.21174544862736719 0.0096628206364345465 0 0.20589386385567829 -0.0063134785331596111 0 0.2185782736923042 -0.0038367730406402641 0 0.20589386385567829 -0.0063134785331596111 0 0.2185782736923042 -0.0038367730406402641 0 0.2199828155312514 -0.0225516893132638 0 0.20589386385567829 -0.0063134785331596111 0 0.18863989258252481 -0.001979820774580698 0 0.1936475112771239 -0.030998707124919651 0 0.20589386385567829 -0.0063134785331596111 0 0.1936475112771239 -0.030998707124919651 0 0.20001428446098229 -0.034334459813343092 0 0.18863989258252481 -0.001979820774580698 0 0.1936475112771239 -0.030998707124919651 0 0.20589386385567829 -0.0063134785331596111 0 0.20001428446098229 -0.034334459813343092 0 0.18438258456793261 -0.021379302004443181 0 0.18863989258252481 -0.001979820774580698 0 0.1936475112771239 -0.030998707124919651 0 0.18610830639217099 -0.030062433202775862 0 0.18438258456793261 -0.021379302004443181 0 0.1936475112771239 -0.030998707124919651 0 0.20589386385567829 -0.0063134785331596111 0 0.20001428446098229 -0.034334459813343092 0 0.2199828155312514 -0.0225516893132638 0 0.20001428446098229 -0.034334459813343092 0 0.22061008072662569 -0.045125245157715169 0 0.20001428446098229 -0.034334459813343092 0 0.22061008072662569 -0.045125245157715169 0 0.2199828155312514 -0.0225516893132638 0 0.20001428446098229 -0.034334459813343092 0 0.19683654360934791 -0.049478981375062181 0 0.22061008072662569 -0.045125245157715169 0 0.1936475112771239 -0.030998707124919651 0 0.19683654360934791 -0.049478981375062181 0 0.18674227588606429 -0.037749552466939278 0 0.1936475112771239 -0.030998707124919651 0 0.19683654360934791 -0.049478981375062181 0 0.1936475112771239 -0.030998707124919651 0 0.20001428446098229 -0.034334459813343092 0 0.19683654360934791 -0.049478981375062181 0 0.1936475112771239 -0.030998707124919651 0 0.20001428446098229 -0.034334459813343092 0 0.18674227588606429 -0.037749552466939278 0 0.18610830639217099 -0.030062433202775862 0 0.1936475112771239 -0.030998707124919651 0 0.18434240851125541 -0.050289724698312777 0 0.18674227588606429 -0.037749552466939278 0 0.19683654360934791 -0.049478981375062181 0 0.20001428446098229 -0.034334459813343092 0 0.19683654360934791 -0.049478981375062181 0 0.19683654360934791 -0.049478981375062181 0 0.1929894301603077 -0.067813608174319001 0 0.2000429458732931 -0.068059913463883598 0 0.19683654360934791 -0.049478981375062181 0 0.21158346953455981 -0.057932445704329483 0 0.2000429458732931 -0.068059913463883598 0 0.19683654360934791 -0.049478981375062181 0 0.2000429458732931 -0.068059913463883598 0 0.19683654360934791 -0.049478981375062181 0 0.1929894301603077 -0.067813608174319001 0 0.18434240851125541 -0.050289724698312777 0 0.19683654360934791 -0.049478981375062181 0 0.1929894301603077 -0.067813608174319001 0 0.19683654360934791 -0.049478981375062181 0 0.21158346953455981 -0.057932445704329483 0 0.22061008072662569 -0.045125245157715169 0 0.24120587699226881 -0.055916030502087773 0 0.22061008072662569 -0.045125245157715169 0 0.2288443079289719 -0.069065642820655804 0 0.21158346953455981 -0.057932445704329483 0 0.22061008072662569 -0.045125245157715169 0 0.2288443079289719 -0.069065642820655804 0 0.24120587699226881 -0.055916030502087773 0 0.22061008072662569 -0.045125245157715169 0 0.25030159180115191 -0.034143426788088307 0 0.24120587699226881 -0.055916030502087773 0 0.23430517811137791 -0.037629801295311363 0 0.25030159180115191 -0.034143426788088307 0 0.23430517811137791 -0.037629801295311363 0 0.23651070060392609 -0.023431292744830981 0 0.22061008072662569 -0.045125245157715169 0 0.23430517811137791 -0.037629801295311363 0 0.2199828155312514 -0.0225516893132638 0 0.24120587699226881 -0.055916030502087773 0 0.22061008072662569 -0.045125245157715169 0 0.23430517811137791 -0.037629801295311363 0 0.2199828155312514 -0.0225516893132638 0 0.23651070060392609 -0.023431292744830981 0 0.2300866381754704 -0.0072438550720441714 0 0.23430517811137791 -0.037629801295311363 0 0.2199828155312514 -0.0225516893132638 0 0.23651070060392609 -0.023431292744830981 0 0.25030159180115191 -0.034143426788088307 0 0.23651070060392609 -0.023431292744830981 0 0.2464198669495459 -0.012097030270161889 0 0.23790413247208811 0.0091049515404343275 0 0.2464198669495459 -0.012097030270161889 0 0.2300866381754704 -0.0072438550720441714 0 0.23651070060392609 -0.023431292744830981 0 0.2464198669495459 -0.012097030270161889 0 0.2300866381754704 -0.0072438550720441714 0 0.2185782736923042 -0.0038367730406402641 0 0.2199828155312514 -0.0225516893132638 0 0.2300866381754704 -0.0072438550720441714 0 0.22518260227175371 0.0072623370788317187 0 0.2185782736923042 -0.0038367730406402641 0 0.2300866381754704 -0.0072438550720441714 0 0.20666963866093291 -0.1113398018781358 0 0.20399491490549271 -0.090961365670864353 0 0.20666963866093291 -0.1113398018781358 0 0.23081911420975029 -0.091789222750733895 0 0.20666963866093291 -0.1113398018781358 0 0.20399491490549271 -0.090961365670864353 0 0.23081911420975029 -0.091789222750733895 0 0.2184940671700534 -0.12394732724419751 0 0.20666963866093291 -0.1113398018781358 0 0.22056261316880149 -0.1108234873110058 0 0.2184940671700534 -0.12394732724419751 0 0.20975191972323501 -0.12432290509972491 0 0.20666963866093291 -0.1113398018781358 0 0.2184940671700534 -0.12394732724419751 0 0.20666963866093291 -0.1113398018781358 0 0.20975191972323501 -0.12432290509972491 0 0.20666963866093291 -0.1113398018781358 0 0.1971408692894723 -0.1190539635876471 0 0.20975191972323501 -0.12432290509972491 0 0.20666963866093291 -0.1113398018781358 0 0.18014950107347269 -0.1188522098678762 0 0.1971408692894723 -0.1190539635876471 0 0.19406318364410949 -0.13526348461287321 0 0.20666963866093291 -0.1113398018781358 0 0.1971408692894723 -0.1190539635876471 0 0.18014950107347269 -0.1188522098678762 0 0.1971408692894723 -0.1190539635876471 0 0.1922879604253335 -0.1099500278873989 0 0.20666963866093291 -0.1113398018781358 0 0.1971408692894723 -0.1190539635876471 0 0.1922879604253335 -0.1099500278873989 0 0.20666963866093291 -0.1113398018781358 0 0.19243594079672521 -0.096163448387799222 0 0.20399491490549271 -0.090961365670864353 0 0.18504385230606449 -0.10434071571553651 0 0.1922879604253335 -0.1099500278873989 0 0.19243594079672521 -0.096163448387799222 0 0.20666963866093291 -0.1113398018781358 0 0.1922879604253335 -0.1099500278873989 0 0.19243594079672521 -0.096163448387799222 0 0.20666963866093291 -0.1113398018781358 0 0.19243594079672521 -0.096163448387799222 0 0.1854866420256687 -0.084161575248007242 0 0.19040307974074269 -0.080139672987034255 0 0.20399491490549271 -0.090961365670864353 0 0.17842320588221819 -0.090172163349513806 0 0.19243594079672521 -0.096163448387799222 0 0.20399491490549271 -0.090961365670864353 0 0.17842320588221819 -0.090172163349513806 0 0.20399491490549271 -0.090961365670864353 0 0.17842320588221819 -0.090172163349513806 0 0.1854866420256687 -0.084161575248007242 0 0.20399491490549271 -0.090961365670864353 0 0.2000429458732931 -0.068059913463883598 0 0.20399491490549271 -0.090961365670864353 0 0.19040307974074269 -0.080139672987034255 0 0.2000429458732931 -0.068059913463883598 0 0.20399491490549271 -0.090961365670864353 0 0.19040307974074269 -0.080139672987034255 0 0.1929894301603077 -0.067813608174319001 0 0.2000429458732931 -0.068059913463883598 0 0.19040307974074269 -0.080139672987034255 0 0.1929894301603077 -0.067813608174319001 0 0.1929894301603077 -0.067813608174319001 0 0.2000429458732931 -0.068059913463883598 0 0.2000429458732931 -0.068059913463883598 0 0.2288443079289719 -0.069065642820655804 0 0.2000429458732931 -0.068059913463883598 0 0.21771238563745279 -0.081480669998114597 0 0.2288443079289719 -0.069065642820655804 0 0.21158346953455981 -0.057932445704329483 0 0.2000429458732931 -0.068059913463883598 0 0.2288443079289719 -0.069065642820655804 0 0.2000429458732931 -0.068059913463883598 0 0.20399491490549271 -0.090961365670864353 0 0.21771238563745279 -0.081480669998114597 0 0.20399491490549271 -0.090961365670864353 0 0.21771238563745279 -0.081480669998114597 0 0.23081911420975029 -0.091789222750733895 0 0.20399491490549271 -0.090961365670864353 0 0.23081911420975029 -0.091789222750733895 0 0.21771238563745279 -0.081480669998114597 0 0.23081911420975029 -0.091789222750733895 0 0.2288443079289719 -0.069065642820655804 0 0.25764566998465072 -0.070071372177431313 0 0.24120587699226881 -0.055916030502087773 0 0.2288443079289719 -0.069065642820655804 0 0.25764566998465072 -0.070071372177431313 0 0.2288443079289719 -0.069065642820655804 0 0.25764566998465072 -0.070071372177431313 0 0.2288443079289719 -0.069065642820655804 0 0.24423239209720191 -0.080930297464084477 0 0.25666672159796139 -0.092586939936295867 0 0.23081911420975029 -0.091789222750733895 0 0.23081911420975029 -0.091789222750733895 0 0.2288443079289719 -0.069065642820655804 0 0.24423239209720191 -0.080930297464084477 0 0.25666672159796139 -0.092586939936295867 0 0.23081911420975029 -0.091789222750733895 0 0.24423239209720191 -0.080930297464084477 0 0.23081911420975029 -0.091789222750733895 0 0.24423239209720191 -0.080930297464084477 0 0.25666672159796139 -0.092586939936295867 0 0.23081911420975029 -0.091789222750733895 0 0.23839025179526999 -0.1151992729885977 0 0.20666963866093291 -0.1113398018781358 0 0.23081911420975029 -0.091789222750733895 0 0.22056261316880149 -0.1108234873110058 0 0.23081911420975029 -0.091789222750733895 0 0.22056261316880149 -0.1108234873110058 0 0.23839025179526999 -0.1151992729885977 0 0.2184940671700534 -0.12394732724419751 0 0.22056261316880149 -0.1108234873110058 0 0.23839025179526999 -0.1151992729885977 0 0.2184940671700534 -0.12394732724419751 0 0.23839025179526999 -0.1151992729885977 0 0.22928680998153819 -0.13545484142638689 0 0.25915390151091949 -0.11811210275817149 0 0.25133622254172122 -0.13557462765415079 0 0.23839025179526999 -0.1151992729885977 0 0.25133622254172122 -0.13557462765415079 0 0.25208407187516418 -0.1419613505697605 0 0.23274332603383319 -0.13914027229300069 0 0.25133622254172122 -0.13557462765415079 0 0.23839025179526999 -0.1151992729885977 0 0.22928680998153819 -0.13545484142638689 0 0.25133622254172122 -0.13557462765415079 0 0.22928680998153819 -0.13545484142638689 0 0.25133622254172122 -0.13557462765415079 0 0.23274332603383319 -0.13914027229300069 0 0.22928680998153819 -0.13545484142638689 0 0.25208407187516418 -0.1419613505697605 0 0.23274332603383319 -0.13914027229300069 0 0.2530488896403309 -0.16079061319898569 0 0.23274332603383319 -0.13914027229300069 0 0.2530488896403309 -0.16079061319898569 0 0.23274332603383319 -0.13914027229300069 0 0.2334622085995452 -0.15779257262933219 0 0.2530488896403309 -0.16079061319898569 0 0.25208407187516418 -0.1419613505697605 0 0.23274332603383319 -0.13914027229300069 0 0.22694604844669111 -0.15137512496012309 0 0.2202725953444182 -0.1456731206256075 0 0.22100128495381829 -0.16152072110389429 0 0.22694604844669111 -0.15137512496012309 0 0.23274332603383319 -0.13914027229300069 0 0.2334622085995452 -0.15779257262933219 0 0.22694604844669111 -0.15137512496012309 0 0.2202725953444182 -0.1456731206256075 0 0.23274332603383319 -0.13914027229300069 0 0.23274332603383319 -0.13914027229300069 0 0.20959101376118139 -0.13576323162740581 0 0.22928680998153819 -0.13545484142638689 0 0.2116749968128239 -0.1353591630196288 0 0.23274332603383319 -0.13914027229300069 0 0.22928680998153819 -0.13545484142638689 0 0.2116749968128239 -0.1353591630196288 0 0.2184940671700534 -0.12394732724419751 0 0.22928680998153819 -0.13545484142638689 0 0.2116749968128239 -0.1353591630196288 0 0.2202725953444182 -0.1456731206256075 0 0.23274332603383319 -0.13914027229300069 0 0.20959101376118139 -0.13576323162740581 0 0.23274332603383319 -0.13914027229300069 0 0.22928680998153819 -0.13545484142638689 0 0.2184940671700534 -0.12394732724419751 0 0.22928680998153819 -0.13545484142638689 0 0.23274332603383319 -0.13914027229300069 0 0.20959101376118139 -0.13576323162740581 0 0.2116749968128239 -0.1353591630196288 0 0.20975191972323501 -0.12432290509972491 0 0.2116749968128239 -0.1353591630196288 0 0.19406318364410949 -0.13526348461287321 0 0.2184940671700534 -0.12394732724419751 0 0.20975191972323501 -0.12432290509972491 0 0.2116749968128239 -0.1353591630196288 0 0.20959101376118139 -0.13576323162740581 0 0.2116749968128239 -0.1353591630196288 0 0.19406318364410949 -0.13526348461287321 0 0.2202725953444182 -0.1456731206256075 0 0.21077041390333781 -0.15496976615408631 0 0.22100128495381829 -0.16152072110389429 0 0.2202725953444182 -0.1456731206256075 0 0.20959101376118139 -0.13576323162740581 0 0.21077041390333781 -0.15496976615408631 0 0.20959101376118139 -0.13576323162740581 0 0.21077041390333781 -0.15496976615408631 0 0.19406318364410949 -0.13526348461287321 0 0.21077041390333781 -0.15496976615408631 0 0.19019323353294471 -0.15547991582157239 0 0.19406318364410949 -0.13526348461287321 0 0.21077041390333781 -0.15496976615408631 0 0.19406318364410949 -0.13526348461287321 0 0.20975191972323501 -0.12432290509972491 0 0.1971408692894723 -0.1190539635876471 0 0.19406318364410949 -0.13526348461287321 0 0.2116749968128239 -0.1353591630196288 0 0.19406318364410949 -0.13526348461287321 0 0.2064216300685435 -0.1763378775815001 0 0.19333004299069351 -0.19482382871724169 0 0.185888281266576 -0.1738959907954824 0 0.21077041390333781 -0.15496976615408631 0 0.19019323353294471 -0.15547991582157239 0 0.2064216300685435 -0.1763378775815001 0 0.19019323353294471 -0.15547991582157239 0 0.2064216300685435 -0.1763378775815001 0 0.185888281266576 -0.1738959907954824 0 0.21077041390333781 -0.15496976615408631 0 0.2064216300685435 -0.1763378775815001 0 0.22100128495381829 -0.16152072110389429 0 0.2064216300685435 -0.1763378775815001 0 0.22637928715471201 -0.1750627007060517 0 0.22100128495381829 -0.16152072110389429 0 0.2064216300685435 -0.1763378775815001 0 0.22637928715471201 -0.1750627007060517 0 0.2213864998634191 -0.19074186604973761 0 0.22637928715471201 -0.1750627007060517 0 0.2363010186387848 -0.18586727398715949 0 0.2213864998634191 -0.19074186604973761 0 0.22637928715471201 -0.1750627007060517 0 0.22100128495381829 -0.16152072110389429 0 0.2334622085995452 -0.15779257262933219 0 0.22637928715471201 -0.1750627007060517 0 0.2334622085995452 -0.15779257262933219 0 0.24133419147104179 -0.17110858194103351 0 0.22694604844669111 -0.15137512496012309 0 0.22100128495381829 -0.16152072110389429 0 0.2334622085995452 -0.15779257262933219 0 0.2530488896403309 -0.16079061319898569 0 0.2334622085995452 -0.15779257262933219 0 0.24133419147104179 -0.17110858194103351 0 0.2550208565069661 -0.17514012483034949 0 0.2530488896403309 -0.16079061319898569 0 0.24133419147104179 -0.17110858194103351 0 0.22637928715471201 -0.1750627007060517 0 0.24133419147104179 -0.17110858194103351 0 0.2363010186387848 -0.18586727398715949 0 0.25030889548151403 -0.1837077448593728 0 0.2550208565069661 -0.17514012483034949 0 0.24133419147104179 -0.17110858194103351 0 0.25030889548151403 -0.1837077448593728 0 0.24133419147104179 -0.17110858194103351 0 0.2363010186387848 -0.18586727398715949 0 0.25030889548151403 -0.1837077448593728 0 0.2363010186387848 -0.18586727398715949 0 0.24624710011957149 -0.19756578472926509 0 0.2363010186387848 -0.18586727398715949 0 0.24624710011957149 -0.19756578472926509 0 0.23232272155890341 -0.19906227567560569 0 0.24624710011957149 -0.19756578472926509 0 0.2390873575194972 -0.2119906927462733 0 0.23232272155890341 -0.19906227567560569 0 0.25806059678156651 -0.21160485628964759 0 0.24624710011957149 -0.19756578472926509 0 0.2390873575194972 -0.2119906927462733 0 0.25806059678156651 -0.21160485628964759 0 0.2390873575194972 -0.2119906927462733 0 0.2485278721491469 -0.22983386195931649 0 0.22156570902884701 -0.2081716276760221 0 0.2275965143199381 -0.22680811778712909 0 0.21130945108473639 -0.22000441216527869 0 0.2390873575194972 -0.2119906927462733 0 0.22156570902884701 -0.2081716276760221 0 0.23232272155890341 -0.19906227567560569 0 0.2390873575194972 -0.2119906927462733 0 0.22156570902884701 -0.2081716276760221 0 0.2275965143199381 -0.22680811778712909 0 0.22156570902884701 -0.2081716276760221 0 0.2213864998634191 -0.19074186604973761 0 0.23232272155890341 -0.19906227567560569 0 0.2363010186387848 -0.18586727398715949 0 0.2213864998634191 -0.19074186604973761 0 0.23232272155890341 -0.19906227567560569 0 0.2410490216361528 -0.25300372010805161 0 0.2485278721491469 -0.22983386195931649 0 0.2275965143199381 -0.22680811778712909 0 0.25787859859726192 -0.24372773219337371 0 0.2410490216361528 -0.25300372010805161 0 0.2485278721491469 -0.22983386195931649 0 0.2390873575194972 -0.2119906927462733 0 0.2485278721491469 -0.22983386195931649 0 0.2275965143199381 -0.22680811778712909 0 0.2410490216361528 -0.25300372010805161 0 0.2275965143199381 -0.22680811778712909 0 0.2136455624920251 -0.24586339942155419 0 0.2410490216361528 -0.25300372010805161 0 0.2136455624920251 -0.24586339942155419 0 0.2136455624920251 -0.24586339942155419 0 0.1995187067769538 -0.22648505830905971 0 0.1970165427207646 -0.2431475676051908 0 0.2275965143199381 -0.22680811778712909 0 0.2136455624920251 -0.24586339942155419 0 0.21130945108473639 -0.22000441216527869 0 0.2136455624920251 -0.24586339942155419 0 0.21130945108473639 -0.22000441216527869 0 0.1995187067769538 -0.22648505830905971 0 0.1995187067769538 -0.22648505830905971 0 0.1970165427207646 -0.2431475676051908 0 0.1843931124890181 -0.23269732176232691 0 0.21130945108473639 -0.22000441216527869 0 0.1995187067769538 -0.22648505830905971 0 0.19847161958806309 -0.21206345826637629 0 0.2064216300685435 -0.1763378775815001 0 0.2213864998634191 -0.19074186604973761 0 0.20705859430259141 -0.20063481153153051 0 0.22156570902884701 -0.2081716276760221 0 0.2213864998634191 -0.19074186604973761 0 0.20705859430259141 -0.20063481153153051 0 0.22156570902884701 -0.2081716276760221 0 0.21130945108473639 -0.22000441216527869 0 0.20705859430259141 -0.20063481153153051 0 0.21130945108473639 -0.22000441216527869 0 0.20705859430259141 -0.20063481153153051 0 0.19847161958806309 -0.21206345826637629 0 0.19847161958806309 -0.21206345826637629 0 0.19333004299069351 -0.19482382871724169 0 0.184507054165965 -0.21658659277756609 0 0.1995187067769538 -0.22648505830905971 0 0.19847161958806309 -0.21206345826637629 0 0.184507054165965 -0.21658659277756609 0 0.20705859430259141 -0.20063481153153051 0 0.19847161958806309 -0.21206345826637629 0 0.19333004299069351 -0.19482382871724169 0 0.2064216300685435 -0.1763378775815001 0 0.20705859430259141 -0.20063481153153051 0 0.19333004299069351 -0.19482382871724169 0 0.1776330785524223 -0.18942424135099509 0 0.184507054165965 -0.21658659277756609 0 0.16837846483810831 -0.20319749351435479 0 0.19333004299069351 -0.19482382871724169 0 0.1776330785524223 -0.18942424135099509 0 0.184507054165965 -0.21658659277756609 0 0.1776330785524223 -0.18942424135099509 0 0.184507054165965 -0.21658659277756609 0 0.184507054165965 -0.21658659277756609 0 0.1749867686249286 -0.21735889230250449 0 0.16837846483810831 -0.20319749351435479 0 0.1749867686249286 -0.21735889230250449 0 0.16837846483810831 -0.20319749351435479 0 0.15045483047290331 -0.2082327262959493 0 0.1749867686249286 -0.21735889230250449 0 0.15045483047290331 -0.2082327262959493 0 0.1749867686249286 -0.21735889230250449 0 0.16226861639455931 -0.22172210758959859 0 0.15045483047290331 -0.2082327262959493 0 0.16837846483810831 -0.20319749351435479 0 0.15045483047290331 -0.2082327262959493 0 0.15431059237432221 -0.18438501484475869 0 0.1776330785524223 -0.18942424135099509 0 0.16837846483810831 -0.20319749351435479 0 0.15431059237432221 -0.18438501484475869 0 0.1970165427207646 -0.2431475676051908 0 0.18013525364959199 -0.24590787480667409 0 0.1843931124890181 -0.23269732176232691 0 0.18013525364959199 -0.24590787480667409 0 0.1843931124890181 -0.23269732176232691 0 0.17030829067285161 -0.2305872157882054 0 0.1995187067769538 -0.22648505830905971 0 0.1749867686249286 -0.21735889230250449 0 0.1995187067769538 -0.22648505830905971 0 0.1749867686249286 -0.21735889230250449 0 0.1843931124890181 -0.23269732176232691 0 0.1995187067769538 -0.22648505830905971 0 0.184507054165965 -0.21658659277756609 0 0.1749867686249286 -0.21735889230250449 0 0.1749867686249286 -0.21735889230250449 0 0.1843931124890181 -0.23269732176232691 0 0.17030829067285161 -0.2305872157882054 0 0.16226861639455931 -0.22172210758959859 0 0.17030829067285161 -0.2305872157882054 0 0.15332457580755371 -0.23070959597173549 0 0.1749867686249286 -0.21735889230250449 0 0.16226861639455931 -0.22172210758959859 0 0.17030829067285161 -0.2305872157882054 0 0.16103468924722281 -0.25381861710109321 0 0.18013525364959199 -0.24590787480667409 0 0.17030829067285161 -0.2305872157882054 0 0.16103468924722281 -0.25381861710109321 0 0.17030829067285161 -0.2305872157882054 0 0.15332457580755371 -0.23070959597173549 0 0.16103468924722281 -0.25381861710109321 0 0.1412434604122122 -0.24631040783256791 0 0.15332457580755371 -0.23070959597173549 0 0.1412434604122122 -0.24631040783256791 0 0.15332457580755371 -0.23070959597173549 0 0.1284413173888232 -0.22347585252773641 0 0.15332457580755371 -0.23070959597173549 0 0.1284413173888232 -0.22347585252773641 0 0.15045483047290331 -0.2082327262959493 0 0.16226861639455931 -0.22172210758959859 0 0.15332457580755371 -0.23070959597173549 0 0.15045483047290331 -0.2082327262959493 0 0.1200034520355143 -0.24749468667538321 0 0.1412434604122122 -0.24631040783256791 0 0.1284413173888232 -0.22347585252773641 0 0.15045483047290331 -0.2082327262959493 0 0.12592289232087811 -0.19910656028939411 0 0.15431059237432221 -0.18438501484475869 0 0.15045483047290331 -0.2082327262959493 0 0.12592289232087811 -0.19910656028939411 0 0.1284413173888232 -0.22347585252773641 0 0.15045483047290331 -0.2082327262959493 0 0.12592289232087811 -0.19910656028939411 0 0.11404320040195411 -0.17785048998131209 0 0.12592289232087811 -0.19910656028939411 0 0.1362427207560932 -0.1734399905344442 0 0.12592289232087811 -0.19910656028939411 0 0.1362427207560932 -0.1734399905344442 0 0.15431059237432221 -0.18438501484475869 0 0.1362427207560932 -0.1734399905344442 0 0.15431059237432221 -0.18438501484475869 0 0.1498051255961938 -0.157092757972084 0 0.11404320040195411 -0.17785048998131209 0 0.1362427207560932 -0.1734399905344442 0 0.1305387904294309 -0.15561497697083931 0 0.1362427207560932 -0.1734399905344442 0 0.1498051255961938 -0.157092757972084 0 0.1305387904294309 -0.15561497697083931 0 0.1498051255961938 -0.157092757972084 0 0.1305387904294309 -0.15561497697083931 0 0.13638976604354719 -0.13495016646355951 0 0.1161887790728692 -0.1476769396888597 0 0.1305387904294309 -0.15561497697083931 0 0.13638976604354719 -0.13495016646355951 0 0.12800820934211829 -0.12401417466047961 0 0.13638976604354719 -0.13495016646355951 0 0.1486045981545247 -0.12747252536747111 0 0.13638976604354719 -0.13495016646355951 0 0.16388512732533739 -0.13509953849785281 0 0.13638976604354719 -0.13495016646355951 0 0.1486045981545247 -0.12747252536747111 0 0.16388512732533739 -0.13509953849785281 0 0.1498051255961938 -0.157092757972084 0 0.13638976604354719 -0.13495016646355951 0 0.16388512732533739 -0.13509953849785281 0 0.16388512732533739 -0.13509953849785281 0 0.17075910293887969 -0.16226188992442411 0 0.1498051255961938 -0.157092757972084 0 0.16388512732533739 -0.13509953849785281 0 0.17075910293887969 -0.16226188992442411 0 0.18014950107347269 -0.1188522098678762 0 0.16265603278097029 -0.1302428005884553 0 0.16388512732533739 -0.13509953849785281 0 0.16095359288685571 -0.1184472051676727 0 0.1486045981545247 -0.12747252536747111 0 0.16265603278097029 -0.1302428005884553 0 0.1486045981545247 -0.12747252536747111 0 0.16265603278097029 -0.1302428005884553 0 0.16388512732533739 -0.13509953849785281 0 0.16265603278097029 -0.1302428005884553 0 0.16388512732533739 -0.13509953849785281 0 0.19406318364410949 -0.13526348461287321 0 0.16388512732533739 -0.13509953849785281 0 0.18014950107347269 -0.1188522098678762 0 0.19406318364410949 -0.13526348461287321 0 0.18014950107347269 -0.1188522098678762 0 0.19406318364410949 -0.13526348461287321 0 0.16388512732533739 -0.13509953849785281 0 0.19019323353294471 -0.15547991582157239 0 0.16388512732533739 -0.13509953849785281 0 0.17075910293887969 -0.16226188992442411 0 0.19019323353294471 -0.15547991582157239 0 0.19406318364410949 -0.13526348461287321 0 0.16388512732533739 -0.13509953849785281 0 0.19019323353294471 -0.15547991582157239 0 0.185888281266576 -0.1738959907954824 0 0.17075910293887969 -0.16226188992442411 0 0.1776330785524223 -0.18942424135099509 0 0.185888281266576 -0.1738959907954824 0 0.17075910293887969 -0.16226188992442411 0 0.1776330785524223 -0.18942424135099509 0 0.17075910293887969 -0.16226188992442411 0 0.19333004299069351 -0.19482382871724169 0 0.1776330785524223 -0.18942424135099509 0 0.185888281266576 -0.1738959907954824 0 0.1776330785524223 -0.18942424135099509 0 0.15431059237432221 -0.18438501484475869 0 0.17075910293887969 -0.16226188992442411 0 0.15431059237432221 -0.18438501484475869 0 0.1498051255961938 -0.157092757972084 0 0.17075910293887969 -0.16226188992442411 0 
</DataArray>
</Points>
<Cells>
<DataArray type="UInt32" Name="connectivity" format="ascii">
0 1 2 3 4 5 6 7 8 9 10 11 12 13 14 15 16 17 18 19 20 21 22 23 24 25 26 27 28 29 30 31 32 33 34 35 36 37 38 39 40 41 42 43 44 45 46 47 48 49 50 51 52 53 54 55 56 57 58 59 60 61 62 63 64 65 66 67 68 69 70 71 72 73 74 75 76 77 78 79 80 81 82 83 84 85 86 87 88 89 90 91 92 93 94 95 96 97 98 99 100 101 102 103 104 105 106 107 108 109 110 111 112 113 114 115 116 117 118 119 120 121 122 123 124 125 126 127 128 129 130 131 132 133 134 135 136 137 138 139 140 141 142 143 144 145 146 147 148 149 150 151 152 153 154 155 156 157 158 159 160 161 162 163 164 165 166 167 168 169 170 171 172 173 174 175 176 177 178 179 180 181 182 183 184 185 186 187 188 189 190 191 192 193 194 195 196 197 198 199 200 201 202 203 204 205 206 207 208 209 210 211 212 213 214 215 216 217 218 219 220 221 222 223 224 225 226 227 228 229 230 231 232 233 234 235 236 237 238 239 240 241 242 243 244 245 246 247 248 249 250 251 252 253 254 255 256 257 258 259 260 261 262 263 264 265 266 267 268 269 270 271 272 273 274 275 276 277 278 279 280 281 282 283 284 285 286 287 288 289 290 291 292 293 294 295 296 297 298 299 300 301 302 303 304 305 306 307 308 309 310 311 312 313 314 315 316 317 318 319 320 321 322 323 324 325 326 327 328 329 330 331 332 333 334 335 336 337 338 339 340 341 342 343 344 345 346 347 348 349 350 351 352 353 354 355 356 357 358 359 360 361 362 363 364 365 366 367 368 369 370 371 372 373 374 375 376 377 378 379 380 381 382 383 384 385 386 387 388 389 390 391 392 393 394 395 396 397 398 399 400 401 402 403 404 405 406 407 408 409 410 411 412 413 414 415 416 417 418 419 420 421 422 423 424 425 426 427 428 429 430 431 432 433 434 435 436 437 438 439 440 441 442 443 444 445 446 447 448 449 450 451 452 453 454 455 456 457 458 459 460 461 462 463 464 465 466 467 468 469 470 471 472 473 474 475 476 477 478 479 480 481 482 483 484 485 486 487 488 489 490 491 492 493 494 495 496 497 498 499 500 501 502 503 504 505 506 507 508 509 510 511 512 513 514 515 516 517 518 519 520 521 522 523 524 525 526 527 528 529 530 531 532 533 534 535 536 537 538 539 540 541 542 543 544 545 546 547 548 549 550 551 552 553 554 555 556 557 558 559 560 561 562 563 564 565 566 567 568 569 570 571 572 573 574 575 576 577 578 579 580 581 582 583 584 585 586 587 588 589 590 591 592 593 594 595 596 597 598 599 600 601 602 603 604 605 606 607 608 609 610 611 612 613 614 615 616 617 618 619 620 621 622 623 624 625 626 627 628 629 630 631 632 633 634 635 636 637 638 639 640 641 642 643 644 645 646 647 648 649 650 651 652 653 654 655 656 657 658 659 660 661 662 663 664 665 666 667 668 669 670 671 672 673 674 675 676 677 678 679 680 681 682 683 684 685 686 687 688 689 690 691 692 693 694 695 696 697 698 699 700 701 702 703 704 705 706 707 708 709 710 711 712 713 714 715 716 717 718 719 720 721 722 723 724 725 726 727 728 729 730 731 732 733 734 735 736 737 738 739 740 741 742 743 744 745 746 747 748 749 750 751 752 753 754 755 756 757 758 759 760 761 762 763 764 765 766 767 768 769 770 771 772 773 774 775 776 777 778 779 780 781 782 783 784 785 786 787 788 789 790 791 792 793 794 795 796 797 798 799 800 801 802 803 804 805 806 807 808 809 810 811 812 813 814 815 816 817 818 819 820 821 822 823 824 825 826 827 828 829 830 831 832 833 834 835 836 837 838 839 840 841 842 843 844 845 846 847 848 849 850 851 852 853 854 855 856 857 858 859 860 861 862 863 864 865 866 867 868 869 870 871 872 873 874 875 876 877 878 879 880 881 882 883 884 885 886 887 888 889 890 891 892 893 894 895 896 897 898 899 900 901 902 903 904 905 906 907 908 909 910 911 912 913 914 915 916 917 918 919 920 921 922 923 924 925 926 927 928 929 930 931 932 933 934 935 936 937 938 939 940 941 942 943 944 945 946 947 948 949 950 951 952 953 954 955 956 957 958 959 960 961 962 963 964 965 966 967 968 969 970 971 972 973 974 975 976 977 978 979 980 981 982 983 984 985 986 987 988 989 990 991 992 993 994 995 996 997 998 999 1000 1001 1002 1003 1004 1005 1006 1007 1008 1009 1010 1011 1012 1013 1014 1015 1016 1017 1018 1019 1020 1021 1022 1023 1024 1025 1026 1027 1028 1029 1030 1031 1032 1033 1034 1035 1036 1037 1038 1039 1040 1041 1042 1043 1044 1045 1046 1047 1048 1049 1050 1051 1052 1053 1054 1055 1056 1057 1058 1059 1060 1061 1062 1063 1064 1065 1066 1067 1068 1069 1070 1071 1072 1073 1074 1075 1076 1077 1078 1079 1080 1081 1082 1083 1084 1085 1086 1087 1088 1089 1090 1091 1092 1093 1094 1095 1096 1097 1098 1099 1100 1101 1102 1103 1104 1105 1106 1107 1108 1109 1110 1111 1112 1113 1114 1115 1116 1117 1118 1119 1120 1121 1122 1123 1124 1125 1126 1127 1128 1129 1130 1131 1132 1133 1134 1135 1136 1137 1138 1139 1140 1141 1142 1143 1144 1145 1146 1147 1148 1149 1150 1151 1152 1153 1154 1155 1156 1157 1158 1159 1160 1161 1162 1163 1164 1165 1166 1167 1168 1169 1170 1171 1172 1173 1174 1175 1176 1177 1178 1179 1180 1181 1182 1183 1184 1185 1186 1187 1188 1189 1190 1191 1192 1193 1194 1195 1196 1197 1198 1199 1200 1201 1202 1203 1204 1205 1206 1207 1208 1209 1210 1211 1212 1213 1214 1215 1216 1217 1218 1219 1220 1221 1222 1223 1224 1225 1226 1227 1228 1229 1230 1231 1232 1233 1234 1235 1236 1237 1238 1239 1240 1241 1242 1243 1244 1245 1246 1247 1248 1249 1250 1251 1252 1253 1254 1255 1256 1257 1258 1259 1260 1261 1262 1263 1264 1265 1266 1267 1268 1269 1270 1271 1272 1273 1274 1275 1276 1277 1278 1279 1280 1281 1282 1283 1284 1285 1286 1287 1288 1289 1290 1291 1292 1293 1294 1295 1296 1297 1298 1299 1300 1301 1302 1303 1304 1305 1306 1307 1308 1309 1310 1311 1312 1313 1314 1315 1316 1317 1318 1319 1320 1321 1322 1323 1324 1325 1326 1327 1328 1329 1330 1331 1332 1333 1334 1335 1336 1337 1338 1339 1340 1341 1342 1343 1344 1345 1346 1347 1348 1349 1350 1351 1352 1353 1354 1355 1356 1357 1358 1359 1360 1361 1362 1363 1364 1365 1366 1367 1368 1369 1370 1371 1372 1373 1374 1375 1376 1377 1378 1379 1380 1381 1382 1383 1384 1385 1386 1387 1388 1389 1390 1391 1392 1393 1394 1395 1396 1397 1398 1399 1400 1401 1402 1403 1404 1405 1406 1407 1408 1409 1410 1411 1412 1413 1414 1415 1416 1417 1418 1419 1420 1421 1422 1423 1424 1425 1426 1427 1428 1429 1430 1431 1432 1433 1434 1435 1436 1437 1438 1439 1440 1441 1442 1443 1444 1445 1446 1447 1448 1449 1450 1451 1452 1453 1454 1455 1456 1457 1458 1459 1460 1461 1462 1463 1464 1465 1466 1467 1468 1469 1470 1471 1472 1473 1474 1475 1476 1477 1478 1479 1480 1481 1482 1483 1484 1485 1486 1487 1488 1489 1490 1491 1492 1493 1494 1495 1496 1497 1498 1499 1500 1501 1502 1503 1504 1505 1506 1507 1508 1509 1510 1511 1512 1513 1514 1515 1516 1517 1518 1519 1520 1521 1522 1523 1524 1525 1526 1527 1528 1529 1530 1531 1532 1533 1534 1535 1536 1537 1538 1539 1540 1541 1542 1543 1544 1545 1546 1547 1548 1549 1550 1551 1552 1553 1554 1555 1556 1557 1558 1559 1560 1561 1562 1563 1564 1565 1566 1567 1568 1569 1570 1571 1572 1573 1574 1575 1576 1577 1578 1579 1580 1581 1582 1583 1584 1585 1586 1587 1588 1589 1590 1591 1592 1593 1594 1595 1596 1597 1598 1599 1600 1601 1602 1603 1604 1605 1606 1607 1608 1609 1610 1611 1612 1613 1614 1615 1616 1617 1618 1619 1620 1621 1622 1623 1624 1625 1626 1627 1628 1629 1630 1631 1632 1633 1634 1635 1636 1637 1638 1639 1640 1641 1642 1643 1644 1645 1646 1647 1648 1649 1650 1651 1652 1653 1654 1655 1656 1657 1658 1659 1660 1661 1662 1663 1664 1665 1666 1667 1668 1669 1670 1671 1672 1673 1674 1675 1676 1677 1678 1679 1680 1681 1682 1683 1684 1685 1686 1687 1688 1689 1690 1691 1692 1693 1694 1695 1696 1697 1698 1699 1700 1701 1702 1703 1704 1705 1706 1707 1708 1709 1710 1711 1712 1713 1714 1715 1716 1717 1718 1719 1720 1721 1722 1723 1724 1725 1726 1727 1728 1729 1730 1731 1732 1733 1734 1735 1736 1737 1738 1739 1740 1741 1742 1743 1744 1745 1746 1747 1748 1749 1750 1751 1752 1753 1754 1755 1756 1757 1758 1759 1760 1761 1762 1763 1764 1765 1766 1767 1768 1769 1770 1771 1772 1773 1774 1775 1776 1777 1778 1779 1780 1781 1782 1783 1784 1785 1786 1787 1788 1789 1790 1791 1792 1793 1794 1795 1796 1797 1798 1799 1800 1801 1802 1803 1804 1805 1806 1807 1808 1809 1810 1811 1812 1813 1814 1815 1816 1817 1818 1819 1820 1821 1822 1823 1824 1825 1826 1827 1828 1829 1830 1831 1832 1833 1834 1835 1836 1837 1838 1839 1840 1841 1842 1843 1844 1845 1846 1847 1848 1849 1850 1851 1852 1853 1854 1855 1856 1857 1858 1859 1860 1861 1862 1863 1864 1865 1866 1867 1868 1869 1870 1871 1872 1873 1874 1875 1876 1877 1878 1879 1880 1881 1882 1883 1884 1885 1886 1887 1888 1889 1890 1891 1892 1893 1894 1895 1896 1897 1898 1899 1900 1901 1902 1903 1904 1905 1906 1907 1908 1909 1910 1911 1912 1913 1914 1915 1916 1917 1918 1919 1920 1921 1922 1923 1924 1925 1926 1927 1928 1929 1930 1931 1932 1933 1934 1935 1936 1937 1938 1939 1940 1941 1942 1943 1944 1945 1946 1947 1948 1949 1950 1951 1952 1953 1954 1955 1956 1957 1958 1959 1960 1961 1962 1963 1964 1965 1966 1967 1968 1969 1970 1971 1972 1973 1974 1975 1976 1977 1978 1979 1980 1981 1982 1983 1984 1985 1986 1987 1988 1989 1990 1991 1992 1993 1994 1995 1996 1997 1998 1999 2000 2001 2002 2003 2004 2005 2006 2007 2008 2009 2010 2011 2012 2013 2014 2015 2016 2017 2018 2019 2020 2021 2022 2023 2024 2025 2026 2027 2028 2029 2030 2031 2032 2033 2034 2035 2036 2037 2038 2039 2040 2041 2042 2043 2044 2045 2046 2047 2048 2049 2050 2051 2052 2053 2054 2055 2056 2057 2058 2059 2060 2061 2062 2063 2064 2065 2066 2067 2068 2069 2070 2071 2072 2073 2074 2075 2076 2077 2078 2079 2080 2081 2082 2083 2084 2085 2086 2087 2088 2089 2090 2091 2092 2093 2094 2095 2096 2097 2098 2099 2100 2101 2102 2103 2104 2105 2106 2107 2108 2109 2110 2111 2112 2113 2114 2115 2116 2117 2118 2119 2120 2121 2122 2123 2124 2125 2126 2127 2128 2129 2130 2131 2132 2133 2134 2135 2136 2137 2138 2139 2140 2141 2142 2143 2144 2145 2146 2147 2148 2149 2150 2151 2152 2153 2154 2155 2156 2157 2158 2159 2160 2161 2162 2163 2164 2165 2166 2167 2168 2169 2170 2171 2172 2173 2174 2175 2176 2177 2178 2179 2180 2181 2182 2183 2184 2185 2186 2187 2188 2189 2190 2191 2192 2193 2194 2195 2196 2197 2198 2199 2200 2201 2202 2203 2204 2205 2206 2207 2208 2209 2210 2211 2212 2213 2214 2215 2216 2217 2218 2219 2220 2221 2222 2223 2224 2225 2226 2227 2228 2229 2230 2231 2232 2233 2234 2235 2236 2237 2238 2239 2240 2241 2242 2243 2244 2245 2246 2247 2248 2249 2250 2251 2252 2253 2254 2255 2256 2257 2258 2259 2260 2261 2262 2263 2264 2265 2266 2267 2268 2269 2270 2271 2272 2273 2274 2275 2276 2277 2278 2279 2280 2281 2282 2283 2284 2285 2286 2287 2288 2289 2290 2291 2292 2293 2294 2295 2296 2297 2298 2299 2300 2301 2302 2303 2304 2305 2306 2307 2308 2309 2310 2311 2312 2313 2314 2315 2316 2317 2318 2319 2320 2321 2322 2323 2324 2325 2326 2327 2328 2329 2330 2331 2332 2333 2334 2335 2336 2337 2338 2339 2340 2341 2342 2343 2344 2345 2346 2347 2348 2349 2350 2351 2352 2353 2354 2355 2356 2357 2358 2359 2360 2361 2362 2363 2364 2365 2366 2367 2368 2369 2370 2371 2372 2373 2374 2375 2376 2377 2378 2379 2380 2381 2382 2383 2384 2385 2386 2387 2388 2389 2390 2391 2392 2393 2394 2395 2396 2397 2398 2399 2400 2401 2402 2403 2404 2405 2406 2407 2408 2409 2410 2411 2412 2413 2414 2415 2416 2417 2418 2419 2420 2421 2422 2423 2424 2425 2426 2427 2428 2429 2430 2431 2432 2433 2434 2435 2436 2437 2438 2439 2440 2441 2442 2443 2444 2445 2446 2447 2448 2449 2450 2451 2452 2453 2454 2455 2456 2457 2458 2459 2460 2461 2462 2463 2464 2465 2466 2467 2468 2469 2470 2471 2472 2473 2474 2475 2476 2477 2478 2479 2480 2481 2482 2483 2484 2485 2486 2487 2488 2489 2490 2491 2492 2493 2494 2495 2496 2497 2498 2499 2500 2501 2502 2503 2504 2505 2506 2507 2508 2509 2510 2511 2512 2513 2514 2515 2516 2517 2518 2519 2520 2521 2522 2523 2524 2525 2526 2527 2528 2529 2530 2531 2532 2533 2534 2535 2536 2537 2538 2539 2540 2541 2542 2543 2544 2545 2546 2547 2548 2549 2550 2551 2552 2553 2554 2555 2556 2557 2558 2559 2560 2561 2562 2563 2564 2565 2566 2567 2568 2569 2570 2571 2572 2573 2574 2575 2576 2577 2578 2579 2580 2581 2582 2583 2584 2585 2586 2587 2588 2589 2590 2591 2592 2593 2594 2595 2596 2597 2598 2599 2600 2601 2602 2603 2604 2605 2606 2607 2608 2609 2610 2611 2612 2613 2614 2615 2616 2617 2618 2619 2620 2621 2622 2623 2624 2625 2626 2627 2628 2629 2630 2631 2632 2633 2634 2635 2636 2637 2638 2639 2640 2641 2642 2643 2644 2645 2646 2647 2648 2649 2650 2651 2652 2653 2654 2655 2656 2657 2658 2659 2660 2661 2662 2663 2664 2665 2666 2667 2668 2669 2670 2671 2672 2673 2674 2675 2676 2677 2678 2679 2680 2681 2682 2683 2684 2685 2686 2687 2688 2689 2690 2691 2692 2693 2694 2695 2696 2697 2698 2699 2700 2701 2702 2703 2704 2705 2706 2707 2708 2709 2710 2711 2712 2713 2714 2715 2716 2717 2718 2719 2720 2721 2722 2723 2724 2725 2726 2727 2728 2729 2730 2731 2732 2733 2734 2735 2736 2737 2738 2739 2740 2741 2742 2743 2744 2745 2746 2747 2748 2749 2750 2751 2752 2753 2754 2755 2756 2757 2758 2759 2760 2761 2762 2763 2764 2765 2766 2767 2768 2769 2770 2771 2772 2773 2774 2775 2776 2777 2778 2779 2780 2781 2782 2783 2784 2785 2786 2787 2788 2789 2790 2791 2792 2793 2794 2795 2796 2797 2798 2799 2800 2801 2802 2803 2804 2805 2806 2807 2808 2809 2810 2811 2812 2813 2814 2815 2816 2817 2818 2819 2820 2821 2822 2823 2824 2825 2826 2827 2828 2829 2830 2831 2832 2833 2834 2835 2836 2837 2838 2839 2840 2841 2842 2843 2844 2845 2846 2847 2848 2849 2850 2851 2852 2853 2854 2855 2856 2857 2858 2859 2860 2861 2862 2863 2864 2865 2866 2867 2868 2869 2870 2871 2872 2873 2874 2875 2876 2877 2878 2879 2880 2881 2882 2883 2884 2885 2886 2887 2888 2889 2890 2891 2892 2893 2894 2895 2896 2897 2898 2899 2900 2901 2902 2903 2904 2905 2906 2907 2908 2909 2910 2911 2912 2913 2914 2915 2916 2917 2918 2919 2920 2921 2922 2923 2924 2925 2926 2927 2928 2929 2930 2931 2932 2933 2934 2935 2936 2937 2938 2939 2940 2941 2942 2943 2944 2945 2946 2947 2948 2949 2950 2951 2952 2953 2954 2955 2956 2957 2958 2959 2960 2961 2962 2963 2964 2965 2966 2967 2968 2969 2970 2971 2972 2973 2974 2975 2976 2977 2978 2979 2980 2981 2982 2983 2984 2985 2986 2987 2988 2989 2990 2991 2992 2993 2994 2995 2996 2997 2998 2999 3000 3001 3002 3003 3004 3005 3006 3007 3008 3009 3010 3011 3012 3013 3014 3015 3016 3017 3018 3019 3020 3021 3022 3023 3024 3025 3026 3027 3028 3029 3030 3031 3032 3033 3034 3035 3036 3037 3038 3039 3040 3041 3042 3043 3044 3045 3046 3047 3048 3049 3050 3051 3052 3053 3054 3055 3056 3057 3058 3059 3060 3061 3062 3063 3064 3065 3066 3067 3068 3069 3070 3071 3072 3073 3074 3075 3076 3077 3078 3079 3080 3081 3082 3083 3084 3085 3086 3087 3088 3089 3090 3091 3092 3093 3094 3095 3096 3097 3098 3099 3100 3101 3102 3103 3104 3105 3106 3107 3108 3109 3110 3111 3112 3113 3114 3115 3116 3117 3118 3119 3120 3121 3122 3123 3124 3125 3126 3127 3128 3129 3130 3131 3132 3133 3134 3135 3136 3137 3138 3139 3140 3141 3142 3143 3144 3145 3146 3147 3148 3149 3150 3151 3152 3153 3154 3155 3156 3157 3158 3159 3160 3161 3162 3163 3164 3165 3166 3167 3168 3169 3170 3171 3172 3173 3174 3175 3176 3177 3178 3179 3180 3181 3182 3183 3184 3185 3186 3187 3188 3189 3190 3191 3192 3193 3194 3195 3196 3197 3198 3199 3200 3201 3202 3203 3204 3205 3206 3207 3208 3209 3210 3211 3212 3213 3214 3215 3216 3217 3218 3219 3220 3221 3222 3223 3224 3225 3226 3227 3228 3229 3230 3231 3232 3233 3234 3235 3236 3237 3238 3239 3240 3241 3242 3243 3244 3245 3246 3247 3248 3249 3250 3251 3252 3253 3254 3255 3256 3257 3258 3259 3260 3261 3262 3263 3264 3265 3266 3267 3268 3269 3270 3271 3272 3273 3274 3275 3276 3277 3278 3279 3280 3281 3282 3283 3284 3285 3286 3287 3288 3289 3290 3291 3292 3293 3294 3295 3296 3297 3298 3299 3300 3301 3302 3303 3304 3305 3306 3307 3308 3309 3310 3311 3312 3313 3314 3315 3316 3317 3318 3319 3320 3321 3322 3323 3324 3325 3326 3327 3328 3329 3330 3331 3332 3333 3334 3335 3336 3337 3338 3339 3340 3341 3342 3343 3344 3345 3346 3347 3348 3349 3350 3351 3352 3353 3354 3355 3356 3357 3358 3359 3360 3361 3362 3363 3364 3365 3366 3367 3368 3369 3370 3371 3372 3373 3374 3375 3376 3377 3378 3379 3380 3381 3382 3383 3384 3385 3386 3387 3388 3389 3390 3391 3392 3393 3394 3395 3396 3397 3398 3399 3400 3401 3402 3403 3404 3405 3406 3407 3408 3409 3410 3411 3412 3413 3414 3415 3416 3417 3418 3419 3420 3421 3422 3423 3424 3425 3426 3427 3428 3429 3430 3431 3432 3433 3434 3435 3436 3437 3438 3439 3440 3441 3442 3443 3444 3445 3446 3447 3448 3449 3450 3451 3452 3453 3454 3455 3456 3457 3458 3459 3460 3461 3462 3463 3464 3465 3466 3467 3468 3469 3470 3471 3472 3473 3474 3475 3476 3477 3478 3479 3480 3481 3482 3483 3484 3485 3486 3487 3488 3489 3490 3491 3492 3493 3494 3495 3496 3497 3498 3499 3500 3501 3502 3503 3504 3505 3506 3507 3508 3509 3510 3511 3512 3513 3514 3515 3516 3517 3518 3519 3520 3521 3522 3523 3524 3525 3526 3527 3528 3529 3530 3531 3532 3533 3534 3535 3536 3537 3538 3539 3540 3541 3542 3543 3544 3545 3546 3547 3548 3549 3550 3551 3552 3553 3554 3555 3556 3557 3558 3559 3560 3561 3562 3563 3564 3565 3566 3567 3568 3569 3570 3571 3572 3573 3574 3575 3576 3577 3578 3579 3580 3581 3582 3583 3584 3585 3586 3587 3588 3589 3590 3591 3592 3593 3594 3595 3596 3597 3598 3599 3600 3601 3602 3603 3604 3605 3606 3607 3608 3609 3610 3611 3612 3613 3614 3615 3616 3617 3618 3619 3620 3621 3622 3623 3624 3625 3626 3627 3628 3629 3630 3631 3632 3633 3634 3635 3636 3637 3638 3639 3640 3641 3642 3643 3644 3645 3646 3647 3648 3649 3650 3651 3652 3653 3654 3655 3656 3657 3658 3659 3660 3661 3662 3663 3664 3665 3666 3667 3668 3669 3670 3671 3672 3673 3674 3675 3676 3677 3678 3679 3680 3681 3682 3683 3684 3685 3686 3687 3688 3689 3690 3691 3692 3693 3694 3695 3696 3697 3698 3699 3700 3701 3702 3703 3704 3705 3706 3707 3708 3709 3710 3711 3712 3713 3714 3715 3716 3717 3718 3719 3720 3721 3722 3723 3724 3725 3726 3727 3728 3729 3730 3731 3732 3733 3734 3735 3736 3737 3738 3739 3740 3741 3742 3743 3744 3745 3746 3747 3748 3749 3750 3751 3752 3753 3754 3755 3756 3757 3758 3759 3760 3761 3762 3763 3764 3765 3766 3767 3768 3769 3770 3771 3772 3773 3774 3775 3776 3777 3778 3779 3780 3781 3782 3783 3784 3785 3786 3787 3788 3789 3790 3791 3792 3793 3794 3795 3796 3797 3798 3799 3800 3801 3802 3803 3804 3805 3806 3807 3808 3809 3810 3811 3812 3813 3814 3815 3816 3817 3818 3819 3820 3821 3822 3823 3824 3825 3826 3827 3828 3829 3830 3831 3832 3833 3834 3835 3836 3837 3838 3839 3840 3841 3842 3843 3844 3845 3846 3847 3848 3849 3850 3851 3852 3853 3854 3855 3856 3857 3858 3859 3860 3861 3862 3863 3864 3865 3866 3867 3868 3869 3870 3871 3872 3873 3874 3875 3876 3877 3878 3879 3880 3881 3882 3883 3884 3885 3886 3887 3888 3889 3890 3891 3892 3893 3894 3895 3896 3897 3898 3899 3900 3901 3902 3903 3904 3905 3906 3907 3908 3909 3910 3911 3912 3913 3914 3915 3916 3917 3918 3919 3920 3921 3922 3923 3924 3925 3926 3927 3928 3929 3930 3931 3932 3933 3934 3935 3936 3937 3938 3939 3940 3941 3942 3943 3944 3945 3946 3947 3948 3949 3950 3951 3952 3953 3954 3955 3956 3957 3958 3959 3960 3961 3962 3963 3964 3965 3966 3967 3968 3969 3970 3971 3972 3973 3974 3975 3976 3977 3978 3979 3980 3981 3982 3983 3984 3985 3986 3987 3988 3989 3990 3991 3992 3993 3994 3995 3996 3997 3998 3999 4000 4001 4002 4003 4004 4005 4006 4007 4008 4009 4010 4011 4012 4013 4014 4015 4016 4017 4018 4019 4020 4021 4022 4023 4024 4025 4026 4027 4028 4029 4030 4031 4032 4033 4034 4035 4036 4037 4038 4039 4040 4041 4042 4043 4044 4045 4046 4047 4048 4049 4050 4051 4052 4053 4054 4055 4056 4057 4058 4059 4060 4061 4062 4063 4064 4065 4066 4067 4068 4069 4070 4071 4072 4073 4074 4075 4076 4077 4078 4079 4080 4081 4082 4083 4084 4085 4086 4087 4088 4089 4090 4091 4092 4093 4094 4095 4096 4097 4098 4099 4100 4101 4102 4103 4104 4105 4106 4107 4108 4109 4110 4111 4112 4113 4114 4115 4116 4117 4118 4119 4120 4121 4122 4123 4124 4125 4126 4127 4128 4129 4130 4131 4132 4133 4134 4135 4136 4137 4138 4139 4140 4141 4142 4143 4144 4145 4146 4147 4148 4149 4150 4151 4152 4153 4154 4155 4156 4157 4158 4159 4160 4161 4162 4163 4164 4165 4166 4167 4168 4169 4170 4171 4172 4173 4174 4175 4176 4177 4178 4179 4180 4181 4182 4183 4184 4185 4186 4187 4188 4189 4190 4191 4192 4193 4194 4195 4196 4197 4198 4199 4200 4201 4202 4203 4204 4205 4206 4207 4208 4209 4210 4211 4212 4213 4214 4215 4216 4217 4218 4219 4220 4221 4222 4223 4224 4225 4226 4227 4228 4229 4230 4231 4232 4233 4234 4235 4236 4237 4238 4239 4240 4241 4242 4243 4244 4245 4246 4247 4248 4249 4250 4251 4252 4253 4254 4255 4256 4257 4258 4259 4260 4261 4262 4263 4264 4265 4266 4267 4268 4269 4270 4271 4272 4273 4274 4275 4276 4277 4278 4279 4280 4281 4282 4283 4284 4285 4286 4287 4288 4289 4290 4291 4292 4293 4294 4295 4296 4297 4298 4299 4300 4301 4302 4303 4304 4305 4306 4307 4308 4309 4310 4311 4312 4313 4314 4315 4316 4317 4318 4319 4320 4321 4322 4323 4324 4325 4326 4327 4328 4329 4330 4331 4332 4333 4334 4335 4336 4337 4338 4339 4340 4341 4342 4343 4344 4345 4346 4347 4348 4349 4350 4351 4352 4353 4354 4355 4356 4357 4358 4359 4360 4361 4362 4363 4364 4365 4366 4367 4368 4369 4370 4371 4372 4373 4374 4375 4376 4377 4378 4379 4380 4381 4382 4383 4384 4385 4386 4387 4388 4389 4390 4391 4392 4393 4394 4395 4396 4397 4398 4399 4400 4401 4402 4403 4404 4405 4406 4407 4408 4409 4410 4411 4412 4413 4414 4415 4416 4417 4418 4419 4420 4421 4422 4423 4424 4425 4426 4427 4428 4429 4430 4431 4432 4433 4434 4435 4436 4437 4438 4439 4440 4441 4442 4443 4444 4445 4446 4447 4448 4449 4450 4451 4452 4453 4454 4455 4456 4457 4458 4459 4460 4461 4462 4463 4464 4465 4466 4467 4468 4469 4470 4471 4472 4473 4474 4475 4476 4477 4478 4479 4480 4481 4482 4483 4484 4485 4486 4487 4488 4489 4490 4491 4492 4493 4494 4495 4496 4497 4498 4499 4500 4501 4502 4503 4504 4505 4506 4507 4508 4509 4510 4511 4512 4513 4514 4515 4516 4517 4518 4519 4520 4521 4522 4523 4524 4525 4526 4527 4528 4529 4530 4531 4532 4533 4534 4535 4536 4537 4538 4539 4540 4541 4542 4543 4544 4545 4546 4547 4548 4549 4550 4551 4552 4553 4554 4555 4556 4557 4558 4559 4560 4561 4562 4563 4564 4565 4566 4567 4568 4569 4570 4571 4572 4573 4574 4575 4576 4577 4578 4579 4580 4581 4582 4583 4584 4585 4586 4587 4588 4589 4590 4591 4592 4593 4594 4595 4596 4597 4598 4599 4600 4601 4602 4603 4604 4605 4606 4607 4608 4609 4610 4611 4612 4613 4614 4615 4616 4617 4618 4619 4620 4621 4622 4623 4624 4625 4626 4627 4628 4629 4630 4631 4632 4633 4634 4635 4636 4637 4638 4639 4640 4641 4642 4643 4644 4645 4646 4647 4648 4649 4650 4651 4652 4653 4654 4655 4656 4657 4658 4659 4660 4661 4662 4663 4664 4665 4666 4667 4668 4669 4670 4671 4672 4673 4674 4675 4676 4677 4678 4679 4680 4681 4682 4683 4684 4685 4686 4687 4688 4689 4690 4691 4692 4693 4694 4695 4696 4697 4698 4699 4700 4701 4702 4703 4704 4705 4706 4707 4708 4709 4710 4711 4712 4713 4714 4715 4716 4717 4718 4719 4720 4721 4722 4723 4724 4725 4726 4727 4728 4729 4730 4731 4732 4733 4734 4735 4736 4737 4738 4739 4740 4741 4742 4743 4744 4745 4746 4747 4748 4749 4750 4751 4752 4753 4754 4755 4756 4757 4758 4759 4760 4761 4762 4763 4764 4765 4766 4767 4768 4769 4770 4771 4772 4773 4774 4775 4776 4777 4778 4779 4780 4781 4782 4783 4784 4785 4786 4787 4788 4789 4790 4791 4792 4793 4794 4795 4796 4797 4798 4799 4800 4801 4802 4803 4804 4805 4806 4807 4808 4809 4810 4811 4812 4813 4814 4815 4816 4817 4818 4819 4820 4821 4822 4823 4824 4825 4826 4827 4828 4829 4830 4831 4832 4833 4834 4835 4836 4837 4838 4839 4840 4841 4842 4843 4844 4845 4846 4847 4848 4849 4850 4851 4852 4853 4854 4855 4856 4857 4858 4859 4860 4861 4862 4863 4864 4865 4866 4867 4868 4869 4870 4871 4872 4873 4874 4875 4876 4877 4878 4879 4880 4881 4882 4883 4884 4885 4886 4887 4888 4889 4890 4891 4892 4893 4894 4895 4896 4897 4898 4899 4900 4901 4902 4903 4904 4905 4906 4907 4908 4909 4910 4911 4912 4913 4914 4915 4916 4917 4918 4919 4920 4921 4922 4923 4924 4925 4926 4927 4928 4929 4930 4931 4932 4933 4934 4935 4936 4937 4938 4939 4940 4941 4942 4943 4944 4945 4946 4947 4948 4949 4950 4951 4952 4953 4954 4955 4956 4957 4958 4959 4960 4961 4962 4963 4964 4965 4966 4967 4968 4969 4970 4971 4972 4973 4974 4975 4976 4977 4978 4979 4980 4981 4982 4983 4984 4985 4986 4987 4988 4989 4990 4991 4992 4993 4994 4995 4996 4997 4998 4999 5000 5001 5002 5003 5004 5005 5006 5007 5008 5009 5010 5011 5012 5013 5014 5015 5016 5017 5018 5019 5020 5021 5022 5023 5024 5025 5026 5027 5028 5029 5030 5031 5032 5033 5034 5035 5036 5037 5038 5039 5040 5041 5042 5043 5044 5045 5046 5047 5048 5049 5050 5051 5052 5053 5054 5055 5056 5057 5058 5059 5060 5061 5062 5063 5064 5065 5066 5067 5068 5069 5070 5071 5072 5073 5074 5075 5076 5077 5078 5079 5080 5081 5082 5083 5084 5085 5086 5087 5088 5089 5090 5091 5092 5093 5094 5095 5096 5097 5098 5099 5100 5101 5102 5103 5104 5105 5106 5107 5108 5109 5110 5111 5112 5113 5114 5115 5116 5117 5118 5119 5120 5121 5122 5123 5124 5125 5126 5127 5128 5129 5130 5131 5132 5133 5134 5135 5136 5137 5138 5139 5140 5141 5142 5143 5144 5145 5146 5147 5148 5149 5150 5151 5152 5153 5154 5155 5156 5157 5158 5159 5160 5161 5162 5163 5164 5165 5166 5167 5168 5169 5170 5171 5172 5173 5174 5175 5176 5177 5178 5179 5180 5181 5182 5183 5184 5185 5186 5187 5188 5189 5190 5191 5192 5193 5194 5195 5196 5197 5198 5199 5200 5201 5202 5203 5204 5205 5206 5207 5208 5209 5210 5211 5212 5213 5214 5215 5216 5217 5218 5219 5220 5221 5222 5223 5224 5225 5226 5227 5228 5229 5230 5231 5232 5233 5234 5235 5236 5237 5238 5239 5240 5241 5242 5243 5244 5245 5246 5247 5248 5249 5250 5251 5252 5253 5254 5255 5256 5257 5258 5259 5260 5261 5262 5263 5264 5265 5266 5267 5268 5269 5270 5271 5272 5273 5274 5275 5276 5277 5278 5279 5280 5281 5282 5283 5284 5285 5286 5287 5288 5289 5290 5291 5292 5293 5294 5295 5296 5297 5298 5299 5300 5301 5302 5303 5304 5305 5306 5307 5308 5309 5310 5311 5312 5313 5314 5315 5316 5317 5318 5319 5320 5321 5322 5323 5324 5325 5326 5327 5328 5329 5330 5331 5332 5333 5334 5335 5336 5337 5338 5339 5340 5341 5342 5343 5344 5345 5346 5347 5348 5349 5350 5351 5352 5353 5354 5355 5356 5357 5358 5359 5360 5361 5362 5363 5364 5365 5366 5367 5368 5369 5370 5371 5372 5373 5374 5375 5376 5377 5378 5379 5380 5381 5382 5383 5384 5385 5386 5387 5388 5389 5390 5391 5392 5393 5394 5395 5396 5397 5398 5399 5400 5401 5402 5403 5404 5405 5406 5407 5408 5409 5410 5411 5412 5413 5414 5415 5416 5417 5418 5419 5420 5421 5422 5423 5424 5425 5426 5427 5428 5429 5430 5431 5432 5433 5434 5435 5436 5437 5438 5439 5440 5441 5442 5443 5444 5445 5446 5447 5448 5449 5450 5451 5452 5453 5454 5455 5456 5457 5458 5459 5460 5461 5462 5463 5464 5465 5466 5467 5468 5469 5470 5471 5472 5473 5474 5475 5476 5477 5478 5479 5480 5481 5482 5483 5484 5485 5486 5487 5488 5489 5490 5491 5492 5493 5494 5495 5496 5497 5498 5499 5500 5501 5502 5503 5504 5505 5506 5507 5508 5509 5510 5511 5512 5513 5514 5515 5516 5517 5518 5519 5520 5521 5522 5523 5524 5525 5526 5527 5528 5529 5530 5531 5532 5533 5534 5535 5536 5537 5538 5539 5540 5541 5542 5543 5544 5545 5546 5547 5548 5549 5550 5551 5552 5553 5554 5555 5556 5557 5558 5559 5560 5561 5562 5563 5564 5565 5566 5567 5568 5569 5570 5571 5572 5573 5574 5575 5576 5577 5578 5579 5580 5581 5582 5583 5584 5585 5586 5587 5588 5589 5590 5591 5592 5593 5594 5595 5596 5597 5598 5599 5600 5601 5602 5603 5604 5605 5606 5607 5608 5609 5610 5611 5612 5613 5614 5615 5616 5617 5618 5619 5620 5621 5622 5623 5624 5625 5626 5627 5628 5629 5630 5631 5632 5633 5634 5635 5636 5637 5638 5639 5640 5641 5642 5643 5644 5645 5646 5647 5648 5649 5650 5651 5652 5653 5654 5655 5656 5657 5658 5659 5660 5661 5662 5663 5664 5665 5666 5667 5668 5669 5670 5671 5672 5673 5674 5675 5676 5677 5678 5679 5680 5681 5682 5683 5684 5685 5686 5687 5688 5689 5690 5691 5692 5693 5694 5695 5696 5697 5698 5699 5700 5701 5702 5703 5704 5705 5706 5707 5708 5709 5710 5711 5712 5713 5714 5715 5716 5717 5718 5719 5720 5721 5722 5723 5724 5725 5726 5727 5728 5729 5730 5731 5732 5733 5734 5735 5736 5737 5738 5739 5740 5741 5742 5743 5744 5745 5746 5747 5748 5749 5750 5751 5752 5753 5754 5755 5756 5757 5758 5759 5760 5761 5762 5763 5764 5765 5766 5767 5768 5769 5770 5771 5772 5773 5774 5775 5776 5777 5778 5779 5780 5781 5782 5783 5784 5785 5786 5787 5788 5789 5790 5791 5792 5793 5794 5795 5796 5797 5798 5799 5800 5801 5802 5803 5804 5805 5806 5807 5808 5809 5810 5811 5812 5813 5814 5815 5816 5817 5818 5819 5820 5821 5822 5823 5824 5825 5826 5827 5828 5829 5830 5831 5832 5833 5834 5835 5836 5837 5838 5839 5840 5841 5842 5843 5844 5845 5846 5847 5848 5849 5850 5851 5852 5853 5854 5855 5856 5857 5858 5859 5860 5861 5862 5863 5864 5865 5866 5867 5868 5869 5870 5871 5872 5873 5874 5875 5876 5877 5878 5879 5880 5881 5882 5883 5884 5885 5886 5887 5888 5889 5890 5891 5892 5893 5894 5895 5896 5897 5898 5899 5900 5901 5902 5903 5904 5905 5906 5907 5908 5909 5910 5911 5912 5913 5914 5915 5916 5917 5918 5919 5920 5921 5922 5923 5924 5925 5926 5927 5928 5929 5930 5931 5932 5933 5934 5935 5936 5937 5938 5939 5940 5941 5942 5943 5944 5945 5946 5947 5948 5949 5950 5951 5952 5953 5954 5955 5956 5957 5958 5959 5960 5961 5962 5963 5964 5965 5966 5967 5968 5969 5970 5971 5972 5973 5974 5975 5976 5977 5978 5979 5980 5981 5982 5983 5984 5985 5986 5987 5988 5989 5990 5991 5992 5993 5994 5995 5996 5997 5998 5999 6000 6001 6002 6003 6004 6005 6006 6007 6008 6009 6010 6011 6012 6013 6014 6015 6016 6017 6018 6019 6020 6021 6022 6023 6024 6025 6026 6027 6028 6029 6030 6031 6032 6033 6034 6035 6036 6037 6038 6039 6040 6041 6042 6043 6044 6045 6046 6047 6048 6049 6050 6051 6052 6053 6054 6055 6056 6057 6058 6059 6060 6061 6062 6063 6064 6065 6066 6067 6068 6069 6070 6071 6072 6073 6074 6075 6076 6077 6078 6079 6080 6081 6082 6083 6084 6085 6086 6087 6088 6089 6090 6091 6092 6093 6094 6095 6096 6097 6098 6099 6100 6101 6102 6103 6104 6105 6106 6107 6108 6109 6110 6111 6112 6113 6114 6115 6116 6117 6118 6119 6120 6121 6122 6123 6124 6125 6126 6127 6128 6129 6130 6131 6132 6133 6134 6135 6136 6137 6138 6139 6140 6141 6142 6143 6144 6145 6146 6147 6148 6149 6150 6151 6152 6153 6154 6155 6156 6157 6158 6159 6160 6161 6162 6163 6164 6165 6166 6167 6168 6169 6170 6171 6172 6173 6174 6175 6176 6177 6178 6179 6180 6181 6182 6183 6184 6185 6186 6187 6188 6189 6190 6191 6192 6193 6194 6195 6196 6197 6198 6199 6200 6201 6202 6203 6204 6205 6206 6207 6208 6209 6210 6211 6212 6213 6214 6215 6216 6217 6218 6219 6220 6221 6222 6223 6224 6225 6226 6227 6228 6229 6230 6231 6232 6233 6234 6235 6236 6237 6238 6239 6240 6241 6242 6243 6244 6245 6246 6247 6248 6249 6250 6251 6252 6253 6254 6255 6256 6257 6258 6259 6260 6261 6262 6263 6264 6265 6266 6267 6268 6269 6270 6271 6272 6273 6274 6275 6276 6277 6278 6279 6280 6281 6282 6283 6284 6285 6286 6287 6288 6289 6290 6291 6292 6293 6294 6295 6296 6297 6298 6299 6300 6301 6302 6303 6304 6305 6306 6307 6308 6309 6310 6311 6312 6313 6314 6315 6316 6317 6318 6319 6320 6321 6322 6323 6324 6325 6326 6327 6328 6329 6330 6331 6332 6333 6334 6335 6336 6337 6338 6339 6340 6341 6342 6343 6344 6345 6346 6347 6348 6349 6350 6351 6352 6353 6354 6355 6356 6357 6358 6359 6360 6361 6362 6363 6364 6365 6366 6367 6368 6369 6370 6371 6372 6373 6374 6375 6376 6377 6378 6379 6380 6381 6382 6383 6384 6385 6386 6387 6388 6389 6390 6391 6392 6393 6394 6395 6396 6397 6398 6399 6400 6401 6402 6403 6404 6405 6406 6407 6408 6409 6410 6411 6412 6413 6414 6415 6416 6417 6418 6419 6420 6421 6422 6423 6424 6425 6426 6427 6428 6429 6430 6431 6432 6433 6434 6435 6436 6437 6438 6439 6440 6441 6442 6443 6444 6445 6446 6447 6448 6449 6450 6451 6452 6453 6454 6455 6456 6457 6458 6459 6460 6461 6462 6463 6464 6465 6466 6467 6468 6469 6470 6471 6472 6473 6474 6475 6476 6477 6478 6479 6480 6481 6482 6483 6484 6485 6486 6487 6488 6489 6490 6491 6492 6493 6494 6495 6496 6497 6498 6499 6500 6501 6502 6503 6504 6505 6506 6507 6508 6509 6510 6511 6512 6513 6514 6515 6516 6517 6518 6519 6520 6521 6522 6523 6524 6525 6526 6527 6528 6529 6530 6531 6532 6533 6534 6535 6536 6537 6538 6539 6540 6541 6542 6543 6544 6545 6546 6547 6548 6549 6550 6551 6552 6553 6554 6555 6556 6557 6558 6559 6560 6561 6562 6563 6564 6565 6566 6567 6568 6569 6570 6571 6572 6573 6574 6575 6576 6577 6578 6579 6580 6581 6582 6583 6584 6585 6586 6587 6588 6589 6590 6591 6592 6593 6594 6595 6596 6597 6598 6599 6600 6601 6602 6603 6604 6605 6606 6607 6608 6609 6610 6611 6612 6613 6614 6615 6616 6617 6618 6619 6620 6621 6622 6623 6624 6625 6626 6627 6628 6629 6630 6631 6632 6633 6634 6635 6636 6637 6638 6639 6640 6641 6642 6643 6644 6645 6646 6647 6648 6649 6650 6651 6652 6653 6654 6655 6656 6657 6658 6659 6660 6661 6662 6663 6664 6665 6666 6667 6668 6669 6670 6671 6672 6673 6674 6675 6676 6677 6678 6679 6680 6681 6682 6683 6684 6685 6686 6687 6688 6689 6690 6691 6692 6693 6694 6695 6696 6697 6698 6699 6700 6701 6702 6703 6704 6705 6706 6707 6708 6709 6710 6711 6712 6713 6714 6715 6716 6717 6718 6719 6720 6721 6722 6723 6724 6725 6726 6727 6728 6729 6730 6731 6732 6733 6734 6735 6736 6737 6738 6739 6740 6741 6742 6743 6744 6745 6746 6747 6748 6749 6750 6751 6752 6753 6754 6755 6756 6757 6758 6759 6760 6761 6762 6763 6764 6765 6766 6767 6768 6769 6770 6771 6772 6773 6774 6775 6776 6777 6778 6779 6780 6781 6782 6783 6784 6785 6786 6787 6788 6789 6790 6791 6792 6793 6794 6795 6796 6797 6798 6799 6800 6801 6802 6803 6804 6805 6806 6807 6808 6809 6810 6811 6812 6813 6814 6815 6816 6817 6818 6819 6820 6821 6822 6823 6824 6825 6826 6827 6828 6829 6830 6831 6832 6833 6834 6835 6836 6837 6838 6839 6840 6841 6842 6843 6844 6845 6846 6847 6848 6849 6850 6851 6852 6853 6854 6855 6856 6857 6858 6859 6860 6861 6862 6863 6864 6865 6866 6867 6868 6869 6870 6871 6872 6873 6874 6875 6876 6877 6878 6879 6880 6881 6882 6883 6884 6885 6886 6887 6888 6889 6890 6891 6892 6893 6894 6895 6896 6897 6898 6899 6900 6901 6902 6903 6904 6905 6906 6907 6908 6909 6910 6911 6912 6913 6914 6915 6916 6917 6918 6919 6920 6921 6922 6923 6924 6925 6926 6927 6928 6929 6930 6931 6932 6933 6934 6935 6936 6937 6938 6939 6940 6941 6942 6943 6944 6945 6946 6947 6948 6949 6950 6951 6952 6953 6954 6955 6956 6957 6958 6959 6960 6961 6962 6963 6964 6965 6966 6967 6968 6969 6970 6971 6972 6973 6974 6975 6976 6977 6978 6979 6980 6981 6982 6983 6984 6985 6986 6987 6988 6989 6990 6991 6992 6993 6994 6995 6996 6997 6998 6999 7000 7001 7002 7003 7004 7005 7006 7007 7008 7009 7010 7011 7012 7013 7014 7015 7016 7017 7018 7019 7020 7021 7022 7023 7024 7025 7026 7027 7028 7029 7030 7031 7032 7033 7034 7035 7036 7037 7038 7039 7040 7041 7042 7043 7044 7045 7046 7047 7048 7049 7050 7051 7052 7053 7054 7055 7056 7057 7058 7059 7060 7061 7062 7063 7064 7065 7066 7067 7068 7069 7070 7071 7072 7073 7074 7075 7076 7077 7078 7079 7080 7081 7082 7083 7084 7085 7086 7087 7088 7089 7090 7091 7092 7093 7094 7095 7096 7097 7098 7099 7100 7101 7102 7103 7104 7105 7106 7107 7108 7109 7110 7111 7112 7113 7114 7115 7116 7117 7118 7119 7120 7121 7122 7123 7124 7125 7126 7127 7128 7129 7130 7131 7132 7133 7134 7135 7136 7137 7138 7139 7140 7141 7142 7143 7144 7145 7146 7147 7148 7149 7150 7151 7152 7153 7154 7155 7156 7157 7158 7159 7160 7161 7162 7163 7164 7165 7166 7167 7168 7169 7170 7171 7172 7173 7174 7175 7176 7177 7178 7179 7180 7181 7182 7183 7184 7185 7186 7187 7188 7189 7190 7191 7192 7193 7194 7195 7196 7197 7198 7199 7200 7201 7202 7203 7204 7205 7206 7207 7208 7209 7210 7211 7212 7213 7214 7215 7216 7217 7218 7219 7220 7221 7222 7223 7224 7225 7226 7227 7228 7229 7230 7231 7232 7233 7234 7235 7236 7237 7238 7239 7240 7241 7242 7243 7244 7245 7246 7247 7248 7249 7250 7251 7252 7253 7254 7255 7256 7257 7258 7259 7260 7261 7262 7263 7264 7265 7266 7267 7268 7269 7270 7271 7272 7273 7274 7275 7276 7277 7278 7279 7280 7281 7282 7283 7284 7285 7286 7287 7288 7289 7290 7291 7292 7293 7294 7295 7296 7297 7298 7299 7300 7301 7302 7303 7304 7305 7306 7307 7308 7309 7310 7311 7312 7313 7314 7315 7316 7317 7318 7319 7320 7321 7322 7323 7324 7325 7326 7327 7328 7329 7330 7331 7332 7333 7334 7335 7336 7337 7338 7339 7340 7341 7342 7343 7344 7345 7346 7347 7348 7349 7350 7351 7352 7353 7354 7355 7356 7357 7358 7359 7360 7361 7362 7363 7364 7365 7366 7367 7368 7369 7370 7371 7372 7373 7374 7375 7376 7377 7378 7379 7380 7381 7382 7383 7384 7385 7386 7387 7388 7389 7390 7391 7392 7393 7394 7395 7396 7397 7398 7399 7400 7401 7402 7403 7404 7405 7406 7407 7408 7409 7410 7411 7412 7413 7414 7415 7416 7417 7418 7419 7420 7421 7422 7423 7424 7425 7426 7427 7428 7429 7430 7431 7432 7433 7434 7435 7436 7437 7438 7439 7440 7441 7442 7443 7444 7445 7446 7447 7448 7449 7450 7451 7452 7453 7454 7455 7456 7457 7458 7459 7460 7461 7462 7463 7464 7465 7466 7467 7468 7469 7470 7471 7472 7473 7474 7475 7476 7477 7478 7479 7480 7481 7482 7483 7484 7485 7486 7487 7488 7489 7490 7491 7492 7493 7494 7495 7496 7497 7498 7499 7500 7501 7502 7503 7504 7505 7506 7507 7508 7509 7510 7511 7512 7513 7514 7515 7516 7517 7518 7519 7520 7521 7522 7523 7524 7525 7526 7527 7528 7529 7530 7531 7532 7533 7534 7535 7536 7537 7538 7539 7540 7541 7542 7543 7544 7545 7546 7547 7548 7549 7550 7551 7552 7553 7554 7555 7556 7557 7558 7559 7560 7561 7562 7563 7564 7565 7566 7567 7568 7569 7570 7571 7572 7573 7574 7575 7576 7577 7578 7579 7580 7581 7582 7583 7584 7585 7586 7587 7588 7589 7590 7591 7592 7593 7594 7595 7596 7597 7598 7599 7600 7601 7602 7603 7604 7605 7606 7607 7608 7609 7610 7611 7612 7613 7614 7615 7616 7617 7618 7619 7620 7621 7622 7623 7624 7625 7626 7627 7628 7629 7630 7631 7632 7633 7634 7635 7636 7637 7638 7639 7640 7641 7642 7643 7644 7645 7646 7647 7648 7649 7650 7651 7652 7653 7654 7655 7656 7657 7658 7659 7660 7661 7662 7663 7664 7665 7666 7667 7668 7669 7670 7671 7672 7673 7674 7675 7676 7677 7678 7679 7680 7681 7682 7683 7684 7685 7686 7687 7688 7689 7690 7691 7692 7693 7694 7695 7696 7697 7698 7699 7700 7701 7702 7703 7704 7705 7706 7707 7708 7709 7710 7711 7712 7713 7714 7715 7716 7717 7718 7719 7720 7721 7722 7723 7724 7725 7726 7727 7728 7729 7730 7731 7732 7733 7734 7735 7736 7737 7738 7739 7740 7741 7742 7743 7744 7745 7746 7747 7748 7749 7750 7751 7752 7753 7754 7755 7756 7757 7758 7759 7760 7761 7762 7763 7764 7765 7766 7767 7768 7769 7770 7771 7772 7773 7774 7775 7776 7777 7778 7779 7780 7781 7782 7783 7784 7785 7786 7787 7788 7789 7790 7791 7792 7793 7794 7795 7796 7797 7798 7799 7800 7801 7802 7803 7804 7805 7806 7807 7808 7809 7810 7811 7812 7813 7814 7815 7816 7817 7818 7819 7820 7821 7822 7823 7824 7825 7826 7827 7828 7829 7830 7831 7832 7833 7834 7835 7836 7837 7838 7839 7840 7841 7842 7843 7844 7845 7846 7847 7848 7849 7850 7851 7852 7853 7854 7855 7856 7857 7858 7859 7860 7861 7862 7863 7864 7865 7866 7867 7868 7869 7870 7871 7872 7873 7874 7875 7876 7877 7878 7879 7880 7881 7882 7883 7884 7885 7886 7887 7888 7889 7890 7891 7892 7893 7894 7895 7896 7897 7898 7899 7900 7901 7902 7903 7904 7905 7906 7907 7908 7909 7910 7911 7912 7913 7914 7915 7916 7917 7918 7919 7920 7921 7922 7923 7924 7925 7926 7927 7928 7929 7930 7931 7932 7933 7934 7935 7936 7937 7938 7939 7940 7941 7942 7943 7944 7945 7946 7947 7948 7949 7950 7951 7952 7953 7954 7955 7956 7957 7958 7959 7960 7961 7962 7963 7964 7965 7966 7967 7968 7969 7970 7971 7972 7973 7974 7975 7976 7977 7978 7979 7980 7981 7982 7983 7984 7985 7986 7987 7988 7989 7990 7991 7992 7993 7994 7995 7996 7997 7998 7999 8000 8001 8002 8003 8004 8005 8006 8007 8008 8009 8010 8011 8012 8013 8014 8015 8016 8017 8018 8019 8020 8021 8022 8023 8024 8025 8026 8027 8028 8029 8030 8031 8032 8033 8034 8035 8036 8037 8038 8039 8040 8041 8042 8043 8044 8045 8046 8047 8048 8049 8050 8051 8052 8053 8054 8055 8056 8057 8058 8059 8060 8061 8062 8063 8064 8065 8066 8067 8068 8069 8070 8071 8072 8073 8074 8075 8076 8077 8078 8079 8080 8081 8082 8083 8084 8085 8086 8087 8088 8089 8090 8091 8092 8093 8094 8095 8096 8097 8098 8099 8100 8101 8102 8103 8104 8105 8106 8107 8108 8109 8110 8111 8112 8113 8114 8115 8116 8117 8118 8119 8120 8121 8122 8123 8124 8125 8126 8127 8128 8129 8130 8131 8132 8133 8134 8135 8136 8137 8138 8139 8140 8141 8142 8143 8144 8145 8146 8147 8148 8149 8150 8151 8152 8153 8154 8155 8156 8157 8158 8159 8160 8161 8162 8163 8164 8165 8166 8167 8168 8169 8170 8171 8172 8173 8174 8175 8176 8177 8178 8179 8180 8181 8182 8183 8184 8185 8186 8187 8188 8189 8190 8191 8192 8193 8194 8195 8196 8197 8198 8199 8200 8201 8202 8203 8204 8205 8206 8207 8208 8209 8210 8211 8212 8213 8214 8215 8216 8217 8218 8219 8220 8221 8222 8223 8224 8225 8226 8227 8228 8229 8230 8231 8232 8233 8234 8235 8236 8237 8238 8239 8240 8241 8242 8243 8244 8245 8246 8247 8248 8249 8250 8251 8252 8253 8254 8255 8256 8257 8258 8259 8260 8261 8262 8263 8264 8265 8266 8267 8268 8269 8270 8271 8272 8273 8274 8275 8276 8277 8278 8279 8280 8281 8282 8283 8284 8285 8286 8287 8288 8289 8290 8291 8292 8293 8294 8295 8296 8297 8298 8299 8300 8301 8302 8303 8304 8305 8306 8307 8308 8309 8310 8311 8312 8313 8314 8315 8316 8317 8318 8319 8320 8321 8322 8323 8324 8325 8326 8327 8328 8329 8330 8331 8332 8333 8334 8335 8336 8337 8338 8339 8340 8341 8342 8343 8344 8345 8346 8347 8348 8349 8350 8351 8352 8353 8354 8355 8356 8357 8358 8359 8360 8361 8362 8363 8364 8365 8366 8367 8368 8369 8370 8371 8372 8373 8374 8375 8376 8377 8378 8379 8380 8381 8382 8383 8384 8385 8386 8387 8388 8389 8390 8391 8392 8393 8394 8395 8396 8397 8398 8399 8400 8401 8402 8403 8404 8405 8406 8407 8408 8409 8410 8411 8412 8413 8414 8415 8416 8417 8418 8419 8420 8421 8422 8423 8424 8425 8426 8427 8428 8429 8430 8431 8432 8433 8434 8435 8436 8437 8438 8439 8440 8441 8442 8443 8444 8445 8446 8447 8448 8449 8450 8451 8452 8453 8454 8455 8456 8457 8458 8459 8460 8461 8462 8463 8464 8465 8466 8467 8468 8469 8470 8471 8472 8473 8474 8475 8476 8477 8478 8479 8480 8481 8482 8483 8484 8485 8486 8487 8488 8489 8490 8491 8492 8493 8494 8495 8496 8497 8498 8499 8500 8501 8502 8503 8504 8505 8506 8507 8508 8509 8510 8511 8512 8513 8514 8515 8516 8517 8518 8519 8520 8521 8522 8523 8524 8525 8526 8527 8528 8529 8530 8531 8532 8533 8534 8535 8536 8537 8538 8539 8540 8541 8542 8543 8544 8545 8546 8547 8548 8549 8550 8551 8552 8553 8554 8555 8556 8557 8558 8559 8560 8561 8562 8563 8564 8565 8566 8567 8568 8569 8570 8571 8572 8573 8574 8575 8576 8577 8578 8579 8580 8581 8582 8583 8584 8585 8586 8587 8588 8589 8590 8591 8592 8593 8594 8595 8596 8597 8598 8599 8600 8601 8602 8603 8604 8605 8606 8607 8608 8609 8610 8611 8612 8613 8614 8615 8616 8617 8618 8619 8620 8621 8622 8623 8624 8625 8626 8627 8628 8629 8630 8631 8632 8633 8634 8635 8636 8637 8638 8639 8640 8641 8642 8643 8644 8645 8646 8647 8648 8649 8650 8651 8652 8653 8654 8655 8656 8657 8658 8659 8660 8661 8662 8663 8664 8665 8666 8667 8668 8669 8670 8671 8672 8673 8674 8675 8676 8677 8678 8679 8680 8681 8682 8683 8684 8685 8686 8687 8688 8689 8690 8691 8692 8693 8694 8695 8696 8697 8698 8699 8700 8701 8702 8703 8704 8705 8706 8707 8708 8709 8710 8711 8712 8713 8714 8715 8716 8717 8718 8719 8720 8721 8722 8723 8724 8725 8726 8727 8728 8729 8730 8731 8732 8733 8734 8735 8736 8737 8738 8739 8740 8741 8742 8743 8744 8745 8746 8747 8748 8749 8750 8751 8752 8753 8754 8755 8756 8757 8758 8759 8760 8761 8762 8763 8764 8765 8766 8767 8768 8769 8770 8771 8772 8773 8774 8775 8776 8777 8778 8779 8780 8781 8782 8783 8784 8785 8786 8787 8788 8789 8790 8791 8792 8793 8794 8795 8796 8797 8798 8799 8800 8801 8802 8803 8804 8805 8806 8807 8808 8809 8810 8811 8812 8813 8814 8815 8816 8817 8818 8819 8820 8821 8822 8823 8824 8825 8826 8827 8828 8829 8830 8831 8832 8833 8834 8835 8836 8837 8838 8839 8840 8841 8842 8843 8844 8845 8846 8847 8848 8849 8850 8851 8852 8853 8854 8855 8856 8857 8858 8859 8860 8861 8862 8863 8864 8865 8866 8867 8868 8869 8870 8871 8872 8873 8874 8875 8876 8877 8878 8879 8880 8881 8882 8883 8884 8885 8886 8887 8888 8889 8890 8891 8892 8893 8894 8895 8896 8897 8898 8899 8900 8901 8902 8903 8904 8905 8906 8907 8908 8909 8910 8911 8912 8913 8914 8915 8916 8917 8918 8919 8920 8921 8922 8923 8924 8925 8926 8927 8928 8929 8930 8931 8932 8933 8934 8935 8936 8937 8938 8939 8940 8941 8942 8943 8944 8945 8946 8947 8948 8949 8950 8951 8952 8953 8954 8955 8956 8957 8958 8959 8960 8961 8962 8963 8964 8965 8966 8967 8968 8969 8970 8971 8972 8973 8974 8975 8976 8977 8978 8979 8980 8981 8982 8983 8984 8985 8986 8987 8988 8989 8990 8991 8992 8993 8994 8995 8996 8997 8998 8999 9000 9001 9002 9003 9004 9005 9006 9007 9008 9009 9010 9011 9012 9013 9014 9015 9016 9017 9018 9019 9020 9021 9022 9023 9024 9025 9026 9027 9028 9029 9030 9031 9032 9033 9034 9035 9036 9037 9038 9039 9040 9041 9042 9043 9044 9045 9046 9047 9048 9049 9050 9051 9052 9053 9054 9055 9056 9057 9058 9059 9060 9061 9062 9063 9064 9065 9066 9067 9068 9069 9070 9071 9072 9073 9074 9075 9076 9077 9078 9079 9080 9081 9082 9083 9084 9085 9086 9087 9088 9089 9090 9091 9092 9093 9094 9095 9096 9097 9098 9099 9100 9101 9102 9103 9104 9105 9106 9107 9108 9109 9110 9111 9112 9113 9114 9115 9116 9117 9118 9119 9120 9121 9122 9123 9124 9125 9126 9127 9128 9129 9130 9131 9132 9133 9134 9135 9136 9137 9138 9139 9140 9141 9142 9143 9144 9145 9146 9147 9148 9149 9150 9151 9152 9153 9154 9155 9156 9157 9158 9159 9160 9161 9162 9163 9164 9165 9166 9167 9168 9169 9170 9171 9172 9173 9174 9175 9176 9177 9178 9179 9180 9181 9182 9183 9184 9185 9186 9187 9188 9189 9190 9191 9192 9193 9194 9195 9196 9197 9198 9199 9200 9201 9202 9203 9204 9205 9206 9207 9208 9209 9210 9211 9212 9213 9214 9215 9216 9217 9218 9219 9220 9221 9222 9223 9224 9225 9226 9227 9228 9229 9230 9231 9232 9233 9234 9235 9236 9237 9238 9239 9240 9241 9242 9243 9244 9245 9246 9247 9248 9249 9250 9251 9252 9253 9254 9255 9256 9257 9258 9259 9260 9261 9262 9263 9264 9265 9266 9267 9268 9269 9270 9271 9272 9273 9274 9275 9276 9277 9278 9279 9280 9281 9282 9283 9284 9285 9286 9287 9288 9289 9290 9291 9292 9293 9294 9295 9296 9297 9298 9299 9300 9301 9302 9303 9304 9305 9306 9307 9308 9309 9310 9311 9312 9313 9314 9315 9316 9317 9318 9319 9320 9321 9322 9323 9324 9325 9326 9327 9328 9329 9330 9331 9332 9333 9334 9335 9336 9337 9338 9339 9340 9341 9342 9343 9344 9345 9346 9347 9348 9349 9350 9351 9352 9353 9354 9355 9356 9357 9358 9359 9360 9361 9362 9363 9364 9365 9366 9367 9368 9369 9370 9371 9372 9373 9374 9375 9376 9377 9378 9379 9380 9381 9382 9383 9384 9385 9386 9387 9388 9389 9390 9391 9392 9393 9394 9395 9396 9397 9398 9399 9400 9401 9402 9403 9404 9405 9406 9407 9408 9409 9410 9411 9412 9413 9414 9415 9416 9417 9418 9419 9420 9421 9422 9423 9424 9425 9426 9427 9428 9429 9430 9431 9432 9433 9434 9435 9436 9437 9438 9439 9440 9441 9442 9443 9444 9445 9446 9447 9448 9449 9450 9451 9452 9453 9454 9455 9456 9457 9458 9459 9460 9461 9462 9463 9464 9465 9466 9467 9468 9469 9470 9471 9472 9473 9474 9475 9476 9477 9478 9479 9480 9481 9482 9483 9484 9485 9486 9487 9488 9489 9490 9491 9492 9493 9494 9495 9496 9497 9498 9499 9500 9501 9502 9503 9504 9505 9506 9507 9508 9509 9510 9511 9512 9513 9514 9515 9516 9517 9518 9519 9520 9521 9522 9523 9524 9525 9526 9527 9528 9529 9530 9531 9532 9533 9534 9535 9536 9537 9538 9539 9540 9541 9542 9543 9544 9545 9546 9547 9548 9549 9550 9551 9552 9553 9554 9555 9556 9557 9558 9559 9560 9561 9562 9563 9564 9565 9566 9567 9568 9569 9570 9571 9572 9573 9574 9575 9576 9577 9578 9579 9580 9581 9582 9583 9584 9585 9586 9587 9588 9589 9590 9591 9592 9593 9594 9595 9596 9597 9598 9599 9600 9601 9602 9603 9604 9605 9606 9607 9608 9609 9610 9611 9612 9613 9614 9615 9616 9617 9618 9619 9620 9621 9622 9623 9624 9625 9626 9627 9628 9629 9630 9631 9632 9633 9634 9635 9636 9637 9638 9639 9640 9641 9642 9643 9644 9645 9646 9647 9648 9649 9650 9651 9652 9653 9654 9655 9656 9657 9658 9659 9660 9661 9662 9663 9664 9665 9666 9667 9668 9669 9670 9671 9672 9673 9674 9675 9676 9677 9678 9679 9680 9681 9682 9683 9684 9685 9686 9687 9688 9689 9690 9691 9692 9693 9694 9695 9696 9697 9698 9699 9700 9701 9702 9703 9704 9705 9706 9707 9708 9709 9710 9711 9712 9713 9714 9715 9716 9717 9718 9719 9720 9721 9722 9723 9724 9725 9726 9727 9728 9729 9730 9731 9732 9733 9734 9735 9736 9737 9738 9739 9740 9741 9742 9743 9744 9745 9746 9747 9748 9749 9750 9751 9752 9753 9754 9755 9756 9757 9758 9759 9760 9761 9762 9763 9764 9765 9766 9767 9768 9769 9770 9771 9772 9773 9774 9775 9776 9777 9778 9779 9780 9781 9782 9783 9784 9785 9786 9787 9788 9789 9790 9791 9792 9793 9794 9795 9796 9797 9798 9799 9800 9801 9802 9803 9804 9805 9806 9807 9808 9809 9810 9811 9812 9813 9814 9815 9816 9817 9818 9819 9820 9821 9822 9823 9824 9825 9826 9827 9828 9829 9830 9831 9832 9833 9834 9835 9836 9837 9838 9839 9840 9841 9842 9843 9844 9845 9846 9847 9848 9849 9850 9851 9852 9853 9854 9855 9856 9857 9858 9859 9860 9861 9862 9863 9864 9865 9866 9867 9868 9869 9870 9871 9872 9873 9874 9875 9876 9877 9878 9879 9880 9881 9882 9883 9884 9885 9886 9887 9888 9889 9890 9891 9892 9893 9894 9895 9896 9897 9898 9899 9900 9901 9902 9903 9904 9905 9906 9907 9908 9909 9910 9911 9912 9913 9914 9915 9916 9917 9918 9919 9920 9921 9922 9923 9924 9925 9926 9927 9928 9929 9930 9931 9932 9933 9934 9935 9936 9937 9938 9939 9940 9941 9942 9943 9944 9945 9946 9947 9948 9949 9950 9951 9952 9953 9954 9955 9956 9957 9958 9959 9960 9961 9962 9963 9964 9965 9966 9967 9968 9969 9970 9971 9972 9973 9974 9975 9976 9977 9978 9979 9980 9981 9982 9983 9984 9985 9986 9987 9988 9989 9990 9991 9992 9993 9994 9995 9996 9997 9998 9999 10000 10001 10002 10003 10004 10005 10006 10007 10008 10009 10010 10011 10012 10013 10014 10015 10016 10017 10018 10019 10020 10021 10022 10023 10024 10025 10026 10027 10028 10029 10030 10031 10032 10033 10034 10035 10036 10037 10038 10039 10040 10041 10042 10043 10044 10045 10046 10047 10048 10049 10050 10051 10052 10053 10054 10055 10056 10057 10058 10059 10060 10061 10062 10063 10064 10065 10066 10067 10068 10069 10070 10071 10072 10073 10074 10075 10076 10077 10078 10079 10080 10081 10082 10083 10084 10085 10086 10087 10088 10089 10090 10091 10092 10093 10094 10095 10096 10097 10098 10099 10100 10101 10102 10103 10104 10105 10106 10107 10108 10109 10110 10111 10112 10113 10114 10115 10116 10117 10118 10119 10120 10121 10122 10123 10124 10125 10126 10127 10128 10129 10130 10131 10132 10133 10134 10135 10136 10137 10138 10139 10140 10141 10142 10143 10144 10145 10146 10147 10148 10149 10150 10151 10152 10153 10154 10155 10156 10157 10158 10159 10160 10161 10162 10163 10164 10165 10166 10167 10168 10169 10170 10171 10172 10173 10174 10175 10176 10177 10178 10179 10180 10181 10182 10183 10184 10185 10186 10187 10188 10189 10190 10191 10192 10193 10194 10195 10196 10197 10198 10199 10200 10201 10202 10203 10204 10205 10206 10207 10208 10209 10210 10211 10212 10213 10214 10215 10216 10217 10218 10219 10220 10221 10222 10223 10224 10225 10226 10227 10228 10229 10230 10231 10232 10233 10234 10235 10236 10237 10238 10239 10240 10241 10242 10243 10244 10245 10246 10247 10248 10249 10250 10251 10252 10253 10254 10255 10256 10257 10258 10259 10260 10261 10262 10263 10264 10265 10266 10267 10268 10269 10270 10271 10272 10273 10274 10275 10276 10277 10278 10279 10280 10281 10282 10283 10284 10285 10286 10287 10288 10289 10290 10291 10292 10293 10294 10295 10296 10297 10298 10299 10300 10301 10302 10303 10304 10305 10306 10307 10308 10309 10310 10311 10312 10313 10314 10315 10316 10317 10318 10319 10320 10321 10322 10323 10324 10325 10326 10327 10328 10329 10330 10331 10332 10333 10334 10335 10336 10337 10338 10339 10340 10341 10342 10343 10344 10345 10346 10347 10348 10349 10350 10351 10352 10353 10354 10355 10356 10357 10358 10359 10360 10361 10362 10363 10364 10365 10366 10367 10368 10369 10370 10371 10372 10373 10374 10375 10376 10377 10378 10379 10380 10381 10382 10383 10384 10385 10386 10387 10388 10389 10390 10391 10392 10393 10394 10395 10396 10397 10398 10399 10400 10401 10402 10403 10404 10405 10406 10407 10408 10409 10410 10411 10412 10413 10414 10415 10416 10417 10418 10419 10420 10421 10422 10423 10424 10425 10426 10427 10428 10429 10430 10431 10432 10433 10434 10435 10436 10437 10438 10439 10440 10441 10442 10443 10444 10445 10446 10447 10448 10449 10450 10451 10452 10453 10454 10455 10456 10457 10458 10459 10460 10461 10462 10463 10464 10465 10466 10467 10468 10469 10470 10471 10472 10473 10474 10475 10476 10477 10478 10479 10480 10481 10482 10483 10484 10485 10486 10487 10488 10489 10490 10491 10492 10493 10494 10495 10496 10497 10498 10499 10500 10501 10502 10503 10504 10505 10506 10507 10508 10509 10510 10511 10512 10513 10514 10515 10516 10517 10518 10519 10520 10521 10522 10523 10524 10525 10526 10527 10528 10529 10530 10531 10532 10533 10534 10535 10536 10537 10538 10539 10540 10541 10542 10543 10544 10545 10546 10547 10548 10549 10550 10551 10552 10553 10554 10555 10556 10557 10558 10559 10560 10561 10562 10563 10564 10565 10566 10567 10568 10569 10570 10571 10572 10573 10574 10575 10576 10577 10578 10579 10580 10581 10582 10583 10584 10585 10586 10587 10588 10589 10590 10591 10592 10593 10594 10595 10596 10597 10598 10599 10600 10601 10602 10603 10604 10605 10606 10607 10608 10609 10610 10611 10612 10613 10614 10615 10616 10617 10618 10619 10620 10621 10622 10623 10624 10625 10626 10627 10628 10629 10630 10631 10632 10633 10634 10635 10636 10637 10638 10639 10640 10641 10642 10643 10644 10645 10646 10647 10648 10649 10650 10651 10652 10653 10654 10655 10656 10657 10658 10659 10660 10661 10662 10663 10664 10665 10666 10667 10668 10669 10670 10671 10672 10673 10674 10675 10676 10677 10678 10679 10680 10681 10682 10683 10684 10685 10686 10687 10688 10689 10690 10691 10692 10693 10694 10695 10696 10697 10698 10699 10700 10701 10702 10703 10704 10705 10706 10707 10708 10709 10710 10711 10712 10713 10714 10715 10716 10717 10718 10719 10720 10721 10722 10723 10724 10725 10726 10727 10728 10729 10730 10731 10732 10733 10734 10735 10736 10737 10738 10739 10740 10741 10742 10743 10744 10745 10746 10747 10748 10749 10750 10751 10752 10753 10754 10755 10756 10757 10758 10759 10760 10761 10762 10763 10764 10765 10766 10767 10768 10769 10770 10771 10772 10773 10774 10775 10776 10777 10778 10779 10780 10781 10782 10783 10784 10785 10786 10787 10788 10789 10790 10791 10792 10793 10794 10795 10796 10797 10798 10799 10800 10801 10802 10803 10804 10805 10806 10807 10808 10809 10810 10811 10812 10813 10814 10815 10816 10817 10818 10819 10820 10821 10822 10823 10824 10825 10826 10827 10828 10829 10830 10831 10832 10833 10834 10835 10836 10837 10838 10839 10840 10841 10842 10843 10844 10845 10846 10847 10848 10849 10850 10851 10852 10853 10854 10855 10856 10857 10858 10859 10860 10861 10862 10863 10864 10865 10866 10867 10868 10869 10870 10871 10872 10873 10874 10875 10876 10877 10878 10879 10880 10881 10882 10883 10884 10885 10886 10887 10888 10889 10890 10891 10892 10893 10894 10895 10896 10897 10898 10899 10900 10901 10902 10903 10904 10905 10906 10907 10908 10909 10910 10911 10912 10913 10914 10915 10916 10917 10918 10919 10920 10921 10922 10923 10924 10925 10926 10927 10928 10929 10930 10931 10932 10933 10934 10935 10936 10937 10938 10939 10940 10941 10942 10943 10944 10945 10946 10947 10948 10949 10950 10951 10952 10953 10954 10955 10956 10957 10958 10959 10960 10961 10962 10963 10964 10965 10966 10967 10968 10969 10970 10971 10972 10973 10974 10975 10976 10977 10978 10979 10980 10981 10982 10983 10984 10985 10986 10987 10988 10989 10990 10991 10992 10993 10994 10995 10996 10997 10998 10999 11000 11001 11002 11003 11004 11005 11006 11007 11008 11009 11010 11011 11012 11013 11014 11015 11016 11017 11018 11019 11020 11021 11022 11023 11024 11025 11026 11027 11028 11029 11030 11031 11032 11033 11034 11035 11036 11037 11038 11039 11040 11041 11042 11043 11044 11045 11046 11047 11048 11049 11050 11051 11052 11053 11054 11055 11056 11057 11058 11059 11060 11061 11062 11063 11064 11065 11066 11067 11068 11069 11070 11071 11072 11073 11074 11075 11076 11077 11078 11079 11080 11081 11082 11083 11084 11085 11086 11087 11088 11089 11090 11091 11092 11093 11094 11095 11096 11097 11098 11099 11100 11101 11102 11103 11104 11105 11106 11107 11108 11109 11110 11111 11112 11113 11114 11115 11116 11117 11118 11119 11120 11121 11122 11123 11124 11125 11126 11127 11128 11129 11130 11131 11132 11133 11134 11135 11136 11137 11138 11139 11140 11141 11142 11143 11144 11145 11146 11147 11148 11149 11150 11151 11152 11153 11154 11155 11156 11157 11158 11159 11160 11161 11162 11163 11164 11165 11166 11167 11168 11169 11170 11171 11172 11173 11174 11175 11176 11177 11178 11179 11180 11181 11182 11183 11184 11185 11186 11187 11188 11189 11190 11191 11192 11193 11194 11195 11196 11197 11198 11199 11200 11201 11202 11203 11204 11205 11206 11207 11208 11209 11210 11211 11212 11213 11214 11215 11216 11217 11218 11219 11220 11221 11222 11223 11224 11225 11226 11227 11228 11229 11230 11231 11232 11233 11234 11235 11236 11237 11238 11239 11240 11241 11242 11243 11244 11245 11246 11247 11248 11249 11250 11251 11252 11253 11254 11255 11256 11257 11258 11259 11260 11261 11262 11263 11264 11265 11266 11267 11268 11269 11270 11271 11272 11273 11274 11275 11276 11277 11278 11279 11280 11281 11282 11283 11284 11285 11286 11287 11288 11289 11290 11291 11292 11293 11294 11295 11296 11297 11298 11299 11300 11301 11302 11303 11304 11305 11306 11307 11308 11309 11310 11311 11312 11313 11314 11315 11316 11317 11318 11319 11320 11321 11322 11323 11324 11325 11326 11327 11328 11329 11330 11331 11332 11333 11334 11335 11336 11337 11338 11339 11340 11341 11342 11343 11344 11345 11346 11347 11348 11349 11350 11351 11352 11353 11354 11355 11356 11357 11358 11359 11360 11361 11362 11363 11364 11365 11366 11367 11368 11369 11370 11371 11372 11373 11374 11375 11376 11377 11378 11379 11380 11381 11382 11383 11384 11385 11386 11387 11388 11389 11390 11391 11392 11393 11394 11395 11396 11397 11398 11399 11400 11401 11402 11403 11404 11405 11406 11407 11408 11409 11410 11411 11412 11413 11414 11415 11416 11417 11418 11419 11420 11421 11422 11423 11424 11425 11426 11427 11428 11429 11430 11431 11432 11433 11434 11435 11436 11437 11438 11439 11440 11441 11442 11443 11444 11445 11446 11447 11448 11449 11450 11451 11452 11453 11454 11455 11456 11457 11458 11459 11460 11461 11462 11463 11464 11465 11466 11467 11468 11469 11470 11471 11472 11473 11474 11475 11476 11477 11478 11479 11480 11481 11482 11483 11484 11485 11486 11487 11488 11489 11490 11491 11492 11493 11494 11495 11496 11497 11498 11499 11500 11501 11502 11503 11504 11505 11506 11507 11508 11509 11510 11511 11512 11513 11514 11515 11516 11517 11518 11519 11520 11521 11522 11523 11524 11525 11526 11527 11528 11529 11530 11531 11532 11533 11534 11535 11536 11537 11538 11539 11540 11541 11542 11543 11544 11545 11546 11547 11548 11549 11550 11551 11552 11553 11554 11555 11556 11557 11558 11559 11560 11561 11562 11563 11564 11565 11566 11567 11568 11569 11570 11571 11572 11573 11574 11575 11576 11577 11578 11579 11580 11581 11582 11583 11584 11585 11586 11587 11588 11589 11590 11591 11592 11593 11594 11595 11596 11597 11598 11599 11600 11601 11602 11603 11604 11605 11606 11607 11608 11609 11610 11611 11612 11613 11614 11615 11616 11617 11618 11619 11620 11621 11622 11623 11624 11625 11626 11627 11628 11629 11630 11631 11632 11633 11634 11635 11636 11637 11638 11639 11640 11641 11642 11643 11644 11645 11646 11647 11648 11649 11650 11651 11652 11653 11654 11655 11656 11657 11658 11659 11660 11661 11662 11663 11664 11665 11666 11667 11668 11669 11670 11671 11672 11673 11674 11675 11676 11677 11678 11679 11680 11681 11682 11683 11684 11685 11686 11687 11688 11689 11690 11691 11692 11693 11694 11695 11696 11697 11698 11699 11700 11701 11702 11703 11704 11705 11706 11707 11708 11709 11710 11711 11712 11713 11714 11715 11716 11717 11718 11719 11720 11721 11722 11723 11724 11725 11726 11727 11728 11729 11730 11731 11732 11733 11734 11735 11736 11737 11738 11739 11740 11741 11742 11743 11744 11745 11746 11747 11748 11749 11750 11751 11752 11753 11754 11755 11756 11757 11758 11759 11760 11761 11762 11763 11764 11765 11766 11767 11768 11769 11770 11771 11772 11773 11774 11775 11776 11777 11778 11779 11780 11781 11782 11783 11784 11785 11786 11787 11788 11789 11790 11791 11792 11793 11794 11795 11796 11797 11798 11799 11800 11801 11802 11803 11804 11805 11806 11807 11808 11809 11810 11811 11812 11813 11814 11815 11816 11817 11818 11819 11820 11821 11822 11823 11824 11825 11826 11827 11828 11829 11830 11831 11832 11833 11834 11835 11836 11837 11838 11839 11840 11841 11842 11843 11844 11845 11846 11847 11848 11849 11850 11851 11852 11853 11854 11855 11856 11857 11858 11859 11860 11861 11862 11863 11864 11865 11866 11867 11868 11869 11870 11871 11872 11873 11874 11875 11876 11877 11878 11879 11880 11881 11882 11883 11884 11885 11886 11887 11888 11889 11890 11891 11892 11893 11894 11895 11896 11897 11898 11899 11900 11901 11902 11903 11904 11905 11906 11907 11908 11909 11910 11911 11912 11913 11914 11915 11916 11917 11918 11919 11920 11921 11922 11923 11924 11925 11926 11927 11928 11929 11930 11931 11932 11933 11934 11935 11936 11937 11938 11939 11940 11941 11942 11943 11944 11945 11946 11947 11948 11949 11950 11951 11952 11953 11954 11955 11956 11957 11958 11959 11960 11961 11962 11963 11964 11965 11966 11967 11968 11969 11970 11971 11972 11973 11974 11975 11976 11977 11978 11979 11980 11981 11982 11983 11984 11985 11986 11987 11988 11989 11990 11991 11992 11993 11994 11995 11996 11997 11998 11999 12000 12001 12002 12003 12004 12005 12006 12007 12008 12009 12010 12011 12012 12013 12014 12015 12016 12017 12018 12019 12020 12021 12022 12023 12024 12025 12026 12027 12028 12029 12030 12031 12032 12033 12034 12035 12036 12037 12038 12039 12040 12041 12042 12043 12044 12045 12046 12047 12048 12049 12050 12051 12052 12053 12054 12055 12056 12057 12058 12059 12060 12061 12062 12063 12064 12065 12066 12067 12068 12069 12070 12071 12072 12073 12074 12075 12076 12077 12078 12079 12080 12081 12082 12083 12084 12085 12086 12087 12088 12089 12090 12091 12092 12093 12094 12095 12096 12097 12098 12099 12100 12101 12102 12103 12104 12105 12106 12107 12108 12109 12110 12111 12112 12113 12114 12115 12116 12117 12118 12119 12120 12121 12122 12123 12124 12125 12126 12127 12128 12129 12130 12131 12132 12133 12134 12135 12136 12137 12138 12139 12140 12141 12142 12143 12144 12145 12146 12147 12148 12149 12150 12151 12152 12153 12154 12155 12156 12157 12158 12159 12160 12161 12162 12163 12164 12165 12166 12167 12168 12169 12170 12171 12172 12173 12174 12175 12176 12177 12178 12179 12180 12181 12182 12183 12184 12185 12186 12187 12188 12189 12190 12191 12192 12193 12194 12195 12196 12197 12198 12199 12200 12201 12202 12203 12204 12205 12206 12207 12208 12209 12210 12211 12212 12213 12214 12215 12216 12217 12218 12219 12220 12221 12222 12223 12224 12225 12226 12227 12228 12229 12230 12231 12232 12233 12234 12235 12236 12237 12238 12239 12240 12241 12242 12243 12244 12245 12246 12247 12248 12249 12250 12251 12252 12253 12254 12255 12256 12257 12258 12259 12260 12261 12262 12263 12264 12265 12266 12267 12268 12269 12270 12271 12272 12273 12274 12275 12276 12277 12278 12279 12280 12281 12282 12283 12284 12285 12286 12287 12288 12289 12290 12291 12292 12293 12294 12295 12296 12297 12298 12299 12300 12301 12302 12303 12304 12305 12306 12307 12308 12309 12310 12311 12312 12313 12314 12315 12316 12317 12318 12319 12320 12321 12322 12323 12324 12325 12326 12327 12328 12329 12330 12331 12332 12333 12334 12335 12336 12337 12338 12339 12340 12341 12342 12343 12344 12345 12346 12347 12348 12349 12350 12351 12352 12353 12354 12355 12356 12357 12358 12359 12360 12361 12362 12363 12364 12365 12366 12367 12368 12369 12370 12371 12372 12373 12374 12375 12376 12377 12378 12379 12380 12381 12382 12383 12384 12385 12386 12387 12388 12389 12390 12391 12392 12393 12394 12395 12396 12397 12398 12399 12400 12401 12402 12403 12404 12405 12406 12407 12408 12409 12410 12411 12412 12413 12414 12415 12416 12417 12418 12419 12420 12421 12422 12423 12424 12425 12426 12427 12428 12429 12430 12431 12432 12433 12434 12435 12436 12437 12438 12439 12440 12441 12442 12443 12444 12445 12446 12447 12448 12449 12450 12451 12452 12453 12454 12455 12456 12457 12458 12459 12460 12461 12462 12463 12464 12465 12466 12467 12468 12469 12470 12471 12472 12473 12474 12475 12476 12477 12478 12479 12480 12481 12482 12483 12484 12485 12486 12487 12488 12489 12490 12491 12492 12493 12494 12495 12496 12497 12498 12499 12500 12501 12502 12503 12504 12505 12506 12507 12508 12509 12510 12511 12512 12513 12514 12515 12516 12517 12518 12519 12520 12521 12522 12523 12524 12525 12526 12527 12528 12529 12530 12531 12532 12533 12534 12535 12536 12537 12538 12539 12540 12541 12542 12543 12544 12545 12546 12547 12548 12549 12550 12551 12552 12553 12554 12555 12556 12557 12558 12559 12560 12561 12562 12563 12564 12565 12566 12567 12568 12569 12570 12571 12572 12573 12574 12575 12576 12577 12578 12579 12580 12581 12582 12583 12584 12585 12586 12587 12588 12589 12590 12591 12592 12593 12594 12595 12596 12597 12598 12599 12600 12601 12602 12603 12604 12605 12606 12607 12608 12609 12610 12611 12612 12613 12614 12615 12616 12617 12618 12619 12620 12621 12622 12623 12624 12625 12626 12627 12628 12629 12630 12631 12632 12633 12634 12635 12636 12637 12638 12639 12640 12641 12642 12643 12644 12645 12646 12647 12648 12649 12650 12651 12652 12653 12654 12655 12656 12657 12658 12659 12660 12661 12662 12663 12664 12665 12666 12667 12668 12669 12670 12671 12672 12673 12674 12675 12676 12677 12678 12679 12680 12681 12682 12683 12684 12685 12686 12687 12688 12689 12690 12691 12692 12693 12694 12695 12696 12697 12698 12699 12700 12701 12702 12703 12704 12705 12706 12707 12708 12709 12710 12711 12712 12713 12714 12715 12716 12717 12718 12719 12720 12721 12722 12723 12724 12725 12726 12727 12728 12729 12730 12731 12732 12733 12734 12735 12736 12737 12738 12739 12740 12741 12742 12743 12744 12745 12746 12747 12748 12749 12750 12751 12752 12753 12754 12755 12756 12757 12758 12759 12760 12761 12762 12763 12764 12765 12766 12767 12768 12769 12770 12771 12772 12773 12774 12775 12776 12777 12778 12779 12780 12781 12782 12783 12784 12785 12786 12787 12788 12789 12790 12791 12792 12793 12794 12795 12796 12797 12798 12799 12800 12801 12802 12803 12804 12805 12806 12807 12808 12809 12810 12811 12812 12813 12814 12815 12816 12817 12818 12819 12820 12821 12822 12823 12824 12825 12826 12827 12828 12829 12830 12831 12832 12833 12834 12835 12836 12837 12838 12839 12840 12841 12842 12843 12844 12845 12846 12847 12848 12849 12850 12851 12852 12853 12854 12855 12856 12857 12858 12859 12860 12861 12862 12863 12864 12865 12866 12867 12868 12869 12870 12871 12872 12873 12874 12875 12876 12877 12878 12879 12880 12881 12882 12883 12884 12885 12886 12887 12888 12889 12890 12891 12892 12893 12894 12895 12896 12897 12898 12899 12900 12901 12902 12903 12904 12905 12906 12907 12908 12909 12910 12911 12912 12913 12914 12915 12916 12917 12918 12919 12920 12921 12922 12923 12924 12925 12926 12927 12928 12929 12930 12931 12932 12933 12934 12935 12936 12937 12938 12939 12940 12941 12942 12943 12944 12945 12946 12947 12948 12949 12950 12951 12952 12953 12954 12955 12956 12957 12958 12959 12960 12961 12962 12963 12964 12965 12966 12967 12968 12969 12970 12971 12972 12973 12974 12975 12976 12977 12978 12979 12980 12981 12982 12983 12984 12985 12986 12987 12988 12989 12990 12991 12992 12993 12994 12995 12996 12997 12998 12999 13000 13001 13002 13003 13004 13005 13006 13007 13008 13009 13010 13011 13012 13013 13014 13015 13016 13017 13018 13019 13020 13021 13022 13023 13024 13025 13026 13027 13028 13029 13030 13031 13032 13033 13034 13035 13036 13037 13038 13039 13040 13041 13042 13043 13044 13045 13046 13047 13048 13049 13050 13051 13052 13053 13054 13055 13056 13057 13058 13059 13060 13061 13062 13063 13064 13065 13066 13067 13068 13069 13070 13071 13072 13073 13074 13075 13076 13077 13078 13079 13080 13081 13082 13083 13084 13085 13086 13087 13088 13089 13090 13091 13092 13093 13094 13095 13096 13097 13098 13099 13100 13101 13102 13103 13104 13105 13106 13107 13108 13109 13110 13111 13112 13113 13114 13115 13116 13117 13118 13119 13120 13121 13122 13123 13124 13125 13126 13127 13128 13129 13130 13131 13132 13133 13134 13135 13136 13137 13138 13139 13140 13141 13142 13143 13144 13145 13146 13147 13148 13149 13150 13151 13152 13153 13154 13155 13156 13157 13158 13159 13160 13161 13162 13163 13164 13165 13166 13167 13168 13169 13170 13171 13172 13173 13174 13175 13176 13177 13178 13179 13180 13181 13182 13183 13184 13185 13186 13187 13188 13189 13190 13191 13192 13193 13194 13195 13196 13197 13198 13199 13200 13201 13202 13203 13204 13205 13206 13207 13208 13209 13210 13211 13212 13213 13214 13215 13216 13217 13218 13219 13220 13221 13222 13223 13224 13225 13226 13227 13228 13229 13230 13231 13232 13233 13234 13235 13236 13237 13238 13239 13240 13241 13242 13243 13244 13245 13246 13247 13248 13249 13250 13251 13252 13253 13254 13255 13256 13257 13258 13259 13260 13261 13262 13263 13264 13265 13266 13267 13268 13269 13270 13271 13272 13273 13274 13275 13276 13277 13278 13279 13280 13281 13282 13283 13284 13285 13286 13287 13288 13289 13290 13291 13292 13293 13294 13295 13296 13297 13298 13299 13300 13301 13302 13303 13304 13305 13306 13307 13308 13309 13310 13311 13312 13313 13314 13315 13316 13317 13318 13319 13320 13321 13322 13323 13324 13325 13326 13327 13328 13329 13330 13331 13332 13333 13334 13335 13336 13337 13338 13339 13340 13341 13342 13343 13344 13345 13346 13347 13348 13349 13350 13351 13352 13353 13354 13355 13356 13357 13358 13359 13360 13361 13362 13363 13364 13365 13366 13367 13368 13369 13370 13371 13372 13373 13374 13375 13376 13377 13378 13379 13380 13381 13382 13383 13384 13385 13386 13387 13388 13389 13390 13391 13392 13393 13394 13395 13396 13397 13398 13399 13400 13401 13402 13403 13404 13405 13406 13407 13408 13409 13410 13411 13412 13413 13414 13415 13416 13417 13418 13419 13420 13421 13422 13423 13424 13425 13426 13427 13428 13429 13430 13431 13432 13433 13434 13435 13436 13437 13438 13439 13440 13441 13442 13443 13444 13445 13446 13447 13448 13449 13450 13451 13452 13453 13454 13455 13456 13457 13458 13459 13460 13461 13462 13463 13464 13465 13466 13467 13468 13469 13470 13471 13472 13473 13474 13475 13476 13477 13478 13479 13480 13481 13482 13483 13484 13485 13486 13487 13488 13489 13490 13491 13492 13493 13494 13495 13496 13497 13498 13499 13500 13501 13502 13503 13504 13505 13506 13507 13508 13509 13510 13511 13512 13513 13514 13515 13516 13517 13518 13519 13520 13521 13522 13523 13524 13525 13526 13527 13528 13529 13530 13531 13532 13533 13534 13535 13536 13537 13538 13539 13540 13541 13542 13543 13544 13545 13546 13547 13548 13549 13550 13551 13552 13553 13554 13555 13556 13557 13558 13559 13560 13561 13562 13563 13564 13565 13566 13567 13568 13569 13570 13571 13572 13573 13574 13575 13576 13577 13578 13579 13580 13581 13582 13583 13584 13585 13586 13587 13588 13589 13590 13591 13592 13593 13594 13595 13596 13597 13598 13599 13600 13601 13602 13603 13604 13605 13606 13607 13608 13609 13610 13611 13612 13613 13614 13615 13616 13617 13618 13619 13620 13621 13622 13623 13624 13625 13626 13627 13628 13629 13630 13631 13632 13633 13634 13635 13636 13637 13638 13639 13640 13641 13642 13643 13644 13645 13646 13647 13648 13649 13650 13651 13652 13653 13654 13655 13656 13657 13658 13659 13660 13661 13662 13663 13664 13665 13666 13667 13668 13669 13670 13671 13672 13673 13674 13675 13676 13677 13678 13679 13680 13681 13682 13683 13684 13685 13686 13687 13688 13689 13690 13691 13692 13693 13694 13695 13696 13697 13698 13699 13700 13701 13702 13703 13704 13705 13706 13707 13708 13709 13710 13711 13712 13713 13714 13715 13716 13717 13718 13719 13720 13721 13722 13723 13724 13725 13726 13727 13728 13729 13730 13731 13732 13733 13734 13735 13736 13737 13738 13739 13740 13741 13742 13743 13744 13745 13746 13747 13748 13749 13750 13751 13752 13753 13754 13755 13756 13757 13758 13759 13760 13761 13762 13763 13764 13765 13766 13767 13768 13769 13770 13771 13772 13773 13774 13775 13776 13777 13778 13779 13780 13781 13782 13783 13784 13785 13786 13787 13788 13789 13790 13791 13792 13793 13794 13795 13796 13797 13798 13799 13800 13801 13802 13803 13804 13805 13806 13807 13808 13809 13810 13811 13812 13813 13814 13815 13816 13817 13818 13819 13820 13821 13822 13823 13824 13825 13826 13827 13828 13829 13830 13831 13832 13833 13834 13835 13836 13837 13838 13839 13840 13841 13842 13843 13844 13845 13846 13847 13848 13849 13850 13851 13852 13853 13854 13855 13856 13857 13858 13859 13860 13861 13862 13863 13864 13865 13866 13867 13868 13869 13870 13871 13872 13873 13874 13875 13876 13877 13878 13879 13880 13881 13882 13883 13884 13885 13886 13887 13888 13889 13890 13891 13892 13893 13894 13895 13896 13897 13898 13899 13900 13901 13902 13903 13904 13905 13906 13907 13908 13909 13910 13911 13912 13913 13914 13915 13916 13917 13918 13919 13920 13921 13922 13923 13924 13925 13926 13927 13928 13929 13930 13931 13932 13933 13934 13935 13936 13937 13938 13939 13940 13941 13942 13943 13944 13945 13946 13947 13948 13949 13950 13951 13952 13953 13954 13955 13956 13957 13958 13959 13960 13961 13962 13963 13964 13965 13966 13967 13968 13969 13970 13971 13972 13973 13974 13975 13976 13977 13978 13979 13980 13981 13982 13983 13984 13985 13986 13987 13988 13989 13990 13991 13992 13993 13994 13995 13996 13997 13998 13999 14000 14001 14002 14003 14004 14005 14006 14007 14008 14009 14010 14011 14012 14013 14014 14015 14016 14017 14018 14019 14020 14021 14022 14023 14024 14025 14026 14027 14028 14029 14030 14031 14032 14033 14034 14035 14036 14037 14038 14039 14040 14041 14042 14043 14044 14045 14046 14047 14048 14049 14050 14051 14052 14053 14054 14055 14056 14057 14058 14059 14060 14061 14062 14063 14064 14065 14066 14067 14068 14069 14070 14071 14072 14073 14074 14075 14076 14077 14078 14079 14080 14081 14082 14083 14084 14085 14086 14087 14088 14089 14090 14091 14092 14093 14094 14095 14096 14097 14098 14099 14100 14101 14102 14103 14104 14105 14106 14107 14108 14109 14110 14111 14112 14113 14114 14115 14116 14117 14118 14119 14120 14121 14122 14123 14124 14125 14126 14127 14128 14129 14130 14131 14132 14133 14134 14135 14136 14137 14138 14139 14140 14141 14142 14143 14144 14145 14146 14147 14148 14149 14150 14151 14152 14153 14154 14155 14156 14157 14158 14159 14160 14161 14162 14163 14164 14165 14166 14167 14168 14169 14170 14171 14172 14173 14174 14175 14176 14177 14178 14179 14180 14181 14182 14183 14184 14185 14186 14187 14188 14189 14190 14191 14192 14193 14194 14195 14196 14197 14198 14199 14200 14201 14202 14203 14204 14205 14206 14207 14208 14209 14210 14211 14212 14213 14214 14215 14216 14217 14218 14219 14220 14221 14222 14223 14224 14225 14226 14227 14228 14229 14230 14231 14232 14233 14234 14235 14236 14237 14238 14239 14240 14241 14242 14243 14244 14245 14246 14247 14248 14249 14250 14251 14252 14253 14254 14255 14256 14257 14258 14259 14260 14261 14262 14263 14264 14265 14266 14267 14268 14269 14270 14271 14272 14273 14274 14275 14276 14277 14278 14279 14280 14281 14282 14283 14284 14285 14286 14287 14288 14289 14290 14291 14292 14293 14294 14295 14296 14297 14298 14299 14300 14301 14302 14303 14304 14305 14306 14307 14308 14309 14310 14311 14312 14313 14314 14315 14316 14317 14318 14319 14320 14321 14322 14323 14324 14325 14326 14327 14328 14329 14330 14331 14332 14333 14334 14335 14336 14337 14338 14339 14340 14341 14342 14343 14344 14345 14346 14347 14348 14349 14350 14351 14352 14353 14354 14355 14356 14357 14358 14359 14360 14361 14362 14363 14364 14365 14366 14367 14368 14369 14370 14371 14372 14373 14374 14375 14376 14377 14378 14379 14380 14381 14382 14383 14384 14385 14386 14387 14388 14389 14390 14391 14392 14393 14394 14395 14396 14397 14398 14399 14400 14401 14402 14403 14404 14405 14406 14407 14408 14409 14410 14411 14412 14413 14414 14415 14416 14417 14418 14419 14420 14421 14422 14423 14424 14425 14426 14427 14428 14429 14430 14431 14432 14433 14434 14435 14436 14437 14438 14439 14440 14441 14442 14443 14444 14445 14446 14447 14448 14449 14450 14451 14452 14453 14454 14455 14456 14457 14458 14459 14460 14461 14462 14463 14464 14465 14466 14467 14468 14469 14470 14471 14472 14473 14474 14475 14476 14477 14478 14479 14480 14481 14482 14483 14484 14485 14486 14487 14488 14489 14490 14491 14492 14493 14494 14495 14496 14497 14498 14499 14500 14501 14502 14503 14504 14505 14506 14507 14508 14509 14510 14511 14512 14513 14514 14515 14516 14517 14518 14519 14520 14521 14522 14523 14524 14525 14526 14527 14528 14529 14530 14531 14532 14533 14534 14535 14536 14537 14538 14539 14540 14541 14542 14543 14544 14545 14546 14547 14548 14549 14550 14551 14552 14553 14554 14555 14556 14557 14558 14559 14560 14561 14562 14563 14564 14565 14566 14567 14568 14569 14570 14571 14572 14573 14574 14575 14576 14577 14578 14579 14580 14581 14582 14583 14584 14585 14586 14587 14588 14589 14590 14591 14592 14593 14594 14595 14596 14597 14598 14599 14600 14601 14602 14603 14604 14605 14606 14607 14608 14609 14610 14611 14612 14613 14614 14615 14616 14617 14618 14619 14620 14621 14622 14623 14624 14625 14626 14627 14628 14629 14630 14631 14632 14633 14634 14635 14636 14637 14638 14639 14640 14641 14642 14643 14644 14645 14646 14647 14648 14649 14650 14651 14652 14653 14654 14655 14656 14657 14658 14659 14660 14661 14662 14663 14664 14665 14666 14667 14668 14669 14670 14671 14672 14673 14674 14675 14676 14677 14678 14679 14680 14681 14682 14683 14684 14685 14686 14687 14688 14689 14690 14691 14692 14693 14694 14695 14696 14697 14698 14699 14700 14701 14702 14703 14704 14705 14706 14707 14708 14709 14710 14711 14712 14713 14714 14715 14716 14717 14718 14719 14720 14721 14722 14723 14724 14725 14726 14727 14728 14729 14730 14731 14732 14733 14734 14735 14736 14737 14738 14739 14740 14741 14742 14743 14744 14745 14746 14747 14748 14749 14750 14751 14752 14753 14754 14755 14756 14757 14758 14759 14760 14761 14762 14763 14764 14765 14766 14767 14768 14769 14770 14771 14772 14773 14774 14775 14776 14777 14778 14779 14780 14781 14782 14783 14784 14785 14786 14787 14788 14789 14790 14791 14792 14793 14794 14795 14796 14797 14798 14799 14800 14801 14802 14803 14804 14805 14806 14807 14808 14809 14810 14811 14812 14813 14814 14815 14816 14817 14818 14819 14820 14821 14822 14823 14824 14825 14826 14827 14828 14829 14830 14831 14832 14833 14834 14835 14836 14837 14838 14839 14840 14841 14842 14843 14844 14845 14846 14847 14848 14849 14850 14851 14852 14853 14854 14855 14856 14857 14858 14859 14860 14861 14862 14863 14864 14865 14866 14867 14868 14869 14870 14871 14872 14873 14874 14875 14876 14877 14878 14879 14880 14881 14882 14883 14884 14885 14886 14887 14888 14889 14890 14891 14892 14893 14894 14895 14896 14897 14898 14899 14900 14901 14902 14903 14904 14905 14906 14907 14908 14909 14910 14911 14912 14913 14914 14915 14916 14917 14918 14919 14920 14921 14922 14923 14924 14925 14926 14927 14928 14929 14930 14931 14932 14933 14934 14935 14936 14937 14938 14939 14940 14941 14942 14943 14944 14945 14946 14947 14948 14949 14950 14951 14952 14953 14954 14955 14956 14957 14958 14959 14960 14961 14962 14963 14964 14965 14966 14967 14968 14969 14970 14971 14972 14973 14974 14975 14976 14977 14978 14979 14980 14981 14982 14983 14984 14985 14986 14987 14988 14989 14990 14991 14992 14993 14994 14995 14996 14997 14998 14999 15000 15001 15002 15003 15004 15005 15006 15007 15008 15009 15010 15011 15012 15013 15014 15015 15016 15017 15018 15019 15020 15021 15022 15023 15024 15025 15026 15027 15028 15029 15030 15031 15032 15033 15034 15035 15036 15037 15038 15039 15040 15041 15042 15043 15044 15045 15046 15047 15048 15049 15050 15051 15052 15053 15054 15055 15056 15057 15058 15059 15060 15061 15062 15063 15064 15065 15066 15067 15068 15069 15070 15071 15072 15073 15074 15075 15076 15077 15078 15079 15080 15081 15082 15083 15084 15085 15086 15087 15088 15089 15090 15091 15092 15093 15094 15095 15096 15097 15098 15099 15100 15101 15102 15103 15104 15105 15106 15107 15108 15109 15110 15111 15112 15113 15114 15115 15116 15117 15118 15119 15120 15121 15122 15123 15124 15125 15126 15127 15128 15129 15130 15131 15132 15133 15134 15135 15136 15137 15138 15139 15140 15141 15142 15143 15144 15145 15146 15147 15148 15149 15150 15151 15152 15153 15154 15155 15156 15157 15158 15159 15160 15161 15162 15163 15164 15165 15166 15167 15168 15169 15170 15171 15172 15173 15174 15175 15176 15177 15178 15179 15180 15181 15182 15183 15184 15185 15186 15187 15188 15189 15190 15191 15192 15193 15194 15195 15196 15197 15198 15199 15200 15201 15202 15203 15204 15205 15206 15207 15208 15209 15210 15211 15212 15213 15214 15215 15216 15217 15218 15219 15220 15221 15222 15223 15224 15225 15226 15227 15228 15229 15230 15231 15232 15233 15234 15235 15236 15237 15238 15239 15240 15241 15242 15243 15244 15245 15246 15247 15248 15249 15250 15251 15252 15253 15254 15255 15256 15257 15258 15259 15260 15261 15262 15263 15264 15265 15266 15267 15268 15269 15270 15271 15272 15273 15274 15275 15276 15277 15278 15279 15280 15281 15282 15283 15284 15285 15286 15287 15288 15289 15290 15291 15292 15293 15294 15295 15296 15297 15298 15299 15300 15301 15302 15303 15304 15305 15306 15307 15308 15309 15310 15311 15312 15313 15314 15315 15316 15317 15318 15319 15320 15321 15322 15323 15324 15325 15326 15327 15328 15329 15330 15331 15332 15333 15334 15335 15336 15337 15338 15339 15340 15341 15342 15343 15344 15345 15346 15347 15348 15349 15350 15351 15352 15353 15354 15355 15356 15357 15358 15359 15360 15361 15362 15363 15364 15365 15366 15367 15368 15369 15370 15371 15372 15373 15374 15375 15376 15377 15378 15379 15380 15381 15382 15383 15384 15385 15386 15387 15388 15389 15390 15391 15392 15393 15394 15395 15396 15397 15398 15399 15400 15401 15402 15403 15404 15405 15406 15407 15408 15409 15410 15411 15412 15413 15414 15415 15416 15417 15418 15419 15420 15421 15422 15423 15424 15425 15426 15427 15428 15429 15430 15431 15432 15433 15434 15435 15436 15437 15438 15439 15440 15441 15442 15443 15444 15445 15446 15447 15448 15449 15450 15451 15452 15453 15454 15455 15456 15457 15458 15459 15460 15461 15462 15463 15464 15465 15466 15467 15468 15469 15470 15471 15472 15473 15474 15475 15476 15477 15478 15479 15480 15481 15482 15483 15484 15485 15486 15487 15488 15489 15490 15491 15492 15493 15494 15495 15496 15497 15498 15499 15500 15501 15502 15503 15504 15505 15506 15507 15508 15509 15510 15511 15512 15513 15514 15515 15516 15517 15518 15519 15520 15521 15522 15523 15524 15525 15526 15527 15528 15529 15530 15531 15532 15533 15534 15535 15536 15537 15538 15539 15540 15541 15542 15543 15544 15545 15546 15547 15548 15549 15550 15551 15552 15553 15554 15555 15556 15557 15558 15559 15560 15561 15562 15563 15564 15565 15566 15567 15568 15569 15570 15571 15572 15573 15574 15575 15576 15577 15578 15579 15580 15581 15582 15583 15584 15585 15586 15587 15588 15589 15590 15591 15592 15593 15594 15595 15596 15597 15598 15599 15600 15601 15602 15603 15604 15605 15606 15607 15608 15609 15610 15611 15612 15613 15614 15615 15616 15617 15618 15619 15620 15621 15622 15623 15624 15625 15626 15627 15628 15629 15630 15631 15632 15633 15634 15635 15636 15637 15638 15639 15640 15641 15642 15643 15644 15645 15646 15647 15648 15649 15650 15651 15652 15653 15654 15655 15656 15657 15658 15659 15660 15661 15662 15663 15664 15665 15666 15667 15668 15669 15670 15671 15672 15673 15674 15675 15676 15677 15678 15679 15680 15681 15682 15683 15684 15685 15686 15687 15688 15689 15690 15691 15692 15693 15694 15695 15696 15697 15698 15699 15700 15701 15702 15703 15704 15705 15706 15707 15708 15709 15710 15711 15712 15713 15714 15715 15716 15717 15718 15719 15720 15721 15722 15723 15724 15725 15726 15727 15728 15729 15730 15731 15732 15733 15734 15735 15736 15737 15738 15739 15740 15741 15742 15743 15744 15745 15746 15747 15748 15749 15750 15751 15752 15753 15754 15755 15756 15757 15758 15759 15760 15761 15762 15763 15764 15765 15766 15767 15768 15769 15770 15771 15772 15773 15774 15775 15776 15777 15778 15779 15780 15781 15782 15783 15784 15785 15786 15787 15788 15789 15790 15791 15792 15793 15794 15795 15796 15797 15798 15799 15800 15801 15802 15803 15804 15805 15806 15807 15808 15809 15810 15811 15812 15813 15814 15815 15816 15817 15818 15819 15820 15821 15822 15823 15824 15825 15826 15827 15828 15829 15830 15831 15832 15833 15834 15835 15836 15837 15838 15839 15840 15841 15842 15843 15844 15845 15846 15847 15848 15849 15850 15851 15852 15853 15854 15855 15856 15857 15858 15859 15860 15861 15862 15863 15864 15865 15866 15867 15868 15869 15870 15871 15872 15873 15874 15875 15876 15877 15878 15879 15880 15881 15882 15883 15884 15885 15886 15887 15888 15889 15890 15891 15892 15893 15894 15895 15896 15897 15898 15899 15900 15901 15902 15903 15904 15905 15906 15907 15908 15909 15910 15911 15912 15913 15914 15915 15916 15917 15918 15919 15920 15921 15922 15923 15924 15925 15926 15927 15928 15929 15930 15931 15932 15933 15934 15935 15936 15937 15938 15939 15940 15941 15942 15943 15944 15945 15946 15947 15948 15949 15950 15951 15952 15953 15954 15955 15956 15957 15958 15959 15960 15961 15962 15963 15964 15965 15966 15967 15968 15969 15970 15971 15972 15973 15974 15975 15976 15977 15978 15979 15980 15981 15982 15983 15984 15985 15986 15987 15988 15989 15990 15991 15992 15993 15994 15995 15996 15997 15998 15999 16000 16001 16002 16003 16004 16005 16006 16007 16008 16009 16010 16011 16012 16013 16014 16015 16016 16017 16018 16019 16020 16021 16022 16023 16024 16025 16026 16027 16028 16029 16030 16031 16032 16033 16034 16035 16036 16037 16038 16039 16040 16041 16042 16043 16044 16045 16046 16047 16048 16049 16050 16051 16052 16053 16054 16055 16056 16057 16058 16059 16060 16061 16062 16063 16064 16065 16066 16067 16068 16069 16070 16071 16072 16073 16074 16075 16076 16077 16078 16079 16080 16081 16082 16083 16084 16085 16086 16087 16088 16089 16090 16091 16092 16093 16094 16095 16096 16097 16098 16099 16100 16101 16102 16103 16104 16105 16106 16107 16108 16109 16110 16111 16112 16113 16114 16115 16116 16117 16118 16119 16120 16121 16122 16123 16124 16125 16126 16127 16128 16129 16130 16131 16132 16133 16134 16135 16136 16137 16138 16139 16140 16141 16142 16143 16144 16145 16146 16147 16148 16149 16150 16151 16152 16153 16154 16155 16156 16157 16158 16159 16160 16161 16162 16163 16164 16165 16166 16167 16168 16169 16170 16171 16172 16173 16174 16175 16176 16177 16178 16179 16180 16181 16182 16183 16184 16185 16186 16187 16188 16189 16190 16191 16192 16193 16194 16195 16196 16197 16198 16199 16200 16201 16202 16203 16204 16205 16206 16207 16208 16209 16210 16211 16212 16213 16214 16215 16216 16217 16218 16219 16220 16221 16222 16223 16224 16225 16226 16227 16228 16229 16230 16231 16232 16233 16234 16235 16236 16237 16238 16239 16240 16241 16242 16243 16244 16245 16246 16247 16248 16249 16250 16251 16252 16253 16254 16255 16256 16257 16258 16259 16260 16261 16262 16263 16264 16265 16266 16267 16268 16269 16270 16271 16272 16273 16274 16275 16276 16277 16278 16279 16280 16281 16282 16283 16284 16285 16286 16287 16288 16289 16290 16291 16292 16293 16294 16295 16296 16297 16298 16299 16300 16301 16302 16303 16304 16305 16306 16307 16308 16309 16310 16311 16312 16313 16314 16315 16316 16317 16318 16319 16320 16321 16322 16323 16324 16325 16326 16327 16328 16329 16330 16331 16332 16333 16334 16335 16336 16337 16338 16339 16340 16341 16342 16343 16344 16345 16346 16347 16348 16349 16350 16351 16352 16353 16354 16355 16356 16357 16358 16359 16360 16361 16362 16363 16364 16365 16366 16367 16368 16369 16370 16371 16372 16373 16374 16375 16376 16377 16378 16379 16380 16381 16382 16383 16384 16385 16386 16387 16388 16389 16390 16391 16392 16393 16394 16395 16396 16397 16398 16399 16400 16401 16402 16403 16404 16405 16406 16407 16408 16409 16410 16411 16412 16413 16414 16415 16416 16417 16418 16419 16420 16421 16422 16423 16424 16425 16426 16427 16428 16429 16430 16431 16432 16433 16434 16435 16436 16437 16438 16439 16440 16441 16442 16443 16444 16445 16446 16447 16448 16449 16450 16451 16452 16453 16454 16455 16456 16457 16458 16459 16460 16461 16462 16463 16464 16465 16466 16467 16468 16469 16470 16471 16472 16473 16474 16475 16476 16477 16478 16479 16480 16481 16482 16483 16484 16485 16486 16487 16488 16489 16490 16491 16492 16493 16494 16495 16496 16497 16498 16499 16500 16501 16502 16503 16504 16505 16506 16507 16508 16509 16510 16511 16512 16513 16514 16515 16516 16517 16518 16519 16520 16521 16522 16523 16524 16525 16526 16527 16528 16529 16530 16531 16532 16533 16534 16535 16536 16537 16538 16539 16540 16541 16542 16543 16544 16545 16546 16547 16548 16549 16550 16551 16552 16553 16554 16555 16556 16557 16558 16559 16560 16561 16562 16563 16564 16565 16566 16567 16568 16569 16570 16571 16572 16573 16574 16575 16576 16577 16578 16579 16580 16581 16582 16583 16584 16585 16586 16587 16588 16589 16590 16591 16592 16593 16594 16595 16596 16597 16598 16599 16600 16601 16602 16603 16604 16605 16606 16607 16608 16609 16610 16611 16612 16613 16614 16615 16616 16617 16618 16619 16620 16621 16622 16623 16624 16625 16626 16627 16628 16629 16630 16631 16632 16633 16634 16635 16636 16637 16638 16639 16640 16641 16642 16643 16644 16645 16646 16647 16648 16649 16650 16651 16652 16653 16654 16655 16656 16657 16658 16659 16660 16661 16662 16663 16664 16665 16666 16667 16668 16669 16670 16671 16672 16673 16674 16675 16676 16677 16678 16679 16680 16681 16682 16683 16684 16685 16686 16687 16688 16689 16690 16691 16692 16693 16694 16695 16696 16697 16698 16699 16700 16701 16702 16703 16704 16705 16706 16707 16708 16709 16710 16711 16712 16713 16714 16715 16716 16717 16718 16719 16720 16721 16722 16723 16724 16725 16726 16727 16728 16729 16730 16731 16732 16733 16734 16735 16736 16737 16738 16739 16740 16741 16742 16743 16744 16745 16746 16747 16748 16749 16750 16751 16752 16753 16754 16755 16756 16757 16758 16759 16760 16761 16762 16763 16764 16765 16766 16767 16768 16769 16770 16771 16772 16773 16774 16775 16776 16777 16778 16779 16780 16781 16782 16783 16784 16785 16786 16787 16788 16789 16790 16791 16792 16793 16794 16795 16796 16797 16798 16799 16800 16801 16802 16803 16804 16805 16806 16807 16808 16809 16810 16811 16812 16813 16814 16815 16816 16817 16818 16819 16820 16821 16822 16823 16824 16825 16826 16827 16828 16829 16830 16831 16832 16833 16834 16835 16836 16837 16838 16839 16840 16841 16842 16843 16844 16845 16846 16847 16848 16849 16850 16851 16852 16853 16854 16855 16856 16857 16858 16859 16860 16861 16862 16863 16864 16865 16866 16867 16868 16869 16870 16871 16872 16873 16874 16875 16876 16877 16878 16879 16880 16881 16882 16883 16884 16885 16886 16887 16888 16889 16890 16891 16892 16893 16894 16895 16896 16897 16898 16899 16900 16901 16902 16903 16904 16905 16906 16907 16908 16909 16910 16911 16912 16913 16914 16915 16916 16917 16918 16919 16920 16921 16922 16923 16924 16925 16926 16927 16928 16929 16930 16931 16932 16933 16934 16935 16936 16937 16938 16939 16940 16941 16942 16943 16944 16945 16946 16947 16948 16949 16950 16951 16952 16953 16954 16955 16956 16957 16958 16959 16960 16961 16962 16963 16964 16965 16966 16967 16968 16969 16970 16971 16972 16973 16974 16975 16976 16977 16978 16979 16980 16981 16982 16983 16984 16985 16986 16987 16988 16989 16990 16991 16992 16993 16994 16995 16996 16997 16998 16999 17000 17001 17002 17003 17004 17005 17006 17007 17008 17009 17010 17011 17012 17013 17014 17015 17016 17017 17018 17019 17020 17021 17022 17023 17024 17025 17026 17027 17028 17029 17030 17031 17032 17033 17034 17035 17036 17037 17038 17039 17040 17041 17042 17043 17044 17045 17046 17047 17048 17049 17050 17051 17052 17053 17054 17055 17056 17057 17058 17059 17060 17061 17062 17063 17064 17065 17066 17067 17068 17069 17070 17071 17072 17073 17074 17075 17076 17077 17078 17079 17080 17081 17082 17083 17084 17085 17086 17087 17088 17089 17090 17091 17092 17093 17094 17095 17096 17097 17098 17099 17100 17101 17102 17103 17104 17105 17106 17107 17108 17109 17110 17111 17112 17113 17114 17115 17116 17117 17118 17119 17120 17121 17122 17123 17124 17125 17126 17127 17128 17129 17130 17131 17132 17133 17134 17135 17136 17137 17138 17139 17140 17141 17142 17143 17144 17145 17146 17147 17148 17149 17150 17151 17152 17153 17154 17155 17156 17157 17158 17159 17160 17161 17162 17163 17164 17165 17166 17167 17168 17169 17170 17171 17172 17173 17174 17175 17176 17177 17178 17179 17180 17181 17182 17183 17184 17185 17186 17187 17188 17189 17190 17191 17192 17193 17194 17195 17196 17197 17198 17199 17200 17201 17202 17203 17204 17205 17206 17207 17208 17209 17210 17211 17212 17213 17214 17215 17216 17217 17218 17219 17220 17221 17222 17223 17224 17225 17226 17227 17228 17229 17230 17231 17232 17233 17234 17235 17236 17237 17238 17239 17240 17241 17242 17243 17244 17245 17246 17247 17248 17249 17250 17251 17252 17253 17254 17255 17256 17257 17258 17259 17260 17261 17262 17263 17264 17265 17266 17267 17268 17269 17270 17271 17272 17273 17274 17275 17276 17277 17278 17279 17280 17281 17282 17283 17284 17285 17286 17287 17288 17289 17290 17291 17292 17293 17294 17295 17296 17297 17298 17299 17300 17301 17302 17303 17304 17305 17306 17307 17308 17309 17310 17311 17312 17313 17314 17315 17316 17317 17318 17319 17320 17321 17322 17323 17324 17325 17326 17327 17328 17329 17330 17331 17332 17333 17334 17335 17336 17337 17338 17339 17340 17341 17342 17343 17344 17345 17346 17347 17348 17349 17350 17351 17352 17353 17354 17355 17356 17357 17358 17359 17360 17361 17362 17363 17364 17365 17366 17367 17368 17369 17370 17371 17372 17373 17374 17375 17376 17377 17378 17379 17380 17381 17382 17383 17384 17385 17386 17387 17388 17389 17390 17391 17392 17393 17394 17395 17396 17397 17398 17399 17400 17401 17402 17403 17404 17405 17406 17407 17408 17409 17410 17411 17412 17413 17414 17415 17416 17417 17418 17419 17420 17421 17422 17423 17424 17425 17426 17427 17428 17429 17430 17431 17432 17433 17434 17435 17436 17437 17438 17439 17440 17441 17442 17443 17444 17445 17446 17447 17448 17449 17450 17451 17452 17453 17454 17455 17456 17457 17458 17459 17460 17461 17462 17463 17464 17465 17466 17467 17468 17469 17470 17471 17472 17473 17474 17475 17476 17477 17478 17479 17480 17481 17482 17483 17484 17485 17486 17487 17488 17489 17490 17491 17492 17493 17494 17495 17496 17497 17498 17499 17500 17501 17502 17503 17504 17505 17506 17507 17508 17509 17510 17511 17512 17513 17514 17515 17516 17517 17518 17519 17520 17521 17522 17523 17524 17525 17526 17527 17528 17529 17530 17531 17532 17533 17534 17535 17536 17537 17538 17539 17540 17541 17542 17543 17544 17545 17546 17547 17548 17549 17550 17551 17552 17553 17554 17555 17556 17557 17558 17559 17560 17561 17562 17563 17564 17565 17566 17567 17568 17569 17570 17571 17572 17573 17574 17575 17576 17577 17578 17579 17580 17581 17582 17583 17584 17585 17586 17587 17588 17589 17590 17591 17592 17593 17594 17595 17596 17597 17598 17599 17600 17601 17602 17603 17604 17605 17606 17607 17608 17609 17610 17611 17612 17613 17614 17615 17616 17617 17618 17619 17620 17621 17622 17623 17624 17625 17626 17627 17628 17629 17630 17631 17632 17633 17634 17635 17636 17637 17638 17639 17640 17641 17642 17643 17644 17645 17646 17647 17648 17649 17650 17651 17652 17653 17654 17655 17656 17657 17658 17659 17660 17661 17662 17663 17664 17665 17666 17667 17668 17669 17670 17671 17672 17673 17674 17675 17676 17677 17678 17679 17680 17681 17682 17683 17684 17685 17686 17687 17688 17689 17690 17691 17692 17693 17694 17695 17696 17697 17698 17699 17700 17701 17702 17703 17704 17705 17706 17707 17708 17709 17710 17711 17712 17713 17714 17715 17716 17717 17718 17719 17720 17721 17722 17723 17724 17725 17726 17727 17728 17729 17730 17731 17732 17733 17734 17735 17736 17737 17738 17739 17740 17741 17742 17743 17744 17745 17746 17747 17748 17749 17750 17751 17752 17753 17754 17755 17756 17757 17758 17759 17760 17761 17762 17763 17764 17765 17766 17767 17768 17769 17770 17771 17772 17773 17774 17775 17776 17777 17778 17779 17780 17781 17782 17783 17784 17785 17786 17787 17788 17789 17790 17791 17792 17793 17794 17795 17796 17797 17798 17799 17800 17801 17802 17803 17804 17805 17806 17807 17808 17809 17810 17811 17812 17813 17814 17815 17816 17817 17818 17819 17820 17821 17822 17823 17824 17825 17826 17827 17828 17829 17830 17831 17832 17833 17834 17835 17836 17837 17838 17839 17840 17841 17842 17843 17844 17845 17846 17847 17848 17849 17850 17851 17852 17853 17854 17855 17856 17857 17858 17859 17860 17861 17862 17863 17864 17865 17866 17867 17868 17869 17870 17871 17872 17873 17874 17875 17876 17877 17878 17879 17880 17881 17882 17883 17884 17885 17886 17887 17888 17889 17890 17891 17892 17893 17894 17895 17896 17897 17898 17899 17900 17901 17902 17903 17904 17905 17906 17907 17908 17909 17910 17911 17912 17913 17914 17915 17916 17917 17918 17919 17920 17921 17922 17923 17924 17925 17926 17927 17928 17929 17930 17931 17932 17933 17934 17935 17936 17937 17938 17939 17940 17941 17942 17943 17944 17945 17946 17947 17948 17949 17950 17951 17952 17953 17954 17955 17956 17957 17958 17959 17960 17961 17962 17963 17964 17965 17966 17967 17968 17969 17970 17971 17972 17973 17974 17975 17976 17977 17978 17979 17980 17981 17982 17983 17984 17985 17986 17987 17988 17989 17990 17991 17992 17993 17994 17995 17996 17997 17998 17999 18000 18001 18002 18003 18004 18005 18006 18007 18008 18009 18010 18011 18012 18013 18014 18015 18016 18017 18018 18019 18020 18021 18022 18023 18024 18025 18026 18027 18028 18029 18030 18031 18032 18033 18034 18035 18036 18037 18038 18039 18040 18041 18042 18043 18044 18045 18046 18047 18048 18049 18050 18051 18052 18053 18054 18055 18056 18057 18058 18059 18060 18061 18062 18063 18064 18065 18066 18067 18068 18069 18070 18071 18072 18073 18074 18075 18076 18077 18078 18079 18080 18081 18082 18083 18084 18085 18086 18087 18088 18089 18090 18091 18092 18093 18094 18095 18096 18097 18098 18099 18100 18101 18102 18103 18104 18105 18106 18107 18108 18109 18110 18111 18112 18113 18114 18115 18116 18117 18118 18119 18120 18121 18122 18123 18124 18125 18126 18127 18128 18129 18130 18131 18132 18133 18134 18135 18136 18137 18138 18139 18140 18141 18142 18143 18144 18145 18146 18147 18148 18149 18150 18151 18152 18153 18154 18155 18156 18157 18158 18159 18160 18161 18162 18163 18164 18165 18166 18167 18168 18169 18170 18171 18172 18173 18174 18175 18176 18177 18178 18179 18180 18181 18182 18183 18184 18185 18186 18187 18188 18189 18190 18191 18192 18193 18194 18195 18196 18197 18198 18199 18200 18201 18202 18203 18204 18205 18206 18207 18208 18209 18210 18211 18212 18213 18214 18215 18216 18217 18218 18219 18220 18221 18222 18223 18224 18225 18226 18227 18228 18229 18230 18231 18232 18233 18234 18235 18236 18237 18238 18239 18240 18241 18242 18243 18244 18245 18246 18247 18248 18249 18250 18251 18252 18253 18254 18255 18256 18257 18258 18259 18260 18261 18262 18263 18264 18265 18266 18267 18268 18269 18270 18271 18272 18273 18274 18275 18276 18277 18278 18279 18280 18281 18282 18283 18284 18285 18286 18287 18288 18289 18290 18291 18292 18293 18294 18295 18296 18297 18298 18299 18300 18301 18302 18303 18304 18305 18306 18307 18308 18309 18310 18311 18312 18313 18314 18315 18316 18317 18318 18319 18320 18321 18322 18323 18324 18325 18326 18327 18328 18329 18330 18331 18332 18333 18334 18335 18336 18337 18338 18339 18340 18341 18342 18343 18344 18345 18346 18347 18348 18349 18350 18351 18352 18353 18354 18355 18356 18357 18358 18359 18360 18361 18362 18363 18364 18365 18366 18367 18368 18369 18370 18371 18372 18373 18374 18375 18376 18377 18378 18379 18380 18381 18382 18383 18384 18385 18386 18387 18388 18389 18390 18391 18392 18393 18394 18395 18396 18397 18398 18399 18400 18401 18402 18403 18404 18405 18406 18407 18408 18409 18410 18411 18412 18413 18414 18415 18416 18417 18418 18419 18420 18421 18422 18423 18424 18425 18426 18427 18428 18429 18430 18431 18432 18433 18434 18435 18436 18437 18438 18439 18440 18441 18442 18443 18444 18445 18446 18447 18448 18449 18450 18451 18452 18453 18454 18455 18456 18457 18458 18459 18460 18461 18462 18463 18464 18465 18466 18467 18468 18469 18470 18471 18472 18473 18474 18475 18476 18477 18478 18479 18480 18481 18482 18483 18484 18485 18486 18487 18488 18489 18490 18491 18492 18493 18494 18495 18496 18497 18498 18499 18500 18501 18502 18503 18504 18505 18506 18507 18508 18509 18510 18511 18512 18513 18514 18515 18516 18517 18518 18519 18520 18521 18522 18523 18524 18525 18526 18527 18528 18529 18530 18531 18532 18533 18534 18535 18536 18537 18538 18539 18540 18541 18542 18543 18544 18545 18546 18547 18548 18549 18550 18551 18552 18553 18554 18555 18556 18557 18558 18559 18560 18561 18562 18563 18564 18565 18566 18567 18568 18569 18570 18571 18572 18573 18574 18575 18576 18577 18578 18579 18580 18581 18582 18583 18584 18585 18586 18587 18588 18589 18590 18591 18592 18593 18594 18595 18596 18597 18598 18599 18600 18601 18602 18603 18604 18605 18606 18607 18608 18609 18610 18611 18612 18613 18614 18615 18616 18617 18618 18619 18620 18621 18622 18623 18624 18625 18626 18627 18628 18629 18630 18631 18632 18633 18634 18635 18636 18637 18638 18639 18640 18641 18642 18643 18644 18645 18646 18647 18648 18649 18650 18651 18652 18653 18654 18655 18656 18657 18658 18659 18660 18661 18662 18663 18664 18665 18666 18667 18668 18669 18670 18671 18672 18673 18674 18675 18676 18677 18678 18679 18680 18681 18682 18683 18684 18685 18686 18687 18688 18689 18690 18691 18692 18693 18694 18695 18696 18697 18698 18699 18700 18701 18702 18703 18704 18705 18706 18707 18708 18709 18710 18711 18712 18713 18714 18715 18716 18717 18718 18719 18720 18721 18722 18723 18724 18725 18726 18727 18728 18729 18730 18731 18732 18733 18734 18735 18736 18737 18738 18739 18740 18741 18742 18743 18744 18745 18746 18747 18748 18749 18750 18751 18752 18753 18754 18755 18756 18757 18758 18759 18760 18761 18762 18763 18764 18765 18766 18767 18768 18769 18770 18771 18772 18773 18774 18775 18776 18777 18778 18779 18780 18781 18782 18783 18784 18785 18786 18787 18788 18789 18790 18791 18792 18793 18794 18795 18796 18797 18798 18799 18800 18801 18802 18803 18804 18805 18806 18807 18808 18809 18810 18811 18812 18813 18814 18815 18816 18817 18818 18819 18820 18821 18822 18823 18824 18825 18826 18827 18828 18829 18830 18831 18832 18833 18834 18835 18836 18837 18838 18839 18840 18841 18842 18843 18844 18845 18846 18847 18848 18849 18850 18851 18852 18853 18854 18855 18856 18857 18858 18859 18860 18861 18862 18863 18864 18865 18866 18867 18868 18869 18870 18871 18872 18873 18874 18875 18876 18877 18878 18879 18880 18881 18882 18883 18884 18885 18886 18887 18888 18889 18890 18891 18892 18893 18894 18895 18896 18897 18898 18899 18900 18901 18902 18903 18904 18905 18906 18907 18908 18909 18910 18911 18912 18913 18914 18915 18916 18917 18918 18919 18920 18921 18922 18923 18924 18925 18926 18927 18928 18929 18930 18931 18932 18933 18934 18935 18936 18937 18938 18939 18940 18941 18942 18943 18944 18945 18946 18947 18948 18949 18950 18951 18952 18953 18954 18955 18956 18957 18958 18959 18960 18961 18962 18963 18964 18965 18966 18967 18968 18969 18970 18971 18972 18973 18974 18975 18976 18977 18978 18979 18980 18981 18982 18983 18984 18985 18986 18987 18988 18989 18990 18991 18992 18993 18994 18995 18996 18997 18998 18999 19000 19001 19002 19003 19004 19005 19006 19007 19008 19009 19010 19011 19012 19013 19014 19015 19016 19017 19018 19019 19020 19021 19022 19023 19024 19025 19026 19027 19028 19029 19030 19031 19032 19033 19034 19035 19036 19037 19038 19039 19040 19041 19042 19043 19044 19045 19046 19047 19048 19049 19050 19051 19052 19053 19054 19055 19056 19057 19058 19059 19060 19061 19062 19063 19064 19065 19066 19067 19068 19069 19070 19071 19072 19073 19074 19075 19076 19077 19078 19079 19080 19081 19082 19083 19084 19085 19086 19087 19088 19089 19090 19091 19092 19093 19094 19095 19096 19097 19098 19099 19100 19101 19102 19103 19104 19105 19106 19107 19108 19109 19110 19111 19112 19113 19114 19115 19116 19117 19118 19119 19120 19121 19122 19123 19124 19125 19126 19127 19128 19129 19130 19131 19132 19133 19134 19135 19136 19137 19138 19139 19140 19141 19142 19143 19144 19145 19146 19147 19148 19149 19150 19151 19152 19153 19154 19155 19156 19157 19158 19159 19160 19161 19162 19163 19164 19165 19166 19167 19168 19169 19170 19171 19172 19173 19174 19175 19176 19177 19178 19179 19180 19181 19182 19183 19184 19185 19186 19187 19188 19189 19190 19191 19192 19193 19194 19195 19196 19197 19198 19199 19200 19201 19202 19203 19204 19205 19206 19207 19208 19209 19210 19211 19212 19213 19214 19215 19216 19217 19218 19219 19220 19221 19222 19223 19224 19225 19226 19227 19228 19229 19230 19231 19232 19233 19234 19235 19236 19237 19238 19239 19240 19241 19242 19243 19244 19245 19246 19247 19248 19249 19250 19251 19252 19253 19254 19255 19256 19257 19258 19259 19260 19261 19262 19263 19264 19265 19266 19267 19268 19269 19270 19271 19272 19273 19274 19275 19276 19277 19278 19279 19280 19281 19282 19283 19284 19285 19286 19287 19288 19289 19290 19291 19292 19293 19294 19295 19296 19297 19298 19299 19300 19301 19302 19303 19304 19305 19306 19307 19308 19309 19310 19311 19312 19313 19314 19315 19316 19317 19318 19319 19320 19321 19322 19323 19324 19325 19326 19327 19328 19329 19330 19331 19332 19333 19334 19335 19336 19337 19338 19339 19340 19341 19342 19343 19344 19345 19346 19347 19348 19349 19350 19351 19352 19353 19354 19355 19356 19357 19358 19359 19360 19361 19362 19363 19364 19365 19366 19367 19368 19369 19370 19371 19372 19373 19374 19375 19376 19377 19378 19379 19380 19381 19382 19383 19384 19385 19386 19387 19388 19389 19390 19391 19392 19393 19394 19395 19396 19397 19398 19399 19400 19401 19402 19403 19404 19405 19406 19407 19408 19409 19410 19411 19412 19413 19414 19415 19416 19417 19418 19419 19420 19421 19422 19423 19424 19425 19426 19427 19428 19429 19430 19431 19432 19433 19434 19435 19436 19437 19438 19439 19440 19441 19442 19443 19444 19445 19446 19447 19448 19449 19450 19451 19452 19453 19454 19455 19456 19457 19458 19459 19460 19461 19462 19463 19464 19465 19466 19467 19468 19469 19470 19471 19472 19473 19474 19475 19476 19477 19478 19479 19480 19481 19482 19483 19484 19485 19486 19487 19488 19489 19490 19491 19492 19493 19494 19495 19496 19497 19498 19499 19500 19501 19502 19503 19504 19505 19506 19507 19508 19509 19510 19511 19512 19513 19514 19515 19516 19517 19518 19519 19520 19521 19522 19523 19524 19525 19526 19527 19528 19529 19530 19531 19532 19533 19534 19535 19536 19537 19538 19539 19540 19541 19542 19543 19544 19545 19546 19547 19548 19549 19550 19551 19552 19553 19554 19555 19556 19557 19558 19559 19560 19561 19562 19563 19564 19565 19566 19567 19568 19569 19570 19571 19572 19573 19574 19575 19576 19577 19578 19579 19580 19581 19582 19583 19584 19585 19586 19587 19588 19589 19590 19591 19592 19593 19594 19595 19596 19597 19598 19599 19600 19601 19602 19603 19604 19605 19606 19607 19608 19609 19610 19611 19612 19613 19614 19615 19616 19617 19618 19619 19620 19621 19622 19623 19624 19625 19626 19627 19628 19629 19630 19631 19632 19633 19634 19635 19636 19637 19638 19639 19640 19641 19642 19643 19644 19645 19646 19647 19648 19649 19650 19651 19652 19653 19654 19655 19656 19657 19658 19659 19660 19661 19662 19663 19664 19665 19666 19667 19668 19669 19670 19671 19672 19673 19674 19675 19676 19677 19678 19679 19680 19681 19682 19683 19684 19685 19686 19687 19688 19689 19690 19691 19692 19693 19694 19695 19696 19697 19698 19699 19700 19701 19702 19703 19704 19705 19706 19707 19708 19709 19710 19711 19712 19713 19714 19715 19716 19717 19718 19719 19720 19721 19722 19723 19724 19725 19726 19727 19728 19729 19730 19731 19732 19733 19734 19735 19736 19737 19738 19739 19740 19741 19742 19743 19744 19745 19746 19747 19748 19749 19750 19751 19752 19753 19754 19755 19756 19757 19758 19759 19760 19761 19762 19763 19764 19765 19766 19767 19768 19769 19770 19771 19772 19773 19774 19775 19776 19777 19778 19779 19780 19781 19782 19783 19784 19785 19786 19787 19788 19789 19790 19791 19792 19793 19794 19795 19796 19797 19798 19799 19800 19801 19802 19803 19804 19805 19806 19807 19808 19809 19810 19811 19812 19813 19814 19815 19816 19817 19818 19819 19820 19821 19822 19823 19824 19825 19826 19827 19828 19829 19830 19831 19832 19833 19834 19835 19836 19837 19838 19839 19840 19841 19842 19843 19844 19845 19846 19847 19848 19849 19850 19851 19852 19853 19854 19855 19856 19857 19858 19859 19860 19861 19862 19863 19864 19865 19866 19867 19868 19869 19870 19871 19872 19873 19874 19875 19876 19877 19878 19879 19880 19881 19882 19883 19884 19885 19886 19887 19888 19889 19890 19891 19892 19893 19894 19895 19896 19897 19898 19899 19900 19901 19902 19903 19904 19905 19906 19907 19908 19909 19910 19911 19912 19913 19914 19915 19916 19917 19918 19919 19920 19921 19922 19923 19924 19925 19926 19927 19928 19929 19930 19931 19932 19933 19934 19935 19936 19937 19938 19939 19940 19941 19942 19943 19944 19945 19946 19947 19948 19949 19950 19951 19952 19953 19954 19955 19956 19957 19958 19959 19960 19961 19962 19963 19964 19965 19966 19967 19968 19969 19970 19971 19972 19973 19974 19975 19976 19977 19978 19979 19980 19981 19982 19983 19984 19985 19986 19987 19988 19989 19990 19991 19992 19993 19994 19995 19996 19997 19998 19999 20000 20001 20002 20003 20004 20005 20006 20007 20008 20009 20010 20011 20012 20013 20014 20015 20016 20017 20018 20019 20020 20021 20022 20023 20024 20025 20026 20027 20028 20029 20030 20031 20032 20033 20034 20035 20036 20037 20038 20039 20040 20041 20042 20043 20044 20045 20046 20047 20048 20049 20050 20051 20052 20053 20054 20055 20056 20057 20058 20059 20060 20061 20062 20063 20064 20065 20066 20067 20068 20069 20070 20071 20072 20073 20074 20075 20076 20077 20078 20079 20080 20081 20082 20083 20084 20085 20086 20087 20088 20089 20090 20091 20092 20093 20094 20095 20096 20097 20098 20099 20100 20101 20102 20103 20104 20105 20106 20107 20108 20109 20110 20111 20112 20113 20114 20115 20116 20117 20118 20119 20120 20121 20122 20123 20124 20125 20126 20127 20128 20129 20130 20131 20132 20133 20134 20135 20136 20137 20138 20139 20140 20141 20142 20143 20144 20145 20146 20147 20148 20149 20150 20151 20152 20153 20154 20155 20156 20157 20158 20159 20160 20161 20162 20163 20164 20165 20166 20167 20168 20169 20170 20171 20172 20173 20174 20175 20176 20177 20178 20179 20180 20181 20182 20183 20184 20185 20186 20187 20188 20189 20190 20191 20192 20193 20194 20195 20196 20197 20198 20199 20200 20201 20202 20203 20204 20205 20206 20207 20208 20209 20210 20211 20212 20213 20214 20215 20216 20217 20218 20219 20220 20221 20222 20223 20224 20225 20226 20227 20228 20229 20230 20231 20232 20233 20234 20235 20236 20237 20238 20239 20240 20241 20242 20243 20244 20245 20246 20247 20248 20249 20250 20251 20252 20253 20254 20255 20256 20257 20258 20259 20260 20261 20262 20263 20264 20265 20266 20267 20268 20269 20270 20271 20272 20273 20274 20275 20276 20277 20278 20279 20280 20281 20282 20283 20284 20285 20286 20287 20288 20289 20290 20291 20292 20293 20294 20295 20296 20297 20298 20299 20300 20301 20302 20303 20304 20305 20306 20307 20308 20309 20310 20311 20312 20313 20314 20315 20316 20317 20318 20319 20320 20321 20322 20323 20324 20325 20326 20327 20328 20329 20330 20331 20332 20333 20334 20335 20336 20337 20338 20339 20340 20341 20342 20343 20344 20345 20346 20347 20348 20349 20350 20351 20352 20353 20354 20355 20356 20357 20358 20359 20360 20361 20362 20363 20364 20365 20366 20367 20368 20369 20370 20371 20372 20373 20374 20375 20376 20377 20378 20379 20380 20381 20382 20383 20384 20385 20386 20387 20388 20389 20390 20391 20392 20393 20394 20395 20396 20397 20398 20399 20400 20401 20402 20403 20404 20405 20406 20407 20408 20409 20410 20411 20412 20413 20414 20415 20416 20417 20418 20419 20420 20421 20422 20423 20424 20425 20426 20427 20428 20429 20430 20431 20432 20433 20434 20435 20436 20437 20438 20439 20440 20441 20442 20443 20444 20445 20446 20447 20448 20449 20450 20451 20452 20453 20454 20455 20456 20457 20458 20459 20460 20461 20462 20463 20464 20465 20466 20467 20468 20469 20470 20471 20472 20473 20474 20475 20476 20477 20478 20479 20480 20481 20482 20483 20484 20485 20486 20487 20488 20489 20490 20491 20492 20493 20494 20495 20496 20497 20498 20499 20500 20501 20502 20503 20504 20505 20506 20507 20508 20509 20510 20511 20512 20513 20514 20515 20516 20517 20518 20519 20520 20521 20522 20523 20524 20525 20526 20527 20528 20529 20530 20531 20532 20533 20534 20535 20536 20537 20538 20539 20540 20541 20542 20543 20544 20545 20546 20547 20548 20549 20550 20551 20552 20553 20554 20555 20556 20557 20558 20559 20560 20561 20562 20563 20564 20565 20566 20567 20568 20569 20570 20571 20572 20573 20574 20575 20576 20577 20578 20579 20580 20581 20582 20583 20584 20585 20586 20587 20588 20589 20590 20591 20592 20593 20594 20595 20596 20597 20598 20599 20600 20601 20602 20603 20604 20605 20606 20607 20608 20609 20610 20611 20612 20613 20614 20615 20616 20617 20618 20619 20620 20621 20622 20623 20624 20625 20626 20627 20628 20629 20630 20631 20632 20633 20634 20635 20636 20637 20638 20639 20640 20641 20642 20643 20644 20645 20646 20647 20648 20649 20650 20651 20652 20653 20654 20655 20656 20657 20658 20659 20660 20661 20662 20663 20664 20665 20666 20667 20668 20669 20670 20671 20672 20673 20674 20675 20676 20677 20678 20679 20680 20681 20682 20683 20684 20685 20686 20687 20688 20689 20690 20691 20692 20693 20694 20695 20696 20697 20698 20699 20700 20701 20702 20703 20704 20705 20706 20707 20708 20709 20710 20711 20712 20713 20714 20715 20716 20717 20718 20719 20720 20721 20722 20723 20724 20725 20726 20727 20728 20729 20730 20731 20732 20733 20734 20735 20736 20737 20738 20739 20740 20741 20742 20743 20744 20745 20746 20747 20748 20749 20750 20751 20752 20753 20754 20755 20756 20757 20758 20759 20760 20761 20762 20763 20764 20765 20766 20767 20768 20769 20770 20771 20772 20773 20774 20775 20776 20777 20778 20779 20780 20781 20782 20783 20784 20785 20786 20787 20788 20789 20790 20791 20792 20793 20794 20795 20796 20797 20798 20799 20800 20801 20802 20803 20804 20805 20806 20807 20808 20809 20810 20811 20812 20813 20814 20815 20816 20817 20818 20819 20820 20821 20822 20823 20824 20825 20826 20827 20828 20829 20830 20831 20832 20833 20834 20835 20836 20837 20838 20839 20840 20841 20842 20843 20844 20845 20846 20847 20848 20849 20850 20851 20852 20853 20854 20855 20856 20857 20858 20859 20860 20861 20862 20863 20864 20865 20866 20867 20868 20869 20870 20871 20872 20873 20874 20875 20876 20877 20878 20879 20880 20881 20882 20883 20884 20885 20886 20887 20888 20889 20890 20891 20892 20893 20894 20895 20896 20897 20898 20899 20900 20901 20902 20903 20904 20905 20906 20907 20908 20909 20910 20911 20912 20913 20914 20915 20916 20917 20918 20919 20920 20921 20922 20923 20924 20925 20926 20927 20928 20929 20930 20931 20932 20933 20934 20935 20936 20937 20938 20939 20940 20941 20942 20943 20944 20945 20946 20947 20948 20949 20950 20951 20952 20953 20954 20955 20956 20957 20958 20959 20960 20961 20962 20963 20964 20965 20966 20967 20968 20969 20970 20971 20972 20973 20974 20975 20976 20977 20978 20979 20980 20981 20982 20983 20984 20985 20986 20987 20988 20989 20990 20991 20992 20993 20994 20995 20996 20997 20998 20999 21000 21001 21002 21003 21004 21005 21006 21007 21008 21009 21010 21011 21012 21013 21014 21015 21016 21017 21018 21019 21020 21021 21022 21023 21024 21025 21026 21027 21028 21029 21030 21031 21032 21033 21034 21035 21036 21037 21038 21039 21040 21041 21042 21043 21044 21045 21046 21047 21048 21049 21050 21051 21052 21053 21054 21055 21056 21057 21058 21059 21060 21061 21062 21063 21064 21065 21066 21067 21068 21069 21070 21071 21072 21073 21074 21075 21076 21077 21078 21079 21080 21081 21082 21083 21084 21085 21086 21087 21088 21089 21090 21091 21092 21093 21094 21095 21096 21097 21098 21099 21100 21101 21102 21103 21104 21105 21106 21107 21108 21109 21110 21111 21112 21113 21114 21115 21116 21117 21118 21119 21120 21121 21122 21123 21124 21125 21126 21127 21128 21129 21130 21131 21132 21133 21134 21135 21136 21137 21138 21139 21140 21141 21142 21143 21144 21145 21146 21147 21148 21149 21150 21151 21152 21153 21154 21155 21156 21157 21158 21159 21160 21161 21162 21163 21164 21165 21166 21167 21168 21169 21170 21171 21172 21173 21174 21175 21176 21177 21178 21179 21180 21181 21182 21183 21184 21185 21186 21187 21188 21189 21190 21191 21192 21193 21194 21195 21196 21197 21198 21199 21200 21201 21202 21203 21204 21205 21206 21207 21208 21209 21210 21211 21212 21213 21214 21215 21216 21217 21218 21219 21220 21221 21222 21223 21224 21225 21226 21227 21228 21229 21230 21231 21232 21233 21234 21235 21236 21237 21238 21239 21240 21241 21242 21243 21244 21245 21246 21247 21248 21249 21250 21251 21252 21253 21254 21255 21256 21257 21258 21259 21260 21261 21262 21263 21264 21265 21266 21267 21268 21269 21270 21271 21272 21273 21274 21275 21276 21277 21278 21279 21280 21281 21282 21283 21284 21285 21286 21287 21288 21289 21290 21291 21292 21293 21294 21295 21296 21297 21298 21299 21300 21301 21302 21303 21304 21305 21306 21307 21308 21309 21310 21311 21312 21313 21314 21315 21316 21317 21318 21319 21320 21321 21322 21323 21324 21325 21326 21327 21328 21329 21330 21331 21332 21333 21334 21335 21336 21337 21338 21339 21340 21341 21342 21343 21344 21345 21346 21347 21348 21349 21350 21351 21352 21353 21354 21355 21356 21357 21358 21359 21360 21361 21362 21363 21364 21365 21366 21367 21368 21369 21370 21371 21372 21373 21374 21375 21376 21377 21378 21379 21380 21381 21382 21383 21384 21385 21386 21387 21388 21389 21390 21391 21392 21393 21394 21395 21396 21397 21398 21399 21400 21401 21402 21403 21404 21405 21406 21407 21408 21409 21410 21411 21412 21413 21414 21415 21416 21417 21418 21419 21420 21421 21422 21423 21424 21425 21426 21427 21428 21429 21430 21431 21432 21433 21434 21435 21436 21437 21438 21439 21440 21441 21442 21443 21444 21445 21446 21447 21448 21449 21450 21451 21452 21453 21454 21455 21456 21457 21458 21459 21460 21461 21462 21463 21464 21465 21466 21467 21468 21469 21470 21471 21472 21473 21474 21475 21476 21477 21478 21479 21480 21481 21482 21483 21484 21485 21486 21487 21488 21489 21490 21491 21492 21493 21494 21495 21496 21497 21498 21499 21500 21501 21502 21503 21504 21505 21506 21507 21508 21509 21510 21511 21512 21513 21514 21515 21516 21517 21518 21519 21520 21521 21522 21523 21524 21525 21526 21527 21528 21529 21530 21531 21532 21533 21534 21535 21536 21537 21538 21539 21540 21541 21542 21543 21544 21545 21546 21547 21548 21549 21550 21551 21552 21553 21554 21555 21556 21557 21558 21559 21560 21561 21562 21563 21564 21565 21566 21567 21568 21569 21570 21571 21572 21573 21574 21575 21576 21577 21578 21579 21580 21581 21582 21583 21584 21585 21586 21587 21588 21589 21590 21591 21592 21593 21594 21595 21596 21597 21598 21599 21600 21601 21602 21603 21604 21605 21606 21607 21608 21609 21610 21611 21612 21613 21614 21615 21616 21617 21618 21619 21620 21621 21622 21623 21624 21625 21626 21627 21628 21629 21630 21631 21632 21633 21634 21635 21636 21637 21638 21639 21640 21641 21642 21643 21644 21645 21646 21647 21648 21649 21650 21651 21652 21653 21654 21655 21656 21657 21658 21659 21660 21661 21662 21663 21664 21665 21666 21667 21668 21669 21670 21671 21672 21673 21674 21675 21676 21677 21678 21679 21680 21681 21682 21683 21684 21685 21686 21687 21688 21689 21690 21691 21692 21693 21694 21695 21696 21697 21698 21699 21700 21701 21702 21703 21704 21705 21706 21707 21708 21709 21710 21711 21712 21713 21714 21715 21716 21717 21718 21719 21720 21721 21722 21723 21724 21725 21726 21727 21728 21729 21730 21731 21732 21733 21734 21735 21736 21737 21738 21739 21740 21741 21742 21743 21744 21745 21746 21747 21748 21749 21750 21751 21752 21753 21754 21755 21756 21757 21758 21759 21760 21761 21762 21763 21764 21765 21766 21767 21768 21769 21770 21771 21772 21773 21774 21775 21776 21777 21778 21779 21780 21781 21782 21783 21784 21785 21786 21787 21788 21789 21790 21791 21792 21793 21794 21795 21796 21797 21798 21799 21800 21801 21802 21803 21804 21805 21806 21807 21808 21809 21810 21811 21812 21813 21814 21815 21816 21817 21818 21819 21820 21821 21822 21823 21824 21825 21826 21827 21828 21829 21830 21831 21832 21833 21834 21835 21836 21837 21838 21839 21840 21841 21842 21843 21844 21845 21846 21847 21848 21849 21850 21851 21852 21853 21854 21855 21856 21857 21858 21859 21860 21861 21862 21863 21864 21865 21866 21867 21868 21869 21870 21871 21872 21873 21874 21875 21876 21877 21878 21879 21880 21881 21882 21883 21884 21885 21886 21887 21888 21889 21890 21891 21892 21893 21894 21895 21896 21897 21898 21899 21900 21901 21902 21903 21904 21905 21906 21907 21908 21909 21910 21911 21912 21913 21914 21915 21916 21917 21918 21919 21920 21921 21922 21923 21924 21925 21926 21927 21928 21929 21930 21931 21932 21933 21934 21935 21936 21937 21938 21939 21940 21941 21942 21943 21944 21945 21946 21947 21948 21949 21950 21951 21952 21953 21954 21955 21956 21957 21958 21959 21960 21961 21962 21963 21964 21965 21966 21967 21968 21969 21970 21971 21972 21973 21974 21975 21976 21977 21978 21979 21980 21981 21982 21983 21984 21985 21986 21987 21988 21989 21990 21991 21992 21993 21994 21995 21996 21997 21998 21999 22000 22001 22002 22003 22004 22005 22006 22007 22008 22009 22010 22011 22012 22013 22014 22015 22016 22017 22018 22019 22020 22021 22022 22023 22024 22025 22026 22027 22028 22029 22030 22031 22032 22033 22034 22035 22036 22037 22038 22039 22040 22041 22042 22043 22044 22045 22046 22047 22048 22049 22050 22051 22052 22053 22054 22055 22056 22057 22058 22059 22060 22061 22062 22063 22064 22065 22066 22067 22068 22069 22070 22071 22072 22073 22074 22075 22076 22077 22078 22079 22080 22081 22082 22083 22084 22085 22086 22087 22088 22089 22090 22091 22092 22093 22094 22095 22096 22097 22098 22099 22100 22101 22102 22103 22104 22105 22106 22107 22108 22109 22110 22111 22112 22113 22114 22115 22116 22117 22118 22119 22120 22121 22122 22123 22124 22125 22126 22127 22128 22129 22130 22131 22132 22133 22134 22135 22136 22137 22138 22139 22140 22141 22142 22143 22144 22145 22146 22147 22148 22149 22150 22151 22152 22153 22154 22155 22156 22157 22158 22159 22160 22161 22162 22163 22164 22165 22166 22167 22168 22169 22170 22171 22172 22173 22174 22175 22176 22177 22178 22179 22180 22181 22182 22183 22184 22185 22186 22187 22188 22189 22190 22191 22192 22193 22194 22195 22196 22197 22198 22199 22200 22201 22202 22203 22204 22205 22206 22207 22208 22209 22210 22211 22212 22213 22214 22215 22216 22217 22218 22219 22220 22221 22222 22223 22224 22225 22226 22227 22228 22229 22230 22231 22232 22233 22234 22235 22236 22237 22238 22239 22240 22241 22242 22243 22244 22245 22246 22247 22248 22249 22250 22251 22252 22253 22254 22255 22256 22257 22258 22259 22260 22261 22262 22263 22264 22265 22266 22267 22268 22269 22270 22271 22272 22273 22274 22275 22276 22277 22278 22279 22280 22281 22282 22283 22284 22285 22286 22287 22288 22289 22290 22291 22292 22293 22294 22295 22296 22297 22298 22299 22300 22301 22302 22303 22304 22305 22306 22307 22308 22309 22310 22311 22312 22313 22314 22315 22316 22317 22318 22319 22320 22321 22322 22323 22324 22325 22326 22327 22328 22329 22330 22331 22332 22333 22334 22335 22336 22337 22338 22339 22340 22341 22342 22343 22344 22345 22346 22347 22348 22349 22350 22351 22352 22353 22354 22355 22356 22357 22358 22359 22360 22361 22362 22363 22364 22365 22366 22367 22368 22369 22370 22371 22372 22373 22374 22375 22376 22377 22378 22379 22380 22381 22382 22383 22384 22385 22386 22387 22388 22389 22390 22391 22392 22393 22394 22395 22396 22397 22398 22399 22400 22401 22402 22403 22404 22405 22406 22407 22408 22409 22410 22411 22412 22413 22414 22415 22416 22417 22418 22419 22420 22421 22422 22423 22424 22425 22426 22427 22428 22429 22430 22431 22432 22433 22434 22435 22436 22437 22438 22439 22440 22441 22442 22443 22444 22445 22446 22447 22448 22449 22450 22451 22452 22453 22454 22455 22456 22457 22458 22459 22460 22461 22462 22463 22464 22465 22466 22467 22468 22469 22470 22471 22472 22473 22474 22475 22476 22477 22478 22479 22480 22481 22482 22483 22484 22485 22486 22487 22488 22489 22490 22491 22492 22493 22494 22495 22496 22497 22498 22499 22500 22501 22502 22503 22504 22505 22506 22507 22508 22509 22510 22511 22512 22513 22514 22515 22516 22517 22518 22519 22520 22521 22522 22523 22524 22525 22526 22527 22528 22529 22530 22531 22532 22533 22534 22535 22536 22537 22538 22539 22540 22541 22542 22543 22544 22545 22546 22547 22548 22549 22550 22551 22552 22553 22554 22555 22556 22557 22558 22559 22560 22561 22562 22563 22564 22565 22566 22567 22568 22569 22570 22571 22572 22573 22574 22575 22576 22577 22578 22579 22580 22581 22582 22583 22584 22585 22586 22587 22588 22589 22590 22591 22592 22593 22594 22595 22596 22597 22598 22599 22600 22601 22602 22603 22604 22605 22606 22607 22608 22609 22610 22611 22612 22613 22614 22615 22616 22617 22618 22619 22620 22621 22622 22623 22624 22625 22626 22627 22628 22629 22630 22631 22632 22633 22634 22635 22636 22637 22638 22639 22640 22641 22642 22643 22644 22645 22646 22647 22648 22649 22650 22651 22652 22653 22654 22655 22656 22657 22658 22659 22660 22661 22662 22663 22664 22665 22666 22667 22668 22669 22670 22671 22672 22673 22674 22675 22676 22677 22678 22679 22680 22681 22682 22683 22684 22685 22686 22687 22688 22689 22690 22691 22692 22693 22694 22695 22696 22697 22698 22699 22700 22701 22702 22703 22704 22705 22706 22707 22708 22709 22710 22711 22712 22713 22714 22715 22716 22717 22718 22719 22720 22721 22722 22723 22724 22725 22726 22727 22728 22729 22730 22731 22732 22733 22734 22735 22736 22737 22738 22739 22740 22741 22742 22743 22744 22745 22746 22747 22748 22749 22750 22751 22752 22753 22754 22755 22756 22757 22758 22759 22760 22761 22762 22763 22764 22765 22766 22767 22768 22769 22770 22771 22772 22773 22774 22775 22776 22777 22778 22779 22780 22781 22782 22783 22784 22785 22786 22787 22788 22789 22790 22791 22792 22793 22794 22795 22796 22797 22798 22799 22800 22801 22802 22803 22804 22805 22806 22807 22808 22809 22810 22811 22812 22813 22814 22815 22816 22817 22818 22819 22820 22821 22822 22823 22824 22825 22826 22827 22828 22829 22830 22831 22832 22833 22834 22835 22836 22837 22838 22839 22840 22841 22842 22843 22844 22845 22846 22847 22848 22849 22850 22851 22852 22853 22854 22855 22856 22857 22858 22859 22860 22861 22862 22863 22864 22865 22866 22867 22868 22869 22870 22871 22872 22873 22874 22875 22876 22877 22878 22879 22880 22881 22882 22883 22884 22885 22886 22887 22888 22889 22890 22891 22892 22893 22894 22895 22896 22897 22898 22899 22900 22901 22902 22903 22904 22905 22906 22907 22908 22909 22910 22911 22912 22913 22914 22915 22916 22917 22918 22919 22920 22921 22922 22923 22924 22925 22926 22927 22928 22929 22930 22931 22932 22933 22934 22935 22936 22937 22938 22939 22940 22941 22942 22943 22944 22945 22946 22947 22948 22949 22950 22951 22952 22953 22954 22955 22956 22957 22958 22959 22960 22961 22962 22963 22964 22965 22966 22967 22968 22969 22970 22971 22972 22973 22974 22975 22976 22977 22978 22979 22980 22981 22982 22983 22984 22985 22986 22987 22988 22989 22990 22991 22992 22993 22994 22995 22996 22997 22998 22999 23000 23001 23002 23003 23004 23005 23006 23007 23008 23009 23010 23011 23012 23013 23014 23015 23016 23017 23018 23019 23020 23021 23022 23023 23024 23025 23026 23027 23028 23029 23030 23031 23032 23033 23034 23035 23036 23037 23038 23039 23040 23041 23042 23043 23044 23045 23046 23047 23048 23049 23050 23051 23052 23053 23054 23055 23056 23057 23058 23059 23060 23061 23062 23063 23064 23065 23066 23067 23068 23069 23070 23071 23072 23073 23074 23075 23076 23077 23078 23079 23080 23081 23082 23083 23084 23085 23086 23087 23088 23089 23090 23091 23092 23093 23094 23095 23096 23097 23098 23099 23100 23101 23102 23103 23104 23105 23106 23107 23108 23109 23110 23111 23112 23113 23114 23115 23116 23117 23118 23119 23120 23121 23122 23123 23124 23125 23126 23127 23128 23129 23130 23131 23132 23133 23134 23135 23136 23137 23138 23139 23140 23141 23142 23143 23144 23145 23146 23147 23148 23149 23150 23151 23152 23153 23154 23155 23156 23157 23158 23159 23160 23161 23162 23163 23164 23165 23166 23167 23168 23169 23170 23171 23172 23173 23174 23175 23176 23177 23178 23179 23180 23181 23182 23183 23184 23185 23186 23187 23188 23189 23190 23191 23192 23193 23194 23195 23196 23197 23198 23199 23200 23201 23202 23203 23204 23205 23206 23207 23208 23209 23210 23211 23212 23213 23214 23215 23216 23217 23218 23219 23220 23221 23222 23223 23224 23225 23226 23227 23228 23229 23230 23231 23232 23233 23234 23235 23236 23237 23238 23239 23240 23241 23242 23243 23244 23245 23246 23247 23248 23249 23250 23251 23252 23253 23254 23255 23256 23257 23258 23259 23260 23261 23262 23263 23264 23265 23266 23267 23268 23269 23270 23271 23272 23273 23274 23275 23276 23277 23278 23279 23280 23281 23282 23283 23284 23285 23286 23287 23288 23289 23290 23291 23292 23293 23294 23295 23296 23297 23298 23299 23300 23301 23302 23303 23304 23305 23306 23307 23308 23309 23310 23311 23312 23313 23314 23315 23316 23317 23318 23319 23320 23321 23322 23323 23324 23325 23326 23327 23328 23329 23330 23331 23332 23333 23334 23335 23336 23337 23338 23339 23340 23341 23342 23343 23344 23345 23346 23347 23348 23349 23350 23351 23352 23353 23354 23355 23356 23357 23358 23359 23360 23361 23362 23363 23364 23365 23366 23367 23368 23369 23370 23371 23372 23373 23374 23375 23376 23377 23378 23379 23380 23381 23382 23383 23384 23385 23386 23387 23388 23389 23390 23391 23392 23393 23394 23395 23396 23397 23398 23399 23400 23401 23402 23403 23404 23405 23406 23407 23408 23409 23410 23411 23412 23413 23414 23415 23416 23417 23418 23419 23420 23421 23422 23423 23424 23425 23426 23427 23428 23429 23430 23431 23432 23433 23434 23435 23436 23437 23438 23439 23440 23441 23442 23443 23444 23445 23446 23447 23448 23449 23450 23451 23452 23453 23454 23455 23456 23457 23458 23459 23460 23461 23462 23463 23464 23465 23466 23467 23468 23469 23470 23471 23472 23473 23474 23475 23476 23477 23478 23479 23480 23481 23482 23483 23484 23485 23486 23487 23488 23489 23490 23491 23492 23493 23494 23495 23496 23497 23498 23499 23500 23501 23502 23503 23504 23505 23506 23507 23508 23509 23510 23511 23512 23513 23514 23515 23516 23517 23518 23519 23520 23521 23522 23523 23524 23525 23526 23527 23528 23529 23530 23531 23532 23533 23534 23535 23536 23537 23538 23539 23540 23541 23542 23543 23544 23545 23546 23547 23548 23549 23550 23551 23552 23553 23554 23555 23556 23557 23558 23559 23560 23561 23562 23563 23564 23565 23566 23567 23568 23569 23570 23571 23572 23573 23574 23575 23576 23577 23578 23579 23580 23581 23582 23583 23584 23585 23586 23587 23588 23589 23590 23591 23592 23593 23594 23595 23596 23597 23598 23599 23600 23601 23602 23603 23604 23605 23606 23607 23608 23609 23610 23611 23612 23613 23614 23615 23616 23617 23618 23619 23620 23621 23622 23623 23624 23625 23626 23627 23628 23629 23630 23631 23632 23633 23634 23635 23636 23637 23638 23639 23640 23641 23642 23643 23644 23645 23646 23647 23648 23649 23650 23651 23652 23653 23654 23655 23656 23657 23658 23659 23660 23661 23662 23663 23664 23665 23666 23667 23668 23669 23670 23671 23672 23673 23674 23675 23676 23677 23678 23679 23680 23681 23682 23683 23684 23685 23686 23687 23688 23689 23690 23691 23692 23693 23694 23695 23696 23697 23698 23699 23700 23701 23702 23703 23704 23705 23706 23707 23708 23709 23710 23711 23712 23713 23714 23715 23716 23717 23718 23719 23720 23721 23722 23723 23724 23725 23726 23727 23728 23729 23730 23731 23732 23733 23734 23735 23736 23737 23738 23739 23740 23741 23742 23743 23744 23745 23746 23747 23748 23749 23750 23751 23752 23753 23754 23755 23756 23757 23758 23759 23760 23761 23762 23763 23764 23765 23766 23767 23768 23769 23770 23771 23772 23773 23774 23775 23776 23777 23778 23779 23780 23781 23782 23783 23784 23785 23786 23787 23788 23789 23790 23791 23792 23793 23794 23795 23796 23797 23798 23799 23800 23801 23802 23803 23804 23805 23806 23807 23808 23809 23810 23811 23812 23813 23814 23815 23816 23817 23818 23819 23820 23821 23822 23823 23824 23825 23826 23827 23828 23829 23830 23831 23832 23833 23834 23835 23836 23837 23838 23839 23840 23841 23842 23843 23844 23845 23846 23847 23848 23849 23850 23851 23852 23853 23854 23855 23856 23857 23858 23859 23860 23861 23862 23863 23864 23865 23866 23867 23868 23869 23870 23871 23872 23873 23874 23875 23876 23877 23878 23879 23880 23881 23882 23883 23884 23885 23886 23887 23888 23889 23890 23891 23892 23893 23894 23895 23896 23897 23898 23899 23900 23901 23902 23903 23904 23905 23906 23907 23908 23909 23910 23911 23912 23913 23914 23915 23916 23917 23918 23919 23920 23921 23922 23923 23924 23925 23926 23927 23928 23929 23930 23931 23932 23933 23934 23935 23936 23937 23938 23939 23940 23941 23942 23943 23944 23945 23946 23947 23948 23949 23950 23951 23952 23953 23954 23955 23956 23957 23958 23959 23960 23961 23962 23963 23964 23965 23966 23967 23968 23969 23970 23971 23972 23973 23974 23975 23976 23977 23978 23979 23980 23981 23982 23983 23984 23985 23986 23987 23988 23989 23990 23991 23992 23993 23994 23995 23996 23997 23998 23999 24000 24001 24002 24003 24004 24005 24006 24007 24008 24009 24010 24011 24012 24013 24014 24015 24016 24017 24018 24019 24020 24021 24022 24023 24024 24025 24026 24027 24028 24029 24030 24031 24032 24033 24034 24035 24036 24037 24038 24039 24040 24041 24042 24043 24044 24045 24046 24047 24048 24049 24050 24051 24052 24053 24054 24055 24056 24057 24058 24059 24060 24061 24062 24063 24064 24065 24066 24067 24068 24069 24070 24071 24072 24073 24074 24075 24076 24077 24078 24079 24080 24081 24082 24083 24084 24085 24086 24087 24088 24089 24090 24091 24092 24093 24094 24095 24096 24097 24098 24099 24100 24101 24102 24103 24104 24105 24106 24107 24108 24109 24110 24111 24112 24113 24114 24115 24116 24117 24118 24119 24120 24121 24122 24123 24124 24125 24126 24127 24128 24129 24130 24131 24132 24133 24134 24135 24136 24137 24138 24139 24140 24141 24142 24143 24144 24145 24146 24147 24148 24149 24150 24151 24152 24153 24154 24155 24156 24157 24158 24159 24160 24161 24162 24163 24164 24165 24166 24167 24168 24169 24170 24171 24172 24173 24174 24175 24176 24177 24178 24179 24180 24181 24182 24183 24184 24185 24186 24187 24188 24189 24190 24191 24192 24193 24194 24195 24196 24197 24198 24199 24200 24201 24202 24203 24204 24205 24206 24207 24208 24209 24210 24211 24212 24213 24214 24215 24216 24217 24218 24219 24220 24221 24222 24223 24224 24225 24226 24227 24228 24229 24230 24231 24232 24233 24234 24235 24236 24237 24238 24239 24240 24241 24242 24243 24244 24245 24246 24247 24248 24249 24250 24251 24252 24253 24254 24255 24256 24257 24258 24259 24260 24261 24262 24263 24264 24265 24266 24267 24268 24269 24270 24271 24272 24273 24274 24275 24276 24277 24278 24279 24280 24281 24282 24283 24284 24285 24286 24287 24288 24289 24290 24291 24292 24293 24294 24295 24296 24297 24298 24299 24300 24301 24302 24303 24304 24305 24306 24307 24308 24309 24310 24311 24312 24313 24314 24315 24316 24317 24318 24319 24320 24321 24322 24323 24324 24325 24326 24327 24328 24329 24330 24331 24332 24333 24334 24335 24336 24337 24338 24339 24340 24341 24342 24343 24344 24345 24346 24347 24348 24349 24350 24351 24352 24353 24354 24355 24356 24357 24358 24359 24360 24361 24362 24363 24364 24365 24366 24367 24368 24369 24370 24371 24372 24373 24374 24375 24376 24377 24378 24379 24380 24381 24382 24383 24384 24385 24386 24387 24388 24389 24390 24391 24392 24393 24394 24395 24396 24397 24398 24399 24400 24401 24402 24403 24404 24405 24406 24407 24408 24409 24410 24411 24412 24413 24414 24415 24416 24417 24418 24419 24420 24421 24422 24423 24424 24425 24426 24427 24428 24429 24430 24431 24432 24433 24434 24435 24436 24437 24438 24439 24440 24441 24442 24443 24444 24445 24446 24447 24448 24449 24450 24451 24452 24453 24454 24455 24456 24457 24458 24459 24460 24461 24462 24463 24464 24465 24466 24467 24468 24469 24470 24471 24472 24473 24474 24475 24476 24477 24478 24479 24480 24481 24482 24483 24484 24485 24486 24487 24488 24489 24490 24491 24492 24493 24494 24495 24496 24497 24498 24499 24500 24501 24502 24503 24504 24505 24506 24507 24508 24509 24510 24511 24512 24513 24514 24515 24516 24517 24518 24519 24520 24521 24522 24523 24524 24525 24526 24527 24528 24529 24530 24531 24532 24533 24534 24535 24536 24537 24538 24539 24540 24541 24542 24543 24544 24545 24546 24547 24548 24549 24550 24551 24552 24553 24554 24555 24556 24557 24558 24559 24560 24561 24562 24563 24564 24565 24566 24567 24568 24569 24570 24571 24572 24573 24574 24575 24576 24577 24578 24579 24580 24581 24582 24583 24584 24585 24586 24587 24588 24589 24590 24591 24592 24593 24594 24595 24596 24597 24598 24599 24600 24601 24602 24603 24604 24605 24606 24607 24608 24609 24610 24611 24612 24613 24614 24615 24616 24617 24618 24619 24620 24621 24622 24623 24624 24625 24626 24627 24628 24629 24630 24631 24632 24633 24634 24635 24636 24637 24638 24639 24640 24641 24642 24643 24644 24645 24646 24647 24648 24649 24650 24651 24652 24653 24654 24655 24656 24657 24658 24659 24660 24661 24662 24663 24664 24665 24666 24667 24668 24669 24670 24671 24672 24673 24674 24675 24676 24677 24678 24679 24680 24681 24682 24683 24684 24685 24686 24687 24688 24689 24690 24691 24692 24693 24694 24695 24696 24697 24698 24699 24700 24701 24702 24703 24704 24705 24706 24707 24708 24709 24710 24711 24712 24713 24714 24715 24716 24717 24718 24719 24720 24721 24722 24723 24724 24725 24726 24727 24728 24729 24730 24731 24732 24733 24734 24735 24736 24737 24738 24739 24740 24741 24742 24743 24744 24745 24746 24747 24748 24749 24750 24751 24752 24753 24754 24755 24756 24757 24758 24759 24760 24761 24762 24763 24764 24765 24766 24767 24768 24769 24770 24771 24772 24773 24774 24775 24776 24777 24778 24779 24780 24781 24782 24783 24784 24785 24786 24787 24788 24789 24790 24791 24792 24793 24794 24795 24796 24797 24798 24799 24800 24801 24802 24803 24804 24805 24806 24807 24808 24809 24810 24811 24812 24813 24814 24815 24816 24817 24818 24819 24820 24821 24822 24823 24824 24825 24826 24827 24828 24829 24830 24831 24832 24833 24834 24835 24836 24837 24838 24839 24840 24841 24842 24843 24844 24845 24846 24847 24848 24849 24850 24851 24852 24853 24854 24855 24856 24857 24858 24859 24860 24861 24862 24863 24864 24865 24866 24867 24868 24869 24870 24871 24872 24873 24874 24875 24876 24877 24878 24879 24880 24881 24882 24883 24884 24885 24886 24887 24888 24889 24890 24891 24892 24893 24894 24895 24896 24897 24898 24899 24900 24901 24902 24903 24904 24905 24906 24907 24908 24909 24910 24911 24912 24913 24914 24915 24916 24917 24918 24919 24920 24921 24922 24923 24924 24925 24926 24927 24928 24929 24930 24931 24932 24933 24934 24935 24936 24937 24938 24939 24940 24941 24942 24943 24944 24945 24946 24947 24948 24949 24950 24951 24952 24953 24954 24955 24956 24957 24958 24959 24960 24961 24962 24963 24964 24965 24966 24967 24968 24969 24970 24971 24972 24973 24974 24975 24976 24977 24978 24979 24980 24981 24982 24983 24984 24985 24986 24987 24988 24989 24990 24991 24992 24993 24994 24995 24996 24997 24998 24999 25000 25001 25002 25003 25004 25005 25006 25007 25008 25009 25010 25011 25012 25013 25014 25015 25016 25017 25018 25019 25020 25021 25022 25023 25024 25025 25026 25027 25028 25029 25030 25031 25032 25033 25034 25035 25036 25037 25038 25039 25040 25041 25042 25043 25044 25045 25046 25047 25048 25049 25050 25051 25052 25053 25054 25055 25056 25057 25058 25059 25060 25061 25062 25063 25064 25065 25066 25067 25068 25069 25070 25071 25072 25073 25074 25075 25076 25077 25078 25079 25080 25081 25082 25083 25084 25085 25086 25087 25088 25089 25090 25091 25092 25093 25094 25095 25096 25097 25098 25099 25100 25101 25102 25103 25104 25105 25106 25107 25108 25109 25110 25111 25112 25113 25114 25115 25116 25117 25118 25119 25120 25121 25122 25123 25124 25125 25126 25127 25128 25129 25130 25131 25132 25133 25134 25135 25136 25137 25138 25139 25140 25141 25142 25143 25144 25145 25146 25147 25148 25149 25150 25151 25152 25153 25154 25155 25156 25157 25158 25159 25160 25161 25162 25163 25164 25165 25166 25167 25168 25169 25170 25171 25172 25173 25174 25175 25176 25177 25178 25179 25180 25181 25182 25183 25184 25185 25186 25187 25188 25189 25190 25191 25192 25193 25194 25195 25196 25197 25198 25199 25200 25201 25202 25203 25204 25205 25206 25207 25208 25209 25210 25211 25212 25213 25214 25215 25216 25217 25218 25219 25220 25221 25222 25223 25224 25225 25226 25227 25228 25229 25230 25231 25232 25233 25234 25235 25236 25237 25238 25239 25240 25241 25242 25243 25244 25245 25246 25247 25248 25249 25250 25251 25252 25253 25254 25255 25256 25257 25258 25259 25260 25261 25262 25263 25264 25265 25266 25267 25268 25269 25270 25271 25272 25273 25274 25275 25276 25277 25278 25279 25280 25281 25282 25283 25284 25285 25286 25287 25288 25289 25290 25291 25292 25293 25294 25295 25296 25297 25298 25299 25300 25301 25302 25303 25304 25305 25306 25307 25308 25309 25310 25311 25312 25313 25314 25315 25316 25317 25318 25319 25320 25321 25322 25323 25324 25325 25326 25327 25328 25329 25330 25331 25332 25333 25334 25335 25336 25337 25338 25339 25340 25341 25342 25343 25344 25345 25346 25347 25348 25349 25350 25351 25352 25353 25354 25355 25356 25357 25358 25359 25360 25361 25362 25363 25364 25365 25366 25367 25368 25369 25370 25371 25372 25373 25374 25375 25376 25377 25378 25379 25380 25381 25382 25383 25384 25385 25386 25387 25388 25389 25390 25391 25392 25393 25394 25395 25396 25397 25398 25399 25400 25401 25402 25403 25404 25405 25406 25407 25408 25409 25410 25411 25412 25413 25414 25415 25416 25417 25418 25419 25420 25421 25422 25423 25424 25425 25426 25427 25428 25429 25430 25431 25432 25433 25434 25435 25436 25437 25438 25439 25440 25441 25442 25443 25444 25445 25446 25447 25448 25449 25450 25451 25452 25453 25454 25455 25456 25457 25458 25459 25460 25461 25462 25463 25464 25465 25466 25467 25468 25469 25470 25471 25472 25473 25474 25475 25476 25477 25478 25479 25480 25481 25482 25483 25484 25485 25486 25487 25488 25489 25490 25491 25492 25493 25494 25495 25496 25497 25498 25499 25500 25501 25502 25503 25504 25505 25506 25507 25508 25509 25510 25511 25512 25513 25514 25515 25516 25517 25518 25519 25520 25521 25522 25523 25524 25525 25526 25527 25528 25529 25530 25531 25532 25533 25534 25535 25536 25537 25538 25539 25540 25541 25542 25543 25544 25545 25546 25547 25548 25549 25550 25551 25552 25553 25554 25555 25556 25557 25558 25559 25560 25561 25562 25563 25564 25565 25566 25567 25568 25569 25570 25571 25572 25573 25574 25575 25576 25577 25578 25579 25580 25581 25582 25583 25584 25585 25586 25587 25588 25589 25590 25591 25592 25593 25594 25595 25596 25597 25598 25599 25600 25601 25602 25603 25604 25605 25606 25607 25608 25609 25610 25611 25612 25613 25614 25615 25616 25617 25618 25619 25620 25621 25622 25623 25624 25625 25626 25627 25628 25629 25630 25631 25632 25633 25634 25635 25636 25637 25638 25639 25640 25641 25642 25643 25644 25645 25646 25647 25648 25649 25650 25651 25652 25653 25654 25655 25656 25657 25658 25659 25660 25661 25662 25663 25664 25665 25666 25667 25668 25669 25670 25671 25672 25673 25674 25675 25676 25677 25678 25679 25680 25681 25682 25683 25684 25685 25686 25687 25688 25689 25690 25691 25692 25693 25694 25695 25696 25697 25698 25699 25700 25701 25702 25703 25704 25705 25706 25707 25708 25709 25710 25711 25712 25713 25714 25715 25716 25717 25718 25719 25720 25721 25722 25723 25724 25725 25726 25727 25728 25729 25730 25731 25732 25733 25734 25735 25736 25737 25738 25739 25740 25741 25742 25743 25744 25745 25746 25747 25748 25749 25750 25751 25752 25753 25754 25755 25756 25757 25758 25759 25760 25761 25762 25763 25764 25765 25766 25767 25768 25769 25770 25771 25772 25773 25774 25775 25776 25777 25778 25779 25780 25781 25782 25783 25784 25785 25786 25787 25788 25789 25790 25791 25792 25793 25794 25795 25796 25797 25798 25799 25800 25801 25802 25803 25804 25805 25806 25807 25808 25809 25810 25811 25812 25813 25814 25815 25816 25817 25818 25819 25820 25821 25822 25823 25824 25825 25826 25827 25828 25829 25830 25831 25832 25833 25834 25835 25836 25837 25838 25839 25840 25841 25842 25843 25844 25845 25846 25847 25848 25849 25850 25851 25852 25853 25854 25855 25856 25857 25858 25859 25860 25861 25862 25863 25864 25865 25866 25867 25868 25869 25870 25871 25872 25873 25874 25875 25876 25877 25878 25879 25880 25881 25882 25883 25884 25885 25886 25887 25888 25889 25890 25891 25892 25893 25894 25895 25896 25897 25898 25899 25900 25901 25902 25903 25904 25905 25906 25907 25908 25909 25910 25911 25912 25913 25914 25915 25916 25917 25918 25919 25920 25921 25922 25923 25924 25925 25926 25927 25928 25929 25930 25931 25932 25933 25934 25935 25936 25937 25938 25939 25940 25941 25942 25943 25944 25945 25946 25947 25948 25949 25950 25951 25952 25953 25954 25955 25956 25957 25958 25959 25960 25961 25962 25963 25964 25965 25966 25967 25968 25969 25970 25971 25972 25973 25974 25975 25976 25977 25978 25979 25980 25981 25982 25983 25984 25985 25986 25987 25988 25989 25990 25991 25992 25993 25994 25995 25996 25997 25998 25999 26000 26001 26002 26003 26004 26005 26006 26007 26008 26009 26010 26011 26012 26013 26014 26015 26016 26017 26018 26019 26020 26021 26022 26023 26024 26025 26026 26027 26028 26029 26030 26031 26032 26033 26034 26035 26036 26037 26038 26039 26040 26041 26042 26043 26044 26045 26046 26047 26048 26049 26050 26051 26052 26053 26054 26055 26056 26057 26058 26059 26060 26061 26062 26063 26064 26065 26066 26067 26068 26069 26070 26071 26072 26073 26074 26075 26076 26077 26078 26079 26080 26081 26082 26083 26084 26085 26086 26087 26088 26089 26090 26091 26092 26093 26094 26095 26096 26097 26098 26099 26100 26101 26102 26103 26104 26105 26106 26107 26108 26109 26110 26111 26112 26113 26114 26115 26116 26117 26118 26119 26120 26121 26122 26123 26124 26125 26126 26127 26128 26129 26130 26131 26132 26133 26134 26135 26136 26137 26138 26139 26140 26141 26142 26143 26144 26145 26146 26147 26148 26149 26150 26151 26152 26153 26154 26155 26156 26157 26158 26159 26160 26161 26162 26163 26164 26165 26166 26167 26168 26169 26170 26171 26172 26173 26174 26175 26176 26177 26178 26179 26180 26181 26182 26183 26184 26185 26186 26187 26188 26189 26190 26191 26192 26193 26194 26195 26196 26197 26198 26199 26200 26201 26202 26203 26204 26205 26206 26207 26208 26209 26210 26211 26212 26213 26214 26215 26216 26217 26218 26219 26220 26221 26222 26223 26224 26225 26226 26227 26228 26229 26230 26231 26232 26233 26234 26235 26236 26237 26238 26239 26240 26241 26242 26243 26244 26245 26246 26247 26248 26249 26250 26251 26252 26253 26254 26255 26256 26257 26258 26259 26260 26261 26262 26263 26264 26265 26266 26267 26268 26269 26270 26271 26272 26273 26274 26275 26276 26277 26278 26279 26280 26281 26282 26283 26284 26285 26286 26287 26288 26289 26290 26291 26292 26293 26294 26295 26296 26297 26298 26299 26300 26301 26302 26303 26304 26305 26306 26307 26308 26309 26310 26311 26312 26313 26314 26315 26316 26317 26318 26319 26320 26321 26322 26323 26324 26325 26326 26327 26328 26329 26330 26331 26332 26333 26334 26335 26336 26337 26338 26339 26340 26341 26342 26343 26344 26345 26346 26347 26348 26349 26350 26351 26352 26353 26354 26355 26356 26357 26358 26359 26360 26361 26362 26363 26364 26365 26366 26367 26368 26369 26370 26371 26372 26373 26374 26375 26376 26377 26378 26379 26380 26381 26382 26383 26384 26385 26386 26387 26388 26389 26390 26391 26392 26393 26394 26395 26396 26397 26398 26399 26400 26401 26402 26403 26404 26405 26406 26407 26408 26409 26410 26411 26412 26413 26414 26415 26416 26417 26418 26419 26420 26421 26422 26423 26424 26425 26426 26427 26428 26429 26430 26431 26432 26433 26434 26435 26436 26437 26438 26439 26440 26441 26442 26443 26444 26445 26446 26447 26448 26449 26450 26451 26452 26453 26454 26455 26456 26457 26458 26459 26460 26461 26462 26463 26464 26465 26466 26467 26468 26469 26470 26471 26472 26473 26474 26475 26476 26477 26478 26479 26480 26481 26482 26483 26484 26485 26486 26487 26488 26489 26490 26491 26492 26493 26494 26495 26496 26497 26498 26499 26500 26501 26502 26503 26504 26505 26506 26507 26508 26509 26510 26511 26512 26513 26514 26515 26516 26517 26518 26519 26520 26521 26522 26523 26524 26525 26526 26527 26528 26529 26530 26531 26532 26533 26534 26535 26536 26537 26538 26539 26540 26541 26542 26543 26544 26545 26546 26547 26548 26549 26550 26551 26552 26553 26554 26555 26556 26557 26558 26559 26560 26561 26562 26563 26564 26565 26566 26567 26568 26569 26570 26571 26572 26573 26574 26575 26576 26577 26578 26579 26580 26581 26582 26583 26584 26585 26586 26587 26588 26589 26590 26591 26592 26593 26594 26595 26596 26597 26598 26599 26600 26601 26602 26603 26604 26605 26606 26607 26608 26609 26610 26611 26612 26613 26614 26615 26616 26617 26618 26619 26620 26621 26622 26623 26624 26625 26626 26627 26628 26629 26630 26631 26632 26633 26634 26635 26636 26637 26638 26639 26640 26641 26642 26643 26644 26645 26646 26647 26648 26649 26650 26651 26652 26653 26654 26655 26656 26657 26658 26659 26660 26661 26662 26663 26664 26665 26666 26667 26668 26669 26670 26671 26672 26673 26674 26675 26676 26677 26678 26679 26680 26681 26682 26683 26684 26685 26686 26687 26688 26689 26690 26691 26692 26693 26694 26695 26696 26697 26698 26699 26700 26701 26702 26703 26704 26705 26706 26707 26708 26709 26710 26711 26712 26713 26714 26715 26716 26717 26718 26719 26720 26721 26722 26723 26724 26725 26726 26727 26728 26729 26730 26731 26732 26733 26734 26735 26736 26737 26738 26739 26740 26741 26742 26743 26744 26745 26746 26747 26748 26749 26750 26751 26752 26753 26754 26755 26756 26757 26758 26759 26760 26761 26762 26763 26764 26765 26766 26767 26768 26769 26770 26771 26772 26773 26774 26775 26776 26777 26778 26779 26780 26781 26782 26783 26784 26785 26786 26787 26788 26789 26790 26791 26792 26793 26794 26795 26796 26797 26798 26799 26800 26801 26802 26803 26804 26805 26806 26807 26808 26809 26810 26811 26812 26813 26814 26815 26816 26817 26818 26819 26820 26821 26822 26823 26824 26825 26826 26827 26828 26829 26830 26831 26832 26833 26834 26835 26836 26837 26838 26839 26840 26841 26842 26843 26844 26845 26846 26847 26848 26849 26850 26851 26852 26853 26854 26855 26856 26857 26858 26859 26860 26861 26862 26863 26864 26865 26866 26867 26868 26869 26870 26871 26872 26873 26874 26875 26876 26877 26878 26879 26880 26881 26882 26883 26884 26885 26886 26887 26888 26889 26890 26891 26892 26893 26894 26895 26896 26897 26898 26899 26900 26901 26902 26903 26904 26905 26906 26907 26908 26909 26910 26911 26912 26913 26914 26915 26916 26917 26918 26919 26920 26921 26922 26923 26924 26925 26926 26927 26928 26929 26930 26931 26932 26933 26934 26935 26936 26937 26938 26939 26940 26941 26942 26943 26944 26945 26946 26947 26948 26949 26950 26951 26952 26953 26954 26955 26956 26957 26958 26959 26960 26961 26962 26963 26964 26965 26966 26967 26968 26969 26970 26971 26972 26973 26974 26975 26976 26977 26978 26979 26980 26981 26982 26983 26984 26985 26986 26987 26988 26989 26990 26991 26992 26993 26994 26995 26996 26997 26998 26999 27000 27001 27002 27003 27004 27005 27006 27007 27008 27009 27010 27011 27012 27013 27014 27015 27016 27017 27018 27019 27020 27021 27022 27023 27024 27025 27026 27027 27028 27029 27030 27031 27032 27033 27034 27035 27036 27037 27038 27039 27040 27041 27042 27043 27044 27045 27046 27047 27048 27049 27050 27051 27052 27053 27054 27055 27056 27057 27058 27059 27060 27061 27062 27063 27064 27065 27066 27067 27068 27069 27070 27071 27072 27073 27074 27075 27076 27077 27078 27079 27080 27081 27082 27083 27084 27085 27086 27087 27088 27089 27090 27091 27092 27093 27094 27095 27096 27097 27098 27099 27100 27101 27102 27103 27104 27105 27106 27107 27108 27109 27110 27111 27112 27113 27114 27115 27116 27117 27118 27119 27120 27121 27122 27123 27124 27125 27126 27127 27128 27129 27130 27131 27132 27133 27134 27135 27136 27137 27138 27139 27140 27141 27142 27143 27144 27145 27146 27147 27148 27149 27150 27151 27152 27153 27154 27155 27156 27157 27158 27159 27160 27161 27162 27163 27164 27165 27166 27167 27168 27169 27170 27171 27172 27173 27174 27175 27176 27177 27178 27179 27180 27181 27182 27183 27184 27185 27186 27187 27188 27189 27190 27191 27192 27193 27194 27195 27196 27197 27198 27199 27200 27201 27202 27203 27204 27205 27206 27207 27208 27209 27210 27211 27212 27213 27214 27215 27216 27217 27218 27219 27220 27221 27222 27223 27224 27225 27226 27227 27228 27229 27230 27231 27232 27233 27234 27235 27236 27237 27238 27239 27240 27241 27242 27243 27244 27245 27246 27247 27248 27249 27250 27251 27252 27253 27254 27255 27256 27257 27258 27259 27260 27261 27262 27263 27264 27265 27266 27267 27268 27269 27270 27271 27272 27273 27274 27275 27276 27277 27278 27279 27280 27281 27282 27283 27284 27285 27286 27287 27288 27289 27290 27291 27292 27293 27294 27295 27296 27297 27298 27299 27300 27301 27302 27303 27304 27305 27306 27307 27308 27309 27310 27311 27312 27313 27314 27315 27316 27317 27318 27319 27320 27321 27322 27323 27324 27325 27326 27327 27328 27329 27330 27331 27332 27333 27334 27335 27336 27337 27338 27339 27340 27341 27342 27343 27344 27345 27346 27347 27348 27349 27350 27351 27352 27353 27354 27355 27356 27357 27358 27359 27360 27361 27362 27363 27364 27365 27366 27367 27368 27369 27370 27371 27372 27373 27374 27375 27376 27377 27378 27379 27380 27381 27382 27383 27384 27385 27386 27387 27388 27389 27390 27391 27392 27393 27394 27395 27396 27397 27398 27399 27400 27401 27402 27403 27404 27405 27406 27407 27408 27409 27410 27411 27412 27413 27414 27415 27416 27417 27418 27419 27420 27421 27422 27423 27424 27425 27426 27427 27428 27429 27430 27431 27432 27433 27434 27435 27436 27437 27438 27439 27440 27441 27442 27443 27444 27445 27446 27447 27448 27449 27450 27451 27452 27453 27454 27455 27456 27457 27458 27459 27460 27461 27462 27463 27464 27465 27466 27467 27468 27469 27470 27471 27472 27473 27474 27475 27476 27477 27478 27479 27480 27481 27482 27483 27484 27485 27486 27487 27488 27489 27490 27491 27492 27493 27494 27495 27496 27497 27498 27499 27500 27501 27502 27503 27504 27505 27506 27507 27508 27509 27510 27511 27512 27513 27514 27515 27516 27517 27518 27519 27520 27521 27522 27523 27524 27525 27526 27527 27528 27529 27530 27531 27532 27533 27534 27535 27536 27537 27538 27539 27540 27541 27542 27543 27544 27545 27546 27547 27548 27549 27550 27551 27552 27553 27554 27555 27556 27557 27558 27559 27560 27561 27562 27563 27564 27565 27566 27567 27568 27569 27570 27571 27572 27573 27574 27575 27576 27577 27578 27579 27580 27581 27582 27583 27584 27585 27586 27587 27588 27589 27590 27591 27592 27593 27594 27595 27596 27597 27598 27599 27600 27601 27602 27603 27604 27605 27606 27607 27608 27609 27610 27611 27612 27613 27614 27615 27616 27617 27618 27619 27620 27621 27622 27623 27624 27625 27626 27627 27628 27629 27630 27631 27632 27633 27634 27635 27636 27637 27638 27639 27640 27641 27642 27643 27644 27645 27646 27647 27648 27649 27650 27651 27652 27653 27654 27655 27656 27657 27658 27659 27660 27661 27662 27663 27664 27665 27666 27667 27668 27669 27670 27671 27672 27673 27674 27675 27676 27677 27678 27679 27680 27681 27682 27683 27684 27685 27686 27687 27688 27689 27690 27691 27692 27693 27694 27695 27696 27697 27698 27699 27700 27701 27702 27703 27704 27705 27706 27707 27708 27709 27710 27711 27712 27713 27714 27715 27716 27717 27718 27719 27720 27721 27722 27723 27724 27725 27726 27727 27728 27729 27730 27731 27732 27733 27734 27735 27736 27737 27738 27739 27740 27741 27742 27743 27744 27745 27746 27747 27748 27749 27750 27751 27752 27753 27754 27755 27756 27757 27758 27759 27760 27761 27762 27763 27764 27765 27766 27767 27768 27769 27770 27771 27772 27773 27774 27775 27776 27777 27778 27779 27780 27781 27782 27783 27784 27785 27786 27787 27788 27789 27790 27791 27792 27793 27794 27795 27796 27797 27798 27799 27800 27801 27802 27803 27804 27805 27806 27807 27808 27809 27810 27811 27812 27813 27814 27815 27816 27817 27818 27819 27820 27821 27822 27823 27824 27825 27826 27827 27828 27829 27830 27831 27832 27833 27834 27835 27836 27837 27838 27839 27840 27841 27842 27843 27844 27845 27846 27847 27848 27849 27850 27851 27852 27853 27854 27855 27856 27857 27858 27859 27860 27861 27862 27863 27864 27865 27866 27867 27868 27869 27870 27871 27872 27873 27874 27875 27876 27877 27878 27879 27880 27881 27882 27883 27884 27885 27886 27887 27888 27889 27890 27891 27892 27893 27894 27895 27896 27897 27898 27899 27900 27901 27902 27903 27904 27905 27906 27907 27908 27909 27910 27911 27912 27913 27914 27915 27916 27917 27918 27919 27920 27921 27922 27923 27924 27925 27926 27927 27928 27929 27930 27931 27932 27933 27934 27935 27936 27937 27938 27939 27940 27941 27942 27943 27944 27945 27946 27947 27948 27949 27950 27951 27952 27953 27954 27955 27956 27957 27958 27959 27960 27961 27962 27963 27964 27965 27966 27967 27968 27969 27970 27971 27972 27973 27974 27975 27976 27977 27978 27979 27980 27981 27982 27983 27984 27985 27986 27987 27988 27989 27990 27991 27992 27993 27994 27995 27996 27997 27998 27999 28000 28001 28002 28003 28004 28005 28006 28007 28008 28009 28010 28011 28012 28013 28014 28015 28016 28017 28018 28019 28020 28021 28022 28023 28024 28025 28026 28027 28028 28029 28030 28031 28032 28033 28034 28035 28036 28037 28038 28039 28040 28041 28042 28043 28044 28045 28046 28047 28048 28049 28050 28051 28052 28053 28054 28055 28056 28057 28058 28059 28060 28061 28062 28063 28064 28065 28066 28067 28068 28069 28070 28071 28072 28073 28074 28075 28076 28077 28078 28079 28080 28081 28082 28083 28084 28085 28086 28087 28088 28089 28090 28091 28092 28093 28094 28095 28096 28097 28098 28099 28100 28101 28102 28103 28104 28105 28106 28107 28108 28109 28110 28111 28112 28113 28114 28115 28116 28117 28118 28119 28120 28121 28122 28123 28124 28125 28126 28127 28128 28129 28130 28131 28132 28133 28134 28135 28136 28137 28138 28139 28140 28141 28142 28143 28144 28145 28146 28147 28148 28149 28150 28151 28152 28153 28154 28155 28156 28157 28158 28159 28160 28161 28162 28163 28164 28165 28166 28167 28168 28169 28170 28171 28172 28173 28174 28175 28176 28177 28178 28179 28180 28181 28182 28183 28184 28185 28186 28187 28188 28189 28190 28191 28192 28193 28194 28195 28196 28197 28198 28199 28200 28201 28202 28203 28204 28205 28206 28207 28208 28209 28210 28211 28212 28213 28214 28215 28216 28217 28218 28219 28220 28221 28222 28223 28224 28225 28226 28227 28228 28229 28230 28231 28232 28233 28234 28235 28236 28237 28238 28239 28240 28241 28242 28243 28244 28245 28246 28247 28248 28249 28250 28251 28252 28253 28254 28255 28256 28257 28258 28259 28260 28261 28262 28263 28264 28265 28266 28267 28268 28269 28270 28271 28272 28273 28274 28275 28276 28277 28278 28279 28280 28281 28282 28283 28284 28285 28286 28287 28288 28289 28290 28291 28292 28293 28294 28295 28296 28297 28298 28299 28300 28301 28302 28303 28304 28305 28306 28307 28308 28309 28310 28311 28312 28313 28314 28315 28316 28317 28318 28319 28320 28321 28322 28323 28324 28325 28326 28327 28328 28329 28330 28331 28332 28333 28334 28335 28336 28337 28338 28339 28340 28341 28342 28343 28344 28345 28346 28347 28348 28349 28350 28351 28352 28353 28354 28355 28356 28357 28358 28359 28360 28361 28362 28363 28364 28365 28366 28367 28368 28369 28370 28371 28372 28373 28374 28375 28376 28377 28378 28379 28380 28381 28382 28383 28384 28385 28386 28387 28388 28389 28390 28391 28392 28393 28394 28395 28396 28397 28398 28399 28400 28401 28402 28403 28404 28405 28406 28407 28408 28409 28410 28411 28412 28413 28414 28415 28416 28417 28418 28419 28420 28421 28422 28423 28424 28425 28426 28427 28428 28429 28430 28431 28432 28433 28434 28435 28436 28437 28438 28439 28440 28441 28442 28443 28444 28445 28446 28447 28448 28449 28450 28451 28452 28453 28454 28455 28456 28457 28458 28459 28460 28461 28462 28463 28464 28465 28466 28467 28468 28469 28470 28471 28472 28473 28474 28475 28476 28477 28478 28479 28480 28481 28482 28483 28484 28485 28486 28487 28488 28489 28490 28491 28492 28493 28494 28495 28496 28497 28498 28499 28500 28501 28502 28503 28504 28505 28506 28507 28508 28509 28510 28511 28512 28513 28514 28515 28516 28517 28518 28519 28520 28521 28522 28523 28524 28525 28526 28527 28528 28529 28530 28531 28532 28533 28534 28535 28536 28537 28538 28539 28540 28541 28542 28543 28544 28545 28546 28547 28548 28549 28550 28551 28552 28553 28554 28555 28556 28557 28558 28559 28560 28561 28562 28563 28564 28565 28566 28567 28568 28569 28570 28571 28572 28573 28574 28575 28576 28577 28578 28579 28580 28581 28582 28583 28584 28585 28586 28587 28588 28589 28590 28591 28592 28593 28594 28595 28596 28597 28598 28599 28600 28601 28602 28603 28604 28605 28606 28607 28608 28609 28610 28611 28612 28613 28614 28615 28616 28617 28618 28619 28620 28621 28622 28623 28624 28625 28626 28627 28628 28629 28630 28631 28632 28633 28634 28635 28636 28637 28638 28639 28640 28641 28642 28643 28644 28645 28646 28647 28648 28649 28650 28651 28652 28653 28654 28655 28656 28657 28658 28659 28660 28661 28662 28663 28664 28665 28666 28667 28668 28669 28670 28671 28672 28673 28674 28675 28676 28677 28678 28679 28680 28681 28682 28683 28684 28685 28686 28687 28688 28689 28690 28691 28692 28693 28694 28695 28696 28697 28698 28699 28700 28701 28702 28703 28704 28705 28706 28707 28708 28709 28710 28711 28712 28713 28714 28715 28716 28717 28718 28719 28720 28721 28722 28723 28724 28725 28726 28727 28728 28729 28730 28731 28732 28733 28734 28735 28736 28737 28738 28739 28740 28741 28742 28743 28744 28745 28746 28747 28748 28749 28750 28751 28752 28753 28754 28755 28756 28757 28758 28759 28760 28761 28762 28763 28764 28765 28766 28767 28768 28769 28770 28771 28772 28773 28774 28775 28776 28777 28778 28779 28780 28781 28782 28783 28784 28785 28786 28787 28788 28789 28790 28791 28792 28793 28794 28795 28796 28797 28798 28799 28800 28801 28802 28803 28804 28805 28806 28807 28808 28809 28810 28811 28812 28813 28814 28815 28816 28817 28818 28819 28820 28821 28822 28823 28824 28825 28826 28827 28828 28829 28830 28831 28832 28833 28834 28835 28836 28837 28838 28839 28840 28841 28842 28843 28844 28845 28846 28847 28848 28849 28850 28851 28852 28853 28854 28855 28856 28857 28858 28859 28860 28861 28862 28863 28864 28865 28866 28867 28868 28869 28870 28871 28872 28873 28874 28875 28876 28877 28878 28879 28880 28881 28882 28883 28884 28885 28886 28887 28888 28889 28890 28891 28892 28893 28894 28895 28896 28897 28898 28899 28900 28901 28902 28903 28904 28905 28906 28907 28908 28909 28910 28911 28912 28913 28914 28915 28916 28917 28918 28919 28920 28921 28922 28923 28924 28925 28926 28927 28928 28929 28930 28931 28932 28933 28934 28935 28936 28937 28938 28939 28940 28941 28942 28943 28944 28945 28946 28947 28948 28949 28950 28951 28952 28953 28954 28955 28956 28957 28958 28959 28960 28961 28962 28963 28964 28965 28966 28967 28968 28969 28970 28971 28972 28973 28974 28975 28976 28977 28978 28979 28980 28981 28982 28983 28984 28985 28986 28987 28988 28989 28990 28991 28992 28993 28994 28995 28996 28997 28998 28999 29000 29001 29002 29003 29004 29005 29006 29007 29008 29009 29010 29011 29012 29013 29014 29015 29016 29017 29018 29019 29020 29021 29022 29023 29024 29025 29026 29027 29028 29029 29030 29031 29032 29033 29034 29035 29036 29037 29038 29039 29040 29041 29042 29043 29044 29045 29046 29047 29048 29049 29050 29051 29052 29053 29054 29055 29056 29057 29058 29059 29060 29061 29062 29063 29064 29065 29066 29067 29068 29069 29070 29071 29072 29073 29074 29075 29076 29077 29078 29079 29080 29081 29082 29083 29084 29085 29086 29087 29088 29089 29090 29091 29092 29093 29094 29095 29096 29097 29098 29099 29100 29101 29102 29103 29104 29105 29106 29107 29108 29109 29110 29111 29112 29113 29114 29115 29116 29117 29118 29119 29120 29121 29122 29123 29124 29125 29126 29127 29128 29129 29130 29131 29132 29133 29134 29135 29136 29137 29138 29139 29140 29141 29142 29143 29144 29145 29146 29147 29148 29149 29150 29151 29152 29153 29154 29155 29156 29157 29158 29159 29160 29161 29162 29163 29164 29165 29166 29167 29168 29169 29170 29171 29172 29173 29174 29175 29176 29177 29178 29179 29180 29181 29182 29183 29184 29185 29186 29187 29188 29189 29190 29191 29192 29193 29194 29195 29196 29197 29198 29199 29200 29201 29202 29203 29204 29205 29206 29207 29208 29209 29210 29211 29212 29213 29214 29215 29216 29217 29218 29219 29220 29221 29222 29223 29224 29225 29226 29227 29228 29229 29230 29231 29232 29233 29234 29235 29236 29237 29238 29239 29240 29241 29242 29243 29244 29245 29246 29247 29248 29249 29250 29251 29252 29253 29254 29255 29256 29257 29258 29259 29260 29261 29262 29263 29264 29265 29266 29267 29268 29269 29270 29271 29272 29273 29274 29275 29276 29277 29278 29279 29280 29281 29282 29283 29284 29285 29286 29287 29288 29289 29290 29291 29292 29293 29294 29295 29296 29297 29298 29299 29300 29301 29302 29303 29304 29305 29306 29307 29308 29309 29310 29311 29312 29313 29314 29315 29316 29317 29318 29319 29320 29321 29322 29323 29324 29325 29326 29327 29328 29329 29330 29331 29332 29333 29334 29335 29336 29337 29338 29339 29340 29341 29342 29343 29344 29345 29346 29347 29348 29349 29350 29351 29352 29353 29354 29355 29356 29357 29358 29359 29360 29361 29362 29363 29364 29365 29366 29367 29368 29369 29370 29371 29372 29373 29374 29375 29376 29377 29378 29379 29380 29381 29382 29383 29384 29385 29386 29387 29388 29389 29390 29391 29392 29393 29394 29395 29396 29397 29398 29399 29400 29401 29402 29403 29404 29405 29406 29407 29408 29409 29410 29411 29412 29413 29414 29415 29416 29417 29418 29419 29420 29421 29422 29423 29424 29425 29426 29427 29428 29429 29430 29431 29432 29433 29434 29435 29436 29437 29438 29439 29440 29441 29442 29443 29444 29445 29446 29447 29448 29449 29450 29451 29452 29453 29454 29455 29456 29457 29458 29459 29460 29461 29462 29463 29464 29465 29466 29467 29468 29469 29470 29471 29472 29473 29474 29475 29476 29477 29478 29479 29480 29481 29482 29483 29484 29485 29486 29487 29488 29489 29490 29491 29492 29493 29494 29495 29496 29497 29498 29499 29500 29501 29502 29503 29504 29505 29506 29507 29508 29509 29510 29511 29512 29513 29514 29515 29516 29517 29518 29519 29520 29521 29522 29523 29524 29525 29526 29527 29528 29529 29530 29531 29532 29533 29534 29535 29536 29537 29538 29539 29540 29541 29542 29543 29544 29545 29546 29547 29548 29549 29550 29551 29552 29553 29554 29555 29556 29557 29558 29559 29560 29561 29562 29563 29564 29565 29566 29567 29568 29569 29570 29571 29572 29573 29574 29575 29576 29577 29578 29579 29580 29581 29582 29583 29584 29585 29586 29587 29588 29589 29590 29591 29592 29593 29594 29595 29596 29597 29598 29599 29600 29601 29602 29603 29604 29605 29606 29607 29608 29609 29610 29611 29612 29613 29614 29615 29616 29617 29618 29619 29620 29621 29622 29623 29624 29625 29626 29627 29628 29629 29630 29631 29632 29633 29634 29635 29636 29637 29638 29639 29640 29641 29642 29643 29644 29645 29646 29647 29648 29649 29650 29651 29652 29653 29654 29655 29656 29657 29658 29659 29660 29661 29662 29663 29664 29665 29666 29667 29668 29669 29670 29671 29672 29673 29674 29675 29676 29677 29678 29679 29680 29681 29682 29683 29684 29685 29686 29687 29688 29689 29690 29691 29692 29693 29694 29695 29696 29697 29698 29699 29700 29701 29702 29703 29704 29705 29706 29707 29708 29709 29710 29711 29712 29713 29714 29715 29716 29717 29718 29719 29720 29721 29722 29723 29724 29725 29726 29727 29728 29729 29730 29731 29732 29733 29734 29735 29736 29737 29738 29739 29740 29741 29742 29743 29744 29745 29746 29747 29748 29749 29750 29751 29752 29753 29754 29755 29756 29757 29758 29759 29760 29761 29762 29763 29764 29765 29766 29767 29768 29769 29770 29771 29772 29773 29774 29775 29776 29777 29778 29779 29780 29781 29782 29783 29784 29785 29786 29787 29788 29789 29790 29791 29792 29793 29794 29795 29796 29797 29798 29799 29800 29801 29802 29803 29804 29805 29806 29807 29808 29809 29810 29811 29812 29813 29814 29815 29816 29817 29818 29819 29820 29821 29822 29823 29824 29825 29826 29827 29828 29829 29830 29831 29832 29833 29834 29835 29836 29837 29838 29839 29840 29841 29842 29843 29844 29845 29846 29847 29848 29849 29850 29851 29852 29853 29854 29855 29856 29857 29858 29859 29860 29861 29862 29863 29864 29865 29866 29867 29868 29869 29870 29871 29872 29873 29874 29875 29876 29877 29878 29879 29880 29881 29882 29883 29884 29885 29886 29887 29888 29889 29890 29891 29892 29893 29894 29895 29896 29897 29898 29899 29900 29901 29902 29903 29904 29905 29906 29907 29908 29909 29910 29911 29912 29913 29914 29915 29916 29917 29918 29919 29920 29921 29922 29923 29924 29925 29926 29927 29928 29929 29930 29931 29932 29933 29934 29935 29936 29937 29938 29939 29940 29941 29942 29943 29944 29945 29946 29947 29948 29949 29950 29951 29952 29953 29954 29955 29956 29957 29958 29959 29960 29961 29962 29963 29964 29965 29966 29967 29968 29969 29970 29971 29972 29973 29974 29975 29976 29977 29978 29979 29980 29981 29982 29983 29984 29985 29986 29987 29988 29989 29990 29991 29992 29993 29994 29995 29996 29997 29998 29999 30000 30001 30002 30003 30004 30005 30006 30007 30008 30009 30010 30011 30012 30013 30014 30015 30016 30017 30018 30019 30020 30021 30022 30023 30024 30025 30026 30027 30028 30029 30030 30031 30032 30033 30034 30035 30036 30037 30038 30039 30040 30041 30042 30043 30044 30045 30046 30047 30048 30049 30050 30051 30052 30053 30054 30055 30056 30057 30058 30059 30060 30061 30062 30063 30064 30065 30066 30067 30068 30069 30070 30071 30072 30073 30074 30075 30076 30077 30078 30079 30080 30081 30082 30083 30084 30085 30086 30087 30088 30089 30090 30091 30092 30093 30094 30095 30096 30097 30098 30099 30100 30101 30102 30103 30104 30105 30106 30107 30108 30109 30110 30111 30112 30113 30114 30115 30116 30117 30118 30119 30120 30121 30122 30123 30124 30125 30126 30127 30128 30129 30130 30131 30132 30133 30134 30135 30136 30137 30138 30139 30140 30141 30142 30143 30144 30145 30146 30147 30148 30149 30150 30151 30152 30153 30154 30155 30156 30157 30158 30159 30160 30161 30162 30163 30164 30165 30166 30167 30168 30169 30170 30171 30172 30173 30174 30175 30176 30177 30178 30179 30180 30181 30182 30183 30184 30185 30186 30187 30188 30189 30190 30191 30192 30193 30194 30195 30196 30197 30198 30199 30200 30201 30202 30203 30204 30205 30206 30207 30208 30209 30210 30211 30212 30213 30214 30215 30216 30217 30218 30219 30220 30221 30222 30223 30224 30225 30226 30227 30228 30229 30230 30231 30232 30233 30234 30235 30236 30237 30238 30239 30240 30241 30242 30243 30244 30245 30246 30247 30248 30249 30250 30251 30252 30253 30254 30255 30256 30257 30258 30259 30260 30261 30262 30263 30264 30265 30266 30267 30268 30269 30270 30271 30272 30273 30274 30275 30276 30277 30278 30279 30280 30281 30282 30283 30284 30285 30286 30287 30288 30289 30290 30291 30292 30293 30294 30295 30296 30297 30298 30299 30300 30301 30302 30303 30304 30305 30306 30307 30308 30309 30310 30311 30312 30313 30314 30315 30316 30317 30318 30319 30320 30321 30322 30323 30324 30325 30326 30327 30328 30329 30330 30331 30332 30333 30334 30335 30336 30337 30338 30339 30340 30341 30342 30343 30344 30345 30346 30347 30348 30349 30350 30351 30352 30353 30354 30355 30356 30357 30358 30359 30360 30361 30362 30363 30364 30365 30366 30367 30368 30369 30370 30371 30372 30373 30374 30375 30376 30377 30378 30379 30380 30381 30382 30383 30384 30385 30386 30387 30388 30389 30390 30391 30392 30393 30394 30395 30396 30397 30398 30399 30400 30401 30402 30403 30404 30405 30406 30407 30408 30409 30410 30411 30412 30413 30414 30415 30416 30417 30418 30419 30420 30421 30422 30423 30424 30425 30426 30427 30428 30429 30430 30431 30432 30433 30434 30435 30436 30437 30438 30439 30440 30441 30442 30443 30444 30445 30446 30447 30448 30449 30450 30451 30452 30453 30454 30455 30456 30457 30458 30459 30460 30461 30462 30463 30464 30465 30466 30467 30468 30469 30470 30471 30472 30473 30474 30475 30476 30477 30478 30479 30480 30481 30482 30483 30484 30485 30486 30487 30488 30489 30490 30491 30492 30493 30494 30495 30496 30497 30498 30499 30500 30501 30502 30503 30504 30505 30506 30507 30508 30509 30510 30511 30512 30513 30514 30515 30516 30517 30518 30519 30520 30521 30522 30523 30524 30525 30526 30527 30528 30529 30530 30531 30532 30533 30534 30535 30536 30537 30538 30539 30540 30541 30542 30543 30544 30545 30546 30547 30548 30549 30550 30551 30552 30553 30554 30555 30556 30557 30558 30559 30560 30561 30562 30563 30564 30565 30566 30567 30568 30569 30570 30571 30572 30573 30574 30575 30576 30577 30578 30579 30580 30581 30582 30583 30584 30585 30586 30587 30588 30589 30590 30591 30592 30593 30594 30595 30596 30597 30598 30599 30600 30601 30602 30603 30604 30605 30606 30607 30608 30609 30610 30611 30612 30613 30614 30615 30616 30617 30618 30619 30620 30621 30622 30623 30624 30625 30626 30627 30628 30629 30630 30631 30632 30633 30634 30635 30636 30637 30638 30639 30640 30641 30642 30643 30644 30645 30646 30647 30648 30649 30650 30651 30652 30653 30654 30655 30656 30657 30658 30659 30660 30661 30662 30663 30664 30665 30666 30667 30668 30669 30670 30671 30672 30673 30674 30675 30676 30677 30678 30679 30680 30681 30682 30683 30684 30685 30686 30687 30688 30689 30690 30691 30692 30693 30694 30695 30696 30697 30698 30699 30700 30701 30702 30703 30704 30705 30706 30707 30708 30709 30710 30711 30712 30713 30714 30715 30716 30717 30718 30719 30720 30721 30722 30723 30724 30725 30726 30727 30728 30729 30730 30731 30732 30733 30734 30735 30736 30737 30738 30739 30740 30741 30742 30743 30744 30745 30746 30747 30748 30749 30750 30751 30752 30753 30754 30755 30756 30757 30758 30759 30760 30761 30762 30763 30764 30765 30766 30767 30768 30769 30770 30771 30772 30773 30774 30775 30776 30777 30778 30779 30780 30781 30782 30783 30784 30785 30786 30787 30788 30789 30790 30791 30792 30793 30794 30795 30796 30797 30798 30799 30800 30801 30802 30803 30804 30805 30806 30807 30808 30809 30810 30811 30812 30813 30814 30815 30816 30817 30818 30819 30820 30821 30822 30823 30824 30825 30826 30827 30828 30829 30830 30831 30832 30833 30834 30835 30836 30837 30838 30839 30840 30841 30842 30843 30844 30845 30846 30847 30848 30849 30850 30851 30852 30853 30854 30855 30856 30857 30858 30859 30860 30861 30862 30863 30864 30865 30866 30867 30868 30869 30870 30871 30872 30873 30874 30875 30876 30877 30878 30879 30880 
</DataArray>
<DataArray type="UInt32" Name="offsets" format="ascii">
3 6 8 11 14 17 20 22 25 28 31 34 37 40 43 46 49 52 55 58 60 63 66 69 72 74 77 80 83 86 89 92 95 97 100 103 106 109 112 115 118 121 123 126 129 132 135 138 141 144 147 150 153 156 158 160 163 166 169 172 175 178 181 184 186 189 192 195 198 201 204 207 210 213 216 219 222 225 228 231 234 237 240 243 246 249 252 254 257 260 263 266 269 272 275 278 281 284 287 289 292 295 298 300 303 306 309 312 315 318 321 324 327 330 333 336 339 342 345 348 351 354 357 360 363 366 369 372 375 378 381 384 387 390 393 396 399 402 405 408 411 414 417 420 423 426 429 432 435 437 440 442 445 448 451 454 457 460 463 466 469 472 475 478 481 484 487 490 493 496 499 502 505 508 511 514 517 520 522 525 528 530 533 535 538 541 544 547 550 553 556 559 562 565 568 571 574 577 579 582 584 587 590 593 596 599 602 605 607 610 612 615 618 621 624 627 630 632 635 638 640 643 646 649 652 655 658 660 662 665 668 670 673 675 678 680 682 685 688 691 693 696 699 702 705 708 711 714 717 720 723 726 729 732 734 737 740 743 746 749 752 755 757 760 763 766 769 772 775 778 780 783 786 789 792 794 797 800 803 806 809 812 814 817 820 823 825 828 831 834 837 840 843 846 848 851 854 857 860 863 866 868 871 874 877 880 883 886 888 891 894 897 900 903 906 909 911 914 917 920 923 926 929 932 935 938 941 944 947 950 953 956 959 962 965 968 971 974 976 978 981 984 987 990 993 995 998 1001 1004 1007 1010 1013 1016 1018 1021 1023 1026 1029 1032 1034 1037 1040 1043 1045 1048 1050 1053 1056 1059 1062 1065 1068 1071 1073 1076 1079 1082 1085 1088 1091 1094 1096 1099 1102 1105 1107 1110 1113 1116 1119 1122 1125 1128 1131 1134 1137 1140 1143 1146 1149 1152 1155 1158 1161 1164 1167 1170 1173 1176 1179 1182 1185 1188 1191 1194 1197 1200 1203 1205 1208 1211 1214 1217 1220 1223 1226 1229 1232 1235 1238 1241 1244 1247 1250 1253 1256 1259 1262 1265 1268 1271 1274 1277 1280 1283 1286 1289 1292 1295 1298 1301 1303 1306 1309 1312 1315 1318 1321 1324 1327 1330 1333 1336 1339 1342 1345 1348 1351 1354 1357 1360 1363 1365 1368 1371 1374 1377 1380 1383 1386 1388 1391 1394 1397 1400 1403 1405 1408 1411 1413 1416 1418 1421 1424 1427 1430 1432 1435 1438 1440 1443 1446 1449 1452 1455 1458 1460 1463 1466 1469 1472 1475 1478 1481 1484 1487 1490 1493 1496 1499 1502 1505 1508 1511 1514 1517 1519 1522 1525 1528 1531 1534 1537 1540 1543 1546 1549 1552 1554 1556 1559 1562 1565 1568 1571 1574 1577 1580 1583 1586 1589 1592 1595 1598 1601 1604 1607 1610 1613 1616 1619 1621 1624 1626 1628 1631 1634 1636 1639 1642 1645 1648 1651 1654 1657 1660 1663 1666 1669 1672 1675 1677 1680 1683 1686 1689 1692 1695 1698 1700 1702 1705 1708 1711 1714 1717 1720 1723 1726 1728 1730 1733 1736 1739 1741 1744 1747 1750 1753 1756 1759 1762 1765 1768 1771 1774 1777 1780 1783 1786 1789 1792 1795 1798 1801 1804 1807 1810 1813 1816 1819 1822 1825 1828 1831 1834 1837 1840 1843 1846 1848 1851 1854 1856 1859 1862 1865 1868 1870 1873 1876 1879 1881 1884 1887 1890 1892 1895 1898 1900 1903 1906 1909 1912 1915 1918 1921 1924 1927 1930 1933 1936 1939 1942 1945 1948 1951 1954 1957 1960 1963 1965 1968 1971 1974 1976 1979 1982 1985 1988 1991 1993 1996 1999 2002 2005 2008 2011 2013 2016 2019 2022 2025 2028 2031 2034 2037 2040 2043 2046 2049 2052 2055 2058 2061 2064 2067 2069 2072 2075 2078 2081 2084 2087 2090 2093 2096 2099 2102 2105 2108 2111 2114 2117 2120 2123 2126 2129 2132 2134 2137 2140 2143 2146 2149 2152 2155 2158 2161 2164 2167 2170 2173 2176 2179 2181 2184 2187 2190 2193 2196 2199 2202 2205 2208 2211 2214 2217 2220 2223 2226 2229 2232 2235 2237 2240 2243 2246 2249 2252 2255 2258 2260 2263 2266 2269 2272 2275 2278 2281 2284 2287 2290 2293 2296 2299 2302 2305 2308 2311 2314 2317 2320 2323 2325 2328 2331 2334 2337 2340 2343 2346 2349 2352 2354 2357 2360 2363 2366 2369 2372 2375 2378 2380 2383 2386 2389 2392 2395 2398 2401 2404 2407 2410 2413 2416 2419 2422 2425 2428 2431 2434 2437 2439 2442 2445 2448 2451 2454 2456 2459 2462 2465 2467 2470 2473 2476 2479 2482 2485 2487 2490 2493 2496 2499 2502 2505 2508 2511 2514 2517 2519 2522 2525 2528 2531 2534 2537 2540 2543 2546 2549 2552 2555 2557 2560 2562 2565 2568 2571 2574 2577 2580 2583 2585 2588 2590 2593 2596 2599 2602 2605 2608 2611 2614 2617 2620 2623 2626 2629 2632 2635 2638 2641 2644 2647 2650 2653 2656 2659 2662 2665 2668 2671 2674 2677 2680 2683 2686 2689 2692 2695 2698 2701 2704 2707 2710 2713 2716 2719 2722 2725 2727 2729 2732 2735 2737 2740 2743 2746 2749 2752 2755 2758 2761 2764 2767 2770 2773 2776 2779 2782 2785 2787 2790 2793 2796 2799 2801 2804 2807 2809 2812 2815 2818 2821 2824 2827 2829 2832 2834 2837 2840 2842 2845 2848 2851 2854 2857 2860 2863 2866 2869 2872 2874 2877 2880 2883 2886 2889 2891 2893 2896 2899 2902 2905 2907 2910 2913 2915 2918 2920 2923 2926 2929 2932 2935 2937 2940 2943 2945 2948 2951 2954 2957 2960 2963 2966 2969 2972 2975 2978 2981 2983 2986 2989 2992 2995 2998 3001 3004 3007 3010 3013 3016 3019 3022 3025 3028 3030 3033 3035 3038 3040 3042 3045 3047 3050 3053 3055 3058 3061 3064 3067 3070 3073 3075 3078 3080 3083 3086 3088 3091 3094 3097 3099 3102 3105 3107 3110 3113 3116 3119 3122 3124 3127 3130 3132 3135 3138 3141 3144 3147 3149 3152 3154 3157 3160 3162 3165 3168 3170 3173 3176 3179 3182 3185 3188 3191 3194 3196 3199 3202 3205 3208 3211 3214 3217 3220 3223 3226 3228 3231 3234 3237 3240 3242 3245 3248 3250 3253 3256 3259 3262 3265 3267 3270 3273 3276 3279 3282 3284 3287 3289 3292 3295 3298 3301 3304 3307 3309 3312 3315 3318 3321 3324 3327 3330 3333 3335 3337 3339 3342 3345 3348 3351 3353 3356 3358 3361 3364 3367 3369 3371 3374 3377 3380 3382 3385 3388 3391 3393 3396 3398 3401 3403 3405 3408 3410 3413 3416 3419 3422 3424 3427 3430 3433 3435 3438 3440 3443 3445 3448 3451 3454 3457 3460 3463 3466 3468 3471 3474 3477 3480 3482 3485 3488 3491 3494 3497 3500 3503 3506 3508 3511 3513 3515 3518 3521 3524 3526 3529 3532 3535 3538 3540 3542 3545 3548 3550 3552 3555 3558 3561 3564 3567 3569 3572 3575 3578 3581 3584 3587 3590 3593 3595 3598 3600 3603 3606 3609 3612 3615 3618 3621 3624 3627 3630 3633 3636 3639 3642 3645 3648 3651 3653 3656 3659 3662 3665 3668 3671 3674 3677 3680 3683 3686 3689 3692 3695 3698 3701 3704 3707 3710 3713 3716 3719 3722 3725 3728 3730 3733 3735 3738 3741 3744 3747 3750 3752 3754 3757 3760 3763 3766 3768 3770 3773 3775 3778 3781 3783 3786 3789 3791 3794 3797 3800 3803 3805 3807 3810 3813 3816 3819 3822 3825 3828 3831 3833 3836 3839 3841 3844 3847 3850 3852 3855 3858 3860 3863 3866 3869 3872 3875 3878 3880 3883 3886 3889 3892 3895 3898 3900 3903 3906 3909 3912 3915 3917 3920 3923 3925 3927 3930 3933 3935 3938 3941 3943 3946 3949 3952 3955 3958 3961 3964 3967 3970 3973 3976 3979 3981 3984 3986 3989 3992 3994 3997 4000 4003 4006 4009 4012 4014 4017 4020 4023 4025 4027 4029 4032 4035 4038 4040 4042 4045 4047 4049 4052 4055 4057 4060 4063 4065 4068 4070 4073 4075 4078 4081 4084 4086 4088 4091 4094 4096 4098 4100 4102 4105 4108 4111 4113 4115 4118 4121 4123 4125 4127 4130 4132 4134 4137 4140 4142 4145 4147 4149 4152 4154 4157 4160 4162 4165 4167 4169 4172 4175 4178 4181 4183 4185 4188 4191 4193 4196 4199 4202 4204 4207 4210 4213 4216 4219 4222 4225 4228 4231 4234 4237 4240 4243 4246 4249 4252 4255 4258 4261 4264 4267 4270 4273 4276 4279 4282 4285 4288 4291 4294 4297 4300 4303 4306 4309 4312 4315 4318 4321 4324 4327 4330 4333 4336 4339 4342 4345 4348 4351 4354 4357 4360 4363 4366 4369 4372 4375 4378 4380 4383 4385 4388 4391 4394 4397 4400 4403 4406 4409 4412 4415 4418 4421 4424 4427 4429 4432 4435 4438 4441 4444 4447 4450 4453 4456 4459 4461 4464 4467 4470 4473 4476 4479 4482 4485 4488 4491 4494 4497 4500 4503 4506 4509 4512 4515 4518 4521 4524 4527 4530 4533 4536 4539 4542 4545 4548 4551 4554 4557 4560 4563 4566 4569 4572 4575 4578 4581 4584 4587 4590 4593 4596 4599 4601 4604 4607 4610 4612 4615 4617 4620 4623 4626 4629 4632 4634 4637 4639 4642 4645 4648 4651 4654 4657 4660 4663 4666 4669 4672 4675 4678 4681 4684 4687 4690 4693 4696 4699 4702 4705 4708 4711 4714 4716 4719 4722 4725 4728 4731 4734 4736 4739 4741 4744 4747 4750 4752 4755 4758 4760 4763 4766 4769 4772 4775 4778 4781 4784 4787 4790 4793 4796 4799 4802 4805 4808 4811 4814 4817 4820 4823 4826 4829 4832 4835 4838 4841 4844 4847 4850 4853 4856 4859 4862 4865 4868 4871 4873 4876 4878 4881 4884 4887 4890 4893 4896 4899 4902 4905 4908 4910 4913 4916 4919 4922 4925 4928 4931 4934 4937 4940 4943 4946 4949 4952 4955 4958 4961 4963 4966 4969 4972 4974 4976 4979 4981 4984 4987 4990 4993 4996 4999 5002 5005 5007 5010 5013 5016 5019 5021 5024 5027 5030 5033 5036 5039 5042 5044 5047 5050 5052 5055 5057 5060 5063 5065 5068 5071 5073 5075 5078 5081 5084 5087 5090 5093 5096 5099 5102 5105 5108 5111 5114 5117 5120 5122 5125 5127 5130 5133 5136 5138 5141 5143 5146 5149 5152 5155 5158 5161 5164 5167 5170 5173 5176 5179 5181 5184 5186 5189 5192 5195 5198 5201 5204 5207 5210 5212 5215 5218 5220 5223 5226 5229 5231 5233 5236 5239 5242 5245 5248 5251 5254 5257 5260 5263 5266 5269 5272 5275 5278 5281 5284 5287 5290 5293 5296 5298 5301 5304 5307 5310 5313 5315 5318 5320 5323 5326 5329 5332 5334 5337 5340 5342 5345 5348 5351 5354 5357 5359 5362 5365 5368 5371 5373 5376 5379 5382 5385 5388 5391 5394 5396 5399 5402 5405 5407 5410 5413 5416 5419 5422 5425 5428 5431 5434 5437 5440 5442 5445 5448 5451 5454 5457 5460 5463 5466 5468 5471 5474 5477 5480 5483 5486 5488 5491 5494 5497 5500 5503 5506 5508 5511 5514 5517 5520 5523 5526 5529 5532 5535 5538 5541 5543 5546 5549 5552 5554 5557 5560 5563 5565 5568 5570 5573 5576 5579 5582 5585 5588 5590 5593 5596 5599 5602 5605 5608 5611 5614 5617 5620 5623 5626 5629 5632 5635 5637 5640 5643 5646 5649 5652 5654 5657 5660 5663 5666 5669 5672 5675 5678 5680 5683 5686 5689 5692 5695 5698 5701 5704 5707 5710 5713 5716 5719 5722 5725 5728 5730 5733 5736 5739 5742 5744 5747 5750 5753 5756 5759 5762 5765 5768 5771 5774 5777 5780 5783 5786 5789 5792 5795 5798 5801 5804 5807 5810 5813 5816 5819 5822 5824 5827 5830 5833 5835 5838 5840 5843 5846 5849 5852 5854 5857 5859 5862 5865 5868 5871 5874 5876 5879 5882 5885 5888 5891 5894 5897 5900 5903 5905 5908 5911 5914 5917 5920 5923 5926 5929 5932 5935 5938 5941 5944 5947 5950 5953 5956 5959 5962 5965 5968 5971 5974 5977 5979 5981 5984 5987 5990 5993 5996 5998 6001 6004 6007 6009 6012 6015 6018 6020 6023 6026 6028 6031 6033 6036 6039 6042 6045 6047 6050 6053 6056 6059 6061 6063 6066 6069 6072 6075 6078 6081 6084 6087 6090 6093 6096 6099 6101 6104 6107 6110 6113 6115 6118 6121 6124 6127 6130 6132 6135 6138 6140 6143 6146 6149 6152 6155 6158 6161 6164 6167 6170 6173 6176 6179 6182 6185 6188 6190 6193 6196 6198 6201 6204 6207 6209 6212 6215 6218 6221 6224 6227 6230 6233 6236 6239 6242 6244 6247 6250 6253 6256 6259 6262 6265 6268 6271 6274 6277 6280 6283 6286 6289 6292 6294 6297 6300 6302 6305 6307 6310 6313 6315 6318 6320 6323 6325 6328 6331 6334 6337 6340 6343 6346 6349 6352 6355 6358 6361 6364 6366 6369 6371 6373 6376 6379 6381 6383 6386 6389 6391 6393 6396 6399 6402 6404 6407 6409 6412 6415 6417 6420 6423 6426 6429 6431 6433 6436 6438 6441 6444 6446 6448 6451 6454 6456 6459 6462 6465 6467 6470 6473 6476 6478 6480 6482 6485 6488 6490 6493 6495 6497 6500 6503 6506 6509 6512 6515 6518 6521 6524 6527 6530 6532 6534 6537 6539 6542 6544 6547 6549 6552 6555 6558 6560 6563 6566 6569 6572 6575 6577 6580 6583 6586 6589 6592 6595 6598 6601 6604 6607 6610 6613 6616 6619 6622 6625 6628 6631 6634 6637 6640 6643 6646 6649 6651 6654 6657 6660 6663 6666 6669 6672 6675 6678 6681 6684 6687 6690 6693 6696 6699 6702 6705 6707 6710 6713 6716 6719 6722 6725 6728 6731 6734 6737 6740 6742 6745 6748 6751 6754 6757 6759 6762 6765 6768 6771 6774 6777 6780 6783 6786 6789 6792 6795 6798 6801 6803 6806 6809 6812 6815 6818 6821 6824 6827 6830 6833 6836 6839 6842 6845 6847 6850 6852 6855 6858 6861 6864 6866 6869 6872 6875 6878 6881 6884 6887 6890 6893 6896 6899 6902 6904 6907 6909 6912 6915 6918 6921 6923 6926 6929 6932 6935 6938 6941 6944 6946 6949 6952 6955 6958 6961 6964 6967 6969 6972 6975 6978 6980 6983 6985 6988 6991 6994 6997 7000 7003 7006 7009 7012 7014 7017 7020 7023 7026 7029 7032 7035 7038 7041 7044 7047 7050 7053 7056 7059 7062 7065 7068 7071 7074 7077 7080 7083 7086 7089 7092 7095 7098 7101 7104 7107 7110 7113 7116 7119 7122 7125 7128 7131 7134 7137 7140 7143 7145 7148 7151 7153 7156 7159 7162 7165 7168 7171 7174 7177 7180 7183 7185 7188 7191 7194 7197 7200 7202 7205 7208 7210 7213 7216 7219 7222 7225 7228 7230 7233 7236 7239 7242 7244 7247 7250 7252 7255 7257 7260 7263 7266 7269 7272 7275 7278 7281 7284 7287 7290 7292 7295 7297 7300 7303 7306 7309 7311 7314 7317 7320 7323 7326 7329 7332 7335 7338 7341 7344 7347 7350 7353 7356 7359 7362 7365 7368 7371 7374 7376 7379 7382 7385 7388 7390 7393 7396 7399 7402 7405 7408 7411 7413 7416 7419 7422 7425 7428 7430 7433 7436 7439 7441 7444 7447 7450 7452 7455 7458 7460 7463 7466 7469 7471 7474 7477 7479 7482 7485 7488 7491 7494 7497 7500 7503 7506 7509 7512 7515 7518 7521 7524 7527 7530 7533 7536 7539 7542 7545 7548 7551 7554 7557 7560 7563 7566 7569 7572 7574 7577 7580 7583 7586 7589 7592 7595 7598 7601 7604 7607 7609 7612 7615 7618 7621 7624 7627 7630 7633 7636 7639 7642 7645 7648 7651 7654 7656 7658 7661 7664 7667 7669 7672 7675 7678 7681 7683 7686 7689 7691 7694 7697 7700 7703 7706 7709 7712 7715 7718 7721 7724 7727 7730 7732 7734 7737 7740 7743 7746 7749 7752 7755 7758 7761 7764 7767 7769 7772 7775 7777 7780 7783 7786 7789 7792 7795 7798 7801 7804 7807 7810 7813 7816 7819 7822 7825 7828 7831 7834 7836 7839 7842 7845 7847 7850 7853 7856 7859 7862 7864 7867 7870 7873 7876 7879 7882 7885 7888 7891 7894 7897 7900 7903 7906 7909 7912 7915 7918 7921 7924 7926 7929 7932 7934 7937 7940 7943 7946 7949 7952 7955 7958 7961 7964 7967 7970 7973 7976 7979 7982 7985 7988 7991 7993 7996 7999 8002 8005 8008 8011 8014 8017 8020 8023 8026 8029 8032 8035 8038 8041 8044 8047 8050 8053 8056 8059 8062 8065 8068 8071 8074 8077 8080 8083 8086 8089 8091 8094 8097 8100 8103 8106 8109 8111 8114 8117 8120 8123 8126 8128 8131 8134 8137 8140 8142 8145 8148 8151 8154 8157 8160 8163 8166 8169 8172 8175 8178 8181 8184 8187 8190 8193 8196 8199 8202 8205 8208 8210 8213 8216 8219 8222 8225 8228 8231 8233 8236 8239 8241 8244 8247 8249 8252 8255 8258 8261 8264 8267 8269 8272 8275 8278 8281 8284 8287 8290 8293 8296 8299 8301 8304 8306 8309 8312 8315 8318 8321 8324 8327 8330 8332 8335 8338 8340 8343 8346 8349 8351 8354 8357 8360 8362 8365 8368 8371 8373 8375 8378 8381 8383 8386 8389 8391 8394 8397 8399 8402 8405 8408 8411 8414 8417 8420 8423 8426 8428 8431 8434 8437 8439 8442 8445 8448 8450 8453 8456 8459 8461 8464 8466 8469 8472 8474 8477 8480 8483 8486 8489 8492 8495 8498 8500 8503 8506 8508 8511 8514 8517 8520 8523 8526 8529 8532 8535 8538 8541 8544 8547 8549 8552 8554 8557 8560 8563 8565 8567 8570 8572 8575 8578 8581 8584 8586 8589 8591 8594 8597 8600 8603 8606 8609 8612 8615 8618 8620 8623 8626 8629 8632 8635 8638 8641 8644 8647 8650 8653 8656 8659 8662 8665 8668 8671 8674 8677 8680 8683 8686 8689 8692 8695 8698 8701 8704 8706 8709 8712 8715 8718 8721 8724 8726 8729 8732 8735 8738 8741 8744 8746 8749 8752 8755 8758 8761 8764 8766 8769 8772 8775 8777 8780 8783 8786 8788 8791 8794 8796 8799 8802 8805 8808 8811 8814 8816 8819 8822 8825 8827 8829 8832 8835 8838 8841 8844 8847 8850 8853 8856 8859 8862 8865 8868 8871 8874 8877 8880 8882 8885 8888 8891 8894 8897 8900 8903 8905 8908 8911 8914 8917 8920 8922 8925 8928 8931 8934 8937 8939 8942 8945 8947 8950 8953 8956 8959 8961 8964 8967 8970 8973 8976 8979 8981 8984 8986 8989 8991 8993 8996 8998 9001 9004 9007 9009 9012 9015 9018 9021 9024 9026 9029 9032 9035 9037 9040 9043 9046 9049 9051 9053 9055 9058 9061 9064 9067 9069 9071 9074 9076 9079 9082 9085 9088 9091 9094 9096 9099 9101 9104 9107 9109 9112 9115 9118 9120 9123 9126 9128 9131 9134 9137 9140 9143 9146 9149 9152 9155 9158 9161 9164 9166 9169 9172 9175 9178 9180 9183 9186 9189 9192 9194 9197 9200 9203 9206 9209 9212 9215 9218 9221 9223 9225 9227 9230 9233 9236 9238 9240 9243 9246 9248 9251 9253 9256 9259 9262 9265 9268 9271 9274 9276 9279 9282 9285 9288 9291 9294 9297 9300 9303 9306 9309 9312 9315 9318 9321 9324 9326 9329 9332 9335 9338 9341 9344 9347 9350 9353 9355 9358 9361 9363 9366 9368 9371 9373 9376 9379 9381 9384 9387 9390 9392 9394 9397 9400 9402 9405 9408 9411 9413 9416 9419 9422 9425 9427 9430 9433 9436 9439 9442 9445 9448 9451 9454 9457 9460 9462 9464 9467 9470 9473 9476 9479 9482 9485 9488 9491 9494 9497 9500 9503 9506 9509 9512 9515 9518 9521 9524 9527 9530 9533 9536 9539 9542 9545 9548 9551 9554 9557 9560 9562 9565 9568 9571 9574 9577 9580 9583 9586 9589 9592 9595 9598 9601 9604 9607 9610 9613 9616 9619 9621 9624 9627 9630 9633 9636 9639 9641 9643 9646 9649 9651 9653 9656 9659 9662 9664 9667 9670 9673 9676 9679 9682 9685 9688 9691 9694 9697 9700 9703 9706 9709 9712 9715 9718 9721 9724 9727 9730 9733 9735 9738 9740 9743 9745 9748 9751 9754 9757 9760 9763 9765 9768 9770 9772 9775 9778 9780 9783 9786 9789 9792 9795 9798 9800 9802 9805 9808 9810 9812 9815 9818 9820 9822 9825 9828 9831 9834 9837 9840 9843 9846 9848 9851 9854 9857 9860 9863 9865 9868 9871 9873 9876 9879 9882 9884 9887 9890 9893 9896 9899 9902 9905 9908 9911 9914 9917 9920 9923 9926 9929 9932 9935 9938 9941 9944 9947 9950 9953 9956 9959 9962 9965 9968 9971 9974 9977 9980 9983 9986 9988 9991 9994 9996 9999 10001 10003 10006 10009 10012 10015 10018 10021 10024 10027 10030 10032 10035 10038 10041 10044 10047 10049 10052 10055 10058 10061 10064 10067 10070 10072 10075 10078 10081 10084 10087 10090 10093 10096 10098 10101 10104 10107 10110 10113 10115 10118 10121 10124 10127 10130 10133 10136 10139 10142 10145 10148 10151 10154 10157 10160 10163 10166 10169 10172 10175 10178 10181 10184 10187 10190 10193 10196 10199 10202 10205 10207 10209 10212 10215 10218 10221 10224 10227 10230 10232 10235 10238 10241 10243 10246 10248 10251 10254 10257 10260 10263 10266 10269 10272 10275 10278 10281 10284 10287 10290 10293 10296 10299 10302 10305 10308 10311 10313 10316 10319 10322 10325 10328 10331 10333 10336 10339 10342 10345 10348 10351 10354 10356 10359 10362 10364 10367 10370 10373 10376 10379 10382 10384 10387 10390 10393 10395 10398 10401 10403 10405 10408 10411 10414 10417 10420 10423 10426 10429 10432 10435 10438 10441 10444 10447 10450 10453 10456 10459 10462 10465 10468 10471 10474 10477 10480 10483 10486 10489 10491 10494 10497 10500 10503 10506 10509 10512 10515 10518 10521 10524 10527 10530 10533 10536 10539 10542 10545 10548 10550 10553 10556 10559 10561 10563 10566 10569 10572 10575 10578 10580 10583 10586 10589 10591 10594 10597 10600 10603 10606 10608 10611 10614 10617 10620 10623 10626 10629 10632 10635 10638 10641 10644 10647 10650 10653 10656 10659 10662 10665 10668 10671 10673 10676 10679 10682 10685 10688 10691 10693 10696 10699 10702 10705 10708 10711 10714 10717 10720 10723 10726 10729 10731 10734 10737 10740 10743 10745 10748 10750 10753 10756 10759 10762 10765 10768 10771 10774 10777 10780 10783 10786 10789 10791 10794 10797 10800 10803 10806 10808 10811 10814 10817 10820 10823 10826 10828 10831 10834 10837 10840 10843 10846 10849 10852 10855 10858 10861 10864 10866 10869 10872 10874 10877 10880 10882 10885 10888 10890 10893 10896 10899 10902 10905 10908 10911 10914 10917 10920 10922 10925 10928 10931 10934 10937 10940 10943 10946 10948 10951 10954 10957 10959 10962 10965 10968 10970 10973 10976 10978 10981 10984 10987 10989 10992 10995 10998 11001 11004 11006 11009 11011 11014 11017 11020 11023 11025 11027 11030 11033 11036 11038 11041 11044 11047 11050 11052 11055 11058 11061 11064 11067 11070 11073 11076 11079 11082 11085 11088 11091 11094 11097 11099 11102 11105 11107 11109 11112 11115 11118 11121 11123 11126 11129 11132 11135 11138 11141 11143 11146 11149 11152 11155 11158 11161 11163 11166 11169 11172 11175 11178 11181 11184 11187 11189 11192 11195 11198 11201 11204 11207 11210 11213 11216 11219 11221 11224 11227 11229 11232 11235 11237 11240 11243 11246 11249 11252 11254 11256 11259 11262 11264 11266 11269 11271 11274 11276 11279 11281 11283 11286 11289 11291 11294 11296 11299 11301 11304 11306 11309 11311 11314 11317 11319 11322 11324 11327 11329 11332 11335 11338 11341 11344 11347 11349 11352 11355 11358 11360 11363 11366 11369 11372 11375 11378 11381 11384 11387 11389 11392 11395 11397 11400 11402 11405 11407 11410 11413 11416 11418 11420 11423 11426 11429 11432 11435 11438 11441 11444 11447 11450 11453 11455 11458 11461 11464 11467 11470 11472 11475 11478 11481 11484 11487 11490 11493 11496 11499 11502 11505 11508 11511 11514 11517 11520 11523 11525 11528 11531 11534 11537 11540 11543 11545 11548 11551 11554 11556 11559 11562 11564 11567 11570 11573 11575 11578 11580 11582 11585 11588 11591 11594 11597 11600 11603 11606 11609 11611 11614 11617 11620 11623 11626 11629 11632 11634 11637 11639 11642 11644 11647 11650 11653 11656 11659 11662 11665 11668 11671 11674 11677 11680 11683 11686 11689 11692 11695 11698 11701 11704 11707 11710 11713 11716 11719 11722 11725 11728 11731 11734 11737 11740 11743 11746 11749 11752 11755 11757 11760 11763 11765 11767 11770 11773 11776 11779 11781 11784 11787 11790 11793 11796 11798 11801 11804 11806 11808 11811 11814 11817 11820 11823 11826 11828 11831 11833 11836 11839 11841 11843 11846 11848 11851 11854 11857 11859 11862 11865 11868 11871 11873 11876 11879 11882 11884 11887 11890 11892 11894 11897 11900 11903 11905 11908 11911 11914 11917 11919 11922 11925 11927 11930 11933 11936 11938 11941 11944 11946 11949 11952 11955 11957 11960 11962 11965 11968 11970 11973 11976 11978 11980 11983 11986 11988 11991 11993 11995 11998 12001 12004 12007 12009 12012 12015 12018 12021 12023 12026 12029 12032 12035 12038 12041 12044 12047 12050 12053 12056 12059 12061 12064 12067 12070 12073 12075 12078 12080 12083 12086 12089 12092 12095 12097 12099 12101 12104 12107 12110 12113 12116 12119 12122 12125 12127 12130 12133 12136 12139 12142 12145 12147 12150 12153 12156 12159 12161 12164 12167 12170 12173 12176 12179 12182 12185 12188 12191 12194 12197 12200 12203 12206 12209 12212 12215 12217 12220 12222 12225 12228 12230 12232 12235 12237 12240 12243 12245 12248 12250 12253 12255 12258 12260 12263 12266 12269 12272 12274 12277 12280 12283 12285 12288 12291 12294 12297 12300 12303 12306 12309 12312 12315 12318 12321 12324 12327 12330 12333 12336 12339 12342 12345 12348 12351 12354 12357 12360 12362 12365 12368 12371 12374 12377 12379 12382 12385 12388 12391 12394 12397 12400 12403 12406 12409 12412 12414 12417 12420 12423 12426 12429 12431 12434 12437 12439 12441 12444 12447 12450 12452 12455 12458 12460 12462 12465 12467 12470 12473 12476 12479 12482 12485 12488 12491 12494 12497 12500 12503 12506 12509 12512 12515 12517 12520 12523 12526 12529 12531 12534 12537 12540 12543 12546 12549 12552 12555 12557 12559 12562 12565 12567 12570 12573 12576 12579 12582 12585 12588 12591 12594 12596 12598 12601 12604 12606 12609 12612 12615 12617 12620 12623 12626 12629 12632 12635 12638 12641 12644 12647 12650 12653 12656 12659 12662 12665 12668 12671 12674 12677 12680 12683 12686 12689 12692 12695 12697 12700 12703 12706 12709 12712 12715 12718 12721 12724 12727 12730 12733 12736 12739 12742 12745 12748 12751 12754 12757 12759 12762 12765 12768 12770 12772 12775 12778 12781 12783 12786 12789 12791 12794 12797 12800 12803 12806 12808 12811 12813 12816 12819 12822 12825 12828 12831 12834 12837 12839 12842 12845 12848 12850 12853 12856 12858 12861 12863 12866 12869 12872 12874 12877 12880 12883 12885 12888 12891 12894 12897 12900 12903 12906 12909 12912 12915 12918 12921 12924 12927 12930 12933 12936 12938 12941 12944 12947 12950 12953 12956 12959 12962 12965 12967 12970 12973 12976 12979 12982 12985 12988 12991 12993 12996 12999 13002 13005 13008 13011 13014 13017 13020 13023 13026 13029 13032 13034 13037 13040 13043 13045 13048 13051 13054 13057 13060 13063 13066 13069 13072 13075 13078 13081 13084 13087 13090 13093 13096 13099 13102 13104 13107 13110 13113 13115 13118 13120 13123 13126 13129 13131 13134 13137 13140 13142 13144 13147 13150 13153 13156 13159 13162 13165 13168 13171 13174 13177 13180 13183 13186 13189 13192 13195 13198 13201 13204 13207 13210 13212 13215 13218 13221 13224 13226 13229 13232 13235 13238 13240 13243 13246 13249 13252 13255 13258 13261 13263 13266 13269 13272 13275 13277 13280 13283 13286 13289 13292 13295 13297 13300 13303 13306 13309 13312 13315 13317 13320 13323 13326 13328 13331 13334 13337 13340 13343 13346 13349 13352 13355 13357 13360 13363 13366 13369 13372 13375 13377 13380 13383 13386 13389 13392 13395 13398 13401 13404 13407 13410 13412 13415 13418 13420 13423 13426 13429 13432 13435 13437 13440 13443 13445 13448 13451 13454 13457 13460 13463 13466 13468 13470 13473 13476 13479 13482 13484 13487 13490 13493 13496 13499 13502 13504 13507 13510 13513 13516 13519 13522 13525 13528 13531 13534 13536 13539 13542 13545 13548 13551 13554 13557 13560 13563 13566 13569 13572 13574 13577 13579 13582 13585 13588 13590 13593 13596 13598 13601 13604 13607 13610 13612 13615 13618 13621 13624 13627 13629 13632 13635 13638 13641 13644 13647 13650 13653 13655 13658 13661 13664 13667 13669 13672 13675 13678 13681 13684 13687 13690 13692 13695 13698 13701 13704 13707 13710 13713 13716 13719 13722 13724 13727 13730 13733 13735 13738 13740 13743 13746 13749 13752 13755 13758 13760 13763 13765 13768 13770 13773 13776 13779 13782 13784 13787 13790 13793 13796 13799 13802 13805 13808 13811 13814 13817 13820 13823 13826 13828 13831 13833 13836 13839 13842 13845 13848 13851 13854 13856 13859 13862 13865 13868 13871 13874 13877 13880 13883 13886 13889 13892 13895 13897 13900 13903 13906 13909 13911 13914 13917 13920 13923 13926 13929 13932 13935 13938 13941 13944 13947 13950 13953 13956 13959 13962 13965 13968 13971 13974 13977 13980 13983 13985 13988 13991 13994 13997 13999 14002 14005 14008 14010 14013 14016 14018 14021 14024 14026 14029 14032 14035 14038 14041 14044 14047 14050 14053 14056 14059 14062 14065 14068 14071 14073 14076 14079 14081 14084 14087 14090 14093 14096 14099 14102 14104 14107 14110 14113 14116 14119 14121 14124 14127 14130 14132 14135 14138 14141 14143 14146 14149 14152 14155 14158 14161 14164 14166 14169 14172 14175 14177 14180 14182 14184 14187 14190 14193 14196 14199 14201 14204 14207 14210 14213 14216 14219 14222 14225 14228 14231 14233 14236 14239 14242 14245 14248 14251 14254 14257 14260 14263 14266 14269 14272 14275 14278 14281 14284 14287 14290 14293 14296 14299 14302 14305 14308 14311 14314 14317 14320 14323 14326 14329 14332 14335 14338 14341 14344 14346 14349 14352 14355 14358 14361 14364 14367 14370 14373 14376 14379 14382 14385 14388 14391 14394 14396 14399 14402 14405 14408 14411 14414 14417 14420 14423 14425 14428 14431 14434 14437 14440 14443 14446 14448 14451 14454 14457 14460 14463 14466 14469 14472 14475 14478 14481 14484 14487 14490 14493 14496 14499 14502 14505 14508 14511 14513 14516 14519 14522 14525 14528 14531 14534 14537 14540 14543 14546 14549 14552 14555 14558 14561 14564 14566 14569 14572 14575 14578 14581 14584 14587 14590 14593 14596 14599 14602 14605 14608 14611 14614 14617 14620 14623 14626 14629 14632 14635 14638 14641 14644 14647 14650 14653 14656 14659 14662 14665 14668 14671 14674 14677 14680 14683 14686 14689 14692 14695 14698 14701 14704 14706 14709 14712 14715 14718 14721 14724 14727 14730 14733 14736 14739 14742 14745 14747 14750 14752 14755 14758 14761 14764 14767 14769 14772 14775 14778 14781 14784 14786 14788 14791 14794 14797 14800 14803 14806 14809 14812 14815 14818 14821 14824 14827 14830 14833 14836 14839 14841 14843 14846 14849 14852 14855 14858 14861 14863 14866 14868 14871 14874 14877 14880 14883 14886 14889 14892 14895 14897 14900 14903 14906 14909 14912 14915 14918 14921 14924 14927 14930 14933 14936 14939 14942 14945 14948 14951 14954 14956 14959 14962 14965 14968 14971 14973 14976 14978 14981 14984 14987 14990 14993 14996 14999 15001 15004 15007 15010 15012 15015 15018 15021 15023 15026 15029 15031 15034 15037 15040 15042 15045 15048 15050 15053 15055 15058 15060 15063 15066 15068 15071 15074 15077 15080 15083 15086 15089 15092 15095 15098 15101 15104 15107 15110 15113 15116 15119 15122 15125 15128 15131 15133 15136 15138 15141 15144 15147 15150 15153 15156 15159 15161 15164 15167 15170 15173 15176 15179 15182 15185 15188 15191 15194 15197 15200 15203 15206 15209 15212 15215 15218 15220 15223 15226 15229 15231 15234 15237 15240 15243 15246 15249 15252 15255 15258 15261 15263 15266 15269 15272 15275 15277 15280 15283 15285 15288 15291 15294 15297 15300 15302 15305 15308 15311 15314 15316 15319 15321 15324 15327 15329 15332 15335 15338 15341 15344 15347 15350 15352 15355 15358 15360 15363 15365 15368 15371 15374 15377 15380 15383 15386 15389 15392 15395 15398 15401 15404 15407 15410 15413 15416 15419 15421 15424 15427 15430 15433 15436 15439 15442 15444 15447 15450 15453 15456 15458 15461 15464 15467 15470 15473 15476 15479 15482 15485 15487 15490 15493 15496 15499 15501 15504 15507 15510 15513 15516 15519 15522 15525 15528 15531 15534 15537 15539 15542 15545 15548 15551 15554 15557 15560 15563 15566 15568 15571 15574 15577 15580 15583 15586 15589 15592 15595 15598 15601 15604 15606 15609 15612 15614 15617 15620 15623 15626 15629 15632 15635 15638 15641 15643 15645 15647 15650 15653 15656 15658 15661 15664 15667 15670 15673 15676 15678 15681 15684 15687 15689 15691 15694 15697 15700 15703 15706 15709 15712 15715 15718 15721 15724 15727 15729 15732 15735 15738 15740 15742 15745 15748 15751 15754 15757 15759 15762 15765 15768 15771 15773 15776 15779 15782 15785 15787 15790 15793 15796 15799 15802 15804 15806 15808 15811 15814 15817 15819 15821 15824 15827 15830 15833 15836 15839 15842 15845 15848 15850 15852 15855 15858 15861 15863 15865 15868 15871 15874 15877 15880 15883 15886 15889 15892 15895 15898 15901 15904 15907 15910 15913 15916 15918 15921 15923 15926 15929 15932 15935 15937 15940 15943 15946 15949 15952 15955 15958 15960 15963 15966 15969 15972 15975 15978 15981 15983 15986 15989 15991 15994 15996 15998 16001 16004 16007 16009 16011 16014 16017 16020 16022 16024 16027 16030 16033 16036 16039 16042 16045 16048 16051 16054 16056 16059 16062 16065 16068 16071 16074 16077 16079 16082 16085 16088 16091 16093 16096 16099 16102 16105 16108 16111 16113 16116 16119 16122 16125 16127 16130 16132 16135 16138 16141 16144 16147 16150 16153 16156 16159 16162 16165 16168 16171 16174 16176 16179 16182 16185 16188 16191 16194 16197 16199 16202 16205 16208 16211 16213 16216 16219 16222 16224 16227 16230 16233 16236 16239 16242 16245 16248 16251 16254 16257 16260 16263 16266 16269 16272 16275 16278 16281 16284 16287 16290 16292 16295 16297 16300 16303 16305 16308 16311 16314 16316 16319 16322 16324 16327 16330 16333 16336 16339 16342 16345 16348 16351 16354 16357 16360 16363 16366 16369 16372 16375 16378 16381 16384 16386 16388 16390 16393 16396 16399 16402 16405 16408 16411 16414 16417 16420 16423 16426 16429 16431 16434 16437 16440 16442 16445 16448 16450 16453 16456 16459 16462 16464 16467 16470 16472 16474 16477 16480 16483 16486 16488 16491 16494 16496 16499 16501 16504 16507 16510 16513 16516 16519 16522 16525 16528 16531 16534 16537 16539 16542 16545 16548 16551 16554 16557 16560 16562 16565 16567 16570 16573 16576 16579 16581 16584 16587 16590 16593 16596 16599 16602 16605 16608 16611 16614 16617 16620 16623 16626 16629 16632 16635 16638 16641 16644 16647 16650 16652 16655 16658 16661 16663 16666 16668 16671 16674 16677 16679 16682 16685 16688 16691 16694 16696 16699 16702 16704 16707 16710 16713 16716 16719 16722 16725 16728 16730 16733 16736 16739 16742 16745 16747 16750 16753 16756 16759 16762 16765 16768 16771 16774 16777 16780 16783 16786 16789 16791 16794 16797 16800 16803 16805 16808 16811 16814 16817 16820 16823 16826 16829 16832 16835 16838 16841 16843 16846 16849 16852 16855 16857 16860 16863 16866 16869 16872 16875 16878 16881 16884 16887 16890 16893 16896 16898 16901 16904 16906 16909 16912 16915 16917 16920 16923 16926 16929 16932 16935 16938 16941 16944 16947 16950 16953 16956 16958 16960 16963 16965 16967 16970 16973 16976 16978 16980 16983 16985 16988 16990 16993 16995 16998 17001 17004 17006 17009 17011 17014 17017 17020 17023 17025 17028 17031 17034 17037 17040 17043 17045 17048 17051 17054 17057 17060 17062 17065 17068 17070 17073 17076 17078 17081 17084 17086 17089 17092 17095 17098 17101 17103 17106 17108 17111 17114 17117 17120 17123 17126 17129 17132 17135 17138 17141 17144 17147 17149 17152 17155 17157 17160 17163 17166 17169 17172 17175 17178 17181 17184 17186 17189 17192 17195 17198 17201 17204 17207 17210 17213 17215 17218 17221 17223 17226 17228 17231 17234 17237 17240 17243 17246 17249 17251 17254 17257 17260 17263 17266 17269 17272 17274 17277 17279 17282 17285 17287 17290 17293 17296 17298 17301 17304 17307 17310 17312 17315 17318 17321 17324 17327 17329 17332 17335 17338 17341 17344 17347 17350 17353 17356 17359 17362 17365 17368 17371 17374 17377 17380 17383 17386 17389 17392 17394 17397 17400 17402 17405 17408 17411 17413 17416 17419 17422 17425 17427 17430 17433 17436 17439 17442 17445 17448 17451 17454 17457 17460 17463 17466 17469 17472 17475 17478 17481 17484 17487 17490 17493 17496 17498 17501 17504 17507 17510 17513 17516 17518 17521 17524 17527 17530 17533 17536 17539 17542 17545 17548 17551 17554 17557 17559 17562 17564 17567 17570 17572 17575 17578 17581 17584 17586 17588 17591 17593 17596 17598 17601 17604 17607 17610 17613 17615 17618 17621 17623 17625 17628 17631 17634 17637 17640 17642 17645 17648 17650 17653 17656 17659 17662 17665 17668 17671 17674 17676 17678 17681 17684 17687 17689 17692 17694 17697 17700 17703 17706 17709 17711 17714 17716 17719 17722 17725 17728 17731 17733 17735 17738 17741 17744 17747 17749 17752 17755 17758 17761 17763 17766 17769 17772 17775 17778 17781 17784 17787 17790 17793 17796 17799 17802 17805 17808 17811 17814 17816 17819 17822 17824 17827 17830 17833 17835 17838 17841 17844 17847 17850 17853 17856 17859 17862 17865 17868 17871 17874 17877 17880 17883 17886 17889 17892 17894 17897 17900 17903 17906 17909 17912 17915 17918 17921 17924 17927 17930 17933 17936 17938 17940 17943 17946 17949 17951 17954 17957 17960 17963 17966 17968 17971 17974 17977 17980 17983 17986 17989 17992 17995 17998 18001 18003 18006 18009 18011 18014 18017 18020 18023 18026 18029 18032 18035 18038 18041 18043 18046 18049 18052 18054 18057 18059 18062 18064 18067 18070 18073 18075 18077 18080 18082 18085 18088 18090 18093 18096 18098 18100 18103 18106 18109 18111 18114 18117 18119 18122 18124 18127 18130 18133 18135 18138 18141 18143 18145 18148 18150 18153 18156 18158 18161 18163 18166 18169 18172 18175 18178 18181 18184 18187 18190 18192 18195 18198 18201 18204 18207 18209 18212 18215 18218 18221 18224 18227 18230 18233 18236 18239 18241 18244 18247 18250 18253 18255 18257 18260 18263 18265 18268 18270 18273 18276 18279 18282 18285 18287 18290 18293 18295 18298 18300 18303 18306 18309 18312 18315 18318 18321 18323 18326 18329 18332 18335 18338 18341 18344 18347 18350 18352 18355 18357 18360 18362 18365 18367 18370 18373 18376 18379 18381 18384 18387 18390 18393 18396 18398 18400 18403 18406 18409 18412 18415 18418 18420 18423 18426 18429 18432 18435 18437 18440 18443 18446 18449 18451 18454 18457 18459 18462 18464 18467 18470 18473 18475 18478 18480 18483 18486 18488 18490 18492 18495 18498 18501 18504 18507 18510 18512 18514 18516 18519 18522 18525 18528 18530 18533 18535 18538 18540 18543 18546 18549 18552 18555 18558 18560 18563 18566 18569 18572 18575 18578 18581 18584 18587 18590 18593 18596 18599 18602 18605 18608 18611 18614 18617 18620 18623 18626 18629 18632 18635 18638 18641 18644 18647 18650 18653 18656 18659 18662 18665 18668 18671 18674 18677 18680 18683 18686 18689 18692 18695 18698 18701 18704 18707 18709 18712 18715 18718 18720 18722 18725 18728 18731 18734 18737 18740 18743 18746 18749 18752 18755 18758 18761 18764 18767 18770 18773 18776 18779 18781 18784 18787 18790 18793 18796 18799 18802 18804 18807 18810 18812 18815 18818 18820 18823 18826 18828 18831 18833 18836 18839 18841 18844 18847 18850 18852 18855 18857 18860 18862 18864 18867 18870 18873 18875 18877 18880 18883 18885 18888 18891 18893 18896 18899 18902 18905 18908 18911 18914 18917 18920 18923 18926 18929 18931 18934 18937 18940 18943 18945 18948 18951 18954 18957 18959 18962 18965 18968 18971 18974 18977 18980 18983 18986 18988 18991 18993 18996 18999 19002 19005 19007 19010 19013 19016 19018 19021 19024 19027 19030 19033 19036 19038 19041 19044 19046 19049 19052 19055 19057 19060 19063 19066 19069 19072 19075 19078 19080 19083 19086 19089 19092 19095 19097 19100 19103 19106 19109 19112 19115 19118 19121 19124 19127 19130 19133 19136 19139 19142 19144 19147 19150 19153 19156 19159 19161 19164 19167 19169 19172 19174 19177 19180 19183 19186 19188 19190 19193 19196 19198 19201 19204 19207 19210 19213 19216 19219 19222 19225 19228 19231 19233 19236 19238 19241 19244 19247 19250 19253 19255 19258 19261 19264 19266 19269 19272 19275 19277 19280 19283 19286 19289 19292 19295 19298 19301 19304 19307 19310 19313 19316 19318 19321 19324 19327 19330 19333 19336 19339 19341 19344 19346 19349 19352 19355 19358 19361 19364 19367 19369 19371 19374 19377 19380 19383 19386 19389 19392 19395 19398 19400 19403 19406 19409 19412 19415 19418 19420 19422 19424 19427 19429 19432 19435 19438 19441 19444 19447 19449 19452 19454 19457 19459 19462 19464 19467 19470 19473 19476 19479 19482 19484 19487 19490 19492 19495 19498 19501 19504 19506 19509 19512 19515 19518 19521 19524 19527 19530 19533 19536 19539 19542 19545 19548 19551 19554 19557 19560 19563 19566 19569 19571 19574 19576 19579 19582 19585 19588 19591 19594 19597 19600 19603 19606 19609 19612 19615 19618 19621 19624 19627 19630 19633 19636 19639 19642 19645 19648 19651 19654 19657 19660 19663 19666 19669 19672 19675 19678 19681 19684 19687 19690 19693 19696 19699 19702 19705 19708 19711 19714 19717 19720 19723 19726 19729 19732 19735 19738 19741 19744 19747 19750 19752 19755 19758 19761 19764 19767 19770 19773 19776 19779 19782 19785 19788 19791 19794 19797 19800 19803 19806 19809 19812 19815 19818 19821 19823 19826 19829 19832 19834 19837 19839 19842 19845 19848 19851 19854 19857 19860 19863 19866 19869 19872 19875 19878 19881 19884 19887 19890 19893 19896 19899 19902 19905 19908 19911 19914 19917 19920 19923 19926 19929 19932 19935 19938 19941 19944 19947 19950 19953 19956 19958 19961 19963 19966 19969 19972 19975 19978 19981 19984 19987 19990 19993 19996 19999 20002 20005 20008 20011 20014 20017 20020 20023 20026 20029 20032 20035 20038 20040 20043 20046 20049 20052 20055 20058 20061 20064 20067 20070 20073 20076 20079 20082 20085 20088 20091 20094 20097 20100 20103 20106 20109 20112 20115 20118 20121 20124 20127 20130 20133 20136 20139 20142 20145 20148 20151 20154 20157 20160 20163 20166 20169 20172 20175 20178 20181 20184 20187 20190 20193 20196 20199 20202 20205 20208 20211 20214 20217 20220 20223 20226 20229 20232 20235 20238 20241 20244 20247 20249 20252 20255 20258 20261 20264 20267 20270 20272 20275 20278 20280 20283 20286 20289 20292 20295 20298 20301 20304 20307 20310 20313 20316 20319 20322 20325 20328 20331 20334 20337 20340 20342 20345 20348 20351 20354 20357 20360 20363 20366 20369 20372 20375 20378 20381 20384 20387 20390 20393 20396 20399 20402 20405 20408 20411 20414 20417 20420 20423 20426 20429 20432 20435 20438 20440 20443 20446 20449 20452 20454 20457 20459 20462 20465 20468 20471 20474 20477 20479 20482 20485 20487 20490 20493 20495 20497 20500 20502 20505 20508 20511 20513 20516 20519 20522 20525 20528 20531 20534 20537 20540 20543 20546 20549 20552 20555 20558 20560 20563 20566 20569 20572 20575 20578 20581 20584 20586 20589 20592 20595 20598 20601 20604 20607 20610 20613 20616 20619 20622 20625 20628 20631 20634 20637 20640 20643 20646 20649 20652 20655 20658 20661 20664 20667 20670 20673 20676 20679 20682 20685 20688 20691 20694 20696 20699 20702 20705 20708 20711 20714 20717 20719 20722 20725 20727 20730 20732 20735 20738 20741 20744 20747 20750 20753 20756 20759 20762 20765 20767 20769 20772 20775 20777 20780 20783 20785 20787 20790 20793 20796 20799 20801 20804 20806 20809 20812 20814 20817 20819 20821 20824 20826 20829 20831 20834 20837 20840 20843 20846 20849 20852 20854 20857 20859 20862 20865 20868 20871 20874 20876 20879 20882 20885 20887 20890 20893 20895 20898 20900 20903 20905 20907 20910 20913 20915 20918 20921 20924 20927 20930 20933 20935 20938 20941 20944 20947 20950 20953 20956 20959 20961 20963 20966 20969 20972 20974 20977 20980 20983 20986 20988 20990 20993 20995 20998 21001 21004 21006 21009 21012 21015 21018 21021 21024 21027 21030 21033 21036 21039 21042 21045 21048 21051 21054 21056 21059 21062 21065 21068 21071 21074 21076 21079 21081 21084 21087 21090 21092 21094 21097 21100 21102 21105 21107 21110 21113 21116 21119 21122 21125 21128 21131 21134 21137 21140 21143 21145 21147 21150 21153 21156 21159 21162 21164 21167 21170 21173 21176 21179 21182 21185 21187 21190 21193 21196 21198 21201 21203 21206 21209 21211 21214 21217 21220 21223 21226 21229 21232 21235 21238 21240 21243 21246 21248 21251 21254 21257 21260 21263 21266 21269 21272 21275 21278 21281 21283 21286 21289 21292 21295 21298 21301 21304 21307 21310 21313 21316 21319 21322 21325 21328 21331 21334 21337 21340 21343 21346 21349 21351 21354 21357 21360 21363 21366 21369 21372 21375 21378 21381 21384 21386 21389 21392 21395 21398 21400 21403 21406 21409 21412 21415 21418 21421 21424 21427 21430 21433 21435 21438 21441 21444 21447 21450 21452 21455 21457 21460 21463 21466 21469 21472 21475 21478 21481 21484 21486 21489 21492 21494 21497 21500 21502 21505 21508 21511 21514 21516 21519 21522 21525 21528 21531 21534 21537 21540 21543 21546 21549 21552 21555 21558 21561 21564 21567 21570 21573 21576 21579 21581 21584 21587 21589 21592 21594 21597 21600 21603 21606 21609 21612 21615 21618 21621 21623 21626 21629 21631 21633 21635 21638 21641 21644 21646 21649 21652 21655 21658 21661 21664 21666 21668 21671 21673 21676 21679 21681 21684 21687 21689 21692 21695 21698 21701 21703 21706 21709 21712 21715 21717 21720 21723 21726 21729 21732 21735 21738 21741 21744 21747 21750 21752 21755 21758 21760 21763 21765 21767 21770 21773 21775 21777 21779 21782 21785 21788 21791 21794 21797 21800 21803 21806 21809 21811 21814 21817 21820 21823 21826 21829 21832 21835 21838 21840 21843 21846 21849 21852 21855 21857 21860 21863 21866 21869 21872 21875 21878 21881 21884 21887 21889 21892 21895 21898 21901 21904 21907 21910 21913 21916 21919 21922 21925 21928 21931 21934 21937 21940 21943 21946 21949 21952 21955 21958 21961 21963 21965 21968 21971 21974 21977 21980 21983 21986 21989 21991 21994 21997 22000 22003 22006 22009 22012 22015 22018 22021 22024 22027 22030 22033 22036 22039 22041 22044 22047 22050 22053 22055 22058 22061 22064 22066 22068 22071 22074 22077 22080 22083 22086 22088 22091 22093 22096 22099 22102 22104 22107 22110 22113 22116 22119 22122 22125 22128 22130 22133 22135 22137 22140 22143 22146 22149 22152 22155 22158 22161 22164 22167 22170 22173 22175 22178 22181 22183 22186 22188 22191 22194 22197 22200 22203 22206 22209 22212 22215 22218 22221 22224 22227 22230 22233 22236 22239 22242 22245 22248 22251 22254 22257 22259 22262 22265 22268 22271 22274 22276 22279 22282 22285 22288 22291 22294 22297 22300 22303 22306 22308 22311 22314 22317 22319 22322 22325 22328 22331 22334 22337 22340 22343 22346 22349 22352 22354 22356 22359 22362 22365 22368 22371 22373 22376 22379 22382 22384 22387 22390 22393 22396 22399 22402 22405 22408 22411 22414 22416 22419 22422 22425 22428 22431 22434 22437 22439 22441 22444 22446 22449 22452 22455 22458 22460 22463 22466 22469 22472 22475 22477 22480 22483 22486 22489 22492 22495 22498 22501 22504 22507 22509 22512 22515 22518 22521 22524 22527 22530 22533 22536 22539 22541 22544 22547 22550 22553 22556 22559 22562 22564 22567 22570 22573 22576 22579 22582 22585 22588 22591 22594 22597 22600 22603 22606 22609 22612 22615 22618 22621 22624 22626 22629 22632 22635 22637 22640 22643 22646 22649 22652 22655 22658 22661 22664 22667 22670 22673 22676 22678 22681 22683 22685 22688 22690 22692 22695 22698 22701 22704 22707 22709 22712 22715 22718 22721 22724 22727 22730 22732 22735 22738 22740 22743 22746 22748 22751 22754 22756 22759 22762 22764 22766 22768 22770 22773 22776 22778 22780 22783 22786 22788 22791 22794 22796 22799 22802 22805 22808 22810 22812 22814 22816 22819 22822 22825 22827 22830 22832 22835 22837 22840 22842 22844 22847 22850 22853 22856 22859 22862 22865 22867 22870 22873 22875 22878 22880 22883 22886 22888 22890 22893 22896 22899 22902 22905 22908 22911 22914 22917 22920 22923 22926 22929 22932 22935 22938 22941 22943 22946 22949 22952 22955 22958 22961 22964 22967 22970 22973 22976 22979 22982 22985 22988 22991 22994 22996 22999 23002 23005 23008 23011 23014 23017 23020 23023 23026 23029 23032 23035 23038 23040 23042 23045 23048 23051 23054 23056 23059 23061 23064 23067 23070 23072 23074 23077 23079 23082 23085 23088 23091 23094 23097 23100 23103 23106 23109 23112 23115 23118 23121 23124 23127 23130 23133 23136 23138 23141 23143 23146 23149 23152 23155 23157 23160 23163 23166 23169 23172 23175 23178 23181 23184 23187 23190 23193 23196 23199 23202 23205 23208 23211 23214 23217 23219 23222 23225 23228 23231 23234 23237 23240 23243 23246 23249 23252 23255 23258 23261 23263 23266 23269 23272 23275 23278 23281 23284 23287 23290 23293 23296 23299 23302 23305 23308 23311 23314 23317 23320 23323 23326 23329 23332 23335 23338 23341 23344 23347 23350 23353 23356 23359 23362 23365 23368 23371 23374 23377 23380 23383 23386 23389 23392 23395 23398 23401 23404 23407 23410 23413 23416 23419 23422 23425 23428 23431 23434 23437 23440 23443 23446 23449 23451 23454 23457 23460 23462 23465 23468 23470 23473 23476 23479 23482 23485 23488 23491 23494 23497 23500 23503 23505 23508 23511 23514 23517 23519 23522 23525 23528 23531 23534 23537 23540 23543 23546 23549 23552 23555 23558 23561 23564 23567 23570 23573 23576 23579 23582 23585 23588 23591 23594 23597 23600 23603 23606 23608 23611 23614 23617 23620 23622 23625 23628 23631 23634 23637 23640 23643 23646 23649 23652 23654 23657 23660 23662 23665 23668 23671 23674 23677 23680 23683 23686 23689 23692 23695 23698 23700 23703 23706 23709 23712 23715 23718 23721 23724 23726 23729 23732 23735 23738 23741 23744 23747 23750 23753 23756 23758 23761 23763 23766 23769 23772 23774 23777 23780 23783 23785 23788 23790 23793 23795 23797 23800 23803 23806 23809 23812 23814 23817 23820 23823 23826 23829 23832 23835 23838 23841 23844 23847 23850 23853 23856 23859 23862 23865 23868 23871 23874 23877 23880 23883 23885 23888 23891 23893 23896 23899 23902 23904 23907 23909 23912 23915 23918 23921 23924 23927 23930 23933 23936 23939 23942 23945 23947 23950 23953 23956 23959 23962 23965 23968 23971 23974 23977 23980 23983 23986 23989 23992 23995 23998 24001 24004 24006 24009 24012 24015 24018 24021 24024 24027 24030 24033 24036 24039 24042 24045 24048 24051 24054 24057 24060 24063 24066 24069 24072 24075 24078 24081 24084 24087 24089 24092 24095 24098 24101 24104 24107 24110 24113 24116 24119 24122 24125 24128 24131 24134 24137 24140 24143 24145 24148 24151 24154 24156 24159 24162 24165 24167 24169 24172 24175 24178 24181 24184 24186 24189 24192 24195 24198 24201 24204 24207 24209 24211 24214 24217 24220 24222 24225 24227 24230 24233 24236 24239 24242 24245 24247 24249 24252 24255 24257 24259 24262 24265 24268 24271 24274 24277 24280 24283 24286 24289 24291 24294 24297 24300 24303 24306 24309 24311 24314 24317 24320 24323 24326 24329 24332 24335 24338 24341 24344 24347 24350 24353 24356 24359 24362 24364 24367 24370 24373 24376 24378 24381 24384 24386 24389 24392 24395 24398 24401 24404 24407 24410 24413 24416 24419 24421 24424 24426 24429 24431 24434 24437 24440 24443 24446 24449 24452 24455 24458 24461 24464 24467 24470 24473 24476 24479 24482 24485 24488 24490 24493 24496 24498 24501 24504 24507 24509 24512 24515 24517 24520 24523 24526 24529 24531 24534 24537 24540 24543 24546 24549 24552 24554 24557 24560 24563 24566 24569 24572 24575 24578 24581 24584 24587 24590 24593 24596 24599 24602 24605 24608 24611 24614 24617 24620 24623 24626 24629 24632 24635 24638 24641 24643 24646 24649 24652 24655 24658 24661 24664 24667 24670 24673 24676 24679 24682 24685 24688 24691 24694 24697 24700 24703 24706 24709 24712 24715 24718 24721 24724 24727 24730 24733 24736 24739 24742 24745 24748 24751 24754 24756 24758 24760 24763 24766 24768 24771 24774 24777 24779 24782 24784 24787 24790 24793 24796 24799 24801 24804 24807 24810 24813 24816 24819 24822 24824 24827 24830 24833 24836 24839 24842 24845 24848 24851 24854 24857 24860 24863 24866 24868 24871 24874 24877 24879 24882 24884 24887 24890 24893 24896 24899 24902 24905 24908 24910 24913 24916 24919 24922 24925 24928 24931 24933 24936 24938 24941 24943 24946 24949 24952 24955 24958 24961 24964 24967 24969 24972 24975 24977 24979 24981 24984 24986 24989 24991 24994 24997 25000 25003 25006 25009 25012 25015 25018 25021 25024 25027 25030 25033 25036 25039 25042 25045 25048 25051 25054 25056 25059 25062 25064 25066 25069 25072 25075 25077 25080 25083 25086 25089 25092 25095 25098 25100 25103 25105 25108 25111 25114 25117 25119 25122 25125 25127 25130 25133 25136 25139 25142 25145 25148 25150 25153 25156 25158 25161 25164 25167 25169 25172 25175 25178 25181 25184 25187 25190 25193 25196 25198 25201 25204 25207 25210 25213 25216 25218 25221 25224 25226 25229 25232 25235 25238 25240 25243 25246 25249 25252 25255 25258 25260 25262 25264 25267 25270 25273 25275 25278 25280 25283 25285 25288 25291 25294 25297 25300 25303 25305 25308 25311 25314 25316 25319 25322 25325 25327 25330 25333 25336 25339 25342 25345 25348 25351 25354 25357 25360 25363 25365 25368 25371 25374 25376 25379 25382 25385 25388 25391 25393 25395 25398 25401 25403 25406 25408 25410 25412 25415 25418 25421 25423 25426 25429 25432 25435 25438 25440 25443 25446 25449 25452 25455 25458 25461 25464 25467 25470 25473 25476 25478 25481 25484 25487 25490 25493 25496 25498 25501 25504 25506 25509 25512 25514 25517 25520 25523 25526 25529 25531 25534 25537 25539 25542 25544 25547 25549 25552 25555 25558 25561 25564 25567 25569 25572 25575 25578 25581 25583 25586 25589 25592 25595 25598 25601 25604 25607 25610 25613 25615 25618 25621 25624 25627 25630 25632 25635 25638 25641 25644 25647 25650 25653 25656 25659 25662 25665 25668 25671 25674 25677 25679 25682 25685 25688 25691 25694 25696 25699 25701 25704 25707 25710 25713 25716 25718 25721 25724 25727 25730 25733 25735 25738 25741 25744 25747 25750 25752 25755 25758 25761 25764 25767 25770 25773 25776 25779 25782 25784 25787 25789 25792 25794 25797 25800 25802 25805 25808 25811 25814 25817 25820 25823 25826 25828 25831 25833 25836 25839 25842 25845 25848 25851 25854 25857 25860 25863 25865 25868 25871 25874 25877 25880 25883 25886 25889 25892 25895 25897 25900 25903 25906 25908 25911 25913 25915 25918 25921 25924 25926 25929 25932 25935 25937 25939 25942 25945 25948 25951 25954 25957 25960 25963 25966 25969 25971 25973 25976 25979 25982 25985 25988 25990 25993 25996 25999 26002 26005 26008 26011 26014 26017 26020 26022 26025 26027 26029 26031 26034 26037 26040 26043 26046 26049 26052 26055 26057 26060 26063 26066 26069 26072 26075 26078 26081 26084 26087 26090 26093 26096 26099 26102 26105 26108 26111 26114 26117 26120 26123 26126 26129 26132 26135 26138 26141 26144 26146 26149 26152 26155 26158 26160 26163 26166 26169 26172 26175 26178 26181 26184 26186 26189 26192 26195 26198 26201 26204 26207 26210 26212 26215 26218 26221 26224 26227 26230 26233 26236 26239 26242 26245 26248 26251 26254 26257 26260 26263 26266 26269 26272 26275 26278 26281 26284 26287 26290 26292 26295 26298 26301 26304 26307 26310 26312 26315 26317 26320 26323 26325 26328 26331 26334 26336 26339 26341 26344 26347 26350 26352 26355 26358 26361 26363 26366 26369 26372 26375 26378 26381 26383 26386 26389 26392 26395 26398 26401 26404 26407 26410 26413 26416 26419 26422 26425 26428 26431 26434 26437 26440 26443 26446 26449 26452 26455 26458 26461 26464 26466 26469 26471 26474 26477 26480 26483 26485 26488 26491 26494 26497 26500 26503 26506 26509 26512 26515 26518 26521 26524 26526 26529 26532 26534 26537 26540 26542 26545 26548 26551 26554 26557 26559 26562 26565 26568 26571 26574 26577 26580 26583 26585 26588 26590 26593 26596 26599 26602 26605 26607 26609 26612 26615 26617 26620 26623 26626 26628 26631 26634 26637 26640 26643 26646 26649 26651 26654 26657 26660 26663 26666 26669 26672 26675 26678 26681 26684 26687 26690 26693 26696 26699 26701 26704 26707 26710 26713 26716 26718 26721 26723 26726 26729 26732 26735 26738 26741 26744 26747 26750 26753 26756 26759 26761 26764 26766 26769 26772 26775 26778 26781 26784 26786 26788 26791 26794 26797 26800 26803 26806 26809 26812 26815 26818 26821 26824 26827 26830 26833 26836 26839 26842 26845 26848 26851 26853 26856 26859 26861 26864 26867 26870 26873 26876 26878 26881 26884 26887 26890 26893 26896 26898 26901 26904 26907 26910 26913 26916 26919 26922 26925 26928 26931 26934 26937 26940 26943 26946 26948 26951 26954 26956 26959 26962 26965 26968 26970 26973 26976 26979 26982 26985 26988 26991 26994 26997 27000 27003 27005 27008 27011 27014 27017 27020 27023 27026 27029 27032 27035 27038 27041 27044 27047 27050 27053 27056 27059 27062 27064 27067 27070 27073 27076 27079 27082 27085 27088 27091 27094 27097 27100 27102 27105 27108 27111 27114 27117 27120 27123 27126 27129 27132 27135 27138 27141 27143 27145 27148 27151 27154 27157 27160 27163 27165 27168 27171 27174 27177 27180 27183 27186 27189 27192 27195 27198 27201 27204 27207 27210 27213 27216 27219 27222 27225 27228 27231 27234 27237 27240 27243 27246 27249 27252 27255 27258 27261 27264 27267 27270 27272 27275 27278 27281 27284 27287 27290 27293 27296 27298 27301 27304 27307 27310 27313 27316 27319 27322 27325 27328 27331 27334 27336 27339 27342 27345 27348 27350 27353 27355 27358 27361 27364 27367 27370 27373 27376 27379 27381 27384 27387 27390 27393 27396 27399 27402 27405 27408 27411 27413 27416 27419 27422 27424 27427 27430 27432 27435 27438 27441 27444 27446 27449 27452 27454 27457 27460 27463 27466 27469 27472 27475 27478 27480 27483 27486 27489 27491 27494 27497 27500 27503 27506 27509 27512 27514 27517 27519 27522 27524 27527 27529 27531 27534 27537 27540 27542 27544 27546 27549 27552 27554 27557 27560 27563 27565 27568 27571 27574 27577 27579 27582 27585 27588 27591 27594 27597 27600 27603 27606 27609 27612 27615 27618 27621 27624 27627 27630 27633 27636 27639 27642 27645 27648 27651 27654 27657 27660 27663 27666 27669 27672 27675 27678 27681 27684 27687 27690 27693 27695 27698 27701 27704 27707 27710 27713 27716 27719 27721 27724 27727 27730 27733 27735 27738 27741 27743 27746 27749 27751 27754 27757 27760 27763 27765 27768 27771 27774 27777 27780 27782 27785 27788 27791 27794 27797 27800 27803 27806 27809 27812 27815 27818 27821 27823 27825 27828 27831 27834 27836 27839 27842 27845 27848 27851 27854 27857 27860 27863 27866 27869 27872 27875 27878 27880 27883 27886 27889 27892 27895 27898 27900 27903 27906 27908 27911 27914 27917 27920 27923 27926 27929 27932 27935 27938 27940 27943 27946 27949 27952 27955 27957 27960 27963 27966 27969 27972 27975 27978 27981 27984 27987 27989 27992 27995 27998 28001 28004 28007 28010 28013 28016 28019 28022 28025 28028 28031 28034 28036 28039 28042 28045 28048 28051 28054 28057 28060 28063 28066 28069 28072 28075 28078 28081 28084 28087 28090 28093 28096 28099 28102 28105 28107 28110 28112 28115 28118 28121 28123 28126 28129 28132 28135 28138 28141 28144 28147 28150 28152 28155 28158 28161 28163 28166 28169 28172 28175 28178 28181 28184 28187 28190 28193 28196 28199 28202 28205 28208 28211 28213 28216 28219 28222 28225 28228 28230 28233 28236 28239 28241 28244 28246 28249 28252 28255 28258 28261 28264 28266 28269 28272 28275 28278 28281 28284 28287 28290 28293 28296 28299 28302 28305 28308 28311 28314 28317 28320 28323 28326 28329 28332 28335 28338 28341 28344 28347 28349 28352 28355 28357 28360 28363 28366 28369 28372 28375 28378 28380 28383 28386 28389 28392 28394 28397 28400 28402 28405 28408 28411 28414 28417 28420 28422 28425 28428 28431 28433 28436 28439 28442 28444 28447 28450 28453 28456 28459 28461 28464 28467 28470 28473 28476 28478 28481 28484 28487 28490 28493 28496 28499 28502 28504 28507 28510 28512 28515 28518 28521 28524 28526 28529 28532 28535 28538 28540 28543 28546 28549 28552 28554 28557 28560 28563 28565 28568 28570 28573 28576 28579 28582 28585 28588 28591 28594 28597 28600 28602 28605 28608 28611 28614 28617 28620 28623 28625 28627 28630 28633 28636 28639 28642 28644 28647 28650 28653 28656 28659 28661 28664 28667 28670 28672 28675 28678 28680 28683 28686 28688 28691 28694 28697 28699 28702 28705 28708 28711 28714 28717 28719 28722 28725 28728 28731 28734 28736 28739 28742 28745 28748 28751 28753 28756 28759 28762 28765 28768 28771 28773 28776 28779 28782 28785 28787 28790 28793 28796 28799 28802 28804 28807 28810 28813 28816 28819 28822 28825 28828 28831 28834 28836 28839 28842 28845 28848 28851 28854 28857 28859 28862 28865 28868 28871 28873 28875 28878 28881 28883 28886 28889 28892 28895 28898 28901 28904 28906 28909 28912 28915 28918 28921 28924 28927 28929 28932 28934 28937 28940 28942 28945 28948 28951 28954 28956 28959 28961 28964 28967 28970 28973 28976 28979 28982 28985 28988 28991 28993 28996 28999 29002 29005 29008 29010 29013 29016 29019 29021 29024 29027 29030 29033 29035 29038 29041 29043 29046 29049 29052 29055 29058 29060 29063 29065 29068 29070 29072 29075 29078 29081 29084 29086 29088 29091 29094 29097 29100 29103 29106 29109 29112 29115 29118 29121 29124 29127 29129 29132 29135 29138 29141 29144 29147 29149 29151 29154 29157 29160 29163 29166 29169 29172 29175 29178 29181 29184 29187 29190 29192 29195 29198 29201 29204 29207 29210 29213 29216 29219 29222 29225 29228 29231 29234 29237 29240 29243 29246 29249 29252 29255 29258 29261 29264 29267 29270 29273 29276 29279 29282 29285 29288 29291 29293 29296 29299 29301 29304 29307 29310 29313 29316 29319 29322 29324 29327 29330 29333 29335 29338 29341 29343 29346 29349 29352 29354 29356 29359 29362 29365 29368 29370 29372 29375 29378 29381 29384 29387 29390 29393 29396 29399 29402 29405 29408 29411 29414 29416 29419 29422 29424 29427 29430 29433 29435 29438 29441 29444 29447 29449 29452 29455 29457 29460 29463 29466 29469 29472 29475 29478 29481 29484 29487 29490 29492 29495 29498 29501 29504 29507 29510 29513 29515 29518 29521 29524 29527 29530 29533 29536 29539 29542 29545 29548 29551 29554 29557 29560 29563 29566 29569 29571 29574 29577 29580 29583 29586 29589 29591 29594 29596 29599 29602 29605 29608 29611 29613 29616 29619 29621 29624 29627 29630 29632 29635 29638 29641 29643 29646 29649 29652 29655 29658 29661 29664 29667 29670 29673 29676 29679 29682 29685 29687 29690 29693 29696 29699 29701 29703 29706 29709 29712 29715 29718 29721 29724 29727 29730 29733 29736 29739 29742 29745 29748 29751 29754 29757 29760 29762 29765 29768 29771 29774 29777 29780 29783 29786 29788 29791 29793 29796 29799 29802 29805 29808 29811 29814 29816 29819 29821 29824 29827 29830 29833 29836 29838 29841 29844 29847 29850 29853 29856 29858 29861 29864 29867 29870 29873 29875 29877 29880 29883 29886 29888 29890 29892 29895 29898 29901 29904 29907 29909 29912 29915 29918 29921 29924 29926 29929 29932 29935 29938 29940 29943 29945 29947 29950 29952 29954 29957 29960 29963 29965 29968 29971 29974 29976 29979 29982 29985 29987 29990 29993 29996 29998 30001 30004 30007 30010 30013 30016 30019 30022 30024 30027 30030 30033 30035 30038 30041 30044 30047 30050 30053 30055 30058 30061 30064 30067 30070 30073 30075 30078 30081 30084 30087 30090 30093 30096 30099 30102 30105 30108 30111 30114 30117 30119 30122 30124 30127 30130 30133 30135 30138 30141 30143 30146 30148 30151 30153 30156 30159 30161 30164 30167 30170 30173 30176 30179 30181 30184 30187 30190 30193 30195 30198 30201 30204 30207 30210 30213 30215 30218 30221 30224 30227 30230 30233 30236 30239 30242 30245 30247 30250 30253 30256 30259 30262 30265 30268 30271 30274 30277 30280 30283 30286 30289 30292 30295 30298 30301 30304 30306 30308 30311 30314 30317 30319 30322 30325 30327 30330 30333 30335 30338 30341 30343 30346 30349 30351 30353 30356 30359 30362 30365 30367 30370 30373 30376 30379 30382 30385 30388 30391 30394 30397 30400 30402 30404 30407 30410 30413 30415 30418 30420 30423 30425 30428 30431 30434 30437 30440 30442 30445 30448 30450 30453 30455 30458 30461 30463 30465 30467 30470 30473 30476 30479 30481 30484 30487 30489 30492 30494 30497 30500 30502 30505 30508 30511 30514 30517 30520 30523 30526 30528 30531 30533 30535 30538 30541 30544 30547 30550 30552 30554 30557 30560 30563 30565 30567 30570 30573 30576 30579 30582 30585 30588 30591 30593 30596 30598 30601 30604 30607 30610 30613 30616 30619 30622 30625 30628 30631 30634 30637 30640 30643 30646 30649 30652 30655 30658 30661 30664 30667 30670 30673 30676 30679 30682 30685 30687 30690 30693 30696 30699 30702 30705 30708 30711 30714 30717 30720 30723 30726 30729 30732 30734 30737 30740 30742 30745 30748 30751 30754 30757 30759 30762 30765 30768 30771 30774 30777 30780 30783 30786 30789 30792 30795 30798 30800 30803 30806 30809 30812 30815 30818 30821 30824 30827 30829 30832 30835 30837 30840 30843 30846 30849 30851 30853 30855 30858 30861 30864 30867 30870 30872 30875 30878 30881 
</DataArray>
<DataArray type="UInt32" Name="types" format="ascii">
5 5 3 5 5 5 5 3 5 5 5 5 5 5 5 5 5 5 5 5 3 5 5 5 5 3 5 5 5 5 5 5 5 3 5 5 5 5 5 5 5 5 3 5 5 5 5 5 5 5 5 5 5 5 3 3 5 5 5 5 5 5 5 5 3 5 5 5 5 5 5 5 5 5 5 5 5 5 5 5 5 5 5 5 5 5 5 3 5 5 5 5 5 5 5 5 5 5 5 3 5 5 5 3 5 5 5 5 5 5 5 5 5 5 5 5 5 5 5 5 5 5 5 5 5 5 5 5 5 5 5 5 5 5 5 5 5 5 5 5 5 5 5 5 5 5 5 5 5 3 5 3 5 5 5 5 5 5 5 5 5 5 5 5 5 5 5 5 5 5 5 5 5 5 5 5 5 5 3 5 5 3 5 3 5 5 5 5 5 5 5 5 5 5 5 5 5 5 3 5 3 5 5 5 5 5 5 5 3 5 3 5 5 5 5 5 5 3 5 5 3 5 5 5 5 5 5 3 3 5 5 3 5 3 5 3 3 5 5 5 3 5 5 5 5 5 5 5 5 5 5 5 5 5 3 5 5 5 5 5 5 5 3 5 5 5 5 5 5 5 3 5 5 5 5 3 5 5 5 5 5 5 3 5 5 5 3 5 5 5 5 5 5 5 3 5 5 5 5 5 5 3 5 5 5 5 5 5 3 5 5 5 5 5 5 5 3 5 5 5 5 5 5 5 5 5 5 5 5 5 5 5 5 5 5 5 5 5 3 3 5 5 5 5 5 3 5 5 5 5 5 5 5 3 5 3 5 5 5 3 5 5 5 3 5 3 5 5 5 5 5 5 5 3 5 5 5 5 5 5 5 3 5 5 5 3 5 5 5 5 5 5 5 5 5 5 5 5 5 5 5 5 5 5 5 5 5 5 5 5 5 5 5 5 5 5 5 5 3 5 5 5 5 5 5 5 5 5 5 5 5 5 5 5 5 5 5 5 5 5 5 5 5 5 5 5 5 5 5 5 5 3 5 5 5 5 5 5 5 5 5 5 5 5 5 5 5 5 5 5 5 5 3 5 5 5 5 5 5 5 3 5 5 5 5 5 3 5 5 3 5 3 5 5 5 5 3 5 5 3 5 5 5 5 5 5 3 5 5 5 5 5 5 5 5 5 5 5 5 5 5 5 5 5 5 5 3 5 5 5 5 5 5 5 5 5 5 5 3 3 5 5 5 5 5 5 5 5 5 5 5 5 5 5 5 5 5 5 5 5 5 3 5 3 3 5 5 3 5 5 5 5 5 5 5 5 5 5 5 5 5 3 5 5 5 5 5 5 5 3 3 5 5 5 5 5 5 5 5 3 3 5 5 5 3 5 5 5 5 5 5 5 5 5 5 5 5 5 5 5 5 5 5 5 5 5 5 5 5 5 5 5 5 5 5 5 5 5 5 5 3 5 5 3 5 5 5 5 3 5 5 5 3 5 5 5 3 5 5 3 5 5 5 5 5 5 5 5 5 5 5 5 5 5 5 5 5 5 5 5 5 3 5 5 5 3 5 5 5 5 5 3 5 5 5 5 5 5 3 5 5 5 5 5 5 5 5 5 5 5 5 5 5 5 5 5 5 3 5 5 5 5 5 5 5 5 5 5 5 5 5 5 5 5 5 5 5 5 5 3 5 5 5 5 5 5 5 5 5 5 5 5 5 5 5 3 5 5 5 5 5 5 5 5 5 5 5 5 5 5 5 5 5 5 3 5 5 5 5 5 5 5 3 5 5 5 5 5 5 5 5 5 5 5 5 5 5 5 5 5 5 5 5 5 3 5 5 5 5 5 5 5 5 5 3 5 5 5 5 5 5 5 5 3 5 5 5 5 5 5 5 5 5 5 5 5 5 5 5 5 5 5 5 3 5 5 5 5 5 3 5 5 5 3 5 5 5 5 5 5 3 5 5 5 5 5 5 5 5 5 5 3 5 5 5 5 5 5 5 5 5 5 5 5 3 5 3 5 5 5 5 5 5 5 3 5 3 5 5 5 5 5 5 5 5 5 5 5 5 5 5 5 5 5 5 5 5 5 5 5 5 5 5 5 5 5 5 5 5 5 5 5 5 5 5 5 5 5 5 5 5 5 3 3 5 5 3 5 5 5 5 5 5 5 5 5 5 5 5 5 5 5 5 3 5 5 5 5 3 5 5 3 5 5 5 5 5 5 3 5 3 5 5 3 5 5 5 5 5 5 5 5 5 5 3 5 5 5 5 5 3 3 5 5 5 5 3 5 5 3 5 3 5 5 5 5 5 3 5 5 3 5 5 5 5 5 5 5 5 5 5 5 5 3 5 5 5 5 5 5 5 5 5 5 5 5 5 5 5 3 5 3 5 3 3 5 3 5 5 3 5 5 5 5 5 5 3 5 3 5 5 3 5 5 5 3 5 5 3 5 5 5 5 5 3 5 5 3 5 5 5 5 5 3 5 3 5 5 3 5 5 3 5 5 5 5 5 5 5 5 3 5 5 5 5 5 5 5 5 5 5 3 5 5 5 5 3 5 5 3 5 5 5 5 5 3 5 5 5 5 5 3 5 3 5 5 5 5 5 5 3 5 5 5 5 5 5 5 5 3 3 3 5 5 5 5 3 5 3 5 5 5 3 3 5 5 5 3 5 5 5 3 5 3 5 3 3 5 3 5 5 5 5 3 5 5 5 3 5 3 5 3 5 5 5 5 5 5 5 3 5 5 5 5 3 5 5 5 5 5 5 5 5 3 5 3 3 5 5 5 3 5 5 5 5 3 3 5 5 3 3 5 5 5 5 5 3 5 5 5 5 5 5 5 5 3 5 3 5 5 5 5 5 5 5 5 5 5 5 5 5 5 5 5 5 3 5 5 5 5 5 5 5 5 5 5 5 5 5 5 5 5 5 5 5 5 5 5 5 5 5 3 5 3 5 5 5 5 5 3 3 5 5 5 5 3 3 5 3 5 5 3 5 5 3 5 5 5 5 3 3 5 5 5 5 5 5 5 5 3 5 5 3 5 5 5 3 5 5 3 5 5 5 5 5 5 3 5 5 5 5 5 5 3 5 5 5 5 5 3 5 5 3 3 5 5 3 5 5 3 5 5 5 5 5 5 5 5 5 5 5 5 3 5 3 5 5 3 5 5 5 5 5 5 3 5 5 5 3 3 3 5 5 5 3 3 5 3 3 5 5 3 5 5 3 5 3 5 3 5 5 5 3 3 5 5 3 3 3 3 5 5 5 3 3 5 5 3 3 3 5 3 3 5 5 3 5 3 3 5 3 5 5 3 5 3 3 5 5 5 5 3 3 5 5 3 5 5 5 3 5 5 5 5 5 5 5 5 5 5 5 5 5 5 5 5 5 5 5 5 5 5 5 5 5 5 5 5 5 5 5 5 5 5 5 5 5 5 5 5 5 5 5 5 5 5 5 5 5 5 5 5 5 5 5 5 5 5 3 5 3 5 5 5 5 5 5 5 5 5 5 5 5 5 5 3 5 5 5 5 5 5 5 5 5 5 3 5 5 5 5 5 5 5 5 5 5 5 5 5 5 5 5 5 5 5 5 5 5 5 5 5 5 5 5 5 5 5 5 5 5 5 5 5 5 5 5 5 5 5 5 5 5 3 5 5 5 3 5 3 5 5 5 5 5 3 5 3 5 5 5 5 5 5 5 5 5 5 5 5 5 5 5 5 5 5 5 5 5 5 5 5 5 3 5 5 5 5 5 5 3 5 3 5 5 5 3 5 5 3 5 5 5 5 5 5 5 5 5 5 5 5 5 5 5 5 5 5 5 5 5 5 5 5 5 5 5 5 5 5 5 5 5 5 5 5 5 3 5 3 5 5 5 5 5 5 5 5 5 5 3 5 5 5 5 5 5 5 5 5 5 5 5 5 5 5 5 5 3 5 5 5 3 3 5 3 5 5 5 5 5 5 5 5 3 5 5 5 5 3 5 5 5 5 5 5 5 3 5 5 3 5 3 5 5 3 5 5 3 3 5 5 5 5 5 5 5 5 5 5 5 5 5 5 5 3 5 3 5 5 5 3 5 3 5 5 5 5 5 5 5 5 5 5 5 5 3 5 3 5 5 5 5 5 5 5 5 3 5 5 3 5 5 5 3 3 5 5 5 5 5 5 5 5 5 5 5 5 5 5 5 5 5 5 5 5 5 3 5 5 5 5 5 3 5 3 5 5 5 5 3 5 5 3 5 5 5 5 5 3 5 5 5 5 3 5 5 5 5 5 5 5 3 5 5 5 3 5 5 5 5 5 5 5 5 5 5 5 3 5 5 5 5 5 5 5 5 3 5 5 5 5 5 5 3 5 5 5 5 5 5 3 5 5 5 5 5 5 5 5 5 5 5 3 5 5 5 3 5 5 5 3 5 3 5 5 5 5 5 5 3 5 5 5 5 5 5 5 5 5 5 5 5 5 5 5 3 5 5 5 5 5 3 5 5 5 5 5 5 5 5 3 5 5 5 5 5 5 5 5 5 5 5 5 5 5 5 5 3 5 5 5 5 3 5 5 5 5 5 5 5 5 5 5 5 5 5 5 5 5 5 5 5 5 5 5 5 5 5 5 3 5 5 5 3 5 3 5 5 5 5 3 5 3 5 5 5 5 5 3 5 5 5 5 5 5 5 5 5 3 5 5 5 5 5 5 5 5 5 5 5 5 5 5 5 5 5 5 5 5 5 5 5 5 3 3 5 5 5 5 5 3 5 5 5 3 5 5 5 3 5 5 3 5 3 5 5 5 5 3 5 5 5 5 3 3 5 5 5 5 5 5 5 5 5 5 5 5 3 5 5 5 5 3 5 5 5 5 5 3 5 5 3 5 5 5 5 5 5 5 5 5 5 5 5 5 5 5 5 3 5 5 3 5 5 5 3 5 5 5 5 5 5 5 5 5 5 5 3 5 5 5 5 5 5 5 5 5 5 5 5 5 5 5 5 3 5 5 3 5 3 5 5 3 5 3 5 3 5 5 5 5 5 5 5 5 5 5 5 5 5 3 5 3 3 5 5 3 3 5 5 3 3 5 5 5 3 5 3 5 5 3 5 5 5 5 3 3 5 3 5 5 3 3 5 5 3 5 5 5 3 5 5 5 3 3 3 5 5 3 5 3 3 5 5 5 5 5 5 5 5 5 5 5 3 3 5 3 5 3 5 3 5 5 5 3 5 5 5 5 5 3 5 5 5 5 5 5 5 5 5 5 5 5 5 5 5 5 5 5 5 5 5 5 5 5 3 5 5 5 5 5 5 5 5 5 5 5 5 5 5 5 5 5 5 3 5 5 5 5 5 5 5 5 5 5 5 3 5 5 5 5 5 3 5 5 5 5 5 5 5 5 5 5 5 5 5 5 3 5 5 5 5 5 5 5 5 5 5 5 5 5 5 3 5 3 5 5 5 5 3 5 5 5 5 5 5 5 5 5 5 5 5 3 5 3 5 5 5 5 3 5 5 5 5 5 5 5 3 5 5 5 5 5 5 5 3 5 5 5 3 5 3 5 5 5 5 5 5 5 5 5 3 5 5 5 5 5 5 5 5 5 5 5 5 5 5 5 5 5 5 5 5 5 5 5 5 5 5 5 5 5 5 5 5 5 5 5 5 5 5 5 5 5 5 5 3 5 5 3 5 5 5 5 5 5 5 5 5 5 3 5 5 5 5 5 3 5 5 3 5 5 5 5 5 5 3 5 5 5 5 3 5 5 3 5 3 5 5 5 5 5 5 5 5 5 5 5 3 5 3 5 5 5 5 3 5 5 5 5 5 5 5 5 5 5 5 5 5 5 5 5 5 5 5 5 5 3 5 5 5 5 3 5 5 5 5 5 5 5 3 5 5 5 5 5 3 5 5 5 3 5 5 5 3 5 5 3 5 5 5 3 5 5 3 5 5 5 5 5 5 5 5 5 5 5 5 5 5 5 5 5 5 5 5 5 5 5 5 5 5 5 5 5 5 5 3 5 5 5 5 5 5 5 5 5 5 5 3 5 5 5 5 5 5 5 5 5 5 5 5 5 5 5 3 3 5 5 5 3 5 5 5 5 3 5 5 3 5 5 5 5 5 5 5 5 5 5 5 5 5 3 3 5 5 5 5 5 5 5 5 5 5 5 3 5 5 3 5 5 5 5 5 5 5 5 5 5 5 5 5 5 5 5 5 5 5 3 5 5 5 3 5 5 5 5 5 3 5 5 5 5 5 5 5 5 5 5 5 5 5 5 5 5 5 5 5 5 3 5 5 3 5 5 5 5 5 5 5 5 5 5 5 5 5 5 5 5 5 5 5 3 5 5 5 5 5 5 5 5 5 5 5 5 5 5 5 5 5 5 5 5 5 5 5 5 5 5 5 5 5 5 5 5 3 5 5 5 5 5 5 3 5 5 5 5 5 3 5 5 5 5 3 5 5 5 5 5 5 5 5 5 5 5 5 5 5 5 5 5 5 5 5 5 5 3 5 5 5 5 5 5 5 3 5 5 3 5 5 3 5 5 5 5 5 5 3 5 5 5 5 5 5 5 5 5 5 3 5 3 5 5 5 5 5 5 5 5 3 5 5 3 5 5 5 3 5 5 5 3 5 5 5 3 3 5 5 3 5 5 3 5 5 3 5 5 5 5 5 5 5 5 5 3 5 5 5 3 5 5 5 3 5 5 5 3 5 3 5 5 3 5 5 5 5 5 5 5 5 3 5 5 3 5 5 5 5 5 5 5 5 5 5 5 5 5 3 5 3 5 5 5 3 3 5 3 5 5 5 5 3 5 3 5 5 5 5 5 5 5 5 5 3 5 5 5 5 5 5 5 5 5 5 5 5 5 5 5 5 5 5 5 5 5 5 5 5 5 5 5 5 3 5 5 5 5 5 5 3 5 5 5 5 5 5 3 5 5 5 5 5 5 3 5 5 5 3 5 5 5 3 5 5 3 5 5 5 5 5 5 3 5 5 5 3 3 5 5 5 5 5 5 5 5 5 5 5 5 5 5 5 5 5 3 5 5 5 5 5 5 5 3 5 5 5 5 5 3 5 5 5 5 5 3 5 5 3 5 5 5 5 3 5 5 5 5 5 5 3 5 3 5 3 3 5 3 5 5 5 3 5 5 5 5 5 3 5 5 5 3 5 5 5 5 3 3 3 5 5 5 5 3 3 5 3 5 5 5 5 5 5 3 5 3 5 5 3 5 5 5 3 5 5 3 5 5 5 5 5 5 5 5 5 5 5 5 3 5 5 5 5 3 5 5 5 5 3 5 5 5 5 5 5 5 5 5 3 3 3 5 5 5 3 3 5 5 3 5 3 5 5 5 5 5 5 5 3 5 5 5 5 5 5 5 5 5 5 5 5 5 5 5 5 3 5 5 5 5 5 5 5 5 5 3 5 5 3 5 3 5 3 5 5 3 5 5 5 3 3 5 5 3 5 5 5 3 5 5 5 5 3 5 5 5 5 5 5 5 5 5 5 5 3 3 5 5 5 5 5 5 5 5 5 5 5 5 5 5 5 5 5 5 5 5 5 5 5 5 5 5 5 5 5 5 5 5 3 5 5 5 5 5 5 5 5 5 5 5 5 5 5 5 5 5 5 5 3 5 5 5 5 5 5 3 3 5 5 3 3 5 5 5 3 5 5 5 5 5 5 5 5 5 5 5 5 5 5 5 5 5 5 5 5 5 5 5 3 5 3 5 3 5 5 5 5 5 5 3 5 3 3 5 5 3 5 5 5 5 5 5 3 3 5 5 3 3 5 5 3 3 5 5 5 5 5 5 5 5 3 5 5 5 5 5 3 5 5 3 5 5 5 3 5 5 5 5 5 5 5 5 5 5 5 5 5 5 5 5 5 5 5 5 5 5 5 5 5 5 5 5 5 5 5 5 5 5 3 5 5 3 5 3 3 5 5 5 5 5 5 5 5 5 3 5 5 5 5 5 3 5 5 5 5 5 5 5 3 5 5 5 5 5 5 5 5 3 5 5 5 5 5 3 5 5 5 5 5 5 5 5 5 5 5 5 5 5 5 5 5 5 5 5 5 5 5 5 5 5 5 5 5 5 3 3 5 5 5 5 5 5 5 3 5 5 5 3 5 3 5 5 5 5 5 5 5 5 5 5 5 5 5 5 5 5 5 5 5 5 5 3 5 5 5 5 5 5 3 5 5 5 5 5 5 5 3 5 5 3 5 5 5 5 5 5 3 5 5 5 3 5 5 3 3 5 5 5 5 5 5 5 5 5 5 5 5 5 5 5 5 5 5 5 5 5 5 5 5 5 5 5 5 3 5 5 5 5 5 5 5 5 5 5 5 5 5 5 5 5 5 5 5 3 5 5 5 3 3 5 5 5 5 5 3 5 5 5 3 5 5 5 5 5 3 5 5 5 5 5 5 5 5 5 5 5 5 5 5 5 5 5 5 5 5 5 3 5 5 5 5 5 5 3 5 5 5 5 5 5 5 5 5 5 5 5 3 5 5 5 5 3 5 3 5 5 5 5 5 5 5 5 5 5 5 5 5 3 5 5 5 5 5 3 5 5 5 5 5 5 3 5 5 5 5 5 5 5 5 5 5 5 5 3 5 5 3 5 5 3 5 5 3 5 5 5 5 5 5 5 5 5 5 3 5 5 5 5 5 5 5 5 3 5 5 5 3 5 5 5 3 5 5 3 5 5 5 3 5 5 5 5 5 3 5 3 5 5 5 5 3 3 5 5 5 3 5 5 5 5 3 5 5 5 5 5 5 5 5 5 5 5 5 5 5 5 3 5 5 3 3 5 5 5 5 3 5 5 5 5 5 5 3 5 5 5 5 5 5 3 5 5 5 5 5 5 5 5 3 5 5 5 5 5 5 5 5 5 5 3 5 5 3 5 5 3 5 5 5 5 5 3 3 5 5 3 3 5 3 5 3 5 3 3 5 5 3 5 3 5 3 5 3 5 3 5 5 3 5 3 5 3 5 5 5 5 5 5 3 5 5 5 3 5 5 5 5 5 5 5 5 5 3 5 5 3 5 3 5 3 5 5 5 3 3 5 5 5 5 5 5 5 5 5 5 5 3 5 5 5 5 5 3 5 5 5 5 5 5 5 5 5 5 5 5 5 5 5 5 5 3 5 5 5 5 5 5 3 5 5 5 3 5 5 3 5 5 5 3 5 3 3 5 5 5 5 5 5 5 5 5 3 5 5 5 5 5 5 5 3 5 3 5 3 5 5 5 5 5 5 5 5 5 5 5 5 5 5 5 5 5 5 5 5 5 5 5 5 5 5 5 5 5 5 5 5 5 5 5 5 5 3 5 5 3 3 5 5 5 5 3 5 5 5 5 5 3 5 5 3 3 5 5 5 5 5 5 3 5 3 5 5 3 3 5 3 5 5 5 3 5 5 5 5 3 5 5 5 3 5 5 3 3 5 5 5 3 5 5 5 5 3 5 5 3 5 5 5 3 5 5 3 5 5 5 3 5 3 5 5 3 5 5 3 3 5 5 3 5 3 3 5 5 5 5 3 5 5 5 5 3 5 5 5 5 5 5 5 5 5 5 5 5 3 5 5 5 5 3 5 3 5 5 5 5 5 3 3 3 5 5 5 5 5 5 5 5 3 5 5 5 5 5 5 3 5 5 5 5 3 5 5 5 5 5 5 5 5 5 5 5 5 5 5 5 5 5 5 3 5 3 5 5 3 3 5 3 5 5 3 5 3 5 3 5 3 5 5 5 5 3 5 5 5 3 5 5 5 5 5 5 5 5 5 5 5 5 5 5 5 5 5 5 5 5 5 5 5 5 5 3 5 5 5 5 5 3 5 5 5 5 5 5 5 5 5 5 5 3 5 5 5 5 5 3 5 5 3 3 5 5 5 3 5 5 3 3 5 3 5 5 5 5 5 5 5 5 5 5 5 5 5 5 5 5 3 5 5 5 5 3 5 5 5 5 5 5 5 5 3 3 5 5 3 5 5 5 5 5 5 5 5 5 3 3 5 5 3 5 5 5 3 5 5 5 5 5 5 5 5 5 5 5 5 5 5 5 5 5 5 5 5 5 5 5 5 5 5 3 5 5 5 5 5 5 5 5 5 5 5 5 5 5 5 5 5 5 5 5 3 5 5 5 3 3 5 5 5 3 5 5 3 5 5 5 5 5 3 5 3 5 5 5 5 5 5 5 5 3 5 5 5 3 5 5 3 5 3 5 5 5 3 5 5 5 3 5 5 5 5 5 5 5 5 5 5 5 5 5 5 5 5 5 3 5 5 5 5 5 5 5 5 5 3 5 5 5 5 5 5 5 5 3 5 5 5 5 5 5 5 5 5 5 5 5 5 3 5 5 5 3 5 5 5 5 5 5 5 5 5 5 5 5 5 5 5 5 5 5 5 3 5 5 5 3 5 3 5 5 5 3 5 5 5 3 3 5 5 5 5 5 5 5 5 5 5 5 5 5 5 5 5 5 5 5 5 5 5 3 5 5 5 5 3 5 5 5 5 3 5 5 5 5 5 5 5 3 5 5 5 5 3 5 5 5 5 5 5 3 5 5 5 5 5 5 3 5 5 5 3 5 5 5 5 5 5 5 5 5 3 5 5 5 5 5 5 3 5 5 5 5 5 5 5 5 5 5 5 3 5 5 3 5 5 5 5 5 3 5 5 3 5 5 5 5 5 5 5 3 3 5 5 5 5 3 5 5 5 5 5 5 3 5 5 5 5 5 5 5 5 5 5 3 5 5 5 5 5 5 5 5 5 5 5 5 3 5 3 5 5 5 3 5 5 3 5 5 5 5 3 5 5 5 5 5 3 5 5 5 5 5 5 5 5 3 5 5 5 5 3 5 5 5 5 5 5 5 3 5 5 5 5 5 5 5 5 5 5 3 5 5 5 3 5 3 5 5 5 5 5 5 3 5 3 5 3 5 5 5 5 3 5 5 5 5 5 5 5 5 5 5 5 5 5 5 3 5 3 5 5 5 5 5 5 5 3 5 5 5 5 5 5 5 5 5 5 5 5 5 3 5 5 5 5 3 5 5 5 5 5 5 5 5 5 5 5 5 5 5 5 5 5 5 5 5 5 5 5 5 3 5 5 5 5 3 5 5 5 3 5 5 3 5 5 3 5 5 5 5 5 5 5 5 5 5 5 5 5 5 5 3 5 5 3 5 5 5 5 5 5 5 3 5 5 5 5 5 3 5 5 5 3 5 5 5 3 5 5 5 5 5 5 5 3 5 5 5 3 5 3 3 5 5 5 5 5 3 5 5 5 5 5 5 5 5 5 5 3 5 5 5 5 5 5 5 5 5 5 5 5 5 5 5 5 5 5 5 5 5 5 5 5 5 5 5 5 5 5 5 5 5 5 5 5 5 3 5 5 5 5 5 5 5 5 5 5 5 5 5 5 5 5 3 5 5 5 5 5 5 5 5 5 3 5 5 5 5 5 5 5 3 5 5 5 5 5 5 5 5 5 5 5 5 5 5 5 5 5 5 5 5 5 3 5 5 5 5 5 5 5 5 5 5 5 5 5 5 5 5 5 3 5 5 5 5 5 5 5 5 5 5 5 5 5 5 5 5 5 5 5 5 5 5 5 5 5 5 5 5 5 5 5 5 5 5 5 5 5 5 5 5 5 5 5 5 5 5 3 5 5 5 5 5 5 5 5 5 5 5 5 5 3 5 3 5 5 5 5 5 3 5 5 5 5 5 3 3 5 5 5 5 5 5 5 5 5 5 5 5 5 5 5 5 5 3 3 5 5 5 5 5 5 3 5 3 5 5 5 5 5 5 5 5 5 3 5 5 5 5 5 5 5 5 5 5 5 5 5 5 5 5 5 5 5 3 5 5 5 5 5 3 5 3 5 5 5 5 5 5 5 3 5 5 5 3 5 5 5 3 5 5 3 5 5 5 3 5 5 3 5 3 5 3 5 5 3 5 5 5 5 5 5 5 5 5 5 5 5 5 5 5 5 5 5 5 5 5 3 5 3 5 5 5 5 5 5 5 3 5 5 5 5 5 5 5 5 5 5 5 5 5 5 5 5 5 5 5 3 5 5 5 3 5 5 5 5 5 5 5 5 5 5 3 5 5 5 5 3 5 5 3 5 5 5 5 5 3 5 5 5 5 3 5 3 5 5 3 5 5 5 5 5 5 5 3 5 5 3 5 3 5 5 5 5 5 5 5 5 5 5 5 5 5 5 5 5 5 5 3 5 5 5 5 5 5 5 3 5 5 5 5 3 5 5 5 5 5 5 5 5 5 3 5 5 5 5 3 5 5 5 5 5 5 5 5 5 5 5 5 3 5 5 5 5 5 5 5 5 5 3 5 5 5 5 5 5 5 5 5 5 5 5 3 5 5 3 5 5 5 5 5 5 5 5 5 3 3 3 5 5 5 3 5 5 5 5 5 5 3 5 5 5 3 3 5 5 5 5 5 5 5 5 5 5 5 5 3 5 5 5 3 3 5 5 5 5 5 3 5 5 5 5 3 5 5 5 5 3 5 5 5 5 5 3 3 3 5 5 5 3 3 5 5 5 5 5 5 5 5 5 3 3 5 5 5 3 3 5 5 5 5 5 5 5 5 5 5 5 5 5 5 5 5 5 3 5 3 5 5 5 5 3 5 5 5 5 5 5 5 3 5 5 5 5 5 5 5 3 5 5 3 5 3 3 5 5 5 3 3 5 5 5 3 3 5 5 5 5 5 5 5 5 5 5 3 5 5 5 5 5 5 5 3 5 5 5 5 3 5 5 5 5 5 5 3 5 5 5 5 3 5 3 5 5 5 5 5 5 5 5 5 5 5 5 5 5 3 5 5 5 5 5 5 5 3 5 5 5 5 3 5 5 5 3 5 5 5 5 5 5 5 5 5 5 5 5 5 5 5 5 5 5 5 5 5 5 3 5 3 5 5 3 5 5 5 3 5 5 3 5 5 5 5 5 5 5 5 5 5 5 5 5 5 5 5 5 5 5 5 3 3 3 5 5 5 5 5 5 5 5 5 5 5 5 5 3 5 5 5 3 5 5 3 5 5 5 5 3 5 5 3 3 5 5 5 5 3 5 5 3 5 3 5 5 5 5 5 5 5 5 5 5 5 5 3 5 5 5 5 5 5 5 3 5 3 5 5 5 5 3 5 5 5 5 5 5 5 5 5 5 5 5 5 5 5 5 5 5 5 5 5 5 5 3 5 5 5 3 5 3 5 5 5 3 5 5 5 5 5 3 5 5 3 5 5 5 5 5 5 5 5 3 5 5 5 5 5 3 5 5 5 5 5 5 5 5 5 5 5 5 5 5 3 5 5 5 5 3 5 5 5 5 5 5 5 5 5 5 5 5 3 5 5 5 5 3 5 5 5 5 5 5 5 5 5 5 5 5 5 3 5 5 3 5 5 5 3 5 5 5 5 5 5 5 5 5 5 5 5 5 3 3 5 3 3 5 5 5 3 3 5 3 5 3 5 3 5 5 5 3 5 3 5 5 5 5 3 5 5 5 5 5 5 3 5 5 5 5 5 3 5 5 3 5 5 3 5 5 3 5 5 5 5 5 3 5 3 5 5 5 5 5 5 5 5 5 5 5 5 5 3 5 5 3 5 5 5 5 5 5 5 5 5 3 5 5 5 5 5 5 5 5 5 3 5 5 3 5 3 5 5 5 5 5 5 5 3 5 5 5 5 5 5 5 3 5 3 5 5 3 5 5 5 3 5 5 5 5 3 5 5 5 5 5 3 5 5 5 5 5 5 5 5 5 5 5 5 5 5 5 5 5 5 5 5 5 3 5 5 3 5 5 5 3 5 5 5 5 3 5 5 5 5 5 5 5 5 5 5 5 5 5 5 5 5 5 5 5 5 5 5 5 3 5 5 5 5 5 5 3 5 5 5 5 5 5 5 5 5 5 5 5 5 3 5 3 5 5 3 5 5 5 5 3 3 5 3 5 3 5 5 5 5 5 3 5 5 3 3 5 5 5 5 5 3 5 5 3 5 5 5 5 5 5 5 5 3 3 5 5 5 3 5 3 5 5 5 5 5 3 5 3 5 5 5 5 5 3 3 5 5 5 5 3 5 5 5 5 3 5 5 5 5 5 5 5 5 5 5 5 5 5 5 5 5 5 3 5 5 3 5 5 5 3 5 5 5 5 5 5 5 5 5 5 5 5 5 5 5 5 5 5 5 3 5 5 5 5 5 5 5 5 5 5 5 5 5 5 3 3 5 5 5 3 5 5 5 5 5 3 5 5 5 5 5 5 5 5 5 5 5 3 5 5 3 5 5 5 5 5 5 5 5 5 5 3 5 5 5 3 5 3 5 3 5 5 5 3 3 5 3 5 5 3 5 5 3 3 5 5 5 3 5 5 3 5 3 5 5 5 3 5 5 3 3 5 3 5 5 3 5 3 5 5 5 5 5 5 5 5 5 3 5 5 5 5 5 3 5 5 5 5 5 5 5 5 5 5 3 5 5 5 5 3 3 5 5 3 5 3 5 5 5 5 5 3 5 5 3 5 3 5 5 5 5 5 5 5 3 5 5 5 5 5 5 5 5 5 3 5 3 5 3 5 3 5 5 5 5 3 5 5 5 5 5 3 3 5 5 5 5 5 5 3 5 5 5 5 5 3 5 5 5 5 3 5 5 3 5 3 5 5 5 3 5 3 5 5 3 3 3 5 5 5 5 5 5 3 3 3 5 5 5 5 3 5 3 5 3 5 5 5 5 5 5 3 5 5 5 5 5 5 5 5 5 5 5 5 5 5 5 5 5 5 5 5 5 5 5 5 5 5 5 5 5 5 5 5 5 5 5 5 5 5 5 5 5 5 5 5 5 5 5 5 5 3 5 5 5 3 3 5 5 5 5 5 5 5 5 5 5 5 5 5 5 5 5 5 5 5 3 5 5 5 5 5 5 5 3 5 5 3 5 5 3 5 5 3 5 3 5 5 3 5 5 5 3 5 3 5 3 3 5 5 5 3 3 5 5 3 5 5 3 5 5 5 5 5 5 5 5 5 5 5 5 3 5 5 5 5 3 5 5 5 5 3 5 5 5 5 5 5 5 5 5 3 5 3 5 5 5 5 3 5 5 5 3 5 5 5 5 5 5 3 5 5 3 5 5 5 3 5 5 5 5 5 5 5 3 5 5 5 5 5 3 5 5 5 5 5 5 5 5 5 5 5 5 5 5 5 3 5 5 5 5 5 3 5 5 3 5 3 5 5 5 5 3 3 5 5 3 5 5 5 5 5 5 5 5 5 5 5 3 5 3 5 5 5 5 5 3 5 5 5 3 5 5 5 3 5 5 5 5 5 5 5 5 5 5 5 5 5 3 5 5 5 5 5 5 5 3 5 3 5 5 5 5 5 5 5 3 3 5 5 5 5 5 5 5 5 5 3 5 5 5 5 5 5 3 3 3 5 3 5 5 5 5 5 5 3 5 3 5 3 5 3 5 5 5 5 5 5 3 5 5 3 5 5 5 5 3 5 5 5 5 5 5 5 5 5 5 5 5 5 5 5 5 5 5 5 5 5 3 5 3 5 5 5 5 5 5 5 5 5 5 5 5 5 5 5 5 5 5 5 5 5 5 5 5 5 5 5 5 5 5 5 5 5 5 5 5 5 5 5 5 5 5 5 5 5 5 5 5 5 5 5 5 5 5 5 5 5 5 3 5 5 5 5 5 5 5 5 5 5 5 5 5 5 5 5 5 5 5 5 5 5 5 3 5 5 5 3 5 3 5 5 5 5 5 5 5 5 5 5 5 5 5 5 5 5 5 5 5 5 5 5 5 5 5 5 5 5 5 5 5 5 5 5 5 5 5 5 5 3 5 3 5 5 5 5 5 5 5 5 5 5 5 5 5 5 5 5 5 5 5 5 5 5 5 5 5 3 5 5 5 5 5 5 5 5 5 5 5 5 5 5 5 5 5 5 5 5 5 5 5 5 5 5 5 5 5 5 5 5 5 5 5 5 5 5 5 5 5 5 5 5 5 5 5 5 5 5 5 5 5 5 5 5 5 5 5 5 5 5 5 5 5 5 5 5 5 3 5 5 5 5 5 5 5 3 5 5 3 5 5 5 5 5 5 5 5 5 5 5 5 5 5 5 5 5 5 5 5 3 5 5 5 5 5 5 5 5 5 5 5 5 5 5 5 5 5 5 5 5 5 5 5 5 5 5 5 5 5 5 5 5 3 5 5 5 5 3 5 3 5 5 5 5 5 5 3 5 5 3 5 5 3 3 5 3 5 5 5 3 5 5 5 5 5 5 5 5 5 5 5 5 5 5 5 3 5 5 5 5 5 5 5 5 3 5 5 5 5 5 5 5 5 5 5 5 5 5 5 5 5 5 5 5 5 5 5 5 5 5 5 5 5 5 5 5 5 5 5 5 5 3 5 5 5 5 5 5 5 3 5 5 3 5 3 5 5 5 5 5 5 5 5 5 5 5 3 3 5 5 3 5 5 3 3 5 5 5 5 3 5 3 5 5 3 5 3 3 5 3 5 3 5 5 5 5 5 5 5 3 5 3 5 5 5 5 5 3 5 5 5 3 5 5 3 5 3 5 3 3 5 5 3 5 5 5 5 5 5 3 5 5 5 5 5 5 5 5 3 3 5 5 5 3 5 5 5 5 3 3 5 3 5 5 5 3 5 5 5 5 5 5 5 5 5 5 5 5 5 5 5 5 3 5 5 5 5 5 5 3 5 3 5 5 5 3 3 5 5 3 5 3 5 5 5 5 5 5 5 5 5 5 5 5 3 3 5 5 5 5 5 3 5 5 5 5 5 5 5 3 5 5 5 3 5 3 5 5 3 5 5 5 5 5 5 5 5 5 3 5 5 3 5 5 5 5 5 5 5 5 5 5 5 3 5 5 5 5 5 5 5 5 5 5 5 5 5 5 5 5 5 5 5 5 5 5 3 5 5 5 5 5 5 5 5 5 5 5 3 5 5 5 5 3 5 5 5 5 5 5 5 5 5 5 5 3 5 5 5 5 5 3 5 3 5 5 5 5 5 5 5 5 5 3 5 5 3 5 5 3 5 5 5 5 3 5 5 5 5 5 5 5 5 5 5 5 5 5 5 5 5 5 5 5 5 5 3 5 5 3 5 3 5 5 5 5 5 5 5 5 5 3 5 5 3 3 3 5 5 5 3 5 5 5 5 5 5 3 3 5 3 5 5 3 5 5 3 5 5 5 5 3 5 5 5 5 3 5 5 5 5 5 5 5 5 5 5 5 3 5 5 3 5 3 3 5 5 3 3 3 5 5 5 5 5 5 5 5 5 5 3 5 5 5 5 5 5 5 5 5 3 5 5 5 5 5 3 5 5 5 5 5 5 5 5 5 5 3 5 5 5 5 5 5 5 5 5 5 5 5 5 5 5 5 5 5 5 5 5 5 5 5 3 3 5 5 5 5 5 5 5 5 3 5 5 5 5 5 5 5 5 5 5 5 5 5 5 5 5 3 5 5 5 5 3 5 5 5 3 3 5 5 5 5 5 5 3 5 3 5 5 5 3 5 5 5 5 5 5 5 5 3 5 3 3 5 5 5 5 5 5 5 5 5 5 5 5 3 5 5 3 5 3 5 5 5 5 5 5 5 5 5 5 5 5 5 5 5 5 5 5 5 5 5 5 5 3 5 5 5 5 5 3 5 5 5 5 5 5 5 5 5 5 3 5 5 5 3 5 5 5 5 5 5 5 5 5 5 5 3 3 5 5 5 5 5 3 5 5 5 3 5 5 5 5 5 5 5 5 5 5 3 5 5 5 5 5 5 5 3 3 5 3 5 5 5 5 3 5 5 5 5 5 3 5 5 5 5 5 5 5 5 5 5 3 5 5 5 5 5 5 5 5 5 5 3 5 5 5 5 5 5 5 3 5 5 5 5 5 5 5 5 5 5 5 5 5 5 5 5 5 5 5 5 3 5 5 5 3 5 5 5 5 5 5 5 5 5 5 5 5 5 3 5 3 3 5 3 3 5 5 5 5 5 3 5 5 5 5 5 5 5 3 5 5 3 5 5 3 5 5 3 5 5 3 3 3 3 5 5 3 3 5 5 3 5 5 3 5 5 5 5 3 3 3 3 5 5 5 3 5 3 5 3 5 3 3 5 5 5 5 5 5 5 3 5 5 3 5 3 5 5 3 3 5 5 5 5 5 5 5 5 5 5 5 5 5 5 5 5 5 3 5 5 5 5 5 5 5 5 5 5 5 5 5 5 5 5 5 3 5 5 5 5 5 5 5 5 5 5 5 5 5 5 3 3 5 5 5 5 3 5 3 5 5 5 3 3 5 3 5 5 5 5 5 5 5 5 5 5 5 5 5 5 5 5 5 5 5 3 5 3 5 5 5 5 3 5 5 5 5 5 5 5 5 5 5 5 5 5 5 5 5 5 5 5 5 3 5 5 5 5 5 5 5 5 5 5 5 5 5 5 3 5 5 5 5 5 5 5 5 5 5 5 5 5 5 5 5 5 5 5 5 5 5 5 5 5 5 5 5 5 5 5 5 5 5 5 5 5 5 5 5 5 5 5 5 5 5 5 5 5 5 5 5 5 5 5 5 5 5 5 5 5 5 3 5 5 5 3 5 5 3 5 5 5 5 5 5 5 5 5 5 5 3 5 5 5 5 3 5 5 5 5 5 5 5 5 5 5 5 5 5 5 5 5 5 5 5 5 5 5 5 5 5 5 5 5 5 3 5 5 5 5 3 5 5 5 5 5 5 5 5 5 5 3 5 5 3 5 5 5 5 5 5 5 5 5 5 5 5 3 5 5 5 5 5 5 5 5 3 5 5 5 5 5 5 5 5 5 5 3 5 3 5 5 5 3 5 5 5 3 5 3 5 3 3 5 5 5 5 5 3 5 5 5 5 5 5 5 5 5 5 5 5 5 5 5 5 5 5 5 5 5 5 5 3 5 5 3 5 5 5 3 5 3 5 5 5 5 5 5 5 5 5 5 5 5 3 5 5 5 5 5 5 5 5 5 5 5 5 5 5 5 5 5 5 5 3 5 5 5 5 5 5 5 5 5 5 5 5 5 5 5 5 5 5 5 5 5 5 5 5 5 5 5 3 5 5 5 5 5 5 5 5 5 5 5 5 5 5 5 5 5 5 3 5 5 5 3 5 5 5 3 3 5 5 5 5 5 3 5 5 5 5 5 5 5 3 3 5 5 5 3 5 3 5 5 5 5 5 5 3 3 5 5 3 3 5 5 5 5 5 5 5 5 5 5 3 5 5 5 5 5 5 3 5 5 5 5 5 5 5 5 5 5 5 5 5 5 5 5 5 3 5 5 5 5 3 5 5 3 5 5 5 5 5 5 5 5 5 5 5 3 5 3 5 3 5 5 5 5 5 5 5 5 5 5 5 5 5 5 5 5 5 5 5 3 5 5 3 5 5 5 3 5 5 3 5 5 5 5 3 5 5 5 5 5 5 5 3 5 5 5 5 5 5 5 5 5 5 5 5 5 5 5 5 5 5 5 5 5 5 5 5 5 5 5 5 5 3 5 5 5 5 5 5 5 5 5 5 5 5 5 5 5 5 5 5 5 5 5 5 5 5 5 5 5 5 5 5 5 5 5 5 5 5 5 3 3 3 5 5 3 5 5 5 3 5 3 5 5 5 5 5 3 5 5 5 5 5 5 5 3 5 5 5 5 5 5 5 5 5 5 5 5 5 5 3 5 5 5 3 5 3 5 5 5 5 5 5 5 5 3 5 5 5 5 5 5 5 3 5 3 5 3 5 5 5 5 5 5 5 5 3 5 5 3 3 3 5 3 5 3 5 5 5 5 5 5 5 5 5 5 5 5 5 5 5 5 5 5 5 5 5 3 5 5 3 3 5 5 5 3 5 5 5 5 5 5 5 3 5 3 5 5 5 5 3 5 5 3 5 5 5 5 5 5 5 3 5 5 3 5 5 5 3 5 5 5 5 5 5 5 5 5 3 5 5 5 5 5 5 3 5 5 3 5 5 5 5 3 5 5 5 5 5 5 3 3 3 5 5 5 3 5 3 5 3 5 5 5 5 5 5 3 5 5 5 3 5 5 5 3 5 5 5 5 5 5 5 5 5 5 5 5 3 5 5 5 3 5 5 5 5 5 3 3 5 5 3 5 3 3 3 5 5 5 3 5 5 5 5 5 3 5 5 5 5 5 5 5 5 5 5 5 5 3 5 5 5 5 5 5 3 5 5 3 5 5 3 5 5 5 5 5 3 5 5 3 5 3 5 3 5 5 5 5 5 5 3 5 5 5 5 3 5 5 5 5 5 5 5 5 5 5 3 5 5 5 5 5 3 5 5 5 5 5 5 5 5 5 5 5 5 5 5 5 3 5 5 5 5 5 3 5 3 5 5 5 5 5 3 5 5 5 5 5 3 5 5 5 5 5 3 5 5 5 5 5 5 5 5 5 5 3 5 3 5 3 5 5 3 5 5 5 5 5 5 5 5 3 5 3 5 5 5 5 5 5 5 5 5 5 3 5 5 5 5 5 5 5 5 5 5 3 5 5 5 3 5 3 3 5 5 5 3 5 5 5 3 3 5 5 5 5 5 5 5 5 5 5 3 3 5 5 5 5 5 3 5 5 5 5 5 5 5 5 5 5 3 5 3 3 3 5 5 5 5 5 5 5 5 3 5 5 5 5 5 5 5 5 5 5 5 5 5 5 5 5 5 5 5 5 5 5 5 5 5 5 5 5 5 3 5 5 5 5 3 5 5 5 5 5 5 5 5 3 5 5 5 5 5 5 5 5 3 5 5 5 5 5 5 5 5 5 5 5 5 5 5 5 5 5 5 5 5 5 5 5 5 5 5 3 5 5 5 5 5 5 3 5 3 5 5 3 5 5 5 3 5 3 5 5 5 3 5 5 5 3 5 5 5 5 5 5 3 5 5 5 5 5 5 5 5 5 5 5 5 5 5 5 5 5 5 5 5 5 5 5 5 5 5 5 3 5 3 5 5 5 5 3 5 5 5 5 5 5 5 5 5 5 5 5 5 3 5 5 3 5 5 3 5 5 5 5 5 3 5 5 5 5 5 5 5 5 3 5 3 5 5 5 5 5 3 3 5 5 3 5 5 5 3 5 5 5 5 5 5 5 3 5 5 5 5 5 5 5 5 5 5 5 5 5 5 5 5 3 5 5 5 5 5 3 5 3 5 5 5 5 5 5 5 5 5 5 5 5 3 5 3 5 5 5 5 5 5 3 3 5 5 5 5 5 5 5 5 5 5 5 5 5 5 5 5 5 5 5 5 5 3 5 5 3 5 5 5 5 5 3 5 5 5 5 5 5 3 5 5 5 5 5 5 5 5 5 5 5 5 5 5 5 5 3 5 5 3 5 5 5 5 3 5 5 5 5 5 5 5 5 5 5 5 3 5 5 5 5 5 5 5 5 5 5 5 5 5 5 5 5 5 5 5 3 5 5 5 5 5 5 5 5 5 5 5 5 3 5 5 5 5 5 5 5 5 5 5 5 5 5 3 3 5 5 5 5 5 5 3 5 5 5 5 5 5 5 5 5 5 5 5 5 5 5 5 5 5 5 5 5 5 5 5 5 5 5 5 5 5 5 5 5 5 5 3 5 5 5 5 5 5 5 5 3 5 5 5 5 5 5 5 5 5 5 5 5 3 5 5 5 5 3 5 3 5 5 5 5 5 5 5 5 3 5 5 5 5 5 5 5 5 5 5 3 5 5 5 3 5 5 3 5 5 5 5 3 5 5 3 5 5 5 5 5 5 5 5 3 5 5 5 3 5 5 5 5 5 5 5 3 5 3 5 3 5 3 3 5 5 5 3 3 3 5 5 3 5 5 5 3 5 5 5 5 3 5 5 5 5 5 5 5 5 5 5 5 5 5 5 5 5 5 5 5 5 5 5 5 5 5 5 5 5 5 5 5 5 5 5 5 5 5 5 3 5 5 5 5 5 5 5 5 3 5 5 5 5 3 5 5 3 5 5 3 5 5 5 5 3 5 5 5 5 5 3 5 5 5 5 5 5 5 5 5 5 5 5 5 3 3 5 5 5 3 5 5 5 5 5 5 5 5 5 5 5 5 5 5 3 5 5 5 5 5 5 3 5 5 3 5 5 5 5 5 5 5 5 5 5 3 5 5 5 5 5 3 5 5 5 5 5 5 5 5 5 5 3 5 5 5 5 5 5 5 5 5 5 5 5 5 5 5 3 5 5 5 5 5 5 5 5 5 5 5 5 5 5 5 5 5 5 5 5 5 5 5 3 5 3 5 5 5 3 5 5 5 5 5 5 5 5 5 3 5 5 5 3 5 5 5 5 5 5 5 5 5 5 5 5 5 5 5 5 3 5 5 5 5 5 3 5 5 5 3 5 3 5 5 5 5 5 5 3 5 5 5 5 5 5 5 5 5 5 5 5 5 5 5 5 5 5 5 5 5 5 5 5 5 5 5 3 5 5 3 5 5 5 5 5 5 5 3 5 5 5 5 3 5 5 3 5 5 5 5 5 5 3 5 5 5 3 5 5 5 3 5 5 5 5 5 3 5 5 5 5 5 3 5 5 5 5 5 5 5 5 3 5 5 3 5 5 5 5 3 5 5 5 5 3 5 5 5 5 3 5 5 5 3 5 3 5 5 5 5 5 5 5 5 5 5 3 5 5 5 5 5 5 5 3 3 5 5 5 5 5 3 5 5 5 5 5 3 5 5 5 3 5 5 3 5 5 3 5 5 5 3 5 5 5 5 5 5 3 5 5 5 5 5 3 5 5 5 5 5 3 5 5 5 5 5 5 3 5 5 5 5 3 5 5 5 5 5 3 5 5 5 5 5 5 5 5 5 5 3 5 5 5 5 5 5 5 3 5 5 5 5 3 3 5 5 3 5 5 5 5 5 5 5 3 5 5 5 5 5 5 5 3 5 3 5 5 3 5 5 5 5 3 5 3 5 5 5 5 5 5 5 5 5 5 3 5 5 5 5 5 3 5 5 5 3 5 5 5 5 3 5 5 3 5 5 5 5 5 3 5 3 5 3 3 5 5 5 5 3 3 5 5 5 5 5 5 5 5 5 5 5 5 5 3 5 5 5 5 5 5 3 3 5 5 5 5 5 5 5 5 5 5 5 5 5 3 5 5 5 5 5 5 5 5 5 5 5 5 5 5 5 5 5 5 5 5 5 5 5 5 5 5 5 5 5 5 5 5 5 3 5 5 3 5 5 5 5 5 5 5 3 5 5 5 3 5 5 3 5 5 5 3 3 5 5 5 5 3 3 5 5 5 5 5 5 5 5 5 5 5 5 5 5 3 5 5 3 5 5 5 3 5 5 5 5 3 5 5 3 5 5 5 5 5 5 5 5 5 5 5 3 5 5 5 5 5 5 5 3 5 5 5 5 5 5 5 5 5 5 5 5 5 5 5 5 5 5 3 5 5 5 5 5 5 3 5 3 5 5 5 5 5 3 5 5 3 5 5 5 3 5 5 5 3 5 5 5 5 5 5 5 5 5 5 5 5 5 5 3 5 5 5 5 3 3 5 5 5 5 5 5 5 5 5 5 5 5 5 5 5 5 5 5 5 3 5 5 5 5 5 5 5 5 3 5 3 5 5 5 5 5 5 5 3 5 3 5 5 5 5 5 3 5 5 5 5 5 5 3 5 5 5 5 5 3 3 5 5 5 3 3 3 5 5 5 5 5 3 5 5 5 5 5 3 5 5 5 5 3 5 3 3 5 3 3 5 5 5 3 5 5 5 3 5 5 5 3 5 5 5 3 5 5 5 5 5 5 5 5 3 5 5 5 3 5 5 5 5 5 5 3 5 5 5 5 5 5 3 5 5 5 5 5 5 5 5 5 5 5 5 5 5 3 5 3 5 5 5 3 5 5 3 5 3 5 3 5 5 3 5 5 5 5 5 5 3 5 5 5 5 3 5 5 5 5 5 5 3 5 5 5 5 5 5 5 5 5 5 3 5 5 5 5 5 5 5 5 5 5 5 5 5 5 5 5 5 5 5 3 3 5 5 5 3 5 5 3 5 5 3 5 5 3 5 5 3 3 5 5 5 5 3 5 5 5 5 5 5 5 5 5 5 5 3 3 5 5 5 3 5 3 5 3 5 5 5 5 5 3 5 5 3 5 3 5 5 3 3 3 5 5 5 5 3 5 5 3 5 3 5 5 3 5 5 5 5 5 5 5 5 3 5 3 3 5 5 5 5 5 3 3 5 5 5 3 3 5 5 5 5 5 5 5 5 3 5 3 5 5 5 5 5 5 5 5 5 5 5 5 5 5 5 5 5 5 5 5 5 5 5 5 5 5 5 5 5 3 5 5 5 5 5 5 5 5 5 5 5 5 5 5 5 3 5 5 3 5 5 5 5 5 3 5 5 5 5 5 5 5 5 5 5 5 5 5 3 5 5 5 5 5 5 5 5 5 3 5 5 3 5 5 5 5 3 3 3 5 5 5 5 5 3 5 5 5 
</DataArray>
</Cells>
<PointData Scalars="" Vectors="displacement," Tensors="">
<DataArray type="Float64" Name="displacement" NumberOfComponents="3" format="ascii">
-0.034077546549750218 -0.034999419944050536 0 -0.03499815785598507 -0.034999859720591574 0 -0.035276412359991287 -0.033844366811424657 0 -0.03499815785598507 -0.034999859720591574 0 -0.035276412359991287 -0.033844366811424657 0 -0.035000524831297654 -0.032381855227504433 0 -0.034075827915676073 -0.034997591633450925 0 -0.034517644655474015 -0.03366506844372831 0 -0.034071577303149157 -0.034998515604052392 0 -0.033360952113899729 -0.03387450717948215 0 -0.033533106588036439 -0.03341217066942475 0 -0.034071577303149157 -0.034998515604052392 0 -0.033360952113899729 -0.03387450717948215 0 -0.032619992355032768 -0.034998807433348225 0 -0.033360952113899729 -0.03387450717948215 0 -0.033772848350912842 -0.032776783206823118 0 -0.033239237637387807 -0.032743093891388374 0 -0.033360952113899729 -0.03387450717948215 0 -0.033533106588036439 -0.03341217066942475 0 -0.033772848350912842 -0.032776783206823118 0 -0.034517644655474015 -0.03366506844372831 0 -0.034998455032975426 -0.032383318204554798 0 -0.033533106588036439 -0.03341217066942475 0 -0.034995237029438304 -0.032380137889567416 0 -0.033772848350912842 -0.032776783206823118 0 -0.034995237029438304 -0.032380137889567416 0 -0.033772848350912842 -0.032776783206823118 0 -0.034135896874233615 -0.031924796525715345 0 -0.033772848350912842 -0.032776783206823118 0 -0.034135896874233615 -0.031924796525715345 0 -0.033239237637387807 -0.032743093891388374 0 -0.033562548683422767 -0.031877228129991643 0 -0.034135896874233615 -0.031924796525715345 0 -0.033239237637387807 -0.032743093891388374 0 -0.033562548683422767 -0.031877228129991643 0 -0.034135896874233615 -0.031924796525715345 0 -0.034162008344999981 -0.031044995675475227 0 -0.034135896874233615 -0.031924796525715345 0 -0.034999326717103173 -0.030294469530817734 0 -0.034162008344999981 -0.031044995675475227 0 -0.034995237029438304 -0.032380137889567416 0 -0.034135896874233615 -0.031924796525715345 0 -0.034999326717103173 -0.030294469530817734 0 -0.032948757852358047 -0.032235399540014024 0 -0.03174813804889659 -0.03273383906770265 0 -0.032448923745074326 -0.032040114462853979 0 -0.033562548683422767 -0.031877228129991643 0 -0.032948757852358047 -0.032235399540014024 0 -0.033239237637387807 -0.032743093891388374 0 -0.033562548683422767 -0.031877228129991643 0 -0.032948757852358047 -0.032235399540014024 0 -0.033165582131634522 -0.031515347109422276 0 -0.032948757852358047 -0.032235399540014024 0 -0.033239237637387807 -0.032743093891388374 0 -0.033044716956421631 -0.033091535302429947 0 -0.032948757852358047 -0.032235399540014024 0 -0.033044716956421631 -0.033091535302429947 0 -0.03174813804889659 -0.03273383906770265 0 -0.031431661328800209 -0.034141603236688509 0 -0.03151556959809082 -0.03383322848603814 0 -0.033239237637387807 -0.032743093891388374 0 -0.033044716956421631 -0.033091535302429947 0 -0.032655147019233312 -0.034070078003941198 0 -0.033360952113899729 -0.03387450717948215 0 -0.033239237637387807 -0.032743093891388374 0 -0.032655147019233312 -0.034070078003941198 0 -0.033360952113899729 -0.03387450717948215 0 -0.032655147019233312 -0.034070078003941198 0 -0.032619992355032768 -0.034998807433348225 0 -0.032655147019233312 -0.034070078003941198 0 -0.032619992355032768 -0.034998807433348225 0 -0.03116946762715701 -0.034998841212860787 0 -0.031431661328800209 -0.034141603236688509 0 -0.03116543162480935 -0.034998667987729569 0 -0.030191224331123059 -0.03518645801904053 0 -0.031162919185432663 -0.034999762735338925 0 -0.030100043596599447 -0.035242334240828704 0 -0.033044716956421631 -0.033091535302429947 0 -0.032655147019233312 -0.034070078003941198 0 -0.03116946762715701 -0.034998841212860787 0 -0.031162919185432663 -0.034999762735338925 0 -0.030100043596599447 -0.035242334240828704 0 -0.029115763542778353 -0.034999311828423162 0 -0.030100043596599447 -0.035242334240828704 0 -0.029115763542778353 -0.034999311828423162 0 -0.029963489674066771 -0.035242678486429042 0 -0.029115763542778353 -0.034999311828423162 0 -0.029963489674066771 -0.035242678486429042 0 -0.028663415730466171 -0.035239425493803551 0 -0.030191224331123059 -0.03518645801904053 0 -0.030100043596599447 -0.035242334240828704 0 -0.029963489674066771 -0.035242678486429042 0 -0.02706504005983711 -0.034999468476624454 0 -0.028368012291881878 -0.035660170782366954 0 -0.026304234211413809 -0.035288098518066149 0 -0.028293206677736511 -0.035046109207307448 0 -0.027714563451477357 -0.034866130106773044 0 -0.02706504005983711 -0.034999468476624454 0 -0.028663415730466171 -0.035239425493803551 0 -0.028368012291881878 -0.035660170782366954 0 -0.029115763542778353 -0.034999311828423162 0 -0.02706504005983711 -0.034999468476624454 0 -0.028663415730466171 -0.035239425493803551 0 -0.029963489674066771 -0.035242678486429042 0 -0.028663415730466171 -0.035239425493803551 0 -0.028368012291881878 -0.035660170782366954 0 -0.029963489674066771 -0.035242678486429042 0 -0.028368012291881878 -0.035660170782366954 0 -0.030427793234915495 -0.034853523301202061 0 -0.027628322821076381 -0.036457716236280156 0 -0.026497855250180048 -0.036127567540358646 0 -0.026971412067380664 -0.036771542345652275 0 -0.027628322821076381 -0.036457716236280156 0 -0.026304234211413809 -0.035288098518066149 0 -0.026497855250180048 -0.036127567540358646 0 -0.027640711164350861 -0.037185038704233266 0 -0.026971412067380664 -0.036771542345652275 0 -0.027186400599195453 -0.037176329586330478 0 -0.027628322821076381 -0.036457716236280156 0 -0.027640711164350861 -0.037185038704233266 0 -0.026971412067380664 -0.036771542345652275 0 -0.028293206677736511 -0.035046109207307448 0 -0.02928937916534919 -0.034942643246803615 0 -0.027628322821076381 -0.036457716236280156 0 -0.027640711164350861 -0.037185038704233266 0 -0.027900305573034891 -0.037176633863123303 0 -0.02782784553184324 -0.037282683018917108 0 -0.027679287326334245 -0.037336406068900346 0 -0.027808704962487375 -0.03711722017621763 0 -0.027640711164350861 -0.037185038704233266 0 -0.02782784553184324 -0.037282683018917108 0 -0.027970345774240988 -0.037262954184336429 0 -0.027640711164350861 -0.037185038704233266 0 -0.02782784553184324 -0.037282683018917108 0 -0.027900305573034891 -0.037176633863123303 0 -0.027640711164350861 -0.037185038704233266 0 -0.0280076917996975 -0.037360480060970931 0 -0.027970345774240988 -0.037262954184336429 0 -0.027640711164350861 -0.037185038704233266 0 -0.0280076917996975 -0.037360480060970931 0 -0.027186400599195453 -0.037176329586330478 0 -0.030191224331123059 -0.03518645801904053 0 -0.030997033817702843 -0.034243058694550549 0 -0.03174813804889659 -0.03273383906770265 0 -0.030191224331123059 -0.03518645801904053 0 -0.029963489674066771 -0.035242678486429042 0 -0.030997033817702843 -0.034243058694550549 0 -0.030997033817702843 -0.034243058694550549 0 -0.030427793234915495 -0.034853523301202061 0 -0.031274660699934412 -0.033827082909076406 0 -0.029963489674066771 -0.035242678486429042 0 -0.030997033817702843 -0.034243058694550549 0 -0.030427793234915495 -0.034853523301202061 0 -0.02782784553184324 -0.037282683018917108 0 -0.027900305573034891 -0.037176633863123303 0 -0.027679287326334245 -0.037336406068900346 0 -0.02928937916534919 -0.034942643246803615 0 -0.029949150872995906 -0.034765241817997353 0 -0.029949150872995906 -0.034765241817997353 0 -0.02995946766985158 -0.034563607234746524 0 -0.030997033817702843 -0.034243058694550549 0 -0.031814161965384752 -0.032738877897415641 0 -0.03174813804889659 -0.03273383906770265 0 -0.030997033817702843 -0.034243058694550549 0 -0.031274660699934412 -0.033827082909076406 0 -0.031814161965384752 -0.032738877897415641 0 -0.031814161965384752 -0.032738877897415641 0 -0.03174813804889659 -0.03273383906770265 0 -0.031933981532581771 -0.032240186268036673 0 -0.031933981532581771 -0.032240186268036673 0 -0.03193886501367673 -0.032091528250110725 0 -0.032101844938274157 -0.031768041147298545 0 -0.031814161965384752 -0.032738877897415641 0 -0.031933981532581771 -0.032240186268036673 0 -0.03193886501367673 -0.032091528250110725 0 -0.027679287326334245 -0.037336406068900346 0 -0.027228063815503301 -0.036673818497537591 0 -0.027808704962487375 -0.03711722017621763 0 -0.032242110782174607 -0.033118367460682599 0 -0.031814161965384752 -0.032738877897415641 0 -0.03193886501367673 -0.032091528250110725 0 -0.032242110782174607 -0.033118367460682599 0 -0.03193886501367673 -0.032091528250110725 0 -0.032146366010115036 -0.031699534199096727 0 -0.029949150872995906 -0.034765241817997353 0 -0.029708584530875524 -0.034100037631482678 0 -0.03193886501367673 -0.032091528250110725 0 -0.032146366010115036 -0.031699534199096727 0 -0.031921754285813168 -0.031693778545514736 0 -0.032146366010115036 -0.031699534199096727 0 -0.031921754285813168 -0.031693778545514736 0 -0.031737851189652916 -0.031430884855438518 0 -0.031921754285813168 -0.031693778545514736 0 -0.031737851189652916 -0.031430884855438518 0 -0.032101844938274157 -0.031768041147298545 0 -0.03193886501367673 -0.032091528250110725 0 -0.031921754285813168 -0.031693778545514736 0 -0.032101844938274157 -0.031768041147298545 0 -0.0280076917996975 -0.037360480060970931 0 -0.02827060913389659 -0.037082805890003262 0 -0.028789281392866892 -0.036990203133529902 0 -0.0280076917996975 -0.037360480060970931 0 -0.02827060913389659 -0.037082805890003262 0 -0.027970345774240988 -0.037262954184336429 0 -0.02827060913389659 -0.037082805890003262 0 -0.027970345774240988 -0.037262954184336429 0 -0.027808704962487375 -0.03711722017621763 0 -0.02782784553184324 -0.037282683018917108 0 -0.027970345774240988 -0.037262954184336429 0 -0.027808704962487375 -0.03711722017621763 0 -0.027228063815503301 -0.036673818497537591 0 -0.02847589723090739 -0.036280619484293168 0 -0.028381456665350697 -0.034848129676117952 0 -0.02827060913389659 -0.037082805890003262 0 -0.027808704962487375 -0.03711722017621763 0 -0.02847589723090739 -0.036280619484293168 0 -0.027228063815503301 -0.036673818497537591 0 -0.027808704962487375 -0.03711722017621763 0 -0.02847589723090739 -0.036280619484293168 0 -0.02827060913389659 -0.037082805890003262 0 -0.02847589723090739 -0.036280619484293168 0 -0.028789281392866892 -0.036990203133529902 0 -0.02847589723090739 -0.036280619484293168 0 -0.028789281392866892 -0.036990203133529902 0 -0.029373556539347406 -0.036058353357877632 0 -0.029476674230725409 -0.034907247343133357 0 -0.029373556539347406 -0.036058353357877632 0 -0.030402737279932732 -0.03527700980878213 0 -0.02847589723090739 -0.036280619484293168 0 -0.029476674230725409 -0.034907247343133357 0 -0.029373556539347406 -0.036058353357877632 0 -0.02847589723090739 -0.036280619484293168 0 -0.029476674230725409 -0.034907247343133357 0 -0.028381456665350697 -0.034848129676117952 0 -0.028381456665350697 -0.034848129676117952 0 -0.027355471467279222 -0.033983454782124098 0 -0.028885053374902485 -0.032655442122280713 0 -0.028381456665350697 -0.034848129676117952 0 -0.029987939899103769 -0.032660399819909328 0 -0.028885053374902485 -0.032655442122280713 0 -0.029476674230725409 -0.034907247343133357 0 -0.028381456665350697 -0.034848129676117952 0 -0.029987939899103769 -0.032660399819909328 0 -0.029476674230725409 -0.034907247343133357 0 -0.029987939899103769 -0.032660399819909328 0 -0.030753446227835751 -0.033881539703553551 0 -0.032146366010115036 -0.031699534199096727 0 -0.031737851189652916 -0.031430884855438518 0 -0.031282412789487249 -0.031269243510987761 0 -0.027228063815503301 -0.036673818497537591 0 -0.028381456665350697 -0.034848129676117952 0 -0.027355471467279222 -0.033983454782124098 0 -0.029708584530875524 -0.034100037631482678 0 -0.029538092410089006 -0.03322367670428529 0 -0.031282412789487249 -0.031269243510987761 0 -0.03137007540322162 -0.031392491052378936 0 -0.030560708910180843 -0.031438805811155129 0 -0.03137007540322162 -0.031392491052378936 0 -0.03196229613396321 -0.031517546485494555 0 -0.031292650182399927 -0.031568522553938529 0 -0.031737851189652916 -0.031430884855438518 0 -0.03137007540322162 -0.031392491052378936 0 -0.03196229613396321 -0.031517546485494555 0 -0.031737851189652916 -0.031430884855438518 0 -0.031282412789487249 -0.031269243510987761 0 -0.03137007540322162 -0.031392491052378936 0 -0.03196229613396321 -0.031517546485494555 0 -0.032381290949200697 -0.031428303704522646 0 -0.032795259625784952 -0.031526887622592273 0 -0.031737851189652916 -0.031430884855438518 0 -0.03196229613396321 -0.031517546485494555 0 -0.032381290949200697 -0.031428303704522646 0 -0.032381290949200697 -0.031428303704522646 0 -0.032795259625784952 -0.031526887622592273 0 -0.033238281821333607 -0.031181085948889176 0 -0.03196229613396321 -0.031517546485494555 0 -0.032795259625784952 -0.031526887622592273 0 -0.032568690327107644 -0.031862938004383522 0 -0.032795259625784952 -0.031526887622592273 0 -0.033403961627335353 -0.031830095539891405 0 -0.032568690327107644 -0.031862938004383522 0 -0.033403961627335353 -0.031830095539891405 0 -0.034317704381841695 -0.031517680952483716 0 -0.033490134862683804 -0.031390100370567629 0 -0.032795259625784952 -0.031526887622592273 0 -0.033403961627335353 -0.031830095539891405 0 -0.033490134862683804 -0.031390100370567629 0 -0.034683137274505366 -0.028493588975746043 0 -0.034498940033018961 -0.026772999297384265 0 -0.035536330746020597 -0.027397377267548748 0 -0.034998918293441164 -0.028206254713680014 0 -0.035000629331948543 -0.026114693648785811 0 -0.035536330746020597 -0.027397377267548748 0 -0.03539378817546928 -0.025941394310564619 0 -0.035000629331948543 -0.026114693648785811 0 -0.033403961627335353 -0.031830095539891405 0 -0.034317704381841695 -0.031517680952483716 0 -0.034109356334096591 -0.032214485285864611 0 -0.034683137274505366 -0.028493588975746043 0 -0.034730261592953025 -0.02883382732410188 0 -0.034317704381841695 -0.031517680952483716 0 -0.033490134862683804 -0.031390100370567629 0 -0.033872806704105557 -0.030834135053608731 0 -0.035536330746020597 -0.027397377267548748 0 -0.034998918293441164 -0.028206254713680014 0 -0.03491475328046894 -0.029661120415693843 0 -0.034317704381841695 -0.031517680952483716 0 -0.033872806704105557 -0.030834135053608731 0 -0.03491475328046894 -0.029661120415693843 0 -0.032795259625784952 -0.031526887622592273 0 -0.033490134862683804 -0.031390100370567629 0 -0.033238281821333607 -0.031181085948889176 0 -0.033490134862683804 -0.031390100370567629 0 -0.033872806704105557 -0.030834135053608731 0 -0.033238281821333607 -0.031181085948889176 0 -0.033238281821333607 -0.031181085948889176 0 -0.033738377643506824 -0.030742158175342999 0 -0.03296145683461827 -0.031255254995292275 0 -0.033872806704105557 -0.030834135053608731 0 -0.033738377643506824 -0.030742158175342999 0 -0.03491475328046894 -0.029661120415693843 0 -0.033872806704105557 -0.030834135053608731 0 -0.033238281821333607 -0.031181085948889176 0 -0.033738377643506824 -0.030742158175342999 0 -0.033738377643506824 -0.030742158175342999 0 -0.03491475328046894 -0.029661120415693843 0 -0.034513213931283419 -0.030410250888232526 0 -0.034998918293441164 -0.028206254713680014 0 -0.03491475328046894 -0.029661120415693843 0 -0.034999326717103173 -0.030294469530817734 0 -0.03491475328046894 -0.029661120415693843 0 -0.034513213931283419 -0.030410250888232526 0 -0.034999326717103173 -0.030294469530817734 0 -0.034513213931283419 -0.030410250888232526 0 -0.034999326717103173 -0.030294469530817734 0 -0.034162008344999981 -0.031044995675475227 0 -0.033562548683422767 -0.031877228129991643 0 -0.034162008344999981 -0.031044995675475227 0 -0.033165582131634522 -0.031515347109422276 0 -0.033738377643506824 -0.030742158175342999 0 -0.034162008344999981 -0.031044995675475227 0 -0.033165582131634522 -0.031515347109422276 0 -0.033738377643506824 -0.030742158175342999 0 -0.034513213931283419 -0.030410250888232526 0 -0.034162008344999981 -0.031044995675475227 0 -0.032948757852358047 -0.032235399540014024 0 -0.033165582131634522 -0.031515347109422276 0 -0.032448923745074326 -0.032040114462853979 0 -0.033165582131634522 -0.031515347109422276 0 -0.032563142989550625 -0.031587315352583599 0 -0.03296145683461827 -0.031255254995292275 0 -0.033165582131634522 -0.031515347109422276 0 -0.032448923745074326 -0.032040114462853979 0 -0.032563142989550625 -0.031587315352583599 0 -0.03174813804889659 -0.03273383906770265 0 -0.031933981532581771 -0.032240186268036673 0 -0.032448923745074326 -0.032040114462853979 0 -0.031933981532581771 -0.032240186268036673 0 -0.032448923745074326 -0.032040114462853979 0 -0.032101844938274157 -0.031768041147298545 0 -0.032448923745074326 -0.032040114462853979 0 -0.032563142989550625 -0.031587315352583599 0 -0.032101844938274157 -0.031768041147298545 0 -0.031737851189652916 -0.031430884855438518 0 -0.032381290949200697 -0.031428303704522646 0 -0.032101844938274157 -0.031768041147298545 0 -0.032381290949200697 -0.031428303704522646 0 -0.032563142989550625 -0.031587315352583599 0 -0.032101844938274157 -0.031768041147298545 0 -0.032381290949200697 -0.031428303704522646 0 -0.032563142989550625 -0.031587315352583599 0 -0.03296145683461827 -0.031255254995292275 0 -0.032381290949200697 -0.031428303704522646 0 -0.033238281821333607 -0.031181085948889176 0 -0.03296145683461827 -0.031255254995292275 0 -0.033738377643506824 -0.030742158175342999 0 -0.033165582131634522 -0.031515347109422276 0 -0.03296145683461827 -0.031255254995292275 0 -0.01785205324033361 -0.03859041098783364 0 -0.018230396738921392 -0.040134209626564013 0 -0.017120363058183333 -0.039672061317334431 0 -0.01785205324033361 -0.03859041098783364 0 -0.019220122015067415 -0.03953531476325934 0 -0.018230396738921392 -0.040134209626564013 0 -0.01785205324033361 -0.03859041098783364 0 -0.017120363058183333 -0.039672061317334431 0 -0.017099157565248258 -0.038516185627889055 0 -0.01785205324033361 -0.03859041098783364 0 -0.019220122015067415 -0.03953531476325934 0 -0.01901470507321994 -0.037661274306495039 0 -0.019220122015067415 -0.03953531476325934 0 -0.01901470507321994 -0.037661274306495039 0 -0.02064567282430246 -0.038741839701128898 0 -0.01901470507321994 -0.037661274306495039 0 -0.017774259842394544 -0.036264447122187113 0 -0.017195405621962159 -0.037632609525416867 0 -0.01785205324033361 -0.03859041098783364 0 -0.01901470507321994 -0.037661274306495039 0 -0.017195405621962159 -0.037632609525416867 0 -0.01785205324033361 -0.03859041098783364 0 -0.017195405621962159 -0.037632609525416867 0 -0.017099157565248258 -0.038516185627889055 0 -0.017774259842394544 -0.036264447122187113 0 -0.018861516353639914 -0.035000012540238212 0 -0.016810061092633454 -0.034999557824043882 0 -0.017774259842394544 -0.036264447122187113 0 -0.018861516353639914 -0.035000012540238212 0 -0.019679533835743723 -0.036156378519636198 0 -0.01901470507321994 -0.037661274306495039 0 -0.017774259842394544 -0.036264447122187113 0 -0.019679533835743723 -0.036156378519636198 0 -0.01901470507321994 -0.037661274306495039 0 -0.019679533835743723 -0.036156378519636198 0 -0.021034016601531088 -0.037032436827525737 0 -0.019679533835743723 -0.036156378519636198 0 -0.020912129494266626 -0.034999805388534602 0 -0.021034016601531088 -0.037032436827525737 0 -0.018861516353639914 -0.035000012540238212 0 -0.019679533835743723 -0.036156378519636198 0 -0.020912129494266626 -0.034999805388534602 0 -0.020912129494266626 -0.034999805388534602 0 -0.021034016601531088 -0.037032436827525737 0 -0.022933085854271135 -0.036399862580652212 0 -0.021034016601531088 -0.037032436827525737 0 -0.02064567282430246 -0.038741839701128898 0 -0.023078633057748835 -0.038474515911780062 0 -0.01901470507321994 -0.037661274306495039 0 -0.021034016601531088 -0.037032436827525737 0 -0.02064567282430246 -0.038741839701128898 0 -0.019220122015067415 -0.03953531476325934 0 -0.02064567282430246 -0.038741839701128898 0 -0.020439941613313296 -0.039947647207946212 0 -0.02064567282430246 -0.038741839701128898 0 -0.023078633057748835 -0.038474515911780062 0 -0.021634040900446475 -0.040034409450667732 0 -0.021431378287027458 -0.037874737378531913 0 -0.021121560049280539 -0.037538104946796991 0 -0.023078633057748835 -0.038474515911780062 0 -0.025155016704379109 -0.037221240764570361 0 -0.024650750717367852 -0.039849171799299775 0 -0.026937910546348077 -0.037584299336605544 0 -0.027432921742814625 -0.037706621845514848 0 -0.023078633057748835 -0.038474515911780062 0 -0.025155016704379109 -0.037221240764570361 0 -0.022933085854271135 -0.036399862580652212 0 -0.021034016601531088 -0.037032436827525737 0 -0.023078633057748835 -0.038474515911780062 0 -0.022933085854271135 -0.036399862580652212 0 -0.020912129494266626 -0.034999805388534602 0 -0.022933085854271135 -0.036399862580652212 0 -0.022963317162634344 -0.03499970891294471 0 -0.022933085854271135 -0.036399862580652212 0 -0.022963317162634344 -0.03499970891294471 0 -0.024506434630494643 -0.035803948927843554 0 -0.022963317162634344 -0.03499970891294471 0 -0.025014009893724893 -0.034999907205557852 0 -0.024506434630494643 -0.035803948927843554 0 -0.025155016704379109 -0.037221240764570361 0 -0.022933085854271135 -0.036399862580652212 0 -0.024506434630494643 -0.035803948927843554 0 -0.025155016704379109 -0.037221240764570361 0 -0.025838090303924664 -0.036357100474546537 0 -0.024506434630494643 -0.035803948927843554 0 -0.025838090303924664 -0.036357100474546537 0 -0.024506434630494643 -0.035803948927843554 0 -0.025653965712266465 -0.035708439497850956 0 -0.025014009893724893 -0.034999907205557852 0 -0.024506434630494643 -0.035803948927843554 0 -0.025653965712266465 -0.035708439497850956 0 -0.025014009893724893 -0.034999907205557852 0 -0.026304234211413809 -0.035288098518066149 0 -0.025653965712266465 -0.035708439497850956 0 -0.02706504005983711 -0.034999468476624454 0 -0.025014009893724893 -0.034999907205557852 0 -0.026304234211413809 -0.035288098518066149 0 -0.026304234211413809 -0.035288098518066149 0 -0.025653965712266465 -0.035708439497850956 0 -0.026497855250180048 -0.036127567540358646 0 -0.025838090303924664 -0.036357100474546537 0 -0.026497855250180048 -0.036127567540358646 0 -0.026971412067380664 -0.036771542345652275 0 -0.025838090303924664 -0.036357100474546537 0 -0.025653965712266465 -0.035708439497850956 0 -0.026497855250180048 -0.036127567540358646 0 -0.026971412067380664 -0.036771542345652275 0 -0.026373539281644466 -0.037033091397767351 0 -0.027186400599195453 -0.037176329586330478 0 -0.025838090303924664 -0.036357100474546537 0 -0.026971412067380664 -0.036771542345652275 0 -0.026373539281644466 -0.037033091397767351 0 -0.025155016704379109 -0.037221240764570361 0 -0.025838090303924664 -0.036357100474546537 0 -0.026373539281644466 -0.037033091397767351 0 -0.025155016704379109 -0.037221240764570361 0 -0.026373539281644466 -0.037033091397767351 0 -0.02699248204424376 -0.03731522809664313 0 -0.025155016704379109 -0.037221240764570361 0 -0.02699248204424376 -0.03731522809664313 0 -0.026452144472756678 -0.037410601303822122 0 -0.0280076917996975 -0.037360480060970931 0 -0.02699248204424376 -0.03731522809664313 0 -0.027186400599195453 -0.037176329586330478 0 -0.026373539281644466 -0.037033091397767351 0 -0.02699248204424376 -0.03731522809664313 0 -0.027186400599195453 -0.037176329586330478 0 -0.0280076917996975 -0.037360480060970931 0 -0.028789281392866892 -0.036990203133529902 0 -0.028405311124433133 -0.037508292517990892 0 -0.0280076917996975 -0.037360480060970931 0 -0.02699248204424376 -0.03731522809664313 0 -0.028405311124433133 -0.037508292517990892 0 -0.02699248204424376 -0.03731522809664313 0 -0.028405311124433133 -0.037508292517990892 0 -0.02712227827213377 -0.037850635468434916 0 -0.02699248204424376 -0.03731522809664313 0 -0.02712227827213377 -0.037850635468434916 0 -0.026452144472756678 -0.037410601303822122 0 -0.028405311124433133 -0.037508292517990892 0 -0.02712227827213377 -0.037850635468434916 0 -0.02782854082642347 -0.038763555584145834 0 -0.030336939182788392 -0.034675121903725015 0 -0.029540226123850242 -0.034292355566107033 0 -0.02712227827213377 -0.037850635468434916 0 -0.02782854082642347 -0.038763555584145834 0 -0.026374157342307095 -0.038482741685808258 0 -0.028405311124433133 -0.037508292517990892 0 -0.030165092040503334 -0.036568421480949499 0 -0.030009603291193999 -0.036509602940727713 0 -0.030336939182788392 -0.034675121903725015 0 -0.030346343380097417 -0.034720308414126329 0 -0.028789281392866892 -0.036990203133529902 0 -0.028405311124433133 -0.037508292517990892 0 -0.030009603291193999 -0.036509602940727713 0 -0.029986906259416121 -0.035489065543029559 0 -0.030336939182788392 -0.034675121903725015 0 -0.028789281392866892 -0.036990203133529902 0 -0.029373556539347406 -0.036058353357877632 0 -0.030009603291193999 -0.036509602940727713 0 -0.029373556539347406 -0.036058353357877632 0 -0.030009603291193999 -0.036509602940727713 0 -0.030402737279932732 -0.03527700980878213 0 -0.031721843221512426 -0.036705003387360449 0 -0.030964450236633939 -0.0357224319251657 0 -0.031842726851054874 -0.034559758520475256 0 -0.030009603291193999 -0.036509602940727713 0 -0.030964450236633939 -0.0357224319251657 0 -0.030402737279932732 -0.03527700980878213 0 -0.031721843221512426 -0.036705003387360449 0 -0.030009603291193999 -0.036509602940727713 0 -0.030964450236633939 -0.0357224319251657 0 -0.031842726851054874 -0.034559758520475256 0 -0.030402737279932732 -0.03527700980878213 0 -0.030753446227835751 -0.033881539703553551 0 -0.030964450236633939 -0.0357224319251657 0 -0.031842726851054874 -0.034559758520475256 0 -0.030402737279932732 -0.03527700980878213 0 -0.029476674230725409 -0.034907247343133357 0 -0.030402737279932732 -0.03527700980878213 0 -0.030753446227835751 -0.033881539703553551 0 -0.031842726851054874 -0.034559758520475256 0 -0.030753446227835751 -0.033881539703553551 0 -0.031717460809685877 -0.032573709541888055 0 -0.029987939899103769 -0.032660399819909328 0 -0.030753446227835751 -0.033881539703553551 0 -0.031717460809685877 -0.032573709541888055 0 -0.031842726851054874 -0.034559758520475256 0 -0.031717460809685877 -0.032573709541888055 0 -0.034075800847266073 -0.033152349696513324 0 -0.031721843221512426 -0.036705003387360449 0 -0.031842726851054874 -0.034559758520475256 0 -0.034075800847266073 -0.033152349696513324 0 -0.033691333633181525 -0.031999133185865301 0 -0.034531557245791711 -0.029603385239052354 0 -0.035024683350178609 -0.030955523360209607 0 -0.033691333633181525 -0.031999133185865301 0 -0.035024683350178609 -0.030955523360209607 0 -0.03579847278662044 -0.032170439827864938 0 -0.030336939182788392 -0.034675121903725015 0 -0.033130701809782039 -0.031058940935071829 0 -0.035024683350178609 -0.030955523360209607 0 -0.036073618293893266 -0.030055620254641525 0 -0.03579847278662044 -0.032170439827864938 0 -0.032947792173598375 -0.029199376724459686 0 -0.029540226123850242 -0.034292355566107033 0 -0.034531557245791711 -0.029603385239052354 0 -0.035024683350178609 -0.030955523360209607 0 -0.036073618293893266 -0.030055620254641525 0 -0.034531557245791711 -0.029603385239052354 0 -0.036073618293893266 -0.030055620254641525 0 -0.035578756221398861 -0.028736920063439624 0 -0.035809585433507929 -0.026487231171370224 0 -0.036086054166148726 -0.026275903012199463 0 -0.036163779883941059 -0.026649095412547563 0 -0.036086054166148726 -0.026275903012199463 0 -0.036163779883941059 -0.026649095412547563 0 -0.036352988489889902 -0.026284222457220181 0 -0.035809585433507929 -0.026487231171370224 0 -0.036163779883941059 -0.026649095412547563 0 -0.035726011148846326 -0.027009596870734412 0 -0.036163779883941059 -0.026649095412547563 0 -0.035726011148846326 -0.027009596870734412 0 -0.036225685335971453 -0.027035151350597038 0 -0.024306318433989282 -0.042116810513698595 0 -0.023217163433501529 -0.040672138680095983 0 -0.022264986813208491 -0.04192455074101948 0 -0.029540226123850242 -0.034292355566107033 0 -0.027946134387493431 -0.033893985878370024 0 -0.02712227827213377 -0.037850635468434916 0 -0.026374157342307095 -0.038482741685808258 0 -0.026452144472756678 -0.037410601303822122 0 -0.029540226123850242 -0.034292355566107033 0 -0.027432921742814625 -0.037706621845514848 0 -0.024306318433989282 -0.042116810513698595 0 -0.024650750717367852 -0.039849171799299775 0 -0.023217163433501529 -0.040672138680095983 0 -0.023217163433501529 -0.040672138680095983 0 -0.021693249389297859 -0.040143128362829808 0 -0.022264986813208491 -0.04192455074101948 0 -0.023078633057748835 -0.038474515911780062 0 -0.024650750717367852 -0.039849171799299775 0 -0.023217163433501529 -0.040672138680095983 0 -0.023078633057748835 -0.038474515911780062 0 -0.023217163433501529 -0.040672138680095983 0 -0.021693249389297859 -0.040143128362829808 0 -0.02064567282430246 -0.038741839701128898 0 -0.021634040900446475 -0.040034409450667732 0 -0.020439941613313296 -0.039947647207946212 0 -0.021634040900446475 -0.040034409450667732 0 -0.020439941613313296 -0.039947647207946212 0 -0.020276621909586026 -0.041464597752917401 0 -0.021121560049280539 -0.037538104946796991 0 -0.023034145207041248 -0.032993834519349709 0 -0.019220122015067415 -0.03953531476325934 0 -0.020439941613313296 -0.039947647207946212 0 -0.020276621909586026 -0.041464597752917401 0 -0.021693249389297859 -0.040143128362829808 0 -0.02026530034264469 -0.041727006632651664 0 -0.022264986813208491 -0.04192455074101948 0 -0.023034145207041248 -0.032993834519349709 0 -0.027946134387493431 -0.033893985878370024 0 -0.036694679833721315 -0.027066549937101527 0 -0.036225685335971453 -0.027035151350597038 0 -0.036586152004428565 -0.026630210142229428 0 -0.036163779883941059 -0.026649095412547563 0 -0.036225685335971453 -0.027035151350597038 0 -0.036586152004428565 -0.026630210142229428 0 -0.036163779883941059 -0.026649095412547563 0 -0.036352988489889902 -0.026284222457220181 0 -0.036586152004428565 -0.026630210142229428 0 -0.036586152004428565 -0.026630210142229428 0 -0.037061003941783903 -0.026641641846814619 0 -0.03685612058355222 -0.026154175301325515 0 -0.036352988489889902 -0.026284222457220181 0 -0.036586152004428565 -0.026630210142229428 0 -0.03685612058355222 -0.026154175301325515 0 -0.036694679833721315 -0.027066549937101527 0 -0.036586152004428565 -0.026630210142229428 0 -0.037061003941783903 -0.026641641846814619 0 -0.023034145207041248 -0.032993834519349709 0 -0.017153607148068455 -0.02882127845938845 0 -0.017153607148068455 -0.02882127845938845 0 -0.019137658624191898 -0.026224766795036832 0 -0.0059762261280305075 -0.027805509745247165 0 -0.0079735679306565058 -0.025571311832719868 0 -0.0044475883602132435 -0.024922548526862726 0 -0.0066569497525549434 -0.027224260429887306 0 -0.0079735679306565058 -0.025571311832719868 0 -0.0085787386956911547 -0.027828972663838231 0 -0.017153607148068455 -0.02882127845938845 0 -0.014168183633318798 -0.029546940759927087 0 -0.0066569497525549434 -0.027224260429887306 0 -0.0085787386956911547 -0.027828972663838231 0 -0.0081327404495527712 -0.030159112597122763 0 -0.017153607148068455 -0.02882127845938845 0 -0.016353094561150101 -0.032264001351204288 0 -0.0085787386956911547 -0.027828972663838231 0 -0.0081327404495527712 -0.030159112597122763 0 -0.010056182284127588 -0.030358470764929219 0 -0.016353094561150101 -0.032264001351204288 0 -0.015069089095328397 -0.032085888031842015 0 -0.023034145207041248 -0.032993834519349709 0 -0.016353094561150101 -0.032264001351204288 0 -0.020276621909586026 -0.041464597752917401 0 -0.017960744702057781 -0.041254650476483613 0 -0.018230396738921392 -0.040134209626564013 0 -0.018981703238167801 -0.032298571884650365 0 -0.018350990975932652 -0.032981701027040157 0 -0.017941580150894455 -0.032213186637057946 0 -0.019220122015067415 -0.03953531476325934 0 -0.020276621909586026 -0.041464597752917401 0 -0.018230396738921392 -0.040134209626564013 0 -0.016353094561150101 -0.032264001351204288 0 -0.015500695070714367 -0.034467450743357136 0 -0.017960744702057781 -0.041254650476483613 0 -0.018230396738921392 -0.040134209626564013 0 -0.017120363058183333 -0.039672061317334431 0 -0.0088843818684106284 -0.030263604219866319 0 -0.010404707591500171 -0.032399468497935888 0 -0.010056182284127588 -0.030358470764929219 0 -0.0071035283935371295 -0.01867802313555654 0 -0.007638893096435102 -0.020748645064730967 0 -0.0086358796383883465 -0.018993097932330019 0 -0.0071035283935371295 -0.01867802313555654 0 -0.0053978601401543976 -0.01789092269094494 0 -0.0068490825858682882 -0.016967414283020552 0 -0.0071035283935371295 -0.01867802313555654 0 -0.0053978601401543976 -0.01789092269094494 0 -0.0055685490141897977 -0.020239913109517907 0 -0.0053978601401543976 -0.01789092269094494 0 -0.0055685490141897977 -0.020239913109517907 0 -0.0038079055488101604 -0.018931742023925884 0 -0.0055685490141897977 -0.020239913109517907 0 -0.007638893096435102 -0.020748645064730967 0 -0.006451792910571243 -0.022817280551965854 0 -0.0071035283935371295 -0.01867802313555654 0 -0.0055685490141897977 -0.020239913109517907 0 -0.007638893096435102 -0.020748645064730967 0 -0.007638893096435102 -0.020748645064730967 0 -0.006451792910571243 -0.022817280551965854 0 -0.0087044076778402691 -0.022913953885661149 0 -0.0079735679306565058 -0.025571311832719868 0 -0.006451792910571243 -0.022817280551965854 0 -0.0087044076778402691 -0.022913953885661149 0 -0.0079735679306565058 -0.025571311832719868 0 -0.006451792910571243 -0.022817280551965854 0 -0.0044475883602132435 -0.024922548526862726 0 -0.006451792910571243 -0.022817280551965854 0 -0.0030554700072422591 -0.022101570973921351 0 -0.0044475883602132435 -0.024922548526862726 0 -0.0055685490141897977 -0.020239913109517907 0 -0.006451792910571243 -0.022817280551965854 0 -0.0030554700072422591 -0.022101570973921351 0 -0.020148975219459617 -0.023784156311752024 0 -0.019137658624191898 -0.026224766795036832 0 -0.036352988489889902 -0.026284222457220181 0 -0.03685612058355222 -0.026154175301325515 0 -0.036491835207224432 -0.025972996072356844 0 -0.036671774300214767 -0.025652558719580339 0 -0.03685612058355222 -0.026154175301325515 0 -0.036491835207224432 -0.025972996072356844 0 -0.036352988489889902 -0.026284222457220181 0 -0.036491835207224432 -0.025972996072356844 0 -0.036217859689548673 -0.026032360741514163 0 -0.036491835207224432 -0.025972996072356844 0 -0.036290098613053677 -0.025740150185505715 0 -0.036217859689548673 -0.026032360741514163 0 -0.036671774300214767 -0.025652558719580339 0 -0.03634822192860522 -0.025441055567791998 0 -0.036290098613053677 -0.025740150185505715 0 -0.036671774300214767 -0.025652558719580339 0 -0.036491835207224432 -0.025972996072356844 0 -0.036290098613053677 -0.025740150185505715 0 -0.036671774300214767 -0.025652558719580339 0 -0.036541385353129348 -0.025149915080658603 0 -0.03634822192860522 -0.025441055567791998 0 -0.020148975219459617 -0.023784156311752024 0 -0.021343967302296599 -0.021351333037435579 0 -0.036541385353129348 -0.025149915080658603 0 -0.036320092279956175 -0.025221431488279638 0 -0.03634822192860522 -0.025441055567791998 0 -0.0055685490141897977 -0.020239913109517907 0 -0.0030554700072422591 -0.022101570973921351 0 -0.0038079055488101604 -0.018931742023925884 0 -0.0030554700072422591 -0.022101570973921351 0 -0.0038079055488101604 -0.018931742023925884 0 -0.0018045647989863166 -0.019354409724126793 0 -0.0038079055488101604 -0.018931742023925884 0 -0.0025402447233837688 -0.017794332525460067 0 -0.0038095160155689053 -0.016922138392179053 0 -0.0053978601401543976 -0.01789092269094494 0 -0.0038079055488101604 -0.018931742023925884 0 -0.0038095160155689053 -0.016922138392179053 0 -0.0018045647989863166 -0.019354409724126793 0 -0.00065578670689257182 -0.016746370872897515 0 -0.0025402447233837688 -0.017794332525460067 0 -0.0038079055488101604 -0.018931742023925884 0 -0.0018045647989863166 -0.019354409724126793 0 -0.0025402447233837688 -0.017794332525460067 0 -0.021343967302296599 -0.021351333037435579 0 -0.023985072407067244 -0.018869907954208794 0 -0.036316347001762957 -0.024885225402149637 0 -0.0361763987467962 -0.025527407852262336 0 -0.036508657725149316 -0.026224636307097371 0 -0.036541385353129348 -0.025149915080658603 0 -0.036316347001762957 -0.024885225402149637 0 -0.036475223305694707 -0.024528630031995142 0 -0.036316347001762957 -0.024885225402149637 0 -0.036058170825961168 -0.025425745295194591 0 -0.036320092279956175 -0.025221431488279638 0 -0.036541385353129348 -0.025149915080658603 0 -0.036316347001762957 -0.024885225402149637 0 -0.036320092279956175 -0.025221431488279638 0 -0.035547381761450711 -0.025634349734075672 0 -0.03531670869128848 -0.026102440939324276 0 -0.036316347001762957 -0.024885225402149637 0 -0.035828095699742026 -0.024877491824223979 0 -0.0361763987467962 -0.025527407852262336 0 -0.0361763987467962 -0.025527407852262336 0 -0.034867607901522525 -0.025628997875188686 0 -0.035282436451319274 -0.025037415636932427 0 -0.035828095699742026 -0.024877491824223979 0 -0.0361763987467962 -0.025527407852262336 0 -0.035282436451319274 -0.025037415636932427 0 -0.035828095699742026 -0.024877491824223979 0 -0.035282436451319274 -0.025037415636932427 0 -0.03532523770952635 -0.024677626320583596 0 -0.0361763987467962 -0.025527407852262336 0 -0.036508657725149316 -0.026224636307097371 0 -0.035413773227024631 -0.027331524226752182 0 -0.0361763987467962 -0.025527407852262336 0 -0.03604624470556049 -0.028673107255685514 0 -0.035256160584637847 -0.026599480262288342 0 -0.035344554225236996 -0.027049099951278192 0 -0.034743273104967672 -0.028353347940799654 0 -0.0361763987467962 -0.025527407852262336 0 -0.035256160584637847 -0.026599480262288342 0 -0.034867607901522525 -0.025628997875188686 0 -0.036058170825961168 -0.025425745295194591 0 -0.036320092279956175 -0.025221431488279638 0 -0.03634822192860522 -0.025441055567791998 0 -0.036058170825961168 -0.025425745295194591 0 -0.03634822192860522 -0.025441055567791998 0 -0.036290098613053677 -0.025740150185505715 0 -0.03531670869128848 -0.026102440939324276 0 -0.034559971487829307 -0.027210785063107396 0 -0.036058170825961168 -0.025425745295194591 0 -0.036290098613053677 -0.025740150185505715 0 -0.03591465211025225 -0.025959073781614477 0 -0.035809585433507929 -0.026487231171370224 0 -0.036086054166148726 -0.026275903012199463 0 -0.03591465211025225 -0.025959073781614477 0 -0.036290098613053677 -0.025740150185505715 0 -0.036217859689548673 -0.026032360741514163 0 -0.03591465211025225 -0.025959073781614477 0 -0.036086054166148726 -0.026275903012199463 0 -0.036217859689548673 -0.026032360741514163 0 -0.03591465211025225 -0.025959073781614477 0 -0.036086054166148726 -0.026275903012199463 0 -0.036352988489889902 -0.026284222457220181 0 -0.036217859689548673 -0.026032360741514163 0 -0.036073618293893266 -0.030055620254641525 0 -0.035578756221398861 -0.028736920063439624 0 -0.036314254396738965 -0.028000103736285312 0 -0.035578756221398861 -0.028736920063439624 0 -0.036314254396738965 -0.028000103736285312 0 -0.035413773227024631 -0.027331524226752182 0 -0.032947792173598375 -0.029199376724459686 0 -0.034559971487829307 -0.027210785063107396 0 -0.034531557245791711 -0.029603385239052354 0 -0.035578756221398861 -0.028736920063439624 0 -0.035413773227024631 -0.027331524226752182 0 -0.036508657725149316 -0.026224636307097371 0 -0.036314254396738965 -0.028000103736285312 0 -0.035413773227024631 -0.027331524226752182 0 -0.03604624470556049 -0.028673107255685514 0 -0.033277083307028492 -0.030491608717928876 0 -0.033845006367226323 -0.026835388323755781 0 -0.03604624470556049 -0.028673107255685514 0 -0.033845006367226323 -0.026835388323755781 0 -0.035256160584637847 -0.026599480262288342 0 -0.031717460809685877 -0.032573709541888055 0 -0.034075800847266073 -0.033152349696513324 0 -0.033277083307028492 -0.030491608717928876 0 -0.034075800847266073 -0.033152349696513324 0 -0.03604624470556049 -0.028673107255685514 0 -0.033277083307028492 -0.030491608717928876 0 -0.033130701809782039 -0.031058940935071829 0 -0.034743273104967672 -0.028353347940799654 0 -0.029987939899103769 -0.032660399819909328 0 -0.031717460809685877 -0.032573709541888055 0 -0.030970259872092898 -0.030680036111805031 0 -0.031717460809685877 -0.032573709541888055 0 -0.033277083307028492 -0.030491608717928876 0 -0.030970259872092898 -0.030680036111805031 0 -0.033277083307028492 -0.030491608717928876 0 -0.030970259872092898 -0.030680036111805031 0 -0.033845006367226323 -0.026835388323755781 0 -0.030970259872092898 -0.030680036111805031 0 -0.033845006367226323 -0.026835388323755781 0 -0.029994121307592492 -0.029153410409482963 0 -0.033845006367226323 -0.026835388323755781 0 -0.034867607901522525 -0.025628997875188686 0 -0.034459530860881132 -0.025058085848242401 0 -0.033845006367226323 -0.026835388323755781 0 -0.034459530860881132 -0.025058085848242401 0 -0.034930750788238769 -0.024375238151986337 0 -0.034390592449716199 -0.026593881086003669 0 -0.034062601440138215 -0.026536099549529308 0 -0.033845006367226323 -0.026835388323755781 0 -0.035256160584637847 -0.026599480262288342 0 -0.034867607901522525 -0.025628997875188686 0 -0.034867607901522525 -0.025628997875188686 0 -0.034793629967509079 -0.025023199990251922 0 -0.034459530860881132 -0.025058085848242401 0 -0.034867607901522525 -0.025628997875188686 0 -0.035282436451319274 -0.025037415636932427 0 -0.034793629967509079 -0.025023199990251922 0 -0.035282436451319274 -0.025037415636932427 0 -0.034793629967509079 -0.025023199990251922 0 -0.034985223719947001 -0.024707912280140697 0 -0.034793629967509079 -0.025023199990251922 0 -0.034459530860881132 -0.025058085848242401 0 -0.034689902792529759 -0.024668829583482599 0 -0.034459530860881132 -0.025058085848242401 0 -0.034472967881301393 -0.024293316870369886 0 -0.034689902792529759 -0.024668829583482599 0 -0.034459530860881132 -0.025058085848242401 0 -0.034674664468737314 -0.025551374816422737 0 -0.03493049176657205 -0.02518958209600387 0 -0.035388209684565644 -0.024633034046255043 0 -0.035794758600484838 -0.023919096090678781 0 -0.034472967881301393 -0.024293316870369886 0 -0.034722737734104406 -0.0243532846022201 0 -0.034689902792529759 -0.024668829583482599 0 -0.034674664468737314 -0.025551374816422737 0 -0.034922525062516828 -0.025597307623401448 0 -0.03493049176657205 -0.02518958209600387 0 -0.034793629967509079 -0.025023199990251922 0 -0.034689902792529759 -0.024668829583482599 0 -0.034985223719947001 -0.024707912280140697 0 -0.034689902792529759 -0.024668829583482599 0 -0.034985223719947001 -0.024707912280140697 0 -0.034890968445330177 -0.024470009523916609 0 -0.035282436451319274 -0.025037415636932427 0 -0.034985223719947001 -0.024707912280140697 0 -0.03532523770952635 -0.024677626320583596 0 -0.034985223719947001 -0.024707912280140697 0 -0.03532523770952635 -0.024677626320583596 0 -0.035218392893098416 -0.024374361800464463 0 -0.03532523770952635 -0.024677626320583596 0 -0.035218392893098416 -0.024374361800464463 0 -0.035589956378228316 -0.024495381609355153 0 -0.034985223719947001 -0.024707912280140697 0 -0.035218392893098416 -0.024374361800464463 0 -0.034890968445330177 -0.024470009523916609 0 -0.034722737734104406 -0.0243532846022201 0 -0.034689902792529759 -0.024668829583482599 0 -0.034890968445330177 -0.024470009523916609 0 -0.035218392893098416 -0.024374361800464463 0 -0.034890968445330177 -0.024470009523916609 0 -0.034993401664838338 -0.024241197129410298 0 -0.034722737734104406 -0.0243532846022201 0 -0.034890968445330177 -0.024470009523916609 0 -0.034993401664838338 -0.024241197129410298 0 -0.034722737734104406 -0.0243532846022201 0 -0.034993401664838338 -0.024241197129410298 0 -0.034856608493674154 -0.023955965555135135 0 -0.034856608493674154 -0.023955965555135135 0 -0.035111301308127334 -0.02362242826114597 0 -0.034688307014183309 -0.023123577300613238 0 -0.034993401664838338 -0.024241197129410298 0 -0.034856608493674154 -0.023955965555135135 0 -0.035160353202769418 -0.024042801655433144 0 -0.035160353202769418 -0.024042801655433144 0 -0.035445848270780365 -0.023758665843159471 0 -0.035549990387912671 -0.024182577430406204 0 -0.035218392893098416 -0.024374361800464463 0 -0.034993401664838338 -0.024241197129410298 0 -0.035160353202769418 -0.024042801655433144 0 -0.035218392893098416 -0.024374361800464463 0 -0.035160353202769418 -0.024042801655433144 0 -0.035549990387912671 -0.024182577430406204 0 -0.035160353202769418 -0.024042801655433144 0 -0.035111301308127334 -0.02362242826114597 0 -0.035445848270780365 -0.023758665843159471 0 -0.035111301308127334 -0.02362242826114597 0 -0.035315565562017301 -0.023348595991572428 0 -0.035445848270780365 -0.023758665843159471 0 -0.034856608493674154 -0.023955965555135135 0 -0.035160353202769418 -0.024042801655433144 0 -0.035111301308127334 -0.02362242826114597 0 -0.034685066628258987 -0.025677225611912522 0 -0.034532712749265129 -0.026140527139954291 0 -0.035065178804529237 -0.025874520603216655 0 -0.035794758600484838 -0.023919096090678781 0 -0.037683243065036329 -0.019410389564612621 0 -0.037183587486882552 -0.02188910122197377 0 -0.037547767865548261 -0.021349472717241837 0 -0.034685066628258987 -0.025677225611912522 0 -0.034922525062516828 -0.025597307623401448 0 -0.035248729018010475 -0.026197577039734118 0 -0.034472967881301393 -0.024293316870369886 0 -0.034856608493674154 -0.023955965555135135 0 -0.034688307014183309 -0.023123577300613238 0 -0.034674664468737314 -0.025551374816422737 0 -0.034685066628258987 -0.025677225611912522 0 -0.034532712749265129 -0.026140527139954291 0 -0.034472967881301393 -0.024293316870369886 0 -0.034722737734104406 -0.0243532846022201 0 -0.034856608493674154 -0.023955965555135135 0 -0.034674664468737314 -0.025551374816422737 0 -0.034685066628258987 -0.025677225611912522 0 -0.034922525062516828 -0.025597307623401448 0 -0.037683243065036329 -0.019410389564612621 0 -0.037547767865548261 -0.021349472717241837 0 -0.041302990660606491 -0.016886149355838338 0 -0.040423020033041636 -0.01731604622761598 0 -0.040521456335452323 -0.016447242412559054 0 -0.041302990660606491 -0.016886149355838338 0 -0.04107011179076011 -0.016315549411477004 0 -0.040521456335452323 -0.016447242412559054 0 -0.041302990660606491 -0.016886149355838338 0 -0.04107011179076011 -0.016315549411477004 0 -0.041537933654682821 -0.015966159687457546 0 -0.04107011179076011 -0.016315549411477004 0 -0.040926934249532872 -0.015957048599021278 0 -0.041537933654682821 -0.015966159687457546 0 -0.04107011179076011 -0.016315549411477004 0 -0.040521456335452323 -0.016447242412559054 0 -0.040926934249532872 -0.015957048599021278 0 -0.041222611816776056 -0.013409001497771789 0 -0.041395066201221728 -0.013217272042611763 0 -0.041298046253547431 -0.013175032742628177 0 -0.041222611816776056 -0.013409001497771789 0 -0.041429971661466294 -0.013291169769156763 0 -0.041395066201221728 -0.013217272042611763 0 -0.037683243065036329 -0.019410389564612621 0 -0.039888773144879874 -0.015407807584061762 0 -0.034688307014183309 -0.023123577300613238 0 -0.035315565562017301 -0.023348595991572428 0 -0.035605927487703783 -0.022655529781518299 0 -0.037683243065036329 -0.019410389564612621 0 -0.036935805655156882 -0.016975720886191776 0 -0.035111301308127334 -0.02362242826114597 0 -0.034688307014183309 -0.023123577300613238 0 -0.035315565562017301 -0.023348595991572428 0 -0.035315565562017301 -0.023348595991572428 0 -0.03564915717996589 -0.023425405478615123 0 -0.035445848270780365 -0.023758665843159471 0 -0.035315565562017301 -0.023348595991572428 0 -0.03564915717996589 -0.023425405478615123 0 -0.035605927487703783 -0.022655529781518299 0 -0.03085245301846308 -0.017649160958815985 0 -0.036935805655156882 -0.016975720886191776 0 -0.039939392376777842 -0.015620174780597438 0 -0.039238471306367782 -0.0142527867891745 0 -0.040081694663743429 -0.01467182010275715 0 -0.03564915717996589 -0.023425405478615123 0 -0.036047320305908716 -0.023523367489921992 0 -0.035605927487703783 -0.022655529781518299 0 -0.039238471306367782 -0.0142527867891745 0 -0.040367757928021081 -0.014209956951332162 0 -0.040081694663743429 -0.01467182010275715 0 -0.036935805655156882 -0.016975720886191776 0 -0.039767554368574209 -0.015102115582496901 0 -0.041408403235111364 -0.013234244362196421 0 -0.041430494665835947 -0.013184455945833281 0 -0.041463953548872189 -0.013163196511142096 0 -0.036935805655156882 -0.016975720886191776 0 -0.037000734083112247 -0.016818891468901136 0 -0.041430494665835947 -0.013184455945833281 0 -0.041395066201221728 -0.013217272042611763 0 -0.041420165318745379 -0.013158601798454239 0 -0.041408403235111364 -0.013234244362196421 0 -0.041430494665835947 -0.013184455945833281 0 -0.041395066201221728 -0.013217272042611763 0 -0.040422086023219304 -0.013704947346862825 0 -0.040890430802498295 -0.014179840002755901 0 -0.041424876736490868 -0.013267512435379304 0 -0.039238471306367782 -0.0142527867891745 0 -0.040422086023219304 -0.013704947346862825 0 -0.040367757928021081 -0.014209956951332162 0 -0.040367757928021081 -0.014209956951332162 0 -0.040890430802498295 -0.014179840002755901 0 -0.040081694663743429 -0.01467182010275715 0 -0.040422086023219304 -0.013704947346862825 0 -0.040367757928021081 -0.014209956951332162 0 -0.040890430802498295 -0.014179840002755901 0 0.00052694613318534527 -0.014265728716390948 0 -0.0010214787261924 -0.012024337458113916 0 -0.0008313121443672488 -0.013555695739944218 0 -0.03085245301846308 -0.017649160958815985 0 -0.025276974794396567 -0.01522077079362897 0 -0.0010214787261924 -0.012024337458113916 0 -0.0008313121443672488 -0.013555695739944218 0 -0.0015341302920172481 -0.012838448946807621 0 -0.039939392376777842 -0.015620174780597438 0 -0.040890430802498295 -0.014179840002755901 0 -0.040081694663743429 -0.01467182010275715 0 0.00052694613318534527 -0.014265728716390948 0 -0.0008313121443672488 -0.013555695739944218 0 -0.00044126887387309967 -0.014304058022148168 0 -0.0008313121443672488 -0.013555695739944218 0 -0.0012137674937066727 -0.014440279942873837 0 -0.00044126887387309967 -0.014304058022148168 0 -0.0012137674937066727 -0.014440279942873837 0 -0.00070108341429154185 -0.015076599820891984 0 -0.0015799692451905129 -0.015632093183230101 0 0.00052694613318534527 -0.014265728716390948 0 -0.00070108341429154185 -0.015076599820891984 0 -0.00065578670689257182 -0.016746370872897515 0 -0.036038337742170926 -0.023530888893941761 0 -0.035974245311318188 -0.024126647859338046 0 -0.036475223305694707 -0.024528630031995142 0 -0.03085245301846308 -0.017649160958815985 0 -0.023985072407067244 -0.018869907954208794 0 -0.0012137674937066727 -0.014440279942873837 0 -0.00044126887387309967 -0.014304058022148168 0 -0.00070108341429154185 -0.015076599820891984 0 -0.00070108341429154185 -0.015076599820891984 0 -0.00065578670689257182 -0.016746370872897515 0 -0.0015799692451905129 -0.015632093183230101 0 0.00052694613318534527 -0.014265728716390948 0 -0.00044126887387309967 -0.014304058022148168 0 -0.00070108341429154185 -0.015076599820891984 0 -0.03085245301846308 -0.017649160958815985 0 -0.030898606438374138 -0.017965953126804126 0 -0.03564915717996589 -0.023425405478615123 0 -0.036047320305908716 -0.023523367489921992 0 -0.035830842153577028 -0.023836249229556739 0 -0.036038337742170926 -0.023530888893941761 0 -0.035830842153577028 -0.023836249229556739 0 -0.035974245311318188 -0.024126647859338046 0 -0.03564915717996589 -0.023425405478615123 0 -0.035830842153577028 -0.023836249229556739 0 -0.035445848270780365 -0.023758665843159471 0 -0.035830842153577028 -0.023836249229556739 0 -0.035445848270780365 -0.023758665843159471 0 -0.035549990387912671 -0.024182577430406204 0 -0.035830842153577028 -0.023836249229556739 0 -0.035549990387912671 -0.024182577430406204 0 -0.035974245311318188 -0.024126647859338046 0 -0.035549990387912671 -0.024182577430406204 0 -0.035974245311318188 -0.024126647859338046 0 -0.03595580207810993 -0.024528010604060166 0 -0.035218392893098416 -0.024374361800464463 0 -0.035549990387912671 -0.024182577430406204 0 -0.035589956378228316 -0.024495381609355153 0 -0.035549990387912671 -0.024182577430406204 0 -0.03595580207810993 -0.024528010604060166 0 -0.035589956378228316 -0.024495381609355153 0 -0.035828095699742026 -0.024877491824223979 0 -0.03532523770952635 -0.024677626320583596 0 -0.035589956378228316 -0.024495381609355153 0 -0.036316347001762957 -0.024885225402149637 0 -0.035828095699742026 -0.024877491824223979 0 -0.03595580207810993 -0.024528010604060166 0 -0.035828095699742026 -0.024877491824223979 0 -0.03595580207810993 -0.024528010604060166 0 -0.035589956378228316 -0.024495381609355153 0 -0.036316347001762957 -0.024885225402149637 0 -0.03595580207810993 -0.024528010604060166 0 -0.036475223305694707 -0.024528630031995142 0 -0.035974245311318188 -0.024126647859338046 0 -0.03595580207810993 -0.024528010604060166 0 -0.036475223305694707 -0.024528630031995142 0 -0.00065578670689257182 -0.016746370872897515 0 -0.0023767398357505748 -0.016462759241766274 0 -0.0025402447233837688 -0.017794332525460067 0 -0.00065578670689257182 -0.016746370872897515 0 -0.0023767398357505748 -0.016462759241766274 0 -0.0015799692451905129 -0.015632093183230101 0 -0.0023767398357505748 -0.016462759241766274 0 -0.0038095160155689053 -0.016922138392179053 0 -0.003095895046243378 -0.015119609758844459 0 -0.0023767398357505748 -0.016462759241766274 0 -0.0025402447233837688 -0.017794332525460067 0 -0.0038095160155689053 -0.016922138392179053 0 -0.003095895046243378 -0.015119609758844459 0 -0.0044212064692093749 -0.014186758744675789 0 -0.0052768502787823093 -0.015699957029665947 0 -0.0038095160155689053 -0.016922138392179053 0 -0.003095895046243378 -0.015119609758844459 0 -0.0052768502787823093 -0.015699957029665947 0 -0.003095895046243378 -0.015119609758844459 0 -0.0021483124534666005 -0.014478670567567693 0 -0.0031342691225790037 -0.013465128935073881 0 -0.003095895046243378 -0.015119609758844459 0 -0.0021483124534666005 -0.014478670567567693 0 -0.0015799692451905129 -0.015632093183230101 0 -0.0023767398357505748 -0.016462759241766274 0 -0.003095895046243378 -0.015119609758844459 0 -0.0015799692451905129 -0.015632093183230101 0 -0.0012137674937066727 -0.014440279942873837 0 -0.0021483124534666005 -0.014478670567567693 0 -0.0015799692451905129 -0.015632093183230101 0 -0.0008313121443672488 -0.013555695739944218 0 -0.0012137674937066727 -0.014440279942873837 0 -0.0017008579124217328 -0.013635238099846413 0 -0.0012137674937066727 -0.014440279942873837 0 -0.0021483124534666005 -0.014478670567567693 0 -0.0017008579124217328 -0.013635238099846413 0 -0.0021483124534666005 -0.014478670567567693 0 -0.0017008579124217328 -0.013635238099846413 0 -0.0031342691225790037 -0.013465128935073881 0 -0.0022317486241427453 -0.012848838550857673 0 -0.0029030013123021244 -0.012241070414734356 0 -0.0031342691225790037 -0.013465128935073881 0 -0.0017008579124217328 -0.013635238099846413 0 -0.0022317486241427453 -0.012848838550857673 0 -0.0031342691225790037 -0.013465128935073881 0 -0.0008313121443672488 -0.013555695739944218 0 -0.0017008579124217328 -0.013635238099846413 0 -0.0015341302920172481 -0.012838448946807621 0 -0.0017008579124217328 -0.013635238099846413 0 -0.0022317486241427453 -0.012848838550857673 0 -0.0015341302920172481 -0.012838448946807621 0 -0.0022317486241427453 -0.012848838550857673 0 -0.0015341302920172481 -0.012838448946807621 0 -0.0020455159771936241 -0.012274719572040573 0 -0.0010214787261924 -0.012024337458113916 0 -0.0025285929563117729 -0.011423577642928605 0 -0.0026099861004545239 -0.0098571821649299663 0 -0.025276974794396567 -0.01522077079362897 0 -0.02296736949793559 -0.012466331511714494 0 -0.0010214787261924 -0.012024337458113916 0 -0.0020455159771936241 -0.012274719572040573 0 -0.0025285929563117729 -0.011423577642928605 0 -0.0010214787261924 -0.012024337458113916 0 -0.0015341302920172481 -0.012838448946807621 0 -0.0020455159771936241 -0.012274719572040573 0 -0.0020455159771936241 -0.012274719572040573 0 -0.0029030013123021244 -0.012241070414734356 0 -0.0025285929563117729 -0.011423577642928605 0 -0.0029030013123021244 -0.012241070414734356 0 -0.0025285929563117729 -0.011423577642928605 0 -0.0035048904880786991 -0.011616284680448667 0 -0.0022317486241427453 -0.012848838550857673 0 -0.0020455159771936241 -0.012274719572040573 0 -0.0029030013123021244 -0.012241070414734356 0 -0.0045104219285536573 -0.011539592320257962 0 -0.0035048904880786991 -0.011616284680448667 0 -0.0037383956559688381 -0.01062526137615979 0 -0.0025285929563117729 -0.011423577642928605 0 -0.0035048904880786991 -0.011616284680448667 0 -0.0037383956559688381 -0.01062526137615979 0 -0.0029030013123021244 -0.012241070414734356 0 -0.0035048904880786991 -0.011616284680448667 0 -0.0038241285481748263 -0.012335102464258575 0 -0.0045104219285536573 -0.011539592320257962 0 -0.0038241285481748263 -0.012335102464258575 0 -0.0047398120662768837 -0.012910326893751352 0 -0.0045104219285536573 -0.011539592320257962 0 -0.0035048904880786991 -0.011616284680448667 0 -0.0038241285481748263 -0.012335102464258575 0 -0.0038241285481748263 -0.012335102464258575 0 -0.0031342691225790037 -0.013465128935073881 0 -0.0047398120662768837 -0.012910326893751352 0 -0.0029030013123021244 -0.012241070414734356 0 -0.0038241285481748263 -0.012335102464258575 0 -0.0031342691225790037 -0.013465128935073881 0 -0.003095895046243378 -0.015119609758844459 0 -0.0031342691225790037 -0.013465128935073881 0 -0.0044212064692093749 -0.014186758744675789 0 -0.0031342691225790037 -0.013465128935073881 0 -0.0044212064692093749 -0.014186758744675789 0 -0.0047398120662768837 -0.012910326893751352 0 -0.0060873858810501719 -0.013774812210265669 0 -0.0047398120662768837 -0.012910326893751352 0 -0.0057899232000226388 -0.011883601466314184 0 -0.0044212064692093749 -0.014186758744675789 0 -0.0060873858810501719 -0.013774812210265669 0 -0.0047398120662768837 -0.012910326893751352 0 -0.0045104219285536573 -0.011539592320257962 0 -0.0047398120662768837 -0.012910326893751352 0 -0.0057899232000226388 -0.011883601466314184 0 -0.0045104219285536573 -0.011539592320257962 0 -0.0057899232000226388 -0.011883601466314184 0 -0.0053486195748108428 -0.01034036529101269 0 -0.0073152615721604492 -0.012270146728632426 0 -0.0076537409998661968 -0.010415486575318341 0 -0.0089356766541277902 -0.011769612792101923 0 -0.0057899232000226388 -0.011883601466314184 0 -0.0073152615721604492 -0.012270146728632426 0 -0.0076537409998661968 -0.010415486575318341 0 -0.0060873858810501719 -0.013774812210265669 0 -0.0073152615721604492 -0.012270146728632426 0 -0.008046387680748739 -0.013554853519478419 0 -0.0060873858810501719 -0.013774812210265669 0 -0.0057899232000226388 -0.011883601466314184 0 -0.0073152615721604492 -0.012270146728632426 0 -0.0060873858810501719 -0.013774812210265669 0 -0.0072197539188901703 -0.015240483643900482 0 -0.008046387680748739 -0.013554853519478419 0 -0.0044212064692093749 -0.014186758744675789 0 -0.0060873858810501719 -0.013774812210265669 0 -0.0052768502787823093 -0.015699957029665947 0 -0.0060873858810501719 -0.013774812210265669 0 -0.0072197539188901703 -0.015240483643900482 0 -0.0052768502787823093 -0.015699957029665947 0 -0.0053978601401543976 -0.01789092269094494 0 -0.0052768502787823093 -0.015699957029665947 0 -0.0068490825858682882 -0.016967414283020552 0 -0.0053978601401543976 -0.01789092269094494 0 -0.0038095160155689053 -0.016922138392179053 0 -0.0052768502787823093 -0.015699957029665947 0 -0.0072197539188901703 -0.015240483643900482 0 -0.0052768502787823093 -0.015699957029665947 0 -0.0068490825858682882 -0.016967414283020552 0 -0.0072197539188901703 -0.015240483643900482 0 -0.0068490825858682882 -0.016967414283020552 0 -0.0084184662419685124 -0.01717444337784628 0 -0.0071035283935371295 -0.01867802313555654 0 -0.0068490825858682882 -0.016967414283020552 0 -0.0084184662419685124 -0.01717444337784628 0 -0.037107379983081619 -0.023688798491894709 0 -0.037337334884345291 -0.023306233166027954 0 -0.036993227841562087 -0.023029859378453144 0 -0.037107379983081619 -0.023688798491894709 0 -0.036993227841562087 -0.023029859378453144 0 -0.036371787799745973 -0.023258526619128757 0 -0.036393550519626776 -0.024613689761565402 0 -0.035395614387410325 -0.025567670318357411 0 -0.037107379983081619 -0.023688798491894709 0 -0.037595409150127886 -0.023372490357700195 0 -0.037337334884345291 -0.023306233166027954 0 -0.037107379983081619 -0.023688798491894709 0 -0.037595409150127886 -0.023372490357700195 0 -0.037814001439778019 -0.023409976908086483 0 -0.037595409150127886 -0.023372490357700195 0 -0.037337334884345291 -0.023306233166027954 0 -0.03749846154905935 -0.023108245405653077 0 -0.037595409150127886 -0.023372490357700195 0 -0.03749846154905935 -0.023108245405653077 0 -0.037767457356452032 -0.023332675967988815 0 -0.03749846154905935 -0.023108245405653077 0 -0.037670450240932449 -0.022915992755952835 0 -0.037767457356452032 -0.023332675967988815 0 -0.03749846154905935 -0.023108245405653077 0 -0.037670450240932449 -0.022915992755952835 0 -0.03728955867544239 -0.022467960521929672 0 -0.036993227841562087 -0.023029859378453144 0 -0.036687517719445964 -0.022327850714864525 0 -0.03728955867544239 -0.022467960521929672 0 -0.036993227841562087 -0.023029859378453144 0 -0.036687517719445964 -0.022327850714864525 0 -0.036252543405576702 -0.022710679604288745 0 -0.03749846154905935 -0.023108245405653077 0 -0.036993227841562087 -0.023029859378453144 0 -0.03728955867544239 -0.022467960521929672 0 -0.037337334884345291 -0.023306233166027954 0 -0.03749846154905935 -0.023108245405653077 0 -0.036993227841562087 -0.023029859378453144 0 -0.036687517719445964 -0.022327850714864525 0 -0.036252543405576702 -0.022710679604288745 0 -0.03594532102009329 -0.021585343573586477 0 -0.036252543405576702 -0.022710679604288745 0 -0.035666138561626842 -0.02266030424999602 0 -0.03594532102009329 -0.021585343573586477 0 -0.036993227841562087 -0.023029859378453144 0 -0.036252543405576702 -0.022710679604288745 0 -0.036371787799745973 -0.023258526619128757 0 -0.036252543405576702 -0.022710679604288745 0 -0.035666138561626842 -0.02266030424999602 0 -0.035842229773323936 -0.023169795806695988 0 -0.034999886530819008 -0.022404448833572302 0 -0.035666138561626842 -0.02266030424999602 0 -0.03594532102009329 -0.021585343573586477 0 -0.034999886530819008 -0.022404448833572302 0 -0.035666138561626842 -0.02266030424999602 0 -0.035255564913486685 -0.023474229695395022 0 -0.034999886530819008 -0.022404448833572302 0 -0.035255564913486685 -0.023474229695395022 0 -0.034999988853130375 -0.024259996847125046 0 -0.035255564913486685 -0.023474229695395022 0 -0.035557785858646135 -0.023750349312539051 0 -0.035360273241185694 -0.024153139527622536 0 -0.035666138561626842 -0.02266030424999602 0 -0.035255564913486685 -0.023474229695395022 0 -0.035842229773323936 -0.023169795806695988 0 -0.035255564913486685 -0.023474229695395022 0 -0.035842229773323936 -0.023169795806695988 0 -0.035557785858646135 -0.023750349312539051 0 -0.036393550519626776 -0.024613689761565402 0 -0.036052340684406853 -0.024364213262432311 0 -0.037107379983081619 -0.023688798491894709 0 -0.035557785858646135 -0.023750349312539051 0 -0.036371787799745973 -0.023258526619128757 0 -0.035842229773323936 -0.023169795806695988 0 -0.035557785858646135 -0.023750349312539051 0 -0.036371787799745973 -0.023258526619128757 0 -0.036252543405576702 -0.022710679604288745 0 -0.035842229773323936 -0.023169795806695988 0 -0.036371787799745973 -0.023258526619128757 0 -0.035557785858646135 -0.023750349312539051 0 -0.036098498002263321 -0.024046564389802804 0 -0.035744567677911537 -0.024142080189108298 0 -0.036429717474133858 -0.023832541463958839 0 -0.035557785858646135 -0.023750349312539051 0 -0.036098498002263321 -0.024046564389802804 0 -0.035744567677911537 -0.024142080189108298 0 -0.035641983615666353 -0.02434296418781829 0 -0.036058337358994635 -0.024378877639478228 0 -0.036098498002263321 -0.024046564389802804 0 -0.035744567677911537 -0.024142080189108298 0 -0.036058337358994635 -0.024378877639478228 0 -0.034727395310526911 -0.024723466706076769 0 -0.034678182678210524 -0.025264439105640819 0 -0.035255564913486685 -0.023474229695395022 0 -0.034999988853130375 -0.024259996847125046 0 -0.035338646393109276 -0.024716638024359056 0 -0.034999988853130375 -0.024259996847125046 0 -0.035338646393109276 -0.024716638024359056 0 -0.035000005605214789 -0.02611591491994246 0 -0.035557785858646135 -0.023750349312539051 0 -0.035744567677911537 -0.024142080189108298 0 -0.035360273241185694 -0.024153139527622536 0 -0.035744567677911537 -0.024142080189108298 0 -0.035360273241185694 -0.024153139527622536 0 -0.035641983615666353 -0.02434296418781829 0 -0.035360273241185694 -0.024153139527622536 0 -0.035641983615666353 -0.02434296418781829 0 -0.035397554422960831 -0.024692065654330301 0 -0.034678182678210524 -0.025264439105640819 0 -0.034498940033018961 -0.026772999297384265 0 -0.035641983615666353 -0.02434296418781829 0 -0.035397554422960831 -0.024692065654330301 0 -0.036058337358994635 -0.024378877639478228 0 -0.035338646393109276 -0.024716638024359056 0 -0.035400954664282169 -0.025939643538509752 0 -0.035000005605214789 -0.02611591491994246 0 -0.034498940033018961 -0.026772999297384265 0 -0.034998727323981162 -0.026119848567913419 0 -0.033403961627335353 -0.031830095539891405 0 -0.034109356334096591 -0.032214485285864611 0 -0.033144607905327556 -0.03239463386575625 0 -0.034498940033018961 -0.026772999297384265 0 -0.034359390395695168 -0.027186370115554345 0 -0.033403961627335353 -0.031830095539891405 0 -0.033144607905327556 -0.03239463386575625 0 -0.032568690327107644 -0.031862938004383522 0 -0.032568690327107644 -0.031862938004383522 0 -0.032446686216777598 -0.032146778134893514 0 -0.031901261269555746 -0.03192708529485272 0 -0.033144607905327556 -0.03239463386575625 0 -0.032568690327107644 -0.031862938004383522 0 -0.032446686216777598 -0.032146778134893514 0 -0.033144607905327556 -0.03239463386575625 0 -0.032446686216777598 -0.032146778134893514 0 -0.032155385723479042 -0.032445629323745465 0 -0.034359390395695168 -0.027186370115554345 0 -0.034435167959049974 -0.026892207240598109 0 -0.036098498002263321 -0.024046564389802804 0 -0.036058337358994635 -0.024378877639478228 0 -0.036652729977788456 -0.024092316318778759 0 -0.036429717474133858 -0.023832541463958839 0 -0.036098498002263321 -0.024046564389802804 0 -0.036652729977788456 -0.024092316318778759 0 -0.034435167959049974 -0.026892207240598109 0 -0.035395614387410325 -0.025567670318357411 0 -0.032155385723479042 -0.032445629323745465 0 -0.031901261269555746 -0.03192708529485272 0 -0.030977111989323961 -0.032450543788925361 0 -0.036429717474133858 -0.023832541463958839 0 -0.036652729977788456 -0.024092316318778759 0 -0.037201343401684524 -0.02385397967793133 0 -0.03196229613396321 -0.031517546485494555 0 -0.031901261269555746 -0.03192708529485272 0 -0.031292650182399927 -0.031568522553938529 0 -0.03196229613396321 -0.031517546485494555 0 -0.032568690327107644 -0.031862938004383522 0 -0.031901261269555746 -0.03192708529485272 0 -0.032446686216777598 -0.032146778134893514 0 -0.032155385723479042 -0.032445629323745465 0 -0.031901261269555746 -0.03192708529485272 0 -0.03137007540322162 -0.031392491052378936 0 -0.031292650182399927 -0.031568522553938529 0 -0.030560708910180843 -0.031438805811155129 0 -0.029538092410089006 -0.03322367670428529 0 -0.02949223747853361 -0.032738600196814752 0 -0.031282412789487249 -0.031269243510987761 0 -0.030560708910180843 -0.031438805811155129 0 -0.029367411121657264 -0.031351386281300936 0 -0.030111433855911557 -0.031766794391862821 0 -0.029422760706321296 -0.03151159569704285 0 -0.030977111989323961 -0.032450543788925361 0 -0.030560708910180843 -0.031438805811155129 0 -0.029367411121657264 -0.031351386281300936 0 -0.030111433855911557 -0.031766794391862821 0 -0.029367411121657264 -0.031351386281300936 0 -0.030111433855911557 -0.031766794391862821 0 -0.029422760706321296 -0.03151159569704285 0 -0.031901261269555746 -0.03192708529485272 0 -0.031292650182399927 -0.031568522553938529 0 -0.030977111989323961 -0.032450543788925361 0 -0.031292650182399927 -0.031568522553938529 0 -0.030560708910180843 -0.031438805811155129 0 -0.030977111989323961 -0.032450543788925361 0 -0.030560708910180843 -0.031438805811155129 0 -0.030111433855911557 -0.031766794391862821 0 -0.030977111989323961 -0.032450543788925361 0 -0.029987939899103769 -0.032660399819909328 0 -0.028885053374902485 -0.032655442122280713 0 -0.029562649889028746 -0.031101776168620077 0 -0.029987939899103769 -0.032660399819909328 0 -0.030970259872092898 -0.030680036111805031 0 -0.029562649889028746 -0.031101776168620077 0 -0.027355471467279222 -0.033983454782124098 0 -0.029367411121657264 -0.031351386281300936 0 -0.028885053374902485 -0.032655442122280713 0 -0.029367411121657264 -0.031351386281300936 0 -0.028885053374902485 -0.032655442122280713 0 -0.029562649889028746 -0.031101776168620077 0 -0.029367411121657264 -0.031351386281300936 0 -0.029457883382322841 -0.030845918329647778 0 -0.029562649889028746 -0.031101776168620077 0 -0.029457883382322841 -0.030845918329647778 0 -0.029994121307592492 -0.029153410409482963 0 -0.029422760706321296 -0.03151159569704285 0 -0.029367411121657264 -0.031351386281300936 0 -0.029457883382322841 -0.030845918329647778 0 -0.029422760706321296 -0.03151159569704285 0 -0.030970259872092898 -0.030680036111805031 0 -0.029562649889028746 -0.031101776168620077 0 -0.029994121307592492 -0.029153410409482963 0 -0.029457883382322841 -0.030845918329647778 0 -0.029562649889028746 -0.031101776168620077 0 -0.029994121307592492 -0.029153410409482963 0 -0.034459530860881132 -0.025058085848242401 0 -0.034930750788238769 -0.024375238151986337 0 -0.035233438203662669 -0.024654751551373009 0 -0.034930750788238769 -0.024375238151986337 0 -0.035901390275969641 -0.024122521910467438 0 -0.035233438203662669 -0.024654751551373009 0 -0.034930750788238769 -0.024375238151986337 0 -0.035901390275969641 -0.024122521910467438 0 -0.036771556512018834 -0.023211868839688368 0 -0.034062601440138215 -0.026536099549529308 0 -0.034202412621575556 -0.0263078573035192 0 -0.035901390275969641 -0.024122521910467438 0 -0.036541728381525938 -0.024027561423737038 0 -0.037033048945669812 -0.023606785612274278 0 -0.035901390275969641 -0.024122521910467438 0 -0.036771556512018834 -0.023211868839688368 0 -0.037033048945669812 -0.023606785612274278 0 -0.036541728381525938 -0.024027561423737038 0 -0.03594187648867625 -0.024529538098527193 0 -0.036864447175239533 -0.024085574464935991 0 -0.03594187648867625 -0.024529538098527193 0 -0.036864447175239533 -0.024085574464935991 0 -0.036644341754537006 -0.024554621042747304 0 -0.035901390275969641 -0.024122521910467438 0 -0.036541728381525938 -0.024027561423737038 0 -0.03594187648867625 -0.024529538098527193 0 -0.035901390275969641 -0.024122521910467438 0 -0.03594187648867625 -0.024529538098527193 0 -0.035233438203662669 -0.024654751551373009 0 -0.03594187648867625 -0.024529538098527193 0 -0.035233438203662669 -0.024654751551373009 0 -0.03493049176657205 -0.02518958209600387 0 -0.034459530860881132 -0.025058085848242401 0 -0.035233438203662669 -0.024654751551373009 0 -0.03493049176657205 -0.02518958209600387 0 -0.037814001439778019 -0.023409976908086483 0 -0.037783466655919119 -0.023547523238618504 0 -0.037767457356452032 -0.023332675967988815 0 -0.037595409150127886 -0.023372490357700195 0 -0.037814001439778019 -0.023409976908086483 0 -0.037767457356452032 -0.023332675967988815 0 -0.037814001439778019 -0.023409976908086483 0 -0.037389075189918221 -0.02369206564510612 0 -0.037783466655919119 -0.023547523238618504 0 -0.035395614387410325 -0.025567670318357411 0 -0.036533394771449484 -0.024852907659030702 0 -0.034202412621575556 -0.0263078573035192 0 -0.035395614387410325 -0.025567670318357411 0 -0.037814001439778019 -0.023409976908086483 0 -0.037033048945669812 -0.023606785612274278 0 -0.037389075189918221 -0.02369206564510612 0 -0.036771556512018834 -0.023211868839688368 0 -0.037948128262238146 -0.023211453179233142 0 -0.037033048945669812 -0.023606785612274278 0 -0.036541728381525938 -0.024027561423737038 0 -0.037033048945669812 -0.023606785612274278 0 -0.037389075189918221 -0.02369206564510612 0 -0.037389075189918221 -0.02369206564510612 0 -0.037517857939353493 -0.023856673615344447 0 -0.037783466655919119 -0.023547523238618504 0 -0.036541728381525938 -0.024027561423737038 0 -0.037389075189918221 -0.02369206564510612 0 -0.036864447175239533 -0.024085574464935991 0 -0.037389075189918221 -0.02369206564510612 0 -0.036864447175239533 -0.024085574464935991 0 -0.037517857939353493 -0.023856673615344447 0 -0.036864447175239533 -0.024085574464935991 0 -0.037517857939353493 -0.023856673615344447 0 -0.036644341754537006 -0.024554621042747304 0 -0.037517857939353493 -0.023856673615344447 0 -0.037783466655919119 -0.023547523238618504 0 -0.038016581998114828 -0.023593998825544235 0 -0.037783466655919119 -0.023547523238618504 0 -0.037973533419231167 -0.023184531269414773 0 -0.038016581998114828 -0.023593998825544235 0 -0.037783466655919119 -0.023547523238618504 0 -0.037767457356452032 -0.023332675967988815 0 -0.037973533419231167 -0.023184531269414773 0 -0.037670450240932449 -0.022915992755952835 0 -0.037767457356452032 -0.023332675967988815 0 -0.037973533419231167 -0.023184531269414773 0 -0.037973533419231167 -0.023184531269414773 0 -0.038120744172091943 -0.022339949336890021 0 -0.037692444658864427 -0.022335223231745055 0 -0.037973533419231167 -0.023184531269414773 0 -0.038120744172091943 -0.022339949336890021 0 -0.038437335507376234 -0.02333085915624062 0 -0.038120744172091943 -0.022339949336890021 0 -0.038437335507376234 -0.02333085915624062 0 -0.038896616965687178 -0.021570518585960721 0 -0.037973533419231167 -0.023184531269414773 0 -0.038437335507376234 -0.02333085915624062 0 -0.038016581998114828 -0.023593998825544235 0 -0.037517857939353493 -0.023856673615344447 0 -0.038016581998114828 -0.023593998825544235 0 -0.037716089190461773 -0.024097556107007839 0 -0.038437335507376234 -0.02333085915624062 0 -0.038016581998114828 -0.023593998825544235 0 -0.037716089190461773 -0.024097556107007839 0 -0.037517857939353493 -0.023856673615344447 0 -0.037716089190461773 -0.024097556107007839 0 -0.036644341754537006 -0.024554621042747304 0 -0.037716089190461773 -0.024097556107007839 0 -0.036644341754537006 -0.024554621042747304 0 -0.03684231364036937 -0.025022201475123452 0 -0.037716089190461773 -0.024097556107007839 0 -0.037697294126749825 -0.025140205136825029 0 -0.03684231364036937 -0.025022201475123452 0 -0.038437335507376234 -0.02333085915624062 0 -0.039859006986692341 -0.022651247152271695 0 -0.038896616965687178 -0.021570518585960721 0 -0.037551542538756061 -0.021988538881704187 0 -0.037532257313201076 -0.021932029587878096 0 -0.038437335507376234 -0.02333085915624062 0 -0.037716089190461773 -0.024097556107007839 0 -0.037767743189443821 -0.024263898548953302 0 -0.037532962924694824 -0.022090133407273688 0 -0.037532257313201076 -0.021932029587878096 0 -0.037532257313201076 -0.021932029587878096 0 -0.037235643160046815 -0.021967698015758125 0 -0.037913191886690172 -0.020969048876408398 0 -0.037914920448968853 -0.020914892939515622 0 -0.037962062108160416 -0.020942396029261002 0 -0.039859006986692341 -0.022651247152271695 0 -0.03997156115371174 -0.020729863530433226 0 -0.038896616965687178 -0.021570518585960721 0 -0.037532257313201076 -0.021932029587878096 0 -0.037950276359882573 -0.02063986660127641 0 -0.03997156115371174 -0.020729863530433226 0 -0.038896616965687178 -0.021570518585960721 0 -0.038859770599673112 -0.020058197178701168 0 -0.038896616965687178 -0.021570518585960721 0 -0.038859770599673112 -0.020058197178701168 0 -0.037845914528040786 -0.020988440437083936 0 -0.038120744172091943 -0.022339949336890021 0 -0.038896616965687178 -0.021570518585960721 0 -0.037845914528040786 -0.020988440437083936 0 -0.03594187648867625 -0.024529538098527193 0 -0.03493049176657205 -0.02518958209600387 0 -0.035698551244295877 -0.02515256587594486 0 -0.034922525062516828 -0.025597307623401448 0 -0.035206932516146962 -0.025557060310230795 0 -0.03493049176657205 -0.02518958209600387 0 -0.035206932516146962 -0.025557060310230795 0 -0.035698551244295877 -0.02515256587594486 0 -0.035607808737523415 -0.025691664636255281 0 -0.035206932516146962 -0.025557060310230795 0 -0.03493049176657205 -0.02518958209600387 0 -0.035698551244295877 -0.02515256587594486 0 -0.036205792978730458 -0.025245937622883931 0 -0.035698551244295877 -0.02515256587594486 0 -0.036644341754537006 -0.024554621042747304 0 -0.036205792978730458 -0.025245937622883931 0 -0.035698551244295877 -0.02515256587594486 0 -0.035607808737523415 -0.025691664636255281 0 -0.03594187648867625 -0.024529538098527193 0 -0.035698551244295877 -0.02515256587594486 0 -0.036644341754537006 -0.024554621042747304 0 -0.036205792978730458 -0.025245937622883931 0 -0.03684231364036937 -0.025022201475123452 0 -0.036182010407994736 -0.025916966909743037 0 -0.036205792978730458 -0.025245937622883931 0 -0.036644341754537006 -0.024554621042747304 0 -0.03684231364036937 -0.025022201475123452 0 -0.037697294126749825 -0.025140205136825029 0 -0.03684231364036937 -0.025022201475123452 0 -0.036182010407994736 -0.025916966909743037 0 -0.037235643160046815 -0.021967698015758125 0 -0.037547767865548261 -0.021349472717241837 0 -0.037962062108160416 -0.020942396029261002 0 -0.038009471193069418 -0.020917522833737424 0 -0.037963649647787388 -0.020890142352980975 0 -0.037914920448968853 -0.020914892939515622 0 -0.037962062108160416 -0.020942396029261002 0 -0.037963649647787388 -0.020890142352980975 0 -0.036205792978730458 -0.025245937622883931 0 -0.036182010407994736 -0.025916966909743037 0 -0.035607808737523415 -0.025691664636255281 0 -0.036182010407994736 -0.025916966909743037 0 -0.035607808737523415 -0.025691664636255281 0 -0.035248729018010475 -0.026197577039734118 0 -0.035206932516146962 -0.025557060310230795 0 -0.035607808737523415 -0.025691664636255281 0 -0.035248729018010475 -0.026197577039734118 0 -0.034922525062516828 -0.025597307623401448 0 -0.035206932516146962 -0.025557060310230795 0 -0.035248729018010475 -0.026197577039734118 0 -0.040423020033041636 -0.01731604622761598 0 -0.039847431871531142 -0.016982684743333747 0 -0.040521456335452323 -0.016447242412559054 0 -0.037547767865548261 -0.021349472717241837 0 -0.03803516884745281 -0.020138710987385133 0 -0.03803516884745281 -0.020138710987385133 0 -0.038152963557713221 -0.019152832577141253 0 -0.039847431871531142 -0.016982684743333747 0 -0.039754745359580845 -0.016462633968255255 0 -0.039290590466886467 -0.016656867348189521 0 -0.039754745359580845 -0.016462633968255255 0 -0.040521456335452323 -0.016447242412559054 0 -0.039943502168274282 -0.016011273995430404 0 -0.039847431871531142 -0.016982684743333747 0 -0.039754745359580845 -0.016462633968255255 0 -0.040521456335452323 -0.016447242412559054 0 -0.039754745359580845 -0.016462633968255255 0 -0.03932749336110971 -0.015952640326318719 0 -0.039943502168274282 -0.016011273995430404 0 -0.038859770599673112 -0.020058197178701168 0 -0.038411083776868096 -0.018240883029634579 0 -0.038111718640070062 -0.019593133559763446 0 -0.038859770599673112 -0.020058197178701168 0 -0.038111718640070062 -0.019593133559763446 0 -0.037845914528040786 -0.020988440437083936 0 -0.03997156115371174 -0.020729863530433226 0 -0.038859770599673112 -0.020058197178701168 0 -0.04001539695622712 -0.019361934040750456 0 -0.037914920448968853 -0.020914892939515622 0 -0.037963649647787388 -0.020890142352980975 0 -0.037916464379023816 -0.020860676225932684 0 -0.037950276359882573 -0.02063986660127641 0 -0.038152963557713221 -0.019152832577141253 0 -0.038152963557713221 -0.019152832577141253 0 -0.038542165394369235 -0.017217785759091393 0 -0.039351789591164414 -0.017767437373847346 0 -0.038058082585609568 -0.017055367000211152 0 -0.039377292415819269 -0.016708699814265184 0 -0.039754745359580845 -0.016462633968255255 0 -0.039290590466886467 -0.016656867348189521 0 -0.03932749336110971 -0.015952640326318719 0 -0.038859770599673112 -0.020058197178701168 0 -0.04001539695622712 -0.019361934040750456 0 -0.038411083776868096 -0.018240883029634579 0 -0.038152963557713221 -0.019152832577141253 0 -0.037809794311032027 -0.018219179924535592 0 -0.038411083776868096 -0.018240883029634579 0 -0.036841527090049293 -0.018396337468804442 0 -0.037319359275302111 -0.01956600982197412 0 -0.038411083776868096 -0.018240883029634579 0 -0.037319359275302111 -0.01956600982197412 0 -0.038111718640070062 -0.019593133559763446 0 -0.038411083776868096 -0.018240883029634579 0 -0.036841527090049293 -0.018396337468804442 0 -0.03693908809625826 -0.01679907337770473 0 -0.037319359275302111 -0.01956600982197412 0 -0.036997507648312125 -0.020711457238841342 0 -0.036490559930394101 -0.019643948670654693 0 -0.036841527090049293 -0.018396337468804442 0 -0.037319359275302111 -0.01956600982197412 0 -0.036490559930394101 -0.019643948670654693 0 -0.037319359275302111 -0.01956600982197412 0 -0.038111718640070062 -0.019593133559763446 0 -0.037845914528040786 -0.020988440437083936 0 -0.037845914528040786 -0.020988440437083936 0 -0.03729369550135242 -0.021607446088393996 0 -0.036997507648312125 -0.020711457238841342 0 -0.037845914528040786 -0.020988440437083936 0 -0.03729369550135242 -0.021607446088393996 0 -0.037692444658864427 -0.022335223231745055 0 -0.037319359275302111 -0.01956600982197412 0 -0.037845914528040786 -0.020988440437083936 0 -0.036997507648312125 -0.020711457238841342 0 -0.038120744172091943 -0.022339949336890021 0 -0.037845914528040786 -0.020988440437083936 0 -0.037692444658864427 -0.022335223231745055 0 -0.036997507648312125 -0.020711457238841342 0 -0.036362935573523526 -0.02066278665049023 0 -0.036490559930394101 -0.019643948670654693 0 -0.036997507648312125 -0.020711457238841342 0 -0.036779057220592312 -0.021586158351074494 0 -0.036362935573523526 -0.02066278665049023 0 -0.03729369550135242 -0.021607446088393996 0 -0.036997507648312125 -0.020711457238841342 0 -0.036779057220592312 -0.021586158351074494 0 -0.03729369550135242 -0.021607446088393996 0 -0.036779057220592312 -0.021586158351074494 0 -0.03728955867544239 -0.022467960521929672 0 -0.036687517719445964 -0.022327850714864525 0 -0.036779057220592312 -0.021586158351074494 0 -0.03728955867544239 -0.022467960521929672 0 -0.037670450240932449 -0.022915992755952835 0 -0.03728955867544239 -0.022467960521929672 0 -0.037692444658864427 -0.022335223231745055 0 -0.037670450240932449 -0.022915992755952835 0 -0.037973533419231167 -0.023184531269414773 0 -0.037692444658864427 -0.022335223231745055 0 -0.03729369550135242 -0.021607446088393996 0 -0.03728955867544239 -0.022467960521929672 0 -0.037692444658864427 -0.022335223231745055 0 -0.034999886530819008 -0.022404448833572302 0 -0.03594532102009329 -0.021585343573586477 0 -0.034999714891651476 -0.020548991910703255 0 -0.036779057220592312 -0.021586158351074494 0 -0.03594532102009329 -0.021585343573586477 0 -0.036362935573523526 -0.02066278665049023 0 -0.036687517719445964 -0.022327850714864525 0 -0.036779057220592312 -0.021586158351074494 0 -0.03594532102009329 -0.021585343573586477 0 -0.03594532102009329 -0.021585343573586477 0 -0.036362935573523526 -0.02066278665049023 0 -0.035625533139127086 -0.01973265010636454 0 -0.03594532102009329 -0.021585343573586477 0 -0.034999714891651476 -0.020548991910703255 0 -0.035625533139127086 -0.01973265010636454 0 -0.034999703573464123 -0.018693169899386176 0 -0.035625533139127086 -0.01973265010636454 0 -0.035885986864576148 -0.018640545339638253 0 -0.034999714891651476 -0.020548991910703255 0 -0.034999703573464123 -0.018693169899386176 0 -0.035625533139127086 -0.01973265010636454 0 -0.035625533139127086 -0.01973265010636454 0 -0.036490559930394101 -0.019643948670654693 0 -0.035885986864576148 -0.018640545339638253 0 -0.036362935573523526 -0.02066278665049023 0 -0.035625533139127086 -0.01973265010636454 0 -0.036490559930394101 -0.019643948670654693 0 -0.036841527090049293 -0.018396337468804442 0 -0.036490559930394101 -0.019643948670654693 0 -0.035885986864576148 -0.018640545339638253 0 -0.036841527090049293 -0.018396337468804442 0 -0.035885986864576148 -0.018640545339638253 0 -0.036123659475986905 -0.017461668805391833 0 -0.034999703573464123 -0.018693169899386176 0 -0.035885986864576148 -0.018640545339638253 0 -0.034999693273321898 -0.01683714163837054 0 -0.035885986864576148 -0.018640545339638253 0 -0.034999693273321898 -0.01683714163837054 0 -0.036123659475986905 -0.017461668805391833 0 -0.034999693273321898 -0.01683714163837054 0 -0.036123659475986905 -0.017461668805391833 0 -0.036186391936775121 -0.015699033271160321 0 -0.036123659475986905 -0.017461668805391833 0 -0.036186391936775121 -0.015699033271160321 0 -0.037520711480975674 -0.015740621441514651 0 -0.034999693273321898 -0.01683714163837054 0 -0.036186391936775121 -0.015699033271160321 0 -0.034999859446911336 -0.014981707163084642 0 -0.038058082585609568 -0.017055367000211152 0 -0.037736090825191887 -0.016286798437698109 0 -0.03693908809625826 -0.01679907337770473 0 -0.037809794311032027 -0.018219179924535592 0 -0.037250112732202266 -0.017689935357963975 0 -0.036841527090049293 -0.018396337468804442 0 -0.036123659475986905 -0.017461668805391833 0 -0.03693908809625826 -0.01679907337770473 0 -0.036123659475986905 -0.017461668805391833 0 -0.03693908809625826 -0.01679907337770473 0 -0.036986621828010185 -0.015740684653368361 0 -0.036650163516034617 -0.016428957426071811 0 -0.037262363095621434 -0.015629845801654843 0 -0.036186391936775121 -0.015699033271160321 0 -0.037520711480975674 -0.015740621441514651 0 -0.037273977476358675 -0.014762308670260935 0 -0.037736090825191887 -0.016286798437698109 0 -0.03693908809625826 -0.01679907337770473 0 -0.036986621828010185 -0.015740684653368361 0 -0.037736090825191887 -0.016286798437698109 0 -0.036986621828010185 -0.015740684653368361 0 -0.03817780388263832 -0.015556734033858719 0 -0.037520711480975674 -0.015740621441514651 0 -0.037273977476358675 -0.014762308670260935 0 -0.038467666190926252 -0.014192476650448838 0 -0.037262363095621434 -0.015629845801654843 0 -0.038172831246850676 -0.014415838813082076 0 -0.037273977476358675 -0.014762308670260935 0 -0.037764811640676646 -0.013966319869367633 0 -0.038467666190926252 -0.014192476650448838 0 -0.036986621828010185 -0.015740684653368361 0 -0.037996382345090951 -0.01419809813767609 0 -0.03817780388263832 -0.015556734033858719 0 -0.037273977476358675 -0.014762308670260935 0 -0.037764811640676646 -0.013966319869367633 0 -0.036368432550339579 -0.014534674602224596 0 -0.037549479612716825 -0.013950291023236172 0 -0.036342248170842695 -0.01443745601274974 0 -0.036960564767788341 -0.013409179161016666 0 -0.037728410145356432 -0.013647325843250718 0 -0.036506335319842348 -0.01425713495261985 0 -0.036960564767788341 -0.013409179161016666 0 -0.037728410145356432 -0.013647325843250718 0 -0.037519304528903508 -0.013041128466496674 0 -0.037764811640676646 -0.013966319869367633 0 -0.038467666190926252 -0.014192476650448838 0 -0.038765169982016255 -0.013375844611501575 0 -0.037549479612716825 -0.013950291023236172 0 -0.038148179797512581 -0.013713218768289664 0 -0.037728410145356432 -0.013647325843250718 0 -0.038047791055526414 -0.013194730034065594 0 -0.038765169982016255 -0.013375844611501575 0 -0.037728410145356432 -0.013647325843250718 0 -0.037519304528903508 -0.013041128466496674 0 -0.038047791055526414 -0.013194730034065594 0 -0.035001271237876649 -0.014980750711443072 0 -0.036342248170842695 -0.01443745601274974 0 -0.034999981326821493 -0.014981044234936507 0 -0.036506335319842348 -0.01425713495261985 0 -0.036093100037730148 -0.013393115948879488 0 -0.036186391936775121 -0.015699033271160321 0 -0.034999859446911336 -0.014981707163084642 0 -0.036368432550339579 -0.014534674602224596 0 -0.036186391936775121 -0.015699033271160321 0 -0.037273977476358675 -0.014762308670260935 0 -0.036368432550339579 -0.014534674602224596 0 -0.036960564767788341 -0.013409179161016666 0 -0.036506335319842348 -0.01425713495261985 0 -0.036093100037730148 -0.013393115948879488 0 -0.036960564767788341 -0.013409179161016666 0 -0.036093100037730148 -0.013393115948879488 0 -0.036848751511087199 -0.012717835888803939 0 -0.034999981326821493 -0.014981044234936507 0 -0.036093100037730148 -0.013393115948879488 0 -0.034999917386178622 -0.01289375702991578 0 -0.036093100037730148 -0.013393115948879488 0 -0.034999917386178622 -0.01289375702991578 0 -0.036017621703016173 -0.012194749235347944 0 -0.034999917386178622 -0.01289375702991578 0 -0.036017621703016173 -0.012194749235347944 0 -0.034999972392711104 -0.010806575753206359 0 -0.036417650568892734 -0.011280800910699284 0 -0.036017621703016173 -0.012194749235347944 0 -0.034999972392711104 -0.010806575753206359 0 -0.036417650568892734 -0.011280800910699284 0 -0.036017621703016173 -0.012194749235347944 0 -0.036892781741236329 -0.012047099869873564 0 -0.036017621703016173 -0.012194749235347944 0 -0.036848751511087199 -0.012717835888803939 0 -0.036892781741236329 -0.012047099869873564 0 -0.036093100037730148 -0.013393115948879488 0 -0.036017621703016173 -0.012194749235347944 0 -0.036848751511087199 -0.012717835888803939 0 -0.036960564767788341 -0.013409179161016666 0 -0.036848751511087199 -0.012717835888803939 0 -0.037519304528903508 -0.013041128466496674 0 -0.036848751511087199 -0.012717835888803939 0 -0.037519304528903508 -0.013041128466496674 0 -0.037469662128549221 -0.012362238312135657 0 -0.036848751511087199 -0.012717835888803939 0 -0.037469662128549221 -0.012362238312135657 0 -0.036892781741236329 -0.012047099869873564 0 -0.038047791055526414 -0.013194730034065594 0 -0.037990777736940727 -0.012754207277779176 0 -0.038359455458647503 -0.012990719258491585 0 -0.037519304528903508 -0.013041128466496674 0 -0.038047791055526414 -0.013194730034065594 0 -0.037990777736940727 -0.012754207277779176 0 -0.037469662128549221 -0.012362238312135657 0 -0.037990777736940727 -0.012754207277779176 0 -0.038070859777668109 -0.012303273827342172 0 -0.037519304528903508 -0.013041128466496674 0 -0.037469662128549221 -0.012362238312135657 0 -0.037990777736940727 -0.012754207277779176 0 -0.037990777736940727 -0.012754207277779176 0 -0.038070859777668109 -0.012303273827342172 0 -0.038642860760415544 -0.012644901504672948 0 -0.037997249047702318 -0.011440850177789326 0 -0.038356674235179002 -0.011176930028113981 0 -0.038691693524888916 -0.011748999369630612 0 -0.03757908386192417 -0.011459266171032148 0 -0.038485341212631134 -0.011688895033784631 0 -0.038070859777668109 -0.012303273827342172 0 -0.037604189177567651 -0.011716332956696083 0 -0.038582958106093822 -0.012030728490535611 0 -0.037469662128549221 -0.012362238312135657 0 -0.038070859777668109 -0.012303273827342172 0 -0.037604189177567651 -0.011716332956696083 0 -0.036417650568892734 -0.011280800910699284 0 -0.036892781741236329 -0.012047099869873564 0 -0.037604189177567651 -0.011716332956696083 0 -0.036369276901124424 -0.011153851725932496 0 -0.03757908386192417 -0.011459266171032148 0 -0.037469662128549221 -0.012362238312135657 0 -0.036892781741236329 -0.012047099869873564 0 -0.037604189177567651 -0.011716332956696083 0 -0.036605700915033852 -0.011190675868215349 0 -0.037997249047702318 -0.011440850177789326 0 -0.037707190605635287 -0.010746599156465792 0 -0.037997249047702318 -0.011440850177789326 0 -0.037707190605635287 -0.010746599156465792 0 -0.038356674235179002 -0.011176930028113981 0 -0.037707190605635287 -0.010746599156465792 0 -0.038356674235179002 -0.011176930028113981 0 -0.038467949614399435 -0.010797196157042378 0 -0.039340454775748289 -0.0094226242839106564 0 -0.037736576204391151 -0.0093450375138090184 0 -0.038456471296274407 -0.0082378984056759395 0 -0.037962008114848657 -0.0099203300428126594 0 -0.038398315893431942 -0.0093878015015345685 0 -0.037707190605635287 -0.010746599156465792 0 -0.037736576204391151 -0.0093450375138090184 0 -0.036359157304267871 -0.0097660610944404081 0 -0.037707190605635287 -0.010746599156465792 0 -0.039340454775748289 -0.0094226242839106564 0 -0.037736576204391151 -0.0093450375138090184 0 -0.036359157304267871 -0.0097660610944404081 0 -0.036924833977880059 -0.0085735561125198437 0 -0.035925071426652286 -0.0084961730286274972 0 -0.037736576204391151 -0.0093450375138090184 0 -0.036359157304267871 -0.0097660610944404081 0 -0.036924833977880059 -0.0085735561125198437 0 -0.036359157304267871 -0.0097660610944404081 0 -0.034999950659761254 -0.0091783875914734064 0 -0.035925071426652286 -0.0084961730286274972 0 -0.036605700915033852 -0.011190675868215349 0 -0.036359157304267871 -0.0097660610944404081 0 -0.034999970308117759 -0.010806304355934474 0 -0.036369276901124424 -0.011153851725932496 0 -0.035001483855941873 -0.010806660141691989 0 -0.036359157304267871 -0.0097660610944404081 0 -0.034999950659761254 -0.0091783875914734064 0 -0.034999970308117759 -0.010806304355934474 0 -0.036605700915033852 -0.011190675868215349 0 -0.037707190605635287 -0.010746599156465792 0 -0.036359157304267871 -0.0097660610944404081 0 -0.039832082908823639 -0.011152043766601732 0 -0.039375030166407615 -0.011541184992380504 0 -0.040203665366730028 -0.011986278468888358 0 -0.040398295380096934 -0.011221195135185047 0 -0.039832082908823639 -0.011152043766601732 0 -0.040203665366730028 -0.011986278468888358 0 -0.040398295380096934 -0.011221195135185047 0 -0.040203665366730028 -0.011986278468888358 0 -0.040934841182776772 -0.011669171809789424 0 -0.040398295380096934 -0.011221195135185047 0 -0.040038182785980134 -0.010767972281298208 0 -0.039832082908823639 -0.011152043766601732 0 -0.040398295380096934 -0.011221195135185047 0 -0.040932363736975508 -0.011048898107104209 0 -0.040465486520472244 -0.010687284042510231 0 -0.040398295380096934 -0.011221195135185047 0 -0.040038182785980134 -0.010767972281298208 0 -0.040465486520472244 -0.010687284042510231 0 -0.040038182785980134 -0.010767972281298208 0 -0.039832082908823639 -0.011152043766601732 0 -0.039586618861890778 -0.010753056802473081 0 -0.039832082908823639 -0.011152043766601732 0 -0.039586618861890778 -0.010753056802473081 0 -0.039209260992104041 -0.010988605473686975 0 -0.039832082908823639 -0.011152043766601732 0 -0.039209260992104041 -0.010988605473686975 0 -0.039375030166407615 -0.011541184992380504 0 -0.039586618861890778 -0.010753056802473081 0 -0.039209260992104041 -0.010988605473686975 0 -0.039117599178824201 -0.010434205904659235 0 -0.038467949614399435 -0.010797196157042378 0 -0.039209260992104041 -0.010988605473686975 0 -0.038786214646574661 -0.011220974956639849 0 -0.038467949614399435 -0.010797196157042378 0 -0.039209260992104041 -0.010988605473686975 0 -0.039117599178824201 -0.010434205904659235 0 -0.038356674235179002 -0.011176930028113981 0 -0.038786214646574661 -0.011220974956639849 0 -0.038691693524888916 -0.011748999369630612 0 -0.038356674235179002 -0.011176930028113981 0 -0.038467949614399435 -0.010797196157042378 0 -0.038786214646574661 -0.011220974956639849 0 -0.038786214646574661 -0.011220974956639849 0 -0.039375030166407615 -0.011541184992380504 0 -0.038691693524888916 -0.011748999369630612 0 -0.039209260992104041 -0.010988605473686975 0 -0.038786214646574661 -0.011220974956639849 0 -0.039375030166407615 -0.011541184992380504 0 -0.038912279816268582 -0.011789049713964262 0 -0.038485341212631134 -0.011688895033784631 0 -0.039375030166407615 -0.011541184992380504 0 -0.039447449196051629 -0.01215502940819578 0 -0.038691693524888916 -0.011748999369630612 0 -0.039447449196051629 -0.01215502940819578 0 -0.038582958106093822 -0.012030728490535611 0 -0.038642860760415544 -0.012644901504672948 0 -0.038070859777668109 -0.012303273827342172 0 -0.038582958106093822 -0.012030728490535611 0 -0.038642860760415544 -0.012644901504672948 0 -0.038047791055526414 -0.013194730034065594 0 -0.038359455458647503 -0.012990719258491585 0 -0.038765169982016255 -0.013375844611501575 0 -0.037990777736940727 -0.012754207277779176 0 -0.038642860760415544 -0.012644901504672948 0 -0.038359455458647503 -0.012990719258491585 0 -0.038642860760415544 -0.012644901504672948 0 -0.039118568179791355 -0.012924905752877951 0 -0.038765169982016255 -0.013375844611501575 0 -0.038642860760415544 -0.012644901504672948 0 -0.038359455458647503 -0.012990719258491585 0 -0.038765169982016255 -0.013375844611501575 0 -0.039118568179791355 -0.012924905752877951 0 -0.039941725795064026 -0.013064231666887829 0 -0.039467073073929167 -0.013544146572253758 0 -0.039447449196051629 -0.01215502940819578 0 -0.038642860760415544 -0.012644901504672948 0 -0.039118568179791355 -0.012924905752877951 0 -0.039447449196051629 -0.01215502940819578 0 -0.039118568179791355 -0.012924905752877951 0 -0.039941725795064026 -0.013064231666887829 0 -0.039447449196051629 -0.01215502940819578 0 -0.039941725795064026 -0.013064231666887829 0 -0.040203665366730028 -0.011986278468888358 0 -0.039375030166407615 -0.011541184992380504 0 -0.039447449196051629 -0.01215502940819578 0 -0.040203665366730028 -0.011986278468888358 0 -0.040203665366730028 -0.011986278468888358 0 -0.04066413467096041 -0.013148167760370956 0 -0.040928596619668009 -0.012405439397718616 0 -0.039941725795064026 -0.013064231666887829 0 -0.040203665366730028 -0.011986278468888358 0 -0.04066413467096041 -0.013148167760370956 0 -0.039941725795064026 -0.013064231666887829 0 -0.04066413467096041 -0.013148167760370956 0 -0.04044157650954245 -0.013998860830894409 0 -0.039941725795064026 -0.013064231666887829 0 -0.039818759611212902 -0.014105397233288283 0 -0.039467073073929167 -0.013544146572253758 0 -0.039941725795064026 -0.013064231666887829 0 -0.04044157650954245 -0.013998860830894409 0 -0.039818759611212902 -0.014105397233288283 0 -0.039818759611212902 -0.014105397233288283 0 -0.039458771295110474 -0.014656742670757502 0 -0.040037163138097284 -0.014888468074108395 0 -0.04044157650954245 -0.013998860830894409 0 -0.039818759611212902 -0.014105397233288283 0 -0.040037163138097284 -0.014888468074108395 0 -0.04044157650954245 -0.013998860830894409 0 -0.040037163138097284 -0.014888468074108395 0 -0.040878066612982711 -0.014732022028287012 0 -0.039118568179791355 -0.012924905752877951 0 -0.038467666190926252 -0.014192476650448838 0 -0.038765169982016255 -0.013375844611501575 0 -0.03869305729980254 -0.013738128785732075 0 -0.038172831246850676 -0.014415838813082076 0 -0.037996382345090951 -0.01419809813767609 0 -0.038989056985663878 -0.013644076294357594 0 -0.038749030512516908 -0.014174653153023863 0 -0.039118568179791355 -0.012924905752877951 0 -0.037996382345090951 -0.01419809813767609 0 -0.038989056985663878 -0.013644076294357594 0 -0.038989056985663878 -0.013644076294357594 0 -0.03922304933234079 -0.014129141432877882 0 -0.038749030512516908 -0.014174653153023863 0 -0.039118568179791355 -0.012924905752877951 0 -0.038989056985663878 -0.013644076294357594 0 -0.039467073073929167 -0.013544146572253758 0 -0.038989056985663878 -0.013644076294357594 0 -0.039467073073929167 -0.013544146572253758 0 -0.03922304933234079 -0.014129141432877882 0 -0.039818759611212902 -0.014105397233288283 0 -0.039467073073929167 -0.013544146572253758 0 -0.03922304933234079 -0.014129141432877882 0 -0.039818759611212902 -0.014105397233288283 0 -0.03922304933234079 -0.014129141432877882 0 -0.039458771295110474 -0.014656742670757502 0 -0.039458771295110474 -0.014656742670757502 0 -0.038748594323530075 -0.014723607386003295 0 -0.039344784783564901 -0.015411465043748207 0 -0.03922304933234079 -0.014129141432877882 0 -0.038749030512516908 -0.014174653153023863 0 -0.038748594323530075 -0.014723607386003295 0 -0.03922304933234079 -0.014129141432877882 0 -0.039458771295110474 -0.014656742670757502 0 -0.038748594323530075 -0.014723607386003295 0 -0.037996382345090951 -0.01419809813767609 0 -0.038748594323530075 -0.014723607386003295 0 -0.03817780388263832 -0.015556734033858719 0 -0.037996382345090951 -0.01419809813767609 0 -0.038749030512516908 -0.014174653153023863 0 -0.038748594323530075 -0.014723607386003295 0 -0.037736090825191887 -0.016286798437698109 0 -0.03817780388263832 -0.015556734033858719 0 -0.038624690513314526 -0.016164720796492893 0 -0.03817780388263832 -0.015556734033858719 0 -0.039344784783564901 -0.015411465043748207 0 -0.038624690513314526 -0.016164720796492893 0 -0.038748594323530075 -0.014723607386003295 0 -0.03817780388263832 -0.015556734033858719 0 -0.039344784783564901 -0.015411465043748207 0 -0.038659637783323562 -0.016588597851822196 0 -0.038542165394369235 -0.017217785759091393 0 -0.039344784783564901 -0.015411465043748207 0 -0.039377292415819269 -0.016708699814265184 0 -0.038624690513314526 -0.016164720796492893 0 -0.039344784783564901 -0.015411465043748207 0 -0.03932749336110971 -0.015952640326318719 0 -0.039804079709500728 -0.015568674148848573 0 -0.038058082585609568 -0.017055367000211152 0 -0.039377292415819269 -0.016708699814265184 0 -0.038624690513314526 -0.016164720796492893 0 -0.038058082585609568 -0.017055367000211152 0 -0.037736090825191887 -0.016286798437698109 0 -0.038624690513314526 -0.016164720796492893 0 -0.040037163138097284 -0.014888468074108395 0 -0.040394929663193413 -0.015577727855432636 0 -0.040878066612982711 -0.014732022028287012 0 -0.040037163138097284 -0.014888468074108395 0 -0.039804079709500728 -0.015568674148848573 0 -0.040394929663193413 -0.015577727855432636 0 -0.039458771295110474 -0.014656742670757502 0 -0.039344784783564901 -0.015411465043748207 0 -0.040037163138097284 -0.014888468074108395 0 -0.039344784783564901 -0.015411465043748207 0 -0.040037163138097284 -0.014888468074108395 0 -0.039804079709500728 -0.015568674148848573 0 -0.039804079709500728 -0.015568674148848573 0 -0.039943502168274282 -0.016011273995430404 0 -0.040394929663193413 -0.015577727855432636 0 -0.03932749336110971 -0.015952640326318719 0 -0.039804079709500728 -0.015568674148848573 0 -0.039943502168274282 -0.016011273995430404 0 -0.040521456335452323 -0.016447242412559054 0 -0.039943502168274282 -0.016011273995430404 0 -0.040394929663193413 -0.015577727855432636 0 -0.040521456335452323 -0.016447242412559054 0 -0.040394929663193413 -0.015577727855432636 0 -0.040926934249532872 -0.015957048599021278 0 -0.040394929663193413 -0.015577727855432636 0 -0.040926934249532872 -0.015957048599021278 0 -0.041093595446422979 -0.015439783707891872 0 -0.040926934249532872 -0.015957048599021278 0 -0.041093595446422979 -0.015439783707891872 0 -0.041537933654682821 -0.015966159687457546 0 -0.041093595446422979 -0.015439783707891872 0 -0.040878066612982711 -0.014732022028287012 0 -0.041750583121911156 -0.014960253530265269 0 -0.040394929663193413 -0.015577727855432636 0 -0.041093595446422979 -0.015439783707891872 0 -0.040878066612982711 -0.014732022028287012 0 -0.041386371509588758 -0.013037510383819869 0 -0.041298046253547431 -0.013175032742628177 0 -0.041384079166872069 -0.013134983940558561 0 -0.041093595446422979 -0.015439783707891872 0 -0.041750583121911156 -0.014960253530265269 0 -0.041537933654682821 -0.015966159687457546 0 -0.040804306653326808 -0.01416658204513732 0 -0.039888773144879874 -0.015407807584061762 0 -0.041395066201221728 -0.013217272042611763 0 -0.041298046253547431 -0.013175032742628177 0 -0.041384079166872069 -0.013134983940558561 0 -0.041395066201221728 -0.013217272042611763 0 -0.041384079166872069 -0.013134983940558561 0 -0.041420165318745379 -0.013158601798454239 0 -0.041430494665835947 -0.013184455945833281 0 -0.041420165318745379 -0.013158601798454239 0 -0.041452851227180017 -0.013144914659060257 0 -0.041431745285218834 -0.013094578704605718 0 -0.041452851227180017 -0.013144914659060257 0 -0.041468167149469409 -0.013077087843961464 0 -0.041420165318745379 -0.013158601798454239 0 -0.041431745285218834 -0.013094578704605718 0 -0.041452851227180017 -0.013144914659060257 0 -0.041384079166872069 -0.013134983940558561 0 -0.041420165318745379 -0.013158601798454239 0 -0.041431745285218834 -0.013094578704605718 0 -0.041463953548872189 -0.013163196511142096 0 -0.041448492860709812 -0.013186510145740666 0 -0.041424876736490868 -0.013267512435379304 0 -0.039767554368574209 -0.015102115582496901 0 -0.040506540765872928 -0.014597473493680535 0 -0.041463953548872189 -0.013163196511142096 0 -0.041448492860709812 -0.013186510145740666 0 -0.041458513433671032 -0.013160650518828801 0 -0.041463953548872189 -0.013163196511142096 0 -0.041452851227180017 -0.013144914659060257 0 -0.041458513433671032 -0.013160650518828801 0 -0.041430494665835947 -0.013184455945833281 0 -0.041463953548872189 -0.013163196511142096 0 -0.041452851227180017 -0.013144914659060257 0 -0.041452851227180017 -0.013144914659060257 0 -0.041458513433671032 -0.013160650518828801 0 -0.041467432745634553 -0.013113908163714839 0 -0.041452851227180017 -0.013144914659060257 0 -0.041467432745634553 -0.013113908163714839 0 -0.041468167149469409 -0.013077087843961464 0 -0.041448492860709812 -0.013186510145740666 0 -0.041467432745634553 -0.013113908163714839 0 -0.041478931184348942 -0.013114806052667289 0 -0.041448492860709812 -0.013186510145740666 0 -0.041458513433671032 -0.013160650518828801 0 -0.041467432745634553 -0.013113908163714839 0 -0.041508675974416355 -0.013012414571791442 0 -0.041532634686320735 -0.013021136109124453 0 -0.041552426253863954 -0.012959176367643471 0 -0.041467432745634553 -0.013113908163714839 0 -0.041508675974416355 -0.013012414571791442 0 -0.041532634686320735 -0.013021136109124453 0 -0.041467432745634553 -0.013113908163714839 0 -0.041468167149469409 -0.013077087843961464 0 -0.041508675974416355 -0.013012414571791442 0 -0.041468167149469409 -0.013077087843961464 0 -0.041508675974416355 -0.013012414571791442 0 -0.041476525731666179 -0.013012787391885258 0 -0.041386371509588758 -0.013037510383819869 0 -0.041431745285218834 -0.013094578704605718 0 -0.041476525731666179 -0.013012787391885258 0 -0.041386371509588758 -0.013037510383819869 0 -0.041384079166872069 -0.013134983940558561 0 -0.041431745285218834 -0.013094578704605718 0 -0.041431745285218834 -0.013094578704605718 0 -0.041468167149469409 -0.013077087843961464 0 -0.041476525731666179 -0.013012787391885258 0 -0.041476525731666179 -0.013012787391885258 0 -0.041539915480418237 -0.012957575413270051 0 -0.041510426473819029 -0.012933687562079531 0 -0.041386371509588758 -0.013037510383819869 0 -0.041476525731666179 -0.013012787391885258 0 -0.041510426473819029 -0.012933687562079531 0 -0.041508675974416355 -0.013012414571791442 0 -0.041539915480418237 -0.012957575413270051 0 -0.041552426253863954 -0.012959176367643471 0 -0.041508675974416355 -0.013012414571791442 0 -0.041476525731666179 -0.013012787391885258 0 -0.041539915480418237 -0.012957575413270051 0 -0.041539915480418237 -0.012957575413270051 0 -0.04157288397531031 -0.012925950768092729 0 -0.041552426253863954 -0.012959176367643471 0 -0.041539915480418237 -0.012957575413270051 0 -0.04157288397531031 -0.012925950768092729 0 -0.041574551266733546 -0.012922542704764216 0 -0.04157288397531031 -0.012925950768092729 0 -0.041574551266733546 -0.012922542704764216 0 -0.041610536655816897 -0.012918081993577668 0 -0.041213874814234004 -0.013593645935363531 0 -0.041339851707188971 -0.013365705776401796 0 -0.041574551266733546 -0.012922542704764216 0 -0.041510426473819029 -0.012933687562079531 0 -0.041710022333990335 -0.012946734255362798 0 -0.041539915480418237 -0.012957575413270051 0 -0.041574551266733546 -0.012922542704764216 0 -0.041510426473819029 -0.012933687562079531 0 -0.041852601653402557 -0.013895489436606255 0 -0.041196097421381576 -0.014015567736106658 0 -0.041258930902953961 -0.013265387737408077 0 -0.041852601653402557 -0.013895489436606255 0 -0.041258930902953961 -0.013265387737408077 0 -0.041710022333990335 -0.012946734255362798 0 -0.04066413467096041 -0.013148167760370956 0 -0.04044157650954245 -0.013998860830894409 0 -0.041196097421381576 -0.014015567736106658 0 -0.04066413467096041 -0.013148167760370956 0 -0.041196097421381576 -0.014015567736106658 0 -0.041258930902953961 -0.013265387737408077 0 -0.040878066612982711 -0.014732022028287012 0 -0.041750583121911156 -0.014960253530265269 0 -0.041196097421381576 -0.014015567736106658 0 -0.04044157650954245 -0.013998860830894409 0 -0.040878066612982711 -0.014732022028287012 0 -0.041196097421381576 -0.014015567736106658 0 -0.041750583121911156 -0.014960253530265269 0 -0.041852601653402557 -0.013895489436606255 0 -0.041196097421381576 -0.014015567736106658 0 -0.040804306653326808 -0.01416658204513732 0 -0.041213874814234004 -0.013593645935363531 0 -0.0076537409998661968 -0.010415486575318341 0 -0.0062584973789299413 -0.0090588746402987478 0 -0.0078047244644752984 -0.0076796525856911999 0 -0.0062584973789299413 -0.0090588746402987478 0 -0.0057854429475097746 -0.007661393625832966 0 -0.0078047244644752984 -0.0076796525856911999 0 -0.0076537409998661968 -0.010415486575318341 0 -0.0053486195748108428 -0.01034036529101269 0 -0.0062584973789299413 -0.0090588746402987478 0 -0.0057899232000226388 -0.011883601466314184 0 -0.0076537409998661968 -0.010415486575318341 0 -0.0053486195748108428 -0.01034036529101269 0 -0.0053486195748108428 -0.01034036529101269 0 -0.0062584973789299413 -0.0090588746402987478 0 -0.004703553969869434 -0.0092107119240966671 0 -0.0041307354576552409 -0.007759523694230025 0 -0.004703553969869434 -0.0092107119240966671 0 -0.0057854429475097746 -0.007661393625832966 0 -0.0062584973789299413 -0.0090588746402987478 0 -0.004703553969869434 -0.0092107119240966671 0 -0.0057854429475097746 -0.007661393625832966 0 -0.0041307354576552409 -0.007759523694230025 0 -0.004703553969869434 -0.0092107119240966671 0 -0.0026099861004545239 -0.0098571821649299663 0 -0.020886084188259831 -0.010578809379780342 0 -0.02296736949793559 -0.012466331511714494 0 -0.041551966855814672 -0.012968789254311913 0 -0.041633420568845315 -0.013049100345244025 0 -0.041561746532430888 -0.012980538389693437 0 -0.0053486195748108428 -0.01034036529101269 0 -0.004703553969869434 -0.0092107119240966671 0 -0.0037383956559688381 -0.01062526137615979 0 -0.004703553969869434 -0.0092107119240966671 0 -0.0037383956559688381 -0.01062526137615979 0 -0.0026099861004545239 -0.0098571821649299663 0 -0.0045104219285536573 -0.011539592320257962 0 -0.0053486195748108428 -0.01034036529101269 0 -0.0037383956559688381 -0.01062526137615979 0 -0.040890430802498295 -0.014179840002755901 0 -0.041633420568845315 -0.013049100345244025 0 -0.041424876736490868 -0.013267512435379304 0 -0.0025285929563117729 -0.011423577642928605 0 -0.0037383956559688381 -0.01062526137615979 0 -0.0026099861004545239 -0.0098571821649299663 0 -0.041633420568845315 -0.013049100345244025 0 -0.041478931184348942 -0.013114806052667289 0 -0.041532634686320735 -0.013021136109124453 0 -0.041448492860709812 -0.013186510145740666 0 -0.041424876736490868 -0.013267512435379304 0 -0.041478931184348942 -0.013114806052667289 0 -0.041633420568845315 -0.013049100345244025 0 -0.041424876736490868 -0.013267512435379304 0 -0.041478931184348942 -0.013114806052667289 0 -0.041467432745634553 -0.013113908163714839 0 -0.041478931184348942 -0.013114806052667289 0 -0.041532634686320735 -0.013021136109124453 0 -0.041532634686320735 -0.013021136109124453 0 -0.041561746532430888 -0.012980538389693437 0 -0.041552426253863954 -0.012959176367643471 0 -0.041633420568845315 -0.013049100345244025 0 -0.041532634686320735 -0.013021136109124453 0 -0.041561746532430888 -0.012980538389693437 0 -0.041561746532430888 -0.012980538389693437 0 -0.041552426253863954 -0.012959176367643471 0 -0.041553223192367116 -0.012938635473383983 0 -0.041552426253863954 -0.012959176367643471 0 -0.041561204173077057 -0.012936725620147223 0 -0.041553223192367116 -0.012938635473383983 0 -0.04157288397531031 -0.012925950768092729 0 -0.041552426253863954 -0.012959176367643471 0 -0.041561204173077057 -0.012936725620147223 0 -0.041567450939676356 -0.01292334046520509 0 -0.041553223192367116 -0.012938635473383983 0 -0.041546182136481175 -0.012924177278788015 0 -0.04157288397531031 -0.012925950768092729 0 -0.041561204173077057 -0.012936725620147223 0 -0.041567450939676356 -0.01292334046520509 0 -0.04157288397531031 -0.012925950768092729 0 -0.041567450939676356 -0.01292334046520509 0 -0.041599570946228986 -0.012913390085732807 0 -0.041561204173077057 -0.012936725620147223 0 -0.041567450939676356 -0.01292334046520509 0 -0.041553223192367116 -0.012938635473383983 0 -0.016141156349505161 -0.011200499720238823 0 -0.025399579211800503 -0.012085780441773457 0 -0.041553223192367116 -0.012938635473383983 0 -0.041513245854053776 -0.012937034496366708 0 -0.041546182136481175 -0.012924177278788015 0 -0.041551966855814672 -0.012968789254311913 0 -0.041553223192367116 -0.012938635473383983 0 -0.041513245854053776 -0.012937034496366708 0 -0.041551966855814672 -0.012968789254311913 0 -0.041561746532430888 -0.012980538389693437 0 -0.041553223192367116 -0.012938635473383983 0 -0.0057854429475097746 -0.007661393625832966 0 -0.0056078412542399769 -0.0056334642830264473 0 -0.0078047244644752984 -0.0076796525856911999 0 -0.0041307354576552409 -0.007759523694230025 0 -0.0057854429475097746 -0.007661393625832966 0 -0.0056078412542399769 -0.0056334642830264473 0 -0.020886084188259831 -0.010578809379780342 0 -0.016141156349505161 -0.011200499720238823 0 -0.0099567884416955216 -0.0089466232456957857 0 -0.0096445765532254951 -0.0089332698446158623 0 -0.010747814283389385 -0.010184706893575403 0 -0.0099567884416955216 -0.0089466232456957857 0 -0.010070709959476083 -0.0087672541422198838 0 -0.010747814283389385 -0.010184706893575403 0 -0.0099567884416955216 -0.0089466232456957857 0 -0.0098978173538130706 -0.0088711331250387673 0 -0.0096445765532254951 -0.0089332698446158623 0 -0.016104577799780348 -0.011208925133451422 0 -0.016141156349505161 -0.011200499720238823 0 -0.0098978173538130706 -0.0088711331250387673 0 -0.0096445765532254951 -0.0089332698446158623 0 -0.009727654492533799 -0.0090213922113685334 0 -0.0096445765532254951 -0.0089332698446158623 0 -0.0098187147991933253 -0.0087746184273568024 0 -0.0097240009897371187 -0.0085162264572061896 0 -0.0096445765532254951 -0.0089332698446158623 0 -0.0098187147991933253 -0.0087746184273568024 0 -0.009727654492533799 -0.0090213922113685334 0 -0.0098187147991933253 -0.0087746184273568024 0 -0.009727654492533799 -0.0090213922113685334 0 -0.010013322075312173 -0.008951495205902528 0 -0.0098978173538130706 -0.0088711331250387673 0 -0.009727654492533799 -0.0090213922113685334 0 -0.0096931866249815122 -0.0093176703624716795 0 -0.009727654492533799 -0.0090213922113685334 0 -0.0096931866249815122 -0.0093176703624716795 0 -0.010013322075312173 -0.008951495205902528 0 -0.016141156349505161 -0.011200499720238823 0 -0.010776825360104811 -0.008340633418249848 0 -0.0095296624800866609 -0.0079897599376928079 0 -0.0097640039335323819 -0.0081488932760378288 0 -0.010057677461388739 -0.0076327233948368248 0 -0.0095296624800866609 -0.0079897599376928079 0 -0.0093103545159334174 -0.0078395470190329702 0 -0.010057677461388739 -0.0076327233948368248 0 -0.0095296624800866609 -0.0079897599376928079 0 -0.0097640039335323819 -0.0081488932760378288 0 -0.009531588768187254 -0.0082642788361789767 0 -0.0097640039335323819 -0.0081488932760378288 0 -0.0097240009897371187 -0.0085162264572061896 0 -0.010004813733076679 -0.0083064718905352594 0 -0.0098187147991933253 -0.0087746184273568024 0 -0.0097240009897371187 -0.0085162264572061896 0 -0.010004813733076679 -0.0083064718905352594 0 -0.0096445765532254951 -0.0089332698446158623 0 -0.0097240009897371187 -0.0085162264572061896 0 -0.0094656688293518754 -0.008539170974534608 0 -0.0097640039335323819 -0.0081488932760378288 0 -0.0097240009897371187 -0.0085162264572061896 0 -0.009531588768187254 -0.0082642788361789767 0 -0.0097240009897371187 -0.0085162264572061896 0 -0.009531588768187254 -0.0082642788361789767 0 -0.0094656688293518754 -0.008539170974534608 0 -0.0096445765532254951 -0.0089332698446158623 0 -0.0094656688293518754 -0.008539170974534608 0 -0.0090728376556610899 -0.0083639110469007141 0 -0.009531588768187254 -0.0082642788361789767 0 -0.0093346526280431493 -0.0083234671291162066 0 -0.0092648185461801143 -0.0081360833929496456 0 -0.012238024238916184 -0.0073125853117140616 0 -0.013830800913101482 -0.007434818630555045 0 -0.009531588768187254 -0.0082642788361789767 0 -0.0093346526280431493 -0.0083234671291162066 0 -0.0094656688293518754 -0.008539170974534608 0 -0.0093346526280431493 -0.0083234671291162066 0 -0.0094656688293518754 -0.008539170974534608 0 -0.0090728376556610899 -0.0083639110469007141 0 -0.0093346526280431493 -0.0083234671291162066 0 -0.0092648185461801143 -0.0081360833929496456 0 -0.0090728376556610899 -0.0083639110469007141 0 -0.0092648185461801143 -0.0081360833929496456 0 -0.0090998886394699895 -0.0081423359812023768 0 -0.0090728376556610899 -0.0083639110469007141 0 -0.0092648185461801143 -0.0081360833929496456 0 -0.0091029557277147056 -0.0079971624258844583 0 -0.0090998886394699895 -0.0081423359812023768 0 -0.0095296624800866609 -0.0079897599376928079 0 -0.009531588768187254 -0.0082642788361789767 0 -0.0092648185461801143 -0.0081360833929496456 0 -0.0095296624800866609 -0.0079897599376928079 0 -0.0092648185461801143 -0.0081360833929496456 0 -0.0092763137362698415 -0.0079812330906232024 0 -0.0095296624800866609 -0.0079897599376928079 0 -0.0092763137362698415 -0.0079812330906232024 0 -0.0093103545159334174 -0.0078395470190329702 0 -0.0092763137362698415 -0.0079812330906232024 0 -0.0091029557277147056 -0.0079971624258844583 0 -0.0093103545159334174 -0.0078395470190329702 0 -0.0092648185461801143 -0.0081360833929496456 0 -0.0092763137362698415 -0.0079812330906232024 0 -0.0091029557277147056 -0.0079971624258844583 0 -0.0091029557277147056 -0.0079971624258844583 0 -0.00896336296651375 -0.0080720423793650097 0 -0.008665785965037958 -0.00793634232117915 0 -0.0091029557277147056 -0.0079971624258844583 0 -0.008665785965037958 -0.00793634232117915 0 -0.0093103545159334174 -0.0078395470190329702 0 -0.021761478813107887 -0.0097534948784303299 0 -0.013321463155196786 -0.0084504064319003008 0 -0.00896336296651375 -0.0080720423793650097 0 -0.0090728376556610899 -0.0083639110469007141 0 -0.008665785965037958 -0.00793634232117915 0 -0.013830800913101482 -0.007434818630555045 0 -0.021761478813107887 -0.0097534948784303299 0 -0.00896336296651375 -0.0080720423793650097 0 -0.0090998886394699895 -0.0081423359812023768 0 -0.0090728376556610899 -0.0083639110469007141 0 -0.0091029557277147056 -0.0079971624258844583 0 -0.00896336296651375 -0.0080720423793650097 0 -0.0090998886394699895 -0.0081423359812023768 0 -0.010747814283389385 -0.010184706893575403 0 -0.011673121712076656 -0.0099869652036245499 0 -0.012466284464033802 -0.011738287231431641 0 -0.010070709959476083 -0.0087672541422198838 0 -0.010747814283389385 -0.010184706893575403 0 -0.011673121712076656 -0.0099869652036245499 0 -0.041546182136481175 -0.012924177278788015 0 -0.041584311426138845 -0.012917605127477923 0 -0.041625226629114664 -0.012914596966605484 0 -0.041567450939676356 -0.01292334046520509 0 -0.041546182136481175 -0.012924177278788015 0 -0.041584311426138845 -0.012917605127477923 0 -0.041567450939676356 -0.01292334046520509 0 -0.041584311426138845 -0.012917605127477923 0 -0.041599570946228986 -0.012913390085732807 0 -0.025399579211800503 -0.012085780441773457 0 -0.032138105296166522 -0.011958565529788861 0 -0.011673121712076656 -0.0099869652036245499 0 -0.012466284464033802 -0.011738287231431641 0 -0.013597537783561339 -0.011611832960759502 0 -0.021761478813107887 -0.0097534948784303299 0 -0.032138105296166522 -0.011958565529788861 0 -0.018845879929910884 -0.007090177913576661 0 -0.019171056598560828 -0.0080747391808065859 0 -0.021423949743743086 -0.0079251585364509686 0 -0.018539300309727325 -0.0053439700128964937 0 -0.018845879929910884 -0.007090177913576661 0 -0.021423949743743086 -0.0079251585364509686 0 -0.018539300309727325 -0.0053439700128964937 0 -0.018845879929910884 -0.007090177913576661 0 -0.017411437769577973 -0.0065420344903570279 0 -0.017681694609537016 -0.0075680701529461988 0 -0.018845879929910884 -0.007090177913576661 0 -0.017411437769577973 -0.0065420344903570279 0 -0.017681694609537016 -0.0075680701529461988 0 -0.018845879929910884 -0.007090177913576661 0 -0.019171056598560828 -0.0080747391808065859 0 -0.019171056598560828 -0.0080747391808065859 0 -0.01805993229583077 -0.0089289524906391044 0 -0.019955325456846151 -0.0095141295258864625 0 -0.01805993229583077 -0.0089289524906391044 0 -0.019955325456846151 -0.0095141295258864625 0 -0.017983217476785544 -0.010555003330106028 0 -0.017681694609537016 -0.0075680701529461988 0 -0.019171056598560828 -0.0080747391808065859 0 -0.01805993229583077 -0.0089289524906391044 0 -0.017681694609537016 -0.0075680701529461988 0 -0.01805993229583077 -0.0089289524906391044 0 -0.016529554583577865 -0.0081146340096300631 0 -0.01805993229583077 -0.0089289524906391044 0 -0.016529554583577865 -0.0081146340096300631 0 -0.016617773445815158 -0.0095576643133454629 0 -0.01805993229583077 -0.0089289524906391044 0 -0.016617773445815158 -0.0095576643133454629 0 -0.017983217476785544 -0.010555003330106028 0 -0.016617773445815158 -0.0095576643133454629 0 -0.015169069433527539 -0.0085644270478083158 0 -0.015260013225282068 -0.010133663386725058 0 -0.016617773445815158 -0.0095576643133454629 0 -0.015260013225282068 -0.010133663386725058 0 -0.016272822506921476 -0.011050234285602711 0 -0.016529554583577865 -0.0081146340096300631 0 -0.016617773445815158 -0.0095576643133454629 0 -0.015169069433527539 -0.0085644270478083158 0 -0.018539300309727325 -0.0053439700128964937 0 -0.016095716098386524 -0.0064970426011303015 0 -0.014110558226619215 -0.0059802023945582407 0 -0.016529554583577865 -0.0081146340096300631 0 -0.01547058135028908 -0.0073031660967541505 0 -0.015169069433527539 -0.0085644270478083158 0 -0.018539300309727325 -0.0053439700128964937 0 -0.017411437769577973 -0.0065420344903570279 0 -0.016095716098386524 -0.0064970426011303015 0 -0.01547058135028908 -0.0073031660967541505 0 -0.016462988697448659 -0.0071574460636919116 0 -0.016095716098386524 -0.0064970426011303015 0 -0.016529554583577865 -0.0081146340096300631 0 -0.01547058135028908 -0.0073031660967541505 0 -0.016462988697448659 -0.0071574460636919116 0 -0.017681694609537016 -0.0075680701529461988 0 -0.016462988697448659 -0.0071574460636919116 0 -0.017411437769577973 -0.0065420344903570279 0 -0.017681694609537016 -0.0075680701529461988 0 -0.016529554583577865 -0.0081146340096300631 0 -0.016462988697448659 -0.0071574460636919116 0 -0.016462988697448659 -0.0071574460636919116 0 -0.017411437769577973 -0.0065420344903570279 0 -0.016095716098386524 -0.0064970426011303015 0 -0.01547058135028908 -0.0073031660967541505 0 -0.016095716098386524 -0.0064970426011303015 0 -0.014633456010001232 -0.0065968003325043833 0 -0.016095716098386524 -0.0064970426011303015 0 -0.014633456010001232 -0.0065968003325043833 0 -0.014110558226619215 -0.0059802023945582407 0 -0.014633456010001232 -0.0065968003325043833 0 -0.014220716939154079 -0.0064089159789136414 0 -0.014220879003497871 -0.0068497268527459776 0 -0.014633456010001232 -0.0065968003325043833 0 -0.014220716939154079 -0.0064089159789136414 0 -0.014110558226619215 -0.0059802023945582407 0 -0.014220879003497871 -0.0068497268527459776 0 -0.013916217123372796 -0.0062535353810208886 0 -0.01370435736311785 -0.0075775968822330607 0 -0.014220716939154079 -0.0064089159789136414 0 -0.014110558226619215 -0.0059802023945582407 0 -0.013916217123372796 -0.0062535353810208886 0 -0.014220716939154079 -0.0064089159789136414 0 -0.014220879003497871 -0.0068497268527459776 0 -0.013916217123372796 -0.0062535353810208886 0 -0.014220879003497871 -0.0068497268527459776 0 -0.01370435736311785 -0.0075775968822330607 0 -0.014539840204881445 -0.0075202997068452683 0 -0.01370435736311785 -0.0075775968822330607 0 -0.014539840204881445 -0.0075202997068452683 0 -0.014111889005997807 -0.008349998194851261 0 -0.01547058135028908 -0.0073031660967541505 0 -0.014539840204881445 -0.0075202997068452683 0 -0.015169069433527539 -0.0085644270478083158 0 -0.014633456010001232 -0.0065968003325043833 0 -0.014220879003497871 -0.0068497268527459776 0 -0.014539840204881445 -0.0075202997068452683 0 -0.01547058135028908 -0.0073031660967541505 0 -0.014633456010001232 -0.0065968003325043833 0 -0.014539840204881445 -0.0075202997068452683 0 -0.015169069433527539 -0.0085644270478083158 0 -0.014033337635964161 -0.0095610361907567595 0 -0.014111889005997807 -0.008349998194851261 0 -0.014539840204881445 -0.0075202997068452683 0 -0.015169069433527539 -0.0085644270478083158 0 -0.014111889005997807 -0.008349998194851261 0 -0.015169069433527539 -0.0085644270478083158 0 -0.015260013225282068 -0.010133663386725058 0 -0.014033337635964161 -0.0095610361907567595 0 -0.014033337635964161 -0.0095610361907567595 0 -0.013126531888071608 -0.0087201877867801435 0 -0.012559870754172857 -0.0096888632013330533 0 -0.01370435736311785 -0.0075775968822330607 0 -0.014111889005997807 -0.008349998194851261 0 -0.013126531888071608 -0.0087201877867801435 0 -0.014033337635964161 -0.0095610361907567595 0 -0.014111889005997807 -0.008349998194851261 0 -0.013126531888071608 -0.0087201877867801435 0 -0.013126531888071608 -0.0087201877867801435 0 -0.012559870754172857 -0.0096888632013330533 0 -0.011846402304193227 -0.0084601821519594122 0 -0.01370435736311785 -0.0075775968822330607 0 -0.013126531888071608 -0.0087201877867801435 0 -0.011846402304193227 -0.0084601821519594122 0 -0.012559870754172857 -0.0096888632013330533 0 -0.011846402304193227 -0.0084601821519594122 0 -0.0098854313002395902 -0.010471860807235176 0 -0.013916217123372796 -0.0062535353810208886 0 -0.012581656650954141 -0.0073096518103509412 0 -0.011801635426166744 -0.0065306348321442298 0 -0.014110558226619215 -0.0059802023945582407 0 -0.013916217123372796 -0.0062535353810208886 0 -0.011801635426166744 -0.0065306348321442298 0 -0.013321463155196786 -0.0084504064319003008 0 -0.011565575066970948 -0.0078240658538330787 0 -0.01419663951997702 -0.0074493798684861622 0 -0.01438648214671992 -0.0075622820244477095 0 -0.013916217123372796 -0.0062535353810208886 0 -0.01370435736311785 -0.0075775968822330607 0 -0.011846402304193227 -0.0084601821519594122 0 -0.040928596619668009 -0.012405439397718616 0 -0.041591847935804852 -0.012034642436286061 0 -0.041300964587245269 -0.011865917356076963 0 -0.040463645122873267 -0.011907301461271823 0 -0.039582162367104497 -0.011824254274092992 0 -0.040928596619668009 -0.012405439397718616 0 -0.04143087314215748 -0.012848051665255281 0 -0.041654364762758314 -0.012741557853152176 0 -0.040928596619668009 -0.012405439397718616 0 -0.041300964587245269 -0.011865917356076963 0 -0.040934841182776772 -0.011669171809789424 0 -0.040203665366730028 -0.011986278468888358 0 -0.040928596619668009 -0.012405439397718616 0 -0.040934841182776772 -0.011669171809789424 0 -0.04066413467096041 -0.013148167760370956 0 -0.040928596619668009 -0.012405439397718616 0 -0.041258930902953961 -0.013265387737408077 0 -0.040928596619668009 -0.012405439397718616 0 -0.041258930902953961 -0.013265387737408077 0 -0.04143087314215748 -0.012848051665255281 0 -0.041258930902953961 -0.013265387737408077 0 -0.04143087314215748 -0.012848051665255281 0 -0.041710022333990335 -0.012946734255362798 0 -0.04143087314215748 -0.012848051665255281 0 -0.041710022333990335 -0.012946734255362798 0 -0.041654364762758314 -0.012741557853152176 0 -0.041574551266733546 -0.012922542704764216 0 -0.041710022333990335 -0.012946734255362798 0 -0.041610536655816897 -0.012918081993577668 0 -0.041710022333990335 -0.012946734255362798 0 -0.041610536655816897 -0.012918081993577668 0 -0.041657472051490944 -0.012903156707432804 0 -0.041710022333990335 -0.012946734255362798 0 -0.041657472051490944 -0.012903156707432804 0 -0.041654364762758314 -0.012741557853152176 0 -0.041584311426138845 -0.012917605127477923 0 -0.041599570946228986 -0.012913390085732807 0 -0.041625226629114664 -0.012914596966605484 0 -0.04157288397531031 -0.012925950768092729 0 -0.041599570946228986 -0.012913390085732807 0 -0.041610536655816897 -0.012918081993577668 0 -0.041599570946228986 -0.012913390085732807 0 -0.041610536655816897 -0.012918081993577668 0 -0.041657472051490944 -0.012903156707432804 0 -0.041599570946228986 -0.012913390085732807 0 -0.041657472051490944 -0.012903156707432804 0 -0.041625226629114664 -0.012914596966605484 0 -0.041657472051490944 -0.012903156707432804 0 -0.041625226629114664 -0.012914596966605484 0 -0.041654364762758314 -0.012741557853152176 0 -0.042147952121092708 -0.011910110964011103 0 -0.041591847935804852 -0.012034642436286061 0 -0.041835314534575722 -0.011600267933570248 0 -0.032138105296166522 -0.011958565529788861 0 -0.039582162367104497 -0.011824254274092992 0 -0.041591847935804852 -0.012034642436286061 0 -0.04157467122528137 -0.011708595158635109 0 -0.041835314534575722 -0.011600267933570248 0 -0.041835314534575722 -0.011600267933570248 0 -0.041853936583871154 -0.011562971638856827 0 -0.041768460990426574 -0.011468365079475249 0 -0.041835314534575722 -0.011600267933570248 0 -0.041647302843754813 -0.011475166867664692 0 -0.041768460990426574 -0.011468365079475249 0 -0.04157467122528137 -0.011708595158635109 0 -0.041835314534575722 -0.011600267933570248 0 -0.041647302843754813 -0.011475166867664692 0 -0.021761478813107887 -0.0097534948784303299 0 -0.029526595461028642 -0.010417583402532975 0 -0.04175588442789166 -0.011514907917834638 0 -0.041835314534575722 -0.011600267933570248 0 -0.041853936583871154 -0.011562971638856827 0 -0.041650932444418177 -0.011528143662218118 0 -0.04175588442789166 -0.011514907917834638 0 -0.041853936583871154 -0.011562971638856827 0 -0.032138105296166522 -0.011958565529788861 0 -0.034870380970420521 -0.013249864173457193 0 -0.021423949743743086 -0.0079251585364509686 0 -0.021714372080227608 -0.0099015221557298451 0 -0.019955325456846151 -0.0095141295258864625 0 -0.019171056598560828 -0.0080747391808065859 0 -0.021423949743743086 -0.0079251585364509686 0 -0.019955325456846151 -0.0095141295258864625 0 -0.021423949743743086 -0.0079251585364509686 0 -0.021714372080227608 -0.0099015221557298451 0 -0.023432392915570484 -0.0097017963894550467 0 -0.021714372080227608 -0.0099015221557298451 0 -0.023432392915570484 -0.0097017963894550467 0 -0.024413957794514916 -0.010583543187767986 0 -0.041647302843754813 -0.011475166867664692 0 -0.041720155042783098 -0.011191719678211576 0 -0.041455825367478716 -0.011262201990784742 0 -0.041647302843754813 -0.011475166867664692 0 -0.041768460990426574 -0.011468365079475249 0 -0.041720155042783098 -0.011191719678211576 0 -0.029526595461028642 -0.010417583402532975 0 -0.032579764013865545 -0.0099015909062982518 0 -0.041853936583871154 -0.011562971638856827 0 -0.041768460990426574 -0.011468365079475249 0 -0.041720155042783098 -0.011191719678211576 0 -0.032579764013865545 -0.0099015909062982518 0 -0.033937261552249152 -0.0095269018736379198 0 -0.041720155042783098 -0.011191719678211576 0 -0.041455825367478716 -0.011262201990784742 0 -0.04156503955226732 -0.011006672689238542 0 -0.041455825367478716 -0.011262201990784742 0 -0.040932363736975508 -0.011048898107104209 0 -0.04156503955226732 -0.011006672689238542 0 -0.037770045187548201 -0.0091094348896560411 0 -0.033937261552249152 -0.0095269018736379198 0 -0.041455825367478716 -0.011262201990784742 0 -0.041361353465223294 -0.011531045460137683 0 -0.040932363736975508 -0.011048898107104209 0 -0.041647302843754813 -0.011475166867664692 0 -0.041455825367478716 -0.011262201990784742 0 -0.041361353465223294 -0.011531045460137683 0 -0.04157467122528137 -0.011708595158635109 0 -0.041647302843754813 -0.011475166867664692 0 -0.041361353465223294 -0.011531045460137683 0 -0.041361353465223294 -0.011531045460137683 0 -0.041300964587245269 -0.011865917356076963 0 -0.040934841182776772 -0.011669171809789424 0 -0.041591847935804852 -0.012034642436286061 0 -0.04157467122528137 -0.011708595158635109 0 -0.041300964587245269 -0.011865917356076963 0 -0.04157467122528137 -0.011708595158635109 0 -0.041361353465223294 -0.011531045460137683 0 -0.041300964587245269 -0.011865917356076963 0 -0.041361353465223294 -0.011531045460137683 0 -0.040934841182776772 -0.011669171809789424 0 -0.040932363736975508 -0.011048898107104209 0 -0.040398295380096934 -0.011221195135185047 0 -0.040934841182776772 -0.011669171809789424 0 -0.040932363736975508 -0.011048898107104209 0 -0.040932363736975508 -0.011048898107104209 0 -0.040918386955584425 -0.010477995441845318 0 -0.041661231269976326 -0.010594081293052764 0 -0.040932363736975508 -0.011048898107104209 0 -0.040918386955584425 -0.010477995441845318 0 -0.040465486520472244 -0.010687284042510231 0 -0.036203878163345193 -0.0075900565294938207 0 -0.037195099429705981 -0.0068799000450222407 0 -0.040918386955584425 -0.010477995441845318 0 -0.041091261555842688 -0.0099678125255841781 0 -0.040465599993217853 -0.010223339947447986 0 -0.03626860690880946 -0.0070583030674317027 0 -0.036656997001451121 -0.007068833816503986 0 -0.036534980137532078 -0.0071739589972796124 0 -0.03626860690880946 -0.0070583030674317027 0 -0.036459308064872742 -0.0072628645783358653 0 -0.036534980137532078 -0.0071739589972796124 0 -0.034944019282465183 -0.0069506223919652346 0 -0.035153985150847777 -0.0078158333899569186 0 -0.036100468419978993 -0.0082021072199797464 0 -0.034944019282465183 -0.0069506223919652346 0 -0.035153985150847777 -0.0078158333899569186 0 -0.034332761220964285 -0.007648139152679821 0 -0.036203878163345193 -0.0075900565294938207 0 -0.036179271732070278 -0.0062149966166622607 0 -0.036203878163345193 -0.0075900565294938207 0 -0.03433979977674502 -0.0073843419484383383 0 -0.035018148711208043 -0.00697229287994869 0 -0.033267905734908426 -0.0069136079065860584 0 -0.033398333079713426 -0.0052188446215203285 0 -0.034944019282465183 -0.0069506223919652346 0 -0.034332761220964285 -0.007648139152679821 0 -0.033248137312988292 -0.0068970141008659683 0 -0.034332761220964285 -0.007648139152679821 0 -0.033248137312988292 -0.0068970141008659683 0 -0.032802991048603763 -0.0079096583019136416 0 -0.040918386955584425 -0.010477995441845318 0 -0.041091261555842688 -0.0099678125255841781 0 -0.041661231269976326 -0.010594081293052764 0 -0.036203878163345193 -0.0075900565294938207 0 -0.034641326263982718 -0.0092405990653854266 0 -0.040932363736975508 -0.011048898107104209 0 -0.041661231269976326 -0.010594081293052764 0 -0.041798364422708505 -0.010746174130392618 0 -0.033267905734908426 -0.0069136079065860584 0 -0.033398333079713426 -0.0052188446215203285 0 -0.032999405770363699 -0.0047870041311395065 0 -0.034641326263982718 -0.0092405990653854266 0 -0.033937261552249152 -0.0095269018736379198 0 -0.033267905734908426 -0.0069136079065860584 0 -0.032161925748667053 -0.0057616440734026639 0 -0.032999405770363699 -0.0047870041311395065 0 -0.033937261552249152 -0.0095269018736379198 0 -0.026580288653711596 -0.008391640894172615 0 -0.032161925748667053 -0.0057616440734026639 0 -0.032999405770363699 -0.0047870041311395065 0 -0.030086166309845844 -0.0055257021607991166 0 -0.021714372080227608 -0.0099015221557298451 0 -0.024413957794514916 -0.010583543187767986 0 -0.020370186744935386 -0.011597095180131837 0 -0.032161925748667053 -0.0057616440734026639 0 -0.030086166309845844 -0.0055257021607991166 0 -0.031516623398071243 -0.0068477514665426587 0 -0.021714372080227608 -0.0099015221557298451 0 -0.019955325456846151 -0.0095141295258864625 0 -0.020370186744935386 -0.011597095180131837 0 -0.030086166309845844 -0.0055257021607991166 0 -0.030022346594466585 -0.0071379232520028249 0 -0.031516623398071243 -0.0068477514665426587 0 -0.02962280805494466 -0.005531244987504332 0 -0.032412990338734363 -0.0054218756907077536 0 -0.030817551296827655 -0.0017810366110812741 0 -0.032255402843175067 -0.0022082904092224254 0 -0.031594651517098671 -0.0025179870917856873 0 -0.030022346594466585 -0.0071379232520028249 0 -0.031516623398071243 -0.0068477514665426587 0 -0.032802991048603763 -0.0079096583019136416 0 -0.03433979977674502 -0.0073843419484383383 0 -0.033583772831078752 -0.0073147161985926187 0 -0.033248137312988292 -0.0068970141008659683 0 -0.031516623398071243 -0.0068477514665426587 0 -0.032802991048603763 -0.0079096583019136416 0 -0.033267905734908426 -0.0069136079065860584 0 -0.032161925748667053 -0.0057616440734026639 0 -0.031516623398071243 -0.0068477514665426587 0 -0.032255402843175067 -0.0022082904092224254 0 -0.031594651517098671 -0.0025179870917856873 0 -0.032129267764355277 -0.0028633253134210364 0 -0.031594651517098671 -0.0025179870917856873 0 -0.032129267764355277 -0.0028633253134210364 0 -0.031644604398728002 -0.0030430970924888549 0 -0.032255402843175067 -0.0022082904092224254 0 -0.032129267764355277 -0.0028633253134210364 0 -0.032715572634831845 -0.0028957500934020915 0 -0.030817551296827655 -0.0017810366110812741 0 -0.031074521701818635 -0.0026298373476694209 0 -0.030604950016447082 -0.0022731734762661071 0 -0.030817551296827655 -0.0017810366110812741 0 -0.031594651517098671 -0.0025179870917856873 0 -0.031074521701818635 -0.0026298373476694209 0 -0.031074521701818635 -0.0026298373476694209 0 -0.031152272298068544 -0.0030810356364284436 0 -0.031644604398728002 -0.0030430970924888549 0 -0.031594651517098671 -0.0025179870917856873 0 -0.031074521701818635 -0.0026298373476694209 0 -0.031644604398728002 -0.0030430970924888549 0 -0.031074521701818635 -0.0026298373476694209 0 -0.031152272298068544 -0.0030810356364284436 0 -0.030569704732650402 -0.0029984696300065492 0 -0.031074521701818635 -0.0026298373476694209 0 -0.030604950016447082 -0.0022731734762661071 0 -0.030569704732650402 -0.0029984696300065492 0 -0.031384034072212283 -0.0035951398304029519 0 -0.030569704732650402 -0.0029984696300065492 0 -0.031129797421543825 -0.00424505033996549 0 -0.030335990019685302 -0.0026702590219075594 0 -0.030041330026042045 -0.0020027058010941797 0 -0.031152272298068544 -0.0030810356364284436 0 -0.031384034072212283 -0.0035951398304029519 0 -0.030569704732650402 -0.0029984696300065492 0 -0.031152272298068544 -0.0030810356364284436 0 -0.031384034072212283 -0.0035951398304029519 0 -0.031644604398728002 -0.0030430970924888549 0 -0.031384034072212283 -0.0035951398304029519 0 -0.032237425145024347 -0.0034232310202500847 0 -0.032213174211314644 -0.0042238472778905103 0 -0.031384034072212283 -0.0035951398304029519 0 -0.031644604398728002 -0.0030430970924888549 0 -0.032237425145024347 -0.0034232310202500847 0 -0.032129267764355277 -0.0028633253134210364 0 -0.031644604398728002 -0.0030430970924888549 0 -0.032237425145024347 -0.0034232310202500847 0 -0.032129267764355277 -0.0028633253134210364 0 -0.032237425145024347 -0.0034232310202500847 0 -0.032715572634831845 -0.0028957500934020915 0 -0.032237425145024347 -0.0034232310202500847 0 -0.03306385852512795 -0.0036096068505895511 0 -0.032213174211314644 -0.0042238472778905103 0 -0.032237425145024347 -0.0034232310202500847 0 -0.03306385852512795 -0.0036096068505895511 0 -0.032715572634831845 -0.0028957500934020915 0 -0.03306385852512795 -0.0036096068505895511 0 -0.03324938773590607 -0.0030946913366702885 0 -0.032715572634831845 -0.0028957500934020915 0 -0.03306385852512795 -0.0036096068505895511 0 -0.033599410559914368 -0.0032387624871057486 0 -0.033726206742490716 -0.0040254414739071829 0 -0.033599410559914368 -0.0032387624871057486 0 -0.033726206742490716 -0.0040254414739071829 0 -0.034310613932500046 -0.0028386028343982618 0 -0.03306385852512795 -0.0036096068505895511 0 -0.033599410559914368 -0.0032387624871057486 0 -0.03324938773590607 -0.0030946913366702885 0 -0.033599410559914368 -0.0032387624871057486 0 -0.03324938773590607 -0.0030946913366702885 0 -0.033617741976724298 -0.0026359418651214499 0 -0.036079635077509789 -0.0053833086764473494 0 -0.036106934033189209 -0.0053749155917125332 0 -0.036127140690449935 -0.0053951478196246306 0 -0.033599410559914368 -0.0032387624871057486 0 -0.033617741976724298 -0.0026359418651214499 0 -0.034310613932500046 -0.0028386028343982618 0 -0.035164960794508135 -0.0055640725308797575 0 -0.036173347339049852 -0.0054974366798058285 0 -0.035153985150847777 -0.0078158333899569186 0 -0.035509942990680575 -0.0086635200785848583 0 -0.036099592799178293 -0.0082007361079659974 0 -0.036151996374554039 -0.0062823129369028808 0 -0.036179271732070278 -0.0062149966166622607 0 -0.035509942990680575 -0.0086635200785848583 0 -0.036099592799178293 -0.0082007361079659974 0 -0.036304420353429304 -0.008422516104634039 0 -0.035164960794508135 -0.0055640725308797575 0 -0.03608629559998041 -0.0059985209457667065 0 -0.036179271732070278 -0.0062149966166622607 0 -0.03608629559998041 -0.0059985209457667065 0 -0.035153985150847777 -0.0078158333899569186 0 -0.034332761220964285 -0.007648139152679821 0 -0.035509942990680575 -0.0086635200785848583 0 -0.032412990338734363 -0.0054218756907077536 0 -0.035164960794508135 -0.0055640725308797575 0 -0.03324938773590607 -0.0030946913366702885 0 -0.033617741976724298 -0.0026359418651214499 0 -0.032715572634831845 -0.0028957500934020915 0 -0.032255402843175067 -0.0022082904092224254 0 -0.033653320246518112 -0.0026264107194585041 0 -0.032715572634831845 -0.0028957500934020915 0 -0.035164960794508135 -0.0055640725308797575 0 -0.034572163845231353 -0.0053231538269278367 0 -0.034332761220964285 -0.007648139152679821 0 -0.032802991048603763 -0.0079096583019136416 0 -0.035509942990680575 -0.0086635200785848583 0 -0.023862821421980401 -0.00055054670773547836 0 -0.024010020181319983 -0.0010361577976379262 0 -0.023257024579153646 -0.00069270274741245008 0 -0.023862821421980401 -0.00055054670773547836 0 -0.023725092247825087 -0.00012155110388999199 0 -0.023257024579153646 -0.00069270274741245008 0 -0.012559870754172857 -0.0096888632013330533 0 -0.012033679403471198 -0.011096394042714829 0 -0.014193149101765442 -0.011700909498747939 0 -0.012559870754172857 -0.0096888632013330533 0 -0.012033679403471198 -0.011096394042714829 0 -0.0098854313002395902 -0.010471860807235176 0 -0.023862821421980401 -0.00055054670773547836 0 -0.023725092247825087 -0.00012155110388999199 0 -0.024292649004514985 -0.00028232606496965114 0 -0.018931632391867136 -0.0053931019227860541 0 -0.021731500719572413 -0.0051579398442736452 0 -0.015260013225282068 -0.010133663386725058 0 -0.014033337635964161 -0.0095610361907567595 0 -0.014293447575032401 -0.011977847351150999 0 -0.02025711144202556 -0.0056412783173670957 0 -0.021731500719572413 -0.0051579398442736452 0 -0.014033337635964161 -0.0095610361907567595 0 -0.012559870754172857 -0.0096888632013330533 0 -0.014293447575032401 -0.011977847351150999 0 -0.015260013225282068 -0.010133663386725058 0 -0.014293447575032401 -0.011977847351150999 0 -0.016272822506921476 -0.011050234285602711 0 -0.021731500719572413 -0.0051579398442736452 0 -0.024874081238896201 -0.0059375563853953789 0 -0.024292649004514985 -0.00028232606496965114 0 -0.024824210253781991 -0.00093110742312137542 0 -0.024010020181319983 -0.0010361577976379262 0 -0.023862821421980401 -0.00055054670773547836 0 -0.024292649004514985 -0.00028232606496965114 0 -0.024010020181319983 -0.0010361577976379262 0 -0.028378175690875886 -0.0011215549138773641 0 -0.028924058059167288 -0.0014592707885637049 0 -0.029301074387973809 -0.0022101422138413869 0 -0.021731500719572413 -0.0051579398442736452 0 -0.025088490015083141 -0.0032753944789146632 0 -0.029271814756604141 -0.001360054462078784 0 -0.029946635616738566 -0.001673989082390957 0 -0.029301074387973809 -0.0022101422138413869 0 -0.028378175690875886 -0.0011215549138773641 0 -0.029267633372633838 -0.0013628474999282062 0 -0.028924058059167288 -0.0014592707885637049 0 -0.024874081238896201 -0.0059375563853953789 0 -0.02515924823203658 -0.0058061829368088258 0 -0.029271814756604141 -0.001360054462078784 0 -0.028924058059167288 -0.0014592707885637049 0 -0.029301074387973809 -0.0022101422138413869 0 -0.014293447575032401 -0.011977847351150999 0 -0.016473225813982428 -0.012637574492738701 0 -0.016272822506921476 -0.011050234285602711 0 -0.016617773445815158 -0.0095576643133454629 0 -0.016272822506921476 -0.011050234285602711 0 -0.017983217476785544 -0.010555003330106028 0 -0.016473225813982428 -0.012637574492738701 0 -0.016272822506921476 -0.011050234285602711 0 -0.017983217476785544 -0.010555003330106028 0 -0.020370186744935386 -0.011597095180131837 0 -0.016473225813982428 -0.012637574492738701 0 -0.017983217476785544 -0.010555003330106028 0 -0.026580288653711596 -0.008391640894172615 0 -0.024874081238896201 -0.0059375563853953789 0 -0.019955325456846151 -0.0095141295258864625 0 -0.020370186744935386 -0.011597095180131837 0 -0.017983217476785544 -0.010555003330106028 0 -0.030086166309845844 -0.0055257021607991166 0 -0.030022346594466585 -0.0071379232520028249 0 -0.027202642109322987 -0.0063254815009221709 0 -0.02962280805494466 -0.005531244987504332 0 -0.024874081238896201 -0.0059375563853953789 0 -0.030817551296827655 -0.0017810366110812741 0 -0.029271814756604141 -0.001360054462078784 0 -0.029946635616738566 -0.001673989082390957 0 -0.030817551296827655 -0.0017810366110812741 0 -0.029946635616738566 -0.001673989082390957 0 -0.030604950016447082 -0.0022731734762661071 0 -0.030437965228256692 -0.002990282858627325 0 -0.030143238293017054 -0.003235271645058629 0 -0.029301074387973809 -0.0022101422138413869 0 -0.029946635616738566 -0.001673989082390957 0 -0.030437965228256692 -0.002990282858627325 0 -0.029301074387973809 -0.0022101422138413869 0 -0.029946635616738566 -0.001673989082390957 0 -0.030604950016447082 -0.0022731734762661071 0 -0.030569704732650402 -0.0029984696300065492 0 -0.030193650997082426 -0.0023039114350183491 0 -0.030335990019685302 -0.0026702590219075594 0 -0.030437965228256692 -0.002990282858627325 0 -0.030143238293017054 -0.003235271645058629 0 -0.030914441504442999 -0.0041997114391129136 0 -0.027582875857281842 -0.0025635880010814252 0 -0.030041330026042045 -0.0020027058010941797 0 -0.025351046283200795 -0.0015737526966006384 0 -0.024704280038879263 -0.0016615966107243439 0 -0.0252713347654187 -0.0021603221405578155 0 -0.025351046283200795 -0.0015737526966006384 0 -0.024704280038879263 -0.0016615966107243439 0 -0.024824210253781991 -0.00093110742312137542 0 -0.027582875857281842 -0.0025635880010814252 0 -0.025088490015083141 -0.0032753944789146632 0 -0.024704280038879263 -0.0016615966107243439 0 -0.024824210253781991 -0.00093110742312137542 0 -0.024010020181319983 -0.0010361577976379262 0 -0.024704280038879263 -0.0016615966107243439 0 -0.023993405787337135 -0.0019240126784678484 0 -0.024010020181319983 -0.0010361577976379262 0 -0.027058825577110601 0.0022634797604546967 0 -0.025603610668606933 0.001306539825834196 0 -0.023993405787337135 -0.0019240126784678484 0 -0.024010020181319983 -0.0010361577976379262 0 -0.023218977925574466 -0.0015054200866928588 0 -0.031473905458829665 0.0089263287683689161 0 -0.031297241221753029 0.008747417465428578 0 -0.031345842259461583 0.0091332574466713914 0 -0.031772214877625632 0.0089094190830008805 0 -0.031631280074984593 0.0089238581454098038 0 -0.031670114941148887 0.0090432610723700027 0 -0.031631280074984593 0.0089238581454098038 0 -0.031561365978551269 0.0090258301623451984 0 -0.031670114941148887 0.0090432610723700027 0 -0.031631280074984593 0.0089238581454098038 0 -0.031750284959596954 0.0088091839695746531 0 -0.031521267706575345 0.0087793527627622759 0 -0.031772214877625632 0.0089094190830008805 0 -0.031631280074984593 0.0089238581454098038 0 -0.031750284959596954 0.0088091839695746531 0 -0.031603980270731233 0.0085617933821430375 0 -0.031750284959596954 0.0088091839695746531 0 -0.031977823995536482 0.0086969391232682922 0 -0.031603980270731233 0.0085617933821430375 0 -0.031750284959596954 0.0088091839695746531 0 -0.031521267706575345 0.0087793527627622759 0 -0.027058825577110601 0.0022634797604546967 0 -0.027803363869706062 0.0027580780869814465 0 -0.024704280038879263 -0.0016615966107243439 0 -0.023993405787337135 -0.0019240126784678484 0 -0.024762845092137442 -0.0023325304909215315 0 -0.031603980270731233 0.0085617933821430375 0 -0.031521267706575345 0.0087793527627622759 0 -0.031297241221753029 0.008747417465428578 0 -0.031521267706575345 0.0087793527627622759 0 -0.031473905458829665 0.0089263287683689161 0 -0.031297241221753029 0.008747417465428578 0 -0.031631280074984593 0.0089238581454098038 0 -0.031521267706575345 0.0087793527627622759 0 -0.031473905458829665 0.0089263287683689161 0 -0.031631280074984593 0.0089238581454098038 0 -0.031473905458829665 0.0089263287683689161 0 -0.031561365978551269 0.0090258301623451984 0 -0.031297241221753029 0.008747417465428578 0 -0.031040962737903844 0.008889117423107577 0 -0.031345842259461583 0.0091332574466713914 0 -0.024704280038879263 -0.0016615966107243439 0 -0.024762845092137442 -0.0023325304909215315 0 -0.0252713347654187 -0.0021603221405578155 0 -0.025351046283200795 -0.0015737526966006384 0 -0.0252713347654187 -0.0021603221405578155 0 -0.025867312957944269 -0.0022039241201738864 0 -0.0252713347654187 -0.0021603221405578155 0 -0.025520844340563818 -0.0027286950267242783 0 -0.025867312957944269 -0.0022039241201738864 0 -0.024762845092137442 -0.0023325304909215315 0 -0.0252713347654187 -0.0021603221405578155 0 -0.025520844340563818 -0.0027286950267242783 0 -0.027803363869706062 0.0027580780869814465 0 -0.028482642068087729 0.0029513112003069874 0 -0.031040962737903844 0.008889117423107577 0 -0.031030670188112761 0.0091514687135186845 0 -0.031345842259461583 0.0091332574466713914 0 -0.029811062540487807 0.010729793859524805 0 -0.029550216087471142 0.011117666340746278 0 -0.03004656194218432 0.011132800517309603 0 -0.029811062540487807 0.010729793859524805 0 -0.030495078412795206 0.01058225223600308 0 -0.03004656194218432 0.011132800517309603 0 -0.030495078412795206 0.01058225223600308 0 -0.030562122385382629 0.011022194198279536 0 -0.03004656194218432 0.011132800517309603 0 -0.030395138698028609 0.0086372122088767319 0 -0.030879369391719549 0.0093668262716567596 0 -0.031473905458829665 0.0089263287683689161 0 -0.031345842259461583 0.0091332574466713914 0 -0.031561365978551269 0.0090258301623451984 0 -0.031345842259461583 0.0091332574466713914 0 -0.031654079254865845 0.0091042311484521177 0 -0.031561365978551269 0.0090258301623451984 0 -0.030879369391719549 0.0093668262716567596 0 -0.031373716278267072 0.0097634162208410907 0 -0.030495078412795206 0.01058225223600308 0 -0.030841805818138914 0.010821836201495559 0 -0.031253619073793822 0.010445597831396749 0 -0.030495078412795206 0.01058225223600308 0 -0.030562122385382629 0.011022194198279536 0 -0.030841805818138914 0.010821836201495559 0 -0.030562122385382629 0.011022194198279536 0 -0.030841805818138914 0.010821836201495559 0 -0.030989198741811275 0.011241147522183697 0 -0.031501324525870615 0.0097646833087446545 0 -0.03141107510797065 0.0093664251939504697 0 -0.030988521684757003 0.010699854630401625 0 -0.030841805818138914 0.010821836201495559 0 -0.031253619073793822 0.010445597831396749 0 -0.030989198741811275 0.011241147522183697 0 -0.031373716278267072 0.0097634162208410907 0 -0.030999469449682543 0.010949226263847272 0 -0.031501324525870615 0.0097646833087446545 0 -0.031752193864199307 0.010035178972599729 0 -0.030988521684757003 0.010699854630401625 0 -0.031501324525870615 0.0097646833087446545 0 -0.031745751039913325 0.0095305005514548166 0 -0.031752193864199307 0.010035178972599729 0 -0.031501324525870615 0.0097646833087446545 0 -0.03141107510797065 0.0093664251939504697 0 -0.031494017883239016 0.0093543502708846073 0 -0.031501324525870615 0.0097646833087446545 0 -0.031494017883239016 0.0093543502708846073 0 -0.031745751039913325 0.0095305005514548166 0 -0.031494017883239016 0.0093543502708846073 0 -0.031759379083094737 0.0092157396295937354 0 -0.031745751039913325 0.0095305005514548166 0 -0.031373716278267072 0.0097634162208410907 0 -0.031374234377339841 0.0097629891584994754 0 -0.031654079254865845 0.0091042311484521177 0 -0.031561365978551269 0.0090258301623451984 0 -0.031670114941148887 0.0090432610723700027 0 -0.031373716278267072 0.0097634162208410907 0 -0.031396901734508244 0.009701426430797782 0 -0.031423955093784005 0.0093626663882104295 0 -0.031494017883239016 0.0093543502708846073 0 -0.031670114941148887 0.0090432610723700027 0 -0.031494017883239016 0.0093543502708846073 0 -0.031670114941148887 0.0090432610723700027 0 -0.031759379083094737 0.0092157396295937354 0 -0.032619408519496434 -0.0049173478220210674 0 -0.033160585112617512 -0.0052055641931127439 0 -0.03294358329276631 -0.0043826033395657164 0 -0.032619408519496434 -0.0049173478220210674 0 -0.031990363397707118 -0.005271490212092598 0 -0.032791293055049235 -0.0054986040998162714 0 -0.032619408519496434 -0.0049173478220210674 0 -0.033160585112617512 -0.0052055641931127439 0 -0.032791293055049235 -0.0054986040998162714 0 -0.033160585112617512 -0.0052055641931127439 0 -0.033814228079299173 -0.0049794532497245796 0 -0.033441509779507682 -0.0058676578518595838 0 -0.034538739279324521 -0.005136557439292434 0 -0.035048277098341796 -0.0049023801838783947 0 -0.033160585112617512 -0.0052055641931127439 0 -0.033814228079299173 -0.0049794532497245796 0 -0.033715733264745272 -0.0041479802490374503 0 -0.033814228079299173 -0.0049794532497245796 0 -0.033715733264745272 -0.0041479802490374503 0 -0.034200628306347673 -0.0041430076956500929 0 -0.033160585112617512 -0.0052055641931127439 0 -0.033726206742490716 -0.0040254414739071829 0 -0.03294358329276631 -0.0043826033395657164 0 -0.03306385852512795 -0.0036096068505895511 0 -0.033726206742490716 -0.0040254414739071829 0 -0.03294358329276631 -0.0043826033395657164 0 -0.03306385852512795 -0.0036096068505895511 0 -0.03294358329276631 -0.0043826033395657164 0 -0.032213174211314644 -0.0042238472778905103 0 -0.032619408519496434 -0.0049173478220210674 0 -0.03294358329276631 -0.0043826033395657164 0 -0.032213174211314644 -0.0042238472778905103 0 -0.031384034072212283 -0.0035951398304029519 0 -0.032213174211314644 -0.0042238472778905103 0 -0.031129797421543825 -0.00424505033996549 0 -0.032213174211314644 -0.0042238472778905103 0 -0.031129797421543825 -0.00424505033996549 0 -0.031990363397707118 -0.005271490212092598 0 -0.030041330026042045 -0.0020027058010941797 0 -0.029907616154001272 -3.2844582033617353e-05 0 -0.030041330026042045 -0.0020027058010941797 0 -0.031595657142430587 -0.0016780730605463132 0 -0.028482642068087729 0.0029513112003069874 0 -0.029869216688959623 0.0027327398297449274 0 -0.030942787007978666 -0.00055339689472156403 0 -0.030831530791039133 -0.00024092080474620274 0 -0.030625273172595831 -0.00011398525581021935 0 -0.025520844340563818 -0.0027286950267242783 0 -0.025867312957944269 -0.0022039241201738864 0 -0.026060222763957766 -0.0026625932651064433 0 -0.025520844340563818 -0.0027286950267242783 0 -0.026060222763957766 -0.0026625932651064433 0 -0.026256441002331665 -0.0031127111259721726 0 -0.032619408519496434 -0.0049173478220210674 0 -0.032213174211314644 -0.0042238472778905103 0 -0.031990363397707118 -0.005271490212092598 0 -0.029907616154001272 -3.2844582033617353e-05 0 -0.029869216688959623 0.0027327398297449274 0 -0.030831530791039133 -0.00024092080474620274 0 -0.030625273172595831 -0.00011398525581021935 0 -0.030716508692858906 6.5112343718799607e-05 0 -0.029869216688959623 0.0027327398297449274 0 -0.032250892537531342 0.00061139939215844991 0 -0.030625273172595831 -0.00011398525581021935 0 -0.030716508692858906 6.5112343718799607e-05 0 -0.030318281323753957 0.00030904288703413482 0 -0.030155519238930707 0.0048504176820155986 0 -0.030417317669871113 0.004214394712595197 0 -0.031521455671728704 0.0040930987553980634 0 -0.030809612501987917 0.0090229795311768061 0 -0.03085030831030474 0.0090480409894552385 0 -0.030783004228796811 0.0091041178414314472 0 -0.029869216688959623 0.0027327398297449274 0 -0.03028371715435587 0.0060823833723164531 0 -0.030161179970993629 0.0063570652965361484 0 -0.03028371715435587 0.0060823833723164531 0 -0.031040962737903844 0.008889117423107577 0 -0.031030670188112761 0.0091514687135186845 0 -0.03085030831030474 0.0090480409894552385 0 -0.031040962737903844 0.008889117423107577 0 -0.030809612501987917 0.0090229795311768061 0 -0.03085030831030474 0.0090480409894552385 0 -0.031030670188112761 0.0091514687135186845 0 -0.03085030831030474 0.0090480409894552385 0 -0.030764146706648489 0.0091249522342420793 0 -0.030395138698028609 0.0086372122088767319 0 -0.030368384479913999 0.0069685568765083918 0 -0.031030670188112761 0.0091514687135186845 0 -0.030742620198636095 0.0091767683682793411 0 -0.030764146706648489 0.0091249522342420793 0 -0.029811062540487807 0.010729793859524805 0 -0.0292119946526384 0.010839539336208749 0 -0.029550216087471142 0.011117666340746278 0 -0.031220150826908946 0.0071835511514537409 0 -0.031191613710206449 0.0071883313350247181 0 -0.031173668341408303 0.0073126162298969817 0 -0.030368384479913999 0.0069685568765083918 0 -0.030761926922806711 0.0089355726927981584 0 -0.030828904525049119 0.0038436330146600496 0 -0.030417317669871113 0.004214394712595197 0 -0.031521455671728704 0.0040930987553980634 0 -0.030368384479913999 0.0069685568765083918 0 -0.030683091187640437 0.0064997502338538246 0 -0.029795941968344779 0.0062893826862614197 0 -0.029960360914031009 0.0062650571560359924 0 -0.029715754802909115 0.0064866686098449802 0 -0.030683091187640437 0.0064997502338538246 0 -0.03028371715435587 0.0060823833723164531 0 -0.030368384479913999 0.0069685568765083918 0 -0.03028371715435587 0.0060823833723164531 0 -0.0292119946526384 0.010839539336208749 0 -0.02929838575373072 0.011152074838479241 0 -0.029550216087471142 0.011117666340746278 0 -0.030683091187640437 0.0064997502338538246 0 -0.031111969604945621 0.0061407067114835276 0 -0.030828904525049119 0.0038436330146600496 0 -0.031967589279732082 0.003682087552659172 0 -0.031521455671728704 0.0040930987553980634 0 -0.030843583475346926 0.0038597756485090418 0 -0.031967589279732082 0.003682087552659172 0 -0.032240897439439156 0.0025774371070741236 0 -0.031990363397707118 -0.005271490212092598 0 -0.032819099617011994 -0.006304351534803152 0 -0.032791293055049235 -0.0054986040998162714 0 -0.032819099617011994 -0.006304351534803152 0 -0.032791293055049235 -0.0054986040998162714 0 -0.033441509779507682 -0.0058676578518595838 0 -0.031595657142430587 -0.0016780730605463132 0 -0.032250892537531342 0.00061139939215844991 0 -0.033160585112617512 -0.0052055641931127439 0 -0.032791293055049235 -0.0054986040998162714 0 -0.033441509779507682 -0.0058676578518595838 0 -0.033954091030442009 -0.0047763928698595559 0 -0.033441509779507682 -0.0058676578518595838 0 -0.034260452310431865 -0.0055829218172264812 0 -0.033441509779507682 -0.0058676578518595838 0 -0.033904432018284081 -0.0069438309602167731 0 -0.034260452310431865 -0.0055829218172264812 0 -0.034955140693517732 -0.0052237908901591589 0 -0.034635594645531669 -0.0055190825132814909 0 -0.032819099617011994 -0.006304351534803152 0 -0.033441509779507682 -0.0058676578518595838 0 -0.033904432018284081 -0.0069438309602167731 0 -0.032250892537531342 0.00061139939215844991 0 -0.034098601826828792 0.0019758699381403535 0 -0.031967589279732082 0.003682087552659172 0 -0.031521455671728704 0.0040930987553980634 0 -0.032815529941247791 0.003367801329072577 0 -0.034098601826828792 0.0019758699381403535 0 -0.036524567318072597 -0.0019194399753435533 0 -0.043263341077062992 -8.4055704594133493e-05 0 -0.042000419693058594 -0.00037994036247170673 0 -0.042150716662423537 -0.0016635423248878599 0 -0.042000419693058594 -0.00037994036247170673 0 -0.041078619556880233 -4.6108574291435146e-05 0 -0.041407597860225263 -0.0011110988896153166 0 -0.042000419693058594 -0.00037994036247170673 0 -0.041407597860225263 -0.0011110988896153166 0 -0.042150716662423537 -0.0016635423248878599 0 -0.041407597860225263 -0.0011110988896153166 0 -0.042150716662423537 -0.0016635423248878599 0 -0.041206777972405004 -0.0021100367856157088 0 -0.033904432018284081 -0.0069438309602167731 0 -0.034944089967099898 -0.0055727668980563166 0 -0.034260452310431865 -0.0055829218172264812 0 -0.034944089967099898 -0.0055727668980563166 0 -0.034260452310431865 -0.0055829218172264812 0 -0.034648586630101633 -0.0051552546068545212 0 -0.034260452310431865 -0.0055829218172264812 0 -0.034370482459836128 -0.0046360736428179405 0 -0.034648586630101633 -0.0051552546068545212 0 -0.035278689695304573 -0.0050300025066901104 0 -0.035399798249714037 -0.0048733831888606817 0 -0.033954091030442009 -0.0047763928698595559 0 -0.034260452310431865 -0.0055829218172264812 0 -0.03435587747247254 -0.0046404004556896642 0 -0.034370482459836128 -0.0046360736428179405 0 -0.0350187868397396 -0.0048307111233736487 0 -0.034870035213995107 -0.0042486153292237844 0 -0.034370482459836128 -0.0046360736428179405 0 -0.0350187868397396 -0.0048307111233736487 0 -0.034648586630101633 -0.0051552546068545212 0 -0.034944089967099898 -0.0055727668980563166 0 -0.0350187868397396 -0.0048307111233736487 0 -0.034648586630101633 -0.0051552546068545212 0 -0.036524567318072597 -0.0019194399753435533 0 -0.037811306328569536 -0.0037731439049427094 0 -0.0350187868397396 -0.0048307111233736487 0 -0.035407674570860005 -0.0042968511401936067 0 -0.035983818673838916 -0.0041615397034983998 0 -0.034944089967099898 -0.0055727668980563166 0 -0.0350187868397396 -0.0048307111233736487 0 -0.035983818673838916 -0.0041615397034983998 0 -0.042150716662423537 -0.0016635423248878599 0 -0.041206777972405004 -0.0021100367856157088 0 -0.041046214126399964 -0.0031931433707487913 0 -0.0350187868397396 -0.0048307111233736487 0 -0.035407674570860005 -0.0042968511401936067 0 -0.034870035213995107 -0.0042486153292237844 0 -0.035407674570860005 -0.0042968511401936067 0 -0.0352793515540063 -0.003874795005352497 0 -0.034870035213995107 -0.0042486153292237844 0 -0.0352793515540063 -0.003874795005352497 0 -0.036053810606191138 -0.0040474304578713783 0 -0.034896949147831827 -0.0027957018608147977 0 -0.035407674570860005 -0.0042968511401936067 0 -0.0352793515540063 -0.003874795005352497 0 -0.035969839620791574 -0.0041637346881158565 0 -0.0352793515540063 -0.003874795005352497 0 -0.036053810606191138 -0.0040474304578713783 0 -0.035969839620791574 -0.0041637346881158565 0 -0.037492423531373102 -0.0038471161996758247 0 -0.037811306328569536 -0.0037731439049427094 0 -0.033954091030442009 -0.0047763928698595559 0 -0.03435587747247254 -0.0046404004556896642 0 -0.034456634305472647 -0.003713377372691755 0 -0.035399798249714037 -0.0048733831888606817 0 -0.035739014434663291 -0.0048627016547403961 0 -0.034955140693517732 -0.0052237908901591589 0 -0.035739014434663291 -0.0048627016547403961 0 -0.034370482459836128 -0.0046360736428179405 0 -0.03447539014528897 -0.0036994583126387132 0 -0.034870035213995107 -0.0042486153292237844 0 -0.0352793515540063 -0.003874795005352497 0 -0.03447539014528897 -0.0036994583126387132 0 -0.034870035213995107 -0.0042486153292237844 0 -0.038071467225296265 -0.0042487110422320907 0 -0.038183442870325379 -0.0042230219091274265 0 -0.038046149640843331 -0.0041658528287363914 0 -0.038399789484870751 -0.004080505799504113 0 -0.038032466045093187 -0.0044347693366544967 0 -0.039770074857492288 -0.0036814803536107956 0 -0.039373841511758968 -0.0027542014630408162 0 -0.03880000906628505 -0.0032311168620121188 0 -0.038071467225296265 -0.0042487110422320907 0 -0.038011382121313768 -0.0042230079537911042 0 -0.038046149640843331 -0.0041658528287363914 0 -0.038071467225296265 -0.0042487110422320907 0 -0.038011382121313768 -0.0042230079537911042 0 -0.037951575199138422 -0.0042656304311243761 0 -0.039770074857492288 -0.0036814803536107956 0 -0.04106737661381251 -0.0034794713131156441 0 -0.040240532688819781 -0.0025694166688888269 0 -0.038399789484870751 -0.004080505799504113 0 -0.037980231202233275 -0.0038689784638494726 0 -0.037980231202233275 -0.0038689784638494726 0 -0.03807175465854265 -0.0049657779383080773 0 -0.038011382121313768 -0.0042230079537911042 0 -0.037951575199138422 -0.0042656304311243761 0 -0.038028629823225399 -0.0041608756158955686 0 -0.040954345879236527 -0.0033183197828260489 0 -0.041046214126399964 -0.0031931433707487913 0 -0.040827096144215792 -0.0026258376403837532 0 -0.037980231202233275 -0.0038689784638494726 0 -0.037811306328569536 -0.0037731439049427094 0 -0.037980231202233275 -0.0038689784638494726 0 -0.038678636505922084 -0.0035403619199948335 0 -0.041206777972405004 -0.0021100367856157088 0 -0.041046214126399964 -0.0031931433707487913 0 -0.040827096144215792 -0.0026258376403837532 0 -0.040954345879236527 -0.0033183197828260489 0 -0.040827096144215792 -0.0026258376403837532 0 -0.040171945198053956 -0.0024481441015720569 0 -0.041206777972405004 -0.0021100367856157088 0 -0.040827096144215792 -0.0026258376403837532 0 -0.040496069997650701 -0.0017807658398166747 0 -0.040827096144215792 -0.0026258376403837532 0 -0.040171945198053956 -0.0024481441015720569 0 -0.040496069997650701 -0.0017807658398166747 0 -0.039770074857492288 -0.0036814803536107956 0 -0.040240532688819781 -0.0025694166688888269 0 -0.039373841511758968 -0.0027542014630408162 0 -0.038678636505922084 -0.0035403619199948335 0 -0.038714390756755659 -0.0032903354150334635 0 -0.040240532688819781 -0.0025694166688888269 0 -0.039373841511758968 -0.0027542014630408162 0 -0.039477940003370786 -0.0017212699194734333 0 -0.039373841511758968 -0.0027542014630408162 0 -0.039477940003370786 -0.0017212699194734333 0 -0.038694273212891379 -0.0023784392270300553 0 -0.039477940003370786 -0.0017212699194734333 0 -0.040496069997650701 -0.0017807658398166747 0 -0.039917773645523381 -0.00067223291269460786 0 -0.039477940003370786 -0.0017212699194734333 0 -0.039917773645523381 -0.00067223291269460786 0 -0.038643202561578417 -0.0013296876878099665 0 -0.040171945198053956 -0.0024481441015720569 0 -0.039477940003370786 -0.0017212699194734333 0 -0.040496069997650701 -0.0017807658398166747 0 -0.041407597860225263 -0.0011110988896153166 0 -0.040496069997650701 -0.0017807658398166747 0 -0.039917773645523381 -0.00067223291269460786 0 -0.041407597860225263 -0.0011110988896153166 0 -0.041206777972405004 -0.0021100367856157088 0 -0.040496069997650701 -0.0017807658398166747 0 -0.041078619556880233 -4.6108574291435146e-05 0 -0.041407597860225263 -0.0011110988896153166 0 -0.039879159297901721 -0.00052192472843202021 0 -0.04047541109739286 -0.00078430199208884038 0 -0.039720502101931128 -0.00052710763730801514 0 -0.041078619556880233 -4.6108574291435146e-05 0 -0.039879159297901721 -0.00052192472843202021 0 -0.040536054977194043 0.00060322844531433871 0 -0.039720502101931128 -0.00052710763730801514 0 -0.038340151344499245 -5.464165206217721e-05 0 -0.039879159297901721 -0.00052192472843202021 0 -0.038342751563271056 1.5868045346054187e-05 0 -0.039683792021324445 0.00076007232278963008 0 -0.039917773645523381 -0.00067223291269460786 0 -0.038380639128045985 -0.00014250374568716622 0 -0.038643202561578417 -0.0013296876878099665 0 -0.038380639128045985 -0.00014250374568716622 0 -0.037593656260847132 -0.0010104159229014297 0 -0.038643202561578417 -0.0013296876878099665 0 -0.038380639128045985 -0.00014250374568716622 0 -0.037593656260847132 -0.0010104159229014297 0 -0.036787592172041583 0.00043818049615052787 0 -0.037593656260847132 -0.0010104159229014297 0 -0.037205948251283635 -0.0019439054676558744 0 -0.037982966559758954 -0.0020744130256592397 0 -0.037593656260847132 -0.0010104159229014297 0 -0.037982966559758954 -0.0020744130256592397 0 -0.038643202561578417 -0.0013296876878099665 0 -0.037982966559758954 -0.0020744130256592397 0 -0.038643202561578417 -0.0013296876878099665 0 -0.038694273212891379 -0.0023784392270300553 0 -0.039477940003370786 -0.0017212699194734333 0 -0.038643202561578417 -0.0013296876878099665 0 -0.038694273212891379 -0.0023784392270300553 0 -0.035000002031682548 -0.0010652541993444286 0 -0.036517848278375849 -0.00098459947040405995 0 -0.035762803031065771 0.00015647921964054024 0 -0.036517848278375849 -0.00098459947040405995 0 -0.036787592172041583 0.00043818049615052787 0 -0.035762803031065771 0.00015647921964054024 0 -0.037593656260847132 -0.0010104159229014297 0 -0.036517848278375849 -0.00098459947040405995 0 -0.036787592172041583 0.00043818049615052787 0 -0.037593656260847132 -0.0010104159229014297 0 -0.037205948251283635 -0.0019439054676558744 0 -0.036517848278375849 -0.00098459947040405995 0 -0.037205948251283635 -0.0019439054676558744 0 -0.036517848278375849 -0.00098459947040405995 0 -0.036548917315083647 -0.001908096548590466 0 -0.035000002031682548 -0.0010652541993444286 0 -0.036548917315083647 -0.001908096548590466 0 -0.036192073184194581 -0.0026331869995518736 0 -0.035000002031682548 -0.0010652541993444286 0 -0.036517848278375849 -0.00098459947040405995 0 -0.036548917315083647 -0.001908096548590466 0 -0.035000002031682548 -0.0010652541993444286 0 -0.034999978829824537 -0.0030780280019764798 0 -0.036192073184194581 -0.0026331869995518736 0 -0.034999978829824537 -0.0030780280019764798 0 -0.036192073184194581 -0.0026331869995518736 0 -0.036267540260585006 -0.003475792568910533 0 -0.03687691979317529 -0.0035882319339430716 0 -0.037142044209004479 -0.0038598539926684859 0 -0.036192073184194581 -0.0026331869995518736 0 -0.037041879695172461 -0.0033941793863148228 0 -0.036267540260585006 -0.003475792568910533 0 -0.036548917315083647 -0.001908096548590466 0 -0.036192073184194581 -0.0026331869995518736 0 -0.036995085258770835 -0.0026285145128302047 0 -0.037205948251283635 -0.0019439054676558744 0 -0.036548917315083647 -0.001908096548590466 0 -0.036995085258770835 -0.0026285145128302047 0 -0.036995085258770835 -0.0026285145128302047 0 -0.036979073187964936 -0.0032558060440789679 0 -0.037312956923360098 -0.0030384659109239714 0 -0.036192073184194581 -0.0026331869995518736 0 -0.036995085258770835 -0.0026285145128302047 0 -0.036979073187964936 -0.0032558060440789679 0 -0.037041879695172461 -0.0033941793863148228 0 -0.0370151496812249 -0.0038501882860960601 0 -0.036267540260585006 -0.003475792568910533 0 -0.037041879695172461 -0.0033941793863148228 0 -0.0370151496812249 -0.0038501882860960601 0 -0.037439522162660492 -0.004010447348704556 0 -0.0370151496812249 -0.0038501882860960601 0 -0.036556730082139645 -0.0041343556429813558 0 -0.03745139528138703 -0.0045044799820558009 0 -0.036556730082139645 -0.0041343556429813558 0 -0.036267540260585006 -0.003475792568910533 0 -0.035807517546894242 -0.0041149209613136721 0 -0.0370151496812249 -0.0038501882860960601 0 -0.036556730082139645 -0.0041343556429813558 0 -0.036267540260585006 -0.003475792568910533 0 -0.036556730082139645 -0.0041343556429813558 0 -0.035807517546894242 -0.0041149209613136721 0 -0.036221537023767368 -0.0047968091303435215 0 -0.034999978829824537 -0.0030780280019764798 0 -0.035807517546894242 -0.0041149209613136721 0 -0.035000004523185427 -0.005090958764207767 0 -0.034999978829824537 -0.0030780280019764798 0 -0.036267540260585006 -0.003475792568910533 0 -0.035807517546894242 -0.0041149209613136721 0 -0.038184077285904172 -0.0030092499828709533 0 -0.038694273212891379 -0.0023784392270300553 0 -0.03880000906628505 -0.0032311168620121188 0 -0.039373841511758968 -0.0027542014630408162 0 -0.038694273212891379 -0.0023784392270300553 0 -0.03880000906628505 -0.0032311168620121188 0 -0.037982966559758954 -0.0020744130256592397 0 -0.038184077285904172 -0.0030092499828709533 0 -0.038694273212891379 -0.0023784392270300553 0 -0.037982966559758954 -0.0020744130256592397 0 -0.038184077285904172 -0.0030092499828709533 0 -0.037571628220317482 -0.0026941444208905792 0 -0.037205948251283635 -0.0019439054676558744 0 -0.037982966559758954 -0.0020744130256592397 0 -0.037571628220317482 -0.0026941444208905792 0 -0.037205948251283635 -0.0019439054676558744 0 -0.036995085258770835 -0.0026285145128302047 0 -0.037571628220317482 -0.0026941444208905792 0 -0.036995085258770835 -0.0026285145128302047 0 -0.037571628220317482 -0.0026941444208905792 0 -0.037312956923360098 -0.0030384659109239714 0 -0.037571628220317482 -0.0026941444208905792 0 -0.037312956923360098 -0.0030384659109239714 0 -0.037739542498947787 -0.0031542585269608106 0 -0.038184077285904172 -0.0030092499828709533 0 -0.037571628220317482 -0.0026941444208905792 0 -0.037739542498947787 -0.0031542585269608106 0 -0.038184077285904172 -0.0030092499828709533 0 -0.038112481912039517 -0.0033654752541088825 0 -0.037739542498947787 -0.0031542585269608106 0 -0.038112481912039517 -0.0033654752541088825 0 -0.037739542498947787 -0.0031542585269608106 0 -0.037285341086243241 -0.0034592072212596063 0 -0.037285341086243241 -0.0034592072212596063 0 -0.03773490770992053 -0.0039182760077961492 0 -0.038529943992348027 -0.0039705623164183346 0 -0.037794574930777258 -0.0042288545694217205 0 -0.038032466045093187 -0.0044347693366544967 0 -0.038112481912039517 -0.0033654752541088825 0 -0.037285341086243241 -0.0034592072212596063 0 -0.038555692805349526 -0.0039725206643939064 0 -0.037142044209004479 -0.0038598539926684859 0 -0.037691653416686635 -0.0044687526478156348 0 -0.036979073187964936 -0.0032558060440789679 0 -0.037285341086243241 -0.0034592072212596063 0 -0.03773490770992053 -0.0039182760077961492 0 -0.036979073187964936 -0.0032558060440789679 0 -0.037312956923360098 -0.0030384659109239714 0 -0.037285341086243241 -0.0034592072212596063 0 -0.037312956923360098 -0.0030384659109239714 0 -0.037739542498947787 -0.0031542585269608106 0 -0.037285341086243241 -0.0034592072212596063 0 -0.0370151496812249 -0.0038501882860960601 0 -0.037439522162660492 -0.004010447348704556 0 -0.03745139528138703 -0.0045044799820558009 0 -0.037041879695172461 -0.0033941793863148228 0 -0.037439522162660492 -0.004010447348704556 0 -0.037874618207869151 -0.0041386514123167963 0 -0.037679948483118335 -0.0044590172048677166 0 -0.037691653416686635 -0.0044687526478156348 0 -0.037159814817252397 -0.0047739919656713823 0 -0.037127146601478769 -0.0048130125578193144 0 -0.037439522162660492 -0.004010447348704556 0 -0.037741551355724191 -0.0041404178050253844 0 -0.03745139528138703 -0.0045044799820558009 0 -0.037439522162660492 -0.004010447348704556 0 -0.037741551355724191 -0.0041404178050253844 0 -0.037870570919713561 -0.0041365814606710571 0 -0.037741551355724191 -0.0041404178050253844 0 -0.038105786775837633 -0.0043442126536010978 0 -0.037452190474547779 -0.0044992365549847025 0 -0.037741551355724191 -0.0041404178050253844 0 -0.037870570919713561 -0.0041365814606710571 0 -0.038105786775837633 -0.0043442126536010978 0 -0.037691653416686635 -0.0044687526478156348 0 -0.037779772268782499 -0.0046190757071486351 0 -0.037691653416686635 -0.0044687526478156348 0 -0.037903433324643333 -0.0045553679572519594 0 -0.038008657045846689 -0.0045470540671193561 0 -0.037820220487540815 -0.004380626872711642 0 -0.037607862558694305 -0.0044312280205464002 0 -0.037779772268782499 -0.0046190757071486351 0 -0.037903433324643333 -0.0045553679572519594 0 -0.039770074857492288 -0.0036814803536107956 0 -0.038555692805349526 -0.0039725206643939064 0 -0.03880000906628505 -0.0032311168620121188 0 -0.03773490770992053 -0.0039182760077961492 0 -0.038192713505004597 -0.004050671230145163 0 -0.038529943992348027 -0.0039705623164183346 0 -0.037903433324643333 -0.0045553679572519594 0 -0.038032466045093187 -0.0044347693366544967 0 -0.038112481912039517 -0.0033654752541088825 0 -0.038555692805349526 -0.0039725206643939064 0 -0.03880000906628505 -0.0032311168620121188 0 -0.038184077285904172 -0.0030092499828709533 0 -0.038112481912039517 -0.0033654752541088825 0 -0.03880000906628505 -0.0032311168620121188 0 -0.037903433324643333 -0.0045553679572519594 0 -0.038127759763278021 -0.0048939698205814836 0 -0.03809188766159774 -0.0049486990075321112 0 -0.038292401782820125 -0.0049013468964113158 0 -0.038976986333700774 -0.005730745587040011 0 -0.037966618553191528 -0.0046836315744598926 0 -0.038977001738854579 -0.005630711345343699 0 -0.037732616406987683 -0.0053920684098495136 0 -0.038292401782820125 -0.0049013468964113158 0 -0.038976986333700774 -0.005730745587040011 0 -0.039763107249922068 -0.0053295215135037892 0 -0.037958329483389688 -0.0046949056011037172 0 -0.037989444070850378 -0.0046876501922309523 0 -0.038122824715965231 -0.0047432086084489081 0 -0.037779772268782499 -0.0046190757071486351 0 -0.038727297938135126 -0.0054597558142077656 0 -0.037779772268782499 -0.0046190757071486351 0 -0.037127146601478769 -0.0048130125578193144 0 -0.037966618553191528 -0.0046836315744598926 0 -0.037383379506550789 -0.004808346761925983 0 -0.037732616406987683 -0.0053920684098495136 0 -0.037860922241002772 -0.0060571602846748018 0 -0.036239458505928579 -0.0061385099774883354 0 -0.037668152979302857 -0.0069770603417456641 0 -0.037732616406987683 -0.0053920684098495136 0 -0.037860922241002772 -0.0060571602846748018 0 -0.036239458505928579 -0.0061385099774883354 0 -0.037860922241002772 -0.0060571602846748018 0 -0.038501095398341637 -0.0063637208286820464 0 -0.037668152979302857 -0.0069770603417456641 0 -0.038977001738854579 -0.005630711345343699 0 -0.037860922241002772 -0.0060571602846748018 0 -0.038501095398341637 -0.0063637208286820464 0 -0.038977001738854579 -0.005630711345343699 0 -0.037732616406987683 -0.0053920684098495136 0 -0.037860922241002772 -0.0060571602846748018 0 -0.038501095398341637 -0.0063637208286820464 0 -0.038929742312859519 -0.0069325865476629629 0 -0.039070828765276837 -0.0063516772387956569 0 -0.038977001738854579 -0.005630711345343699 0 -0.038501095398341637 -0.0063637208286820464 0 -0.039070828765276837 -0.0063516772387956569 0 -0.035001623402220933 -0.0050908217881334714 0 -0.036129746505380714 -0.0049229281743442248 0 -0.035807517546894242 -0.0041149209613136721 0 -0.035000004523185427 -0.005090958764207767 0 -0.036221537023767368 -0.0047968091303435215 0 -0.035000003777589189 -0.0050909566620704321 0 -0.036215189648720753 -0.0048075654194050365 0 -0.03621668321776244 -0.0060281395681540421 0 -0.037127146601478769 -0.0048130125578193144 0 -0.036129746505380714 -0.0049229281743442248 0 -0.036556730082139645 -0.0041343556429813558 0 -0.03745139528138703 -0.0045044799820558009 0 -0.036221537023767368 -0.0047968091303435215 0 -0.037383379506550789 -0.004808346761925983 0 -0.037732616406987683 -0.0053920684098495136 0 -0.036239458505928579 -0.0061385099774883354 0 -0.037424532080083596 -0.004519742100610822 0 -0.036215189648720753 -0.0048075654194050365 0 -0.03621668321776244 -0.0060281395681540421 0 -0.037127146601478769 -0.0048130125578193144 0 -0.036141229322284599 -0.0061117840615414346 0 -0.035000003777589189 -0.0050909566620704321 0 -0.03621668321776244 -0.0060281395681540421 0 -0.034999994208674397 -0.0063207325087905651 0 -0.03621668321776244 -0.0060281395681540421 0 -0.034999994208674397 -0.0063207325087905651 0 -0.03500000170984522 -0.0075505353975600957 0 -0.036141229322284599 -0.0061117840615414346 0 -0.035001024859461882 -0.0075492429499410402 0 -0.036239458505928579 -0.0061385099774883354 0 -0.035000013235671097 -0.0075507003919204263 0 -0.036378709995218236 -0.0074428091462141154 0 -0.036239458505928579 -0.0061385099774883354 0 -0.036378709995218236 -0.0074428091462141154 0 -0.037668152979302857 -0.0069770603417456641 0 -0.036378709995218236 -0.0074428091462141154 0 -0.036924833977880059 -0.0085735561125198437 0 -0.037668152979302857 -0.0069770603417456641 0 -0.036378709995218236 -0.0074428091462141154 0 -0.036924833977880059 -0.0085735561125198437 0 -0.035925071426652286 -0.0084961730286274972 0 -0.034999950659761254 -0.0091783875914734064 0 -0.035000013235671097 -0.0075507003919204263 0 -0.035925071426652286 -0.0084961730286274972 0 -0.035000013235671097 -0.0075507003919204263 0 -0.036378709995218236 -0.0074428091462141154 0 -0.035925071426652286 -0.0084961730286274972 0 -0.038950828419259398 -0.0066284731573940606 0 -0.03853921591794781 -0.0066787462967325493 0 -0.039321237880865702 -0.0070367716931048416 0 -0.037668152979302857 -0.0069770603417456641 0 -0.038456471296274407 -0.0082378984056759395 0 -0.038501095398341637 -0.0063637208286820464 0 -0.038929742312859519 -0.0069325865476629629 0 -0.037668152979302857 -0.0069770603417456641 0 -0.036924833977880059 -0.0085735561125198437 0 -0.037668152979302857 -0.0069770603417456641 0 -0.038456471296274407 -0.0082378984056759395 0 -0.037736576204391151 -0.0093450375138090184 0 -0.036924833977880059 -0.0085735561125198437 0 -0.038456471296274407 -0.0082378984056759395 0 -0.039340454775748289 -0.0094226242839106564 0 -0.038456471296274407 -0.0082378984056759395 0 -0.039812823676294594 -0.0080027153985919065 0 -0.039321237880865702 -0.0070367716931048416 0 -0.038456471296274407 -0.0082378984056759395 0 -0.039812823676294594 -0.0080027153985919065 0 -0.038398315893431942 -0.0093878015015345685 0 -0.038835336521700813 -0.0082217918371352717 0 -0.039340454775748289 -0.0094226242839106564 0 -0.039812823676294594 -0.0080027153985919065 0 -0.040840004435940727 -0.0082568352017887876 0 -0.039812823676294594 -0.0080027153985919065 0 -0.040803640191094427 -0.0076392027499328705 0 -0.040840004435940727 -0.0082568352017887876 0 -0.038929742312859519 -0.0069325865476629629 0 -0.040080107797621327 -0.0069351434267582168 0 -0.039863728885952243 -0.0064949619860652395 0 -0.038929742312859519 -0.0069325865476629629 0 -0.039070828765276837 -0.0063516772387956569 0 -0.039863728885952243 -0.0064949619860652395 0 -0.039321237880865702 -0.0070367716931048416 0 -0.039812823676294594 -0.0080027153985919065 0 -0.040363931653306422 -0.0072711546996346785 0 -0.038950828419259398 -0.0066284731573940606 0 -0.039061115221603847 -0.0064234181299205684 0 -0.039321237880865702 -0.0070367716931048416 0 -0.040363931653306422 -0.0072711546996346785 0 -0.040911190997854792 -0.0071150397959307762 0 -0.039812823676294594 -0.0080027153985919065 0 -0.040363931653306422 -0.0072711546996346785 0 -0.040803640191094427 -0.0076392027499328705 0 -0.039061115221603847 -0.0064234181299205684 0 -0.038026706349216302 -0.0067880329014307177 0 -0.038835336521700813 -0.0082217918371352717 0 -0.038026706349216302 -0.0067880329014307177 0 -0.040080107797621327 -0.0069351434267582168 0 -0.041089032441468033 -0.0066142009704206551 0 -0.040451194186971094 -0.0063218790879761419 0 -0.040894045127887517 -0.0071245259051805482 0 -0.040803640191094427 -0.0076392027499328705 0 -0.042297126674926973 -0.0071675291602302255 0 -0.039061115221603847 -0.0064234181299205684 0 -0.037608271453747288 -0.0059133057868350205 0 -0.040803640191094427 -0.0076392027499328705 0 -0.040840004435940727 -0.0082568352017887876 0 -0.042297126674926973 -0.0071675291602302255 0 -0.040363931653306422 -0.0072711546996346785 0 -0.040894045127887517 -0.0071245259051805482 0 -0.040803640191094427 -0.0076392027499328705 0 -0.039174446023674155 -0.0064195353067862037 0 -0.039061115221603847 -0.0064234181299205684 0 -0.039586618861890778 -0.010753056802473081 0 -0.039117599178824201 -0.010434205904659235 0 -0.039770372541685542 -0.010404707662126249 0 -0.039117599178824201 -0.010434205904659235 0 -0.039770372541685542 -0.010404707662126249 0 -0.039824539734604175 -0.0099317657092534515 0 -0.040038182785980134 -0.010767972281298208 0 -0.039586618861890778 -0.010753056802473081 0 -0.039770372541685542 -0.010404707662126249 0 -0.040038182785980134 -0.010767972281298208 0 -0.039770372541685542 -0.010404707662126249 0 -0.040140034985227793 -0.010403641831888322 0 -0.039770372541685542 -0.010404707662126249 0 -0.040140034985227793 -0.010403641831888322 0 -0.039945956796026125 -0.010152735877975624 0 -0.040038182785980134 -0.010767972281298208 0 -0.040465486520472244 -0.010687284042510231 0 -0.040140034985227793 -0.010403641831888322 0 -0.040140034985227793 -0.010403641831888322 0 -0.040465599993217853 -0.010223339947447986 0 -0.040165726485098467 -0.010140234854080358 0 -0.040140034985227793 -0.010403641831888322 0 -0.040165726485098467 -0.010140234854080358 0 -0.039945956796026125 -0.010152735877975624 0 -0.040465486520472244 -0.010687284042510231 0 -0.040140034985227793 -0.010403641831888322 0 -0.040465599993217853 -0.010223339947447986 0 -0.040918386955584425 -0.010477995441845318 0 -0.040465486520472244 -0.010687284042510231 0 -0.040465599993217853 -0.010223339947447986 0 -0.041091261555842688 -0.0099678125255841781 0 -0.040465599993217853 -0.010223339947447986 0 -0.040254688926292345 -0.0099362490435659194 0 -0.040465599993217853 -0.010223339947447986 0 -0.040254688926292345 -0.0099362490435659194 0 -0.040165726485098467 -0.010140234854080358 0 -0.037195099429705981 -0.0068799000450222407 0 -0.037419455435044012 -0.0068064616068657501 0 -0.040254688926292345 -0.0099362490435659194 0 -0.040165726485098467 -0.010140234854080358 0 -0.040052011120895528 -0.00992928338946906 0 -0.037195099429705981 -0.0068799000450222407 0 -0.036846285923246853 -0.0062132590960044132 0 -0.036890860054067665 -0.0066665431525639168 0 -0.036854220549764866 -0.0066654554871790183 0 -0.036878029298658271 -0.0066146638497572713 0 -0.036890860054067665 -0.0066665431525639168 0 -0.036896901420533292 -0.0066005274644659363 0 -0.036878029298658271 -0.0066146638497572713 0 -0.037419455435044012 -0.0068064616068657501 0 -0.037066489407560722 -0.0063457791084541425 0 -0.036656997001451121 -0.007068833816503986 0 -0.036534980137532078 -0.0071739589972796124 0 -0.036639609197470849 -0.0072379781214062661 0 -0.038593885499306743 -0.0060211996534669 0 -0.037778336044214621 -0.005993840536203528 0 -0.037866935672910246 -0.0060645999799304896 0 -0.038593885499306743 -0.0060211996534669 0 -0.037774462546188887 -0.006264342064484168 0 -0.037866935672910246 -0.0060645999799304896 0 -0.039770372541685542 -0.010404707662126249 0 -0.039945956796026125 -0.010152735877975624 0 -0.039824539734604175 -0.0099317657092534515 0 -0.040165726485098467 -0.010140234854080358 0 -0.039945956796026125 -0.010152735877975624 0 -0.040052011120895528 -0.00992928338946906 0 -0.039945956796026125 -0.010152735877975624 0 -0.039824539734604175 -0.0099317657092534515 0 -0.040047951738316559 -0.0099368258558874302 0 -0.037425014149404461 -0.0069602637894007726 0 -0.037419455435044012 -0.0068064616068657501 0 -0.037778336044214621 -0.005993840536203528 0 -0.037774243515532865 -0.0062635165216941846 0 -0.037866935672910246 -0.0060645999799304896 0 -0.037778336044214621 -0.005993840536203528 0 -0.037774243515532865 -0.0062635165216941846 0 -0.037362397708773955 -0.0062938791359981828 0 -0.03709190268675281 -0.0066888233545949341 0 -0.037253257109229013 -0.0066937477708954637 0 -0.037344702801627105 -0.0065030186475216502 0 -0.038026706349216302 -0.0067880329014307177 0 -0.037066489407560722 -0.0063457791084541425 0 -0.038026706349216302 -0.0067880329014307177 0 -0.037419455435044012 -0.0068064616068657501 0 -0.037608271453747288 -0.0059133057868350205 0 -0.037609517968448379 -0.0059191220828805485 0 -0.041089032441468033 -0.0066142009704206551 0 -0.040884296735771875 -0.0061670511584154559 0 -0.040451194186971094 -0.0063218790879761419 0 -0.041089032441468033 -0.0066142009704206551 0 -0.041360068873342384 -0.0060177233974788007 0 -0.040884296735771875 -0.0061670511584154559 0 -0.037053483126878117 -0.0061310733011946646 0 -0.03716688845902294 -0.005882567486247282 0 -0.037293363083196925 -0.0060589009165725677 0 -0.037608271453747288 -0.0059133057868350205 0 -0.037029257374324526 -0.0056921489802856844 0 -0.037608271453747288 -0.0059133057868350205 0 -0.036911572070400522 -0.0061761308283102053 0 -0.037170772799361165 -0.004988561268897288 0 -0.037122806048365965 -0.0050925239977517335 0 -0.037584624931634378 -0.0052231253958664892 0 -0.037029257374324526 -0.0056921489802856844 0 -0.036836897600368027 -0.0054105912056427556 0 -0.037029257374324526 -0.0056921489802856844 0 -0.037999411918546708 -0.0054630156482823643 0 -0.041360068873342384 -0.0060177233974788007 0 -0.040884296735771875 -0.0061670511584154559 0 -0.04063542985287933 -0.0057129488699539594 0 -0.040884296735771875 -0.0061670511584154559 0 -0.04063542985287933 -0.0057129488699539594 0 -0.040451194186971094 -0.0063218790879761419 0 -0.036179271732070278 -0.0062149966166622607 0 -0.036287972271848899 -0.0060497573414758357 0 -0.036202587645766886 -0.0063562629328150384 0 -0.036230598277583639 -0.0063479057697951912 0 -0.03614616441860679 -0.0062554535217470278 0 -0.035924293346053272 -0.0062563165526121059 0 -0.035725372204015005 -0.0061736612299086802 0 -0.035822261291557536 -0.0061448525055853107 0 -0.036287972271848899 -0.0060497573414758357 0 -0.03608629559998041 -0.0059985209457667065 0 -0.036459308064872742 -0.0072628645783358653 0 -0.036534980137532078 -0.0071739589972796124 0 -0.036525453025551262 -0.0072895854260682678 0 -0.036287972271848899 -0.0060497573414758357 0 -0.036846285923246853 -0.0062132590960044132 0 -0.036534980137532078 -0.0071739589972796124 0 -0.036525453025551262 -0.0072895854260682678 0 -0.036639609197470849 -0.0072379781214062661 0 -0.036287972271848899 -0.0060497573414758357 0 -0.036597668795749085 -0.00586823511625048 0 -0.036930968804197356 -0.0062654944310617028 0 -0.037036679686327761 -0.0062972466318645436 0 -0.03704519755179065 -0.0062140472900049544 0 -0.03716688845902294 -0.005882567486247282 0 -0.037337640648580084 -0.0059672621022195419 0 -0.037293363083196925 -0.0060589009165725677 0 -0.037774243515532865 -0.0062635165216941846 0 -0.037309680584453914 -0.0064013855907191029 0 -0.037362397708773955 -0.0062938791359981828 0 -0.036597668795749085 -0.00586823511625048 0 -0.036846285923246853 -0.0062132590960044132 0 -0.036597668795749085 -0.00586823511625048 0 -0.036911572070400522 -0.0061761308283102053 0 -0.03642012070026894 -0.0061249394594576146 0 -0.036422490732625129 -0.0061027471376976757 0 -0.036430031910138862 -0.0061052599609502205 0 -0.037335726642783874 -0.0064240063751442806 0 -0.037268491956573259 -0.0064014094582136314 0 -0.037214918514172315 -0.006511908503974392 0 -0.036911572070400522 -0.0061761308283102053 0 -0.037066489407560722 -0.0063457791084541425 0 -0.036846285923246853 -0.0062132590960044132 0 -0.037066489407560722 -0.0063457791084541425 0 -0.036846285923246853 -0.0062132590960044132 0 -0.036911572070400522 -0.0061761308283102053 0 -0.037029257374324526 -0.0056921489802856844 0 -0.036597668795749085 -0.00586823511625048 0 -0.036764457151055641 -0.0055528260221207109 0 -0.036403481486825241 -0.005374673153525771 0 -0.036379649175601603 -0.0056132581816809319 0 -0.036764457151055641 -0.0055528260221207109 0 -0.03669469508781651 -0.0057041724521231371 0 -0.036379649175601603 -0.0056132581816809319 0 -0.036379184682966303 -0.0057587096743141608 0 -0.036493475503780327 -0.0057920183690504745 0 -0.036414577389576222 -0.0056816071775940375 0 -0.036836897600368027 -0.0054105912056427556 0 -0.036359988486959753 -0.0054202563467751113 0 -0.036597668795749085 -0.00586823511625048 0 -0.036359988486959753 -0.0054202563467751113 0 -0.036202587645766886 -0.0063562629328150384 0 -0.036110923588319438 -0.0063281330649793037 0 -0.03614616441860679 -0.0062554535217470278 0 -0.036820663359251757 -0.0057165899393720543 0 -0.036862725504794698 -0.0052946616562708181 0 -0.03700594170307623 -0.005335796055428158 0 -0.036597668795749085 -0.00586823511625048 0 -0.036173347339049852 -0.0054974366798058285 0 -0.036359988486959753 -0.0054202563467751113 0 -0.036173347339049852 -0.0054974366798058285 0 -0.03608629559998041 -0.0059985209457667065 0 -0.036173347339049852 -0.0054974366798058285 0 -0.0352793515540063 -0.003874795005352497 0 -0.03447539014528897 -0.0036994583126387132 0 -0.034896949147831827 -0.0027957018608147977 0 -0.035739014434663291 -0.0048627016547403961 0 -0.036554788658309668 -0.0051429809919813253 0 -0.035048277098341796 -0.0049023801838783947 0 -0.036173347339049852 -0.0054974366798058285 0 -0.033715733264745272 -0.0041479802490374503 0 -0.034307026549542249 -0.0031649232098582497 0 -0.034226161754939234 -0.0031418626428024563 0 -0.03599198191507863 -0.0049595642156292476 0 -0.035969375297109342 -0.0052017441939650119 0 -0.035916000382377682 -0.0051279066114022099 0 -0.035739014434663291 -0.0048627016547403961 0 -0.036359988486959753 -0.0054202563467751113 0 -0.033715733264745272 -0.0041479802490374503 0 -0.034200628306347673 -0.0041430076956500929 0 -0.034307026549542249 -0.0031649232098582497 0 -0.036359988486959753 -0.0054202563467751113 0 -0.036554788658309668 -0.0051429809919813253 0 -0.036836897600368027 -0.0054105912056427556 0 -0.036554788658309668 -0.0051429809919813253 0 -0.037346068096332993 -0.0047931659183972145 0 -0.037314856726004736 -0.0048609257594950071 0 -0.037563218107713923 -0.0048550730659737548 0 -0.037980231202233275 -0.0038689784638494726 0 -0.036554788658309668 -0.0051429809919813253 0 -0.03759950381283652 -0.0051659417481156053 0 -0.037314856726004736 -0.0048609257594950071 0 -0.037563218107713923 -0.0048550730659737548 0 -0.037170772799361165 -0.004988561268897288 0 -0.037584624931634378 -0.0052231253958664892 0 -0.037611525256427275 -0.0051671286922577806 0 -0.036836897600368027 -0.0054105912056427556 0 -0.037480940222478755 -0.0051783818323618246 0 -0.03759950381283652 -0.0051659417481156053 0 -0.037563218107713923 -0.0048550730659737548 0 -0.037779988441891933 -0.004917281405508277 0 -0.037999411918546708 -0.0054630156482823643 0 -0.03807175465854265 -0.0049657779383080773 0 -0.037480940222478755 -0.0051783818323618246 0 -0.03807175465854265 -0.0049657779383080773 0 -0.037584624931634378 -0.0052231253958664892 0 -0.037611525256427275 -0.0051671286922577806 0 -0.038044343384283391 -0.0053486053462631807 0 -0.039908802118378821 -0.0053882272846995406 0 -0.039651956709315442 -0.00573907605996315 0 -0.040015945360404592 -0.0057914363618848108 0 -0.04063542985287933 -0.0057129488699539594 0 -0.039908802118378821 -0.0053882272846995406 0 -0.040015945360404592 -0.0057914363618848108 0 -0.038011382121313768 -0.0042230079537911042 0 -0.038028629823225399 -0.0041608756158955686 0 -0.038046149640843331 -0.0041658528287363914 0 -0.038032466045093187 -0.0044347693366544967 0 -0.038127759763278021 -0.0048939698205814836 0 -0.03807175465854265 -0.0049657779383080773 0 -0.038127759763278021 -0.0048939698205814836 0 -0.038976986333700774 -0.005730745587040011 0 -0.039763107249922068 -0.0053295215135037892 0 -0.039651956709315442 -0.00573907605996315 0 -0.039914097480612844 -0.0053732417419498305 0 -0.039763107249922068 -0.0053295215135037892 0 -0.039651956709315442 -0.00573907605996315 0 -0.03807175465854265 -0.0049657779383080773 0 -0.038141379629857246 -0.0049558597422088976 0 -0.039651956709315442 -0.00573907605996315 0 -0.039746907192761437 -0.0060314364969467236 0 -0.040015945360404592 -0.0057914363618848108 0 -0.038976986333700774 -0.005730745587040011 0 -0.039746907192761437 -0.0060314364969467236 0 -0.039863728885952243 -0.0064949619860652395 0 -0.038977001738854579 -0.005630711345343699 0 -0.039070828765276837 -0.0063516772387956569 0 -0.039863728885952243 -0.0064949619860652395 0 -0.038727297938135126 -0.0054597558142077656 0 -0.039166212831026649 -0.0058510209968406467 0 -0.038976986333700774 -0.005730745587040011 0 -0.039651956709315442 -0.00573907605996315 0 -0.039746907192761437 -0.0060314364969467236 0 -0.040080107797621327 -0.0069351434267582168 0 -0.039863728885952243 -0.0064949619860652395 0 -0.040451194186971094 -0.0063218790879761419 0 -0.039746907192761437 -0.0060314364969467236 0 -0.039863728885952243 -0.0064949619860652395 0 -0.040141078497075086 -0.0060731038593025083 0 -0.039863728885952243 -0.0064949619860652395 0 -0.040451194186971094 -0.0063218790879761419 0 -0.040141078497075086 -0.0060731038593025083 0 -0.04063542985287933 -0.0057129488699539594 0 -0.040451194186971094 -0.0063218790879761419 0 -0.040141078497075086 -0.0060731038593025083 0 -0.04063542985287933 -0.0057129488699539594 0 -0.040015945360404592 -0.0057914363618848108 0 -0.040141078497075086 -0.0060731038593025083 0 -0.039746907192761437 -0.0060314364969467236 0 -0.040015945360404592 -0.0057914363618848108 0 -0.040141078497075086 -0.0060731038593025083 0 -0.011743376408398672 -0.0053587900724387976 0 -0.011799264565457011 -0.005279567976826275 0 -0.01179079885900643 -0.0053682763068328126 0 -0.011743376408398672 -0.0053587900724387976 0 -0.01179079885900643 -0.0053682763068328126 0 -0.011775470533055018 -0.005437170792543123 0 -0.011743376408398672 -0.0053587900724387976 0 -0.011775470533055018 -0.005437170792543123 0 -0.011763838239005883 -0.0054942588795047383 0 -0.011743376408398672 -0.0053587900724387976 0 -0.011748385131099817 -0.0054702182636892039 0 -0.011715808385983791 -0.0053493865235855458 0 -0.011743376408398672 -0.0053587900724387976 0 -0.011748385131099817 -0.0054702182636892039 0 -0.011763838239005883 -0.0054942588795047383 0 -0.011748385131099817 -0.0054702182636892039 0 -0.011763838239005883 -0.0054942588795047383 0 -0.011779599123116595 -0.0055718041420441712 0 -0.011748385131099817 -0.0054702182636892039 0 -0.011715808385983791 -0.0053493865235855458 0 -0.011749094385035463 -0.0054302319454832574 0 -0.011743376408398672 -0.0053587900724387976 0 -0.011715808385983791 -0.0053493865235855458 0 -0.011692636568700699 -0.0052437791203678863 0 -0.011692636568700699 -0.0052437791203678863 0 -0.011679904646339355 -0.0052426023527335263 0 -0.011648681677748974 -0.0051234769811716761 0 -0.011715808385983791 -0.0053493865235855458 0 -0.011692636568700699 -0.0052437791203678863 0 -0.011679904646339355 -0.0052426023527335263 0 -0.011692636568700699 -0.0052437791203678863 0 -0.011728102102320176 -0.0052221479329297178 0 -0.011648681677748974 -0.0051234769811716761 0 -0.011743376408398672 -0.0053587900724387976 0 -0.011728102102320176 -0.0052221479329297178 0 -0.011799264565457011 -0.005279567976826275 0 -0.011743376408398672 -0.0053587900724387976 0 -0.011692636568700699 -0.0052437791203678863 0 -0.011728102102320176 -0.0052221479329297178 0 -0.011728102102320176 -0.0052221479329297178 0 -0.011799264565457011 -0.005279567976826275 0 -0.011816753688847952 -0.0051792712661971208 0 -0.011799264565457011 -0.005279567976826275 0 -0.011880134559829723 -0.005229552092749651 0 -0.011816753688847952 -0.0051792712661971208 0 -0.011799264565457011 -0.005279567976826275 0 -0.011880134559829723 -0.005229552092749651 0 -0.011863818346872921 -0.0053074521265337304 0 -0.011880134559829723 -0.005229552092749651 0 -0.011954319895068009 -0.0052160708411496844 0 -0.011915511971868815 -0.0052807281173495322 0 -0.011863818346872921 -0.0053074521265337304 0 -0.011898811777720529 -0.005352501657245763 0 -0.011915511971868815 -0.0052807281173495322 0 -0.011880134559829723 -0.005229552092749651 0 -0.011863818346872921 -0.0053074521265337304 0 -0.011915511971868815 -0.0052807281173495322 0 -0.011863818346872921 -0.0053074521265337304 0 -0.011898811777720529 -0.005352501657245763 0 -0.01183450311301721 -0.0053639534369820186 0 -0.011898811777720529 -0.005352501657245763 0 -0.01183450311301721 -0.0053639534369820186 0 -0.011866011472355147 -0.0054070281758171581 0 -0.011898811777720529 -0.005352501657245763 0 -0.011866011472355147 -0.0054070281758171581 0 -0.011915250501989192 -0.0054295408412837276 0 -0.01179079885900643 -0.0053682763068328126 0 -0.01183450311301721 -0.0053639534369820186 0 -0.011812131464902998 -0.0054393648852060954 0 -0.011799264565457011 -0.005279567976826275 0 -0.01179079885900643 -0.0053682763068328126 0 -0.01183450311301721 -0.0053639534369820186 0 -0.011799264565457011 -0.005279567976826275 0 -0.011863818346872921 -0.0053074521265337304 0 -0.01183450311301721 -0.0053639534369820186 0 -0.01179079885900643 -0.0053682763068328126 0 -0.011812131464902998 -0.0054393648852060954 0 -0.011775470533055018 -0.005437170792543123 0 -0.01183450311301721 -0.0053639534369820186 0 -0.011812131464902998 -0.0054393648852060954 0 -0.011866011472355147 -0.0054070281758171581 0 -0.011812131464902998 -0.0054393648852060954 0 -0.011866011472355147 -0.0054070281758171581 0 -0.01186078504969305 -0.0054376308920723281 0 -0.011866011472355147 -0.0054070281758171581 0 -0.01186078504969305 -0.0054376308920723281 0 -0.011915250501989192 -0.0054295408412837276 0 -0.01186078504969305 -0.0054376308920723281 0 -0.011821479275070077 -0.0054645886315845792 0 -0.011855389883837572 -0.0054211868468873377 0 -0.011812131464902998 -0.0054393648852060954 0 -0.011821479275070077 -0.0054645886315845792 0 -0.01179655196425867 -0.0055195812071552088 0 -0.011812131464902998 -0.0054393648852060954 0 -0.01186078504969305 -0.0054376308920723281 0 -0.011821479275070077 -0.0054645886315845792 0 -0.01179655196425867 -0.0055195812071552088 0 -0.011779655488204515 -0.0055138733423296818 0 -0.011791399920470215 -0.0055970154284952682 0 -0.011812131464902998 -0.0054393648852060954 0 -0.01179655196425867 -0.0055195812071552088 0 -0.011779655488204515 -0.0055138733423296818 0 -0.011812131464902998 -0.0054393648852060954 0 -0.011779655488204515 -0.0055138733423296818 0 -0.011775470533055018 -0.005437170792543123 0 -0.011779655488204515 -0.0055138733423296818 0 -0.011775470533055018 -0.005437170792543123 0 -0.011763838239005883 -0.0054942588795047383 0 -0.011763838239005883 -0.0054942588795047383 0 -0.01178073167005798 -0.0055679231538073729 0 -0.011779599123116595 -0.0055718041420441712 0 -0.011779655488204515 -0.0055138733423296818 0 -0.01178073167005798 -0.0055679231538073729 0 -0.011791399920470215 -0.0055970154284952682 0 -0.011779655488204515 -0.0055138733423296818 0 -0.011763838239005883 -0.0054942588795047383 0 -0.01178073167005798 -0.0055679231538073729 0 -0.01178073167005798 -0.0055679231538073729 0 -0.011779599123116595 -0.0055718041420441712 0 -0.011807996745795154 -0.0056567081433628692 0 -0.01178073167005798 -0.0055679231538073729 0 -0.011791399920470215 -0.0055970154284952682 0 -0.011807996745795154 -0.0056567081433628692 0 -0.01179655196425867 -0.0055195812071552088 0 -0.011791399920470215 -0.0055970154284952682 0 -0.011792213429044929 -0.0055854374737838615 0 -0.011791399920470215 -0.0055970154284952682 0 -0.011819632480911535 -0.005691059534045112 0 -0.011792213429044929 -0.0055854374737838615 0 -0.011819632480911535 -0.005691059534045112 0 -0.011846237147114568 -0.0057754535593927117 0 -0.011792213429044929 -0.0055854374737838615 0 -0.0082264371236264542 -0.010775287442178086 0 -0.0082318421489399642 -0.01052515656040702 0 -0.0087983096046184792 -0.011109046708224804 0 -0.011819632480911535 -0.005691059534045112 0 -0.011845030174261098 -0.0057469110476680669 0 -0.011807996745795154 -0.0056567081433628692 0 -0.011791399920470215 -0.0055970154284952682 0 -0.011819632480911535 -0.005691059534045112 0 -0.011807996745795154 -0.0056567081433628692 0 -0.011819632480911535 -0.005691059534045112 0 -0.011845030174261098 -0.0057469110476680669 0 -0.011847834198535844 -0.0057639201970210606 0 -0.011819632480911535 -0.005691059534045112 0 -0.011847834198535844 -0.0057639201970210606 0 -0.011846237147114568 -0.0057754535593927117 0 -0.0082264371236264542 -0.010775287442178086 0 -0.0082318421489399642 -0.01052515656040702 0 -0.0095159461537886562 -0.0097279034922163245 0 -0.011896342628082786 -0.0058399899424204562 0 -0.01195457075869753 -0.005908396352740734 0 -0.012056171088082148 -0.006083588466220897 0 -0.010746256695894945 -0.0078597396633196467 0 -0.011432150409743635 -0.0074022528685969398 0 -0.011846237147114568 -0.0057754535593927117 0 -0.011896342628082786 -0.0058399899424204562 0 -0.012056171088082148 -0.006083588466220897 0 -0.0077426604678850035 -0.010571550445456912 0 -0.0076870122233526272 -0.010533662407199735 0 -0.011847834198535844 -0.0057639201970210606 0 -0.011846237147114568 -0.0057754535593927117 0 -0.011896342628082786 -0.0058399899424204562 0 -0.011845030174261098 -0.0057469110476680669 0 -0.011847834198535844 -0.0057639201970210606 0 -0.011896342628082786 -0.0058399899424204562 0 -0.011845030174261098 -0.0057469110476680669 0 -0.011896342628082786 -0.0058399899424204562 0 -0.011898307112144527 -0.0058123525644985762 0 -0.011845030174261098 -0.0057469110476680669 0 -0.011898307112144527 -0.0058123525644985762 0 -0.01183359846152761 -0.0056925552085180537 0 -0.011898307112144527 -0.0058123525644985762 0 -0.01195457075869753 -0.005908396352740734 0 -0.011992872863371523 -0.0059172050932863596 0 -0.011896342628082786 -0.0058399899424204562 0 -0.011898307112144527 -0.0058123525644985762 0 -0.01195457075869753 -0.005908396352740734 0 -0.011899168617693407 -0.0057578858892891214 0 -0.011992872863371523 -0.0059172050932863596 0 -0.011959670737129282 -0.0057639606644939029 0 -0.011898307112144527 -0.0058123525644985762 0 -0.011899168617693407 -0.0057578858892891214 0 -0.011992872863371523 -0.0059172050932863596 0 -0.011898307112144527 -0.0058123525644985762 0 -0.011899168617693407 -0.0057578858892891214 0 -0.01183359846152761 -0.0056925552085180537 0 -0.011899168617693407 -0.0057578858892891214 0 -0.01183359846152761 -0.0056925552085180537 0 -0.011848955439834394 -0.0056034991133041478 0 -0.01183359846152761 -0.0056925552085180537 0 -0.011779599123116595 -0.0055718041420441712 0 -0.011807996745795154 -0.0056567081433628692 0 -0.01183359846152761 -0.0056925552085180537 0 -0.011779599123116595 -0.0055718041420441712 0 -0.011789466333531331 -0.0055583072470505972 0 -0.011845030174261098 -0.0057469110476680669 0 -0.01183359846152761 -0.0056925552085180537 0 -0.011807996745795154 -0.0056567081433628692 0 -0.012128558057064691 -0.0091662301889016556 0 -0.0097715410170144627 -0.0083662245493681814 0 -0.012474639758488363 -0.0067128433295330107 0 -0.0067494016354135771 -0.010470844466533756 0 -0.0076870122233526272 -0.010533662407199735 0 -0.012128558057064691 -0.0091662301889016556 0 -0.0097715410170144627 -0.0083662245493681814 0 -0.0095159461537886562 -0.0097279034922163245 0 -0.0082318421489399642 -0.01052515656040702 0 -0.0097715410170144627 -0.0083662245493681814 0 -0.0095159461537886562 -0.0097279034922163245 0 -0.01195457075869753 -0.005908396352740734 0 -0.012056171088082148 -0.006083588466220897 0 -0.011992872863371523 -0.0059172050932863596 0 -0.011992872863371523 -0.0059172050932863596 0 -0.012080848164918842 -0.0058564567837289198 0 -0.011959670737129282 -0.0057639606644939029 0 -0.011992872863371523 -0.0059172050932863596 0 -0.012152805464396305 -0.0061172759443944178 0 -0.012080848164918842 -0.0058564567837289198 0 -0.012152805464396305 -0.0061172759443944178 0 -0.012298808896354058 -0.0060406756909203519 0 -0.012080848164918842 -0.0058564567837289198 0 -0.012056171088082148 -0.006083588466220897 0 -0.011992872863371523 -0.0059172050932863596 0 -0.012152805464396305 -0.0061172759443944178 0 -0.012152805464396305 -0.0061172759443944178 0 -0.012298808896354058 -0.0060406756909203519 0 -0.012474639758488363 -0.0067128433295330107 0 -0.012056171088082148 -0.006083588466220897 0 -0.012152805464396305 -0.0061172759443944178 0 -0.012474639758488363 -0.0067128433295330107 0 -0.012298808896354058 -0.0060406756909203519 0 -0.012474639758488363 -0.0067128433295330107 0 -0.012671339231977273 -0.0059049483608919007 0 -0.011432150409743635 -0.0074022528685969398 0 -0.011989743844419167 -0.0071317629329209304 0 -0.012298808896354058 -0.0060406756909203519 0 -0.012307543508841745 -0.0056228955108392235 0 -0.012671339231977273 -0.0059049483608919007 0 -0.012298808896354058 -0.0060406756909203519 0 -0.012080848164918842 -0.0058564567837289198 0 -0.012307543508841745 -0.0056228955108392235 0 -0.012080848164918842 -0.0058564567837289198 0 -0.01207499906026111 -0.0054820675149567502 0 -0.012307543508841745 -0.0056228955108392235 0 -0.012080848164918842 -0.0058564567837289198 0 -0.01207499906026111 -0.0054820675149567502 0 -0.011936715391171516 -0.0055958353902932764 0 -0.012080848164918842 -0.0058564567837289198 0 -0.011959670737129282 -0.0057639606644939029 0 -0.011936715391171516 -0.0055958353902932764 0 -0.01207499906026111 -0.0054820675149567502 0 -0.012307543508841745 -0.0056228955108392235 0 -0.012316885611605504 -0.0051807724250722874 0 -0.01207499906026111 -0.0054820675149567502 0 -0.012316885611605504 -0.0051807724250722874 0 -0.011992163158254299 -0.0051958536391660624 0 -0.012307543508841745 -0.0056228955108392235 0 -0.012671339231977273 -0.0059049483608919007 0 -0.012736475300280447 -0.0053006488425871518 0 -0.012307543508841745 -0.0056228955108392235 0 -0.012316885611605504 -0.0051807724250722874 0 -0.012736475300280447 -0.0053006488425871518 0 -0.011749094385035463 -0.0054302319454832574 0 -0.011848955439834394 -0.0056034991133041478 0 -0.011796991890467011 -0.0054105406688955806 0 -0.011749094385035463 -0.0054302319454832574 0 -0.011789466333531331 -0.0055583072470505972 0 -0.011848955439834394 -0.0056034991133041478 0 -0.011748385131099817 -0.0054702182636892039 0 -0.011749094385035463 -0.0054302319454832574 0 -0.011789466333531331 -0.0055583072470505972 0 -0.011748385131099817 -0.0054702182636892039 0 -0.011779599123116595 -0.0055718041420441712 0 -0.011789466333531331 -0.0055583072470505972 0 -0.01183359846152761 -0.0056925552085180537 0 -0.011789466333531331 -0.0055583072470505972 0 -0.011848955439834394 -0.0056034991133041478 0 -0.011899168617693407 -0.0057578858892891214 0 -0.011848955439834394 -0.0056034991133041478 0 -0.011959670737129282 -0.0057639606644939029 0 -0.011848955439834394 -0.0056034991133041478 0 -0.011959670737129282 -0.0057639606644939029 0 -0.011936715391171516 -0.0055958353902932764 0 -0.011848955439834394 -0.0056034991133041478 0 -0.011936715391171516 -0.0055958353902932764 0 -0.011796991890467011 -0.0054105406688955806 0 -0.011936715391171516 -0.0055958353902932764 0 -0.011903815536525168 -0.0053889550989906082 0 -0.011796991890467011 -0.0054105406688955806 0 -0.01207499906026111 -0.0054820675149567502 0 -0.011936715391171516 -0.0055958353902932764 0 -0.011903815536525168 -0.0053889550989906082 0 -0.01207499906026111 -0.0054820675149567502 0 -0.011903815536525168 -0.0053889550989906082 0 -0.011992163158254299 -0.0051958536391660624 0 -0.011903815536525168 -0.0053889550989906082 0 -0.011789305893087135 -0.0052135415862299764 0 -0.011992163158254299 -0.0051958536391660624 0 -0.011903815536525168 -0.0053889550989906082 0 -0.011796991890467011 -0.0054105406688955806 0 -0.011789305893087135 -0.0052135415862299764 0 -0.011796991890467011 -0.0054105406688955806 0 -0.011679904646339355 -0.0052426023527335263 0 -0.011789305893087135 -0.0052135415862299764 0 -0.011749094385035463 -0.0054302319454832574 0 -0.011796991890467011 -0.0054105406688955806 0 -0.011679904646339355 -0.0052426023527335263 0 -0.011715808385983791 -0.0053493865235855458 0 -0.011749094385035463 -0.0054302319454832574 0 -0.011679904646339355 -0.0052426023527335263 0 -0.011679904646339355 -0.0052426023527335263 0 -0.011654458823696661 -0.0050429980078923759 0 -0.011619179374046254 -0.0050962172145023917 0 -0.011679904646339355 -0.0052426023527335263 0 -0.011654458823696661 -0.0050429980078923759 0 -0.011789305893087135 -0.0052135415862299764 0 -0.011654458823696661 -0.0050429980078923759 0 -0.011533496111758803 -0.004961833044176675 0 -0.011619179374046254 -0.0050962172145023917 0 -0.011789305893087135 -0.0052135415862299764 0 -0.01181885714073643 -0.0049514649266731662 0 -0.011992163158254299 -0.0051958536391660624 0 -0.011654458823696661 -0.0050429980078923759 0 -0.011789305893087135 -0.0052135415862299764 0 -0.01181885714073643 -0.0049514649266731662 0 -0.01181885714073643 -0.0049514649266731662 0 -0.011532530104872658 -0.0048442907848469377 0 -0.011856817073003968 -0.0044839531160268033 0 -0.011532530104872658 -0.0048442907848469377 0 -0.011450045528019485 -0.0043586233870128192 0 -0.011856817073003968 -0.0044839531160268033 0 -0.01181885714073643 -0.0049514649266731662 0 -0.012238614400247306 -0.0047885124940819359 0 -0.011856817073003968 -0.0044839531160268033 0 -0.011532530104872658 -0.0048442907848469377 0 -0.01132690977669126 -0.0047543942928014189 0 -0.011450045528019485 -0.0043586233870128192 0 -0.011532530104872658 -0.0048442907848469377 0 -0.01132690977669126 -0.0047543942928014189 0 -0.011533496111758803 -0.004961833044176675 0 -0.011654458823696661 -0.0050429980078923759 0 -0.011532530104872658 -0.0048442907848469377 0 -0.011533496111758803 -0.004961833044176675 0 -0.011654458823696661 -0.0050429980078923759 0 -0.01181885714073643 -0.0049514649266731662 0 -0.011532530104872658 -0.0048442907848469377 0 -0.012316885611605504 -0.0051807724250722874 0 -0.012238614400247306 -0.0047885124940819359 0 -0.012735552734279039 -0.0047378757789388985 0 -0.012316885611605504 -0.0051807724250722874 0 -0.012735552734279039 -0.0047378757789388985 0 -0.012736475300280447 -0.0053006488425871518 0 -0.01181885714073643 -0.0049514649266731662 0 -0.011992163158254299 -0.0051958536391660624 0 -0.012238614400247306 -0.0047885124940819359 0 -0.012316885611605504 -0.0051807724250722874 0 -0.011992163158254299 -0.0051958536391660624 0 -0.012238614400247306 -0.0047885124940819359 0 -0.012238614400247306 -0.0047885124940819359 0 -0.012574515277948431 -0.0042798873368858443 0 -0.011856817073003968 -0.0044839531160268033 0 -0.012238614400247306 -0.0047885124940819359 0 -0.012735552734279039 -0.0047378757789388985 0 -0.012574515277948431 -0.0042798873368858443 0 -0.012574515277948431 -0.0042798873368858443 0 -0.012250661635406614 -0.003885212065108324 0 -0.012710187201838401 -0.0038008963921021635 0 -0.012574515277948431 -0.0042798873368858443 0 -0.012710187201838401 -0.0038008963921021635 0 -0.013065196294931089 -0.0039359899804760085 0 -0.012574515277948431 -0.0042798873368858443 0 -0.012250661635406614 -0.003885212065108324 0 -0.011856817073003968 -0.0044839531160268033 0 -0.012123195802777239 -0.0035122513302732173 0 -0.011926434904398996 -0.00386949125418326 0 -0.012227165849020481 -0.0036473044148874075 0 -0.012812918458425164 -0.0026793558669411461 0 -0.011820552635290181 -0.0029678119179256833 0 -0.012227165849020481 -0.0036473044148874075 0 -0.011550476871925616 -0.0036479486176195595 0 -0.011820552635290181 -0.0029678119179256833 0 -0.012250661635406614 -0.003885212065108324 0 -0.012710187201838401 -0.0038008963921021635 0 -0.012660031844078774 -0.003399376762158581 0 -0.012123195802777239 -0.0035122513302732173 0 -0.012477682401118708 -0.0027475441224668381 0 -0.011450045528019485 -0.0043586233870128192 0 -0.011550476871925616 -0.0036479486176195595 0 -0.010928907998953418 -0.0039179688148845617 0 -0.010875541135226071 -0.0043083725100272465 0 -0.010835492474522512 -0.0042120318622285505 0 -0.01132690977669126 -0.0047543942928014189 0 -0.011450045528019485 -0.0043586233870128192 0 -0.010928907998953418 -0.0039179688148845617 0 -0.011450045528019485 -0.0043586233870128192 0 -0.011856817073003968 -0.0044839531160268033 0 -0.011550476871925616 -0.0036479486176195595 0 -0.012227165849020481 -0.0036473044148874075 0 -0.011856817073003968 -0.0044839531160268033 0 -0.011550476871925616 -0.0036479486176195595 0 -0.011550476871925616 -0.0036479486176195595 0 -0.011335404333746113 -0.0027651311932268916 0 -0.010795678244848972 -0.0032454022536098476 0 -0.011550476871925616 -0.0036479486176195595 0 -0.010928907998953418 -0.0039179688148845617 0 -0.010795678244848972 -0.0032454022536098476 0 -0.010835492474522512 -0.0042120318622285505 0 -0.010727359549482696 -0.0039257365338310566 0 -0.011460993254066685 -0.0052501636253789591 0 -0.011405757929803362 -0.0055030206364894236 0 -0.011260621392114109 -0.0055732550264988873 0 -0.01119776412293233 -0.0044595085359192266 0 -0.010727359549482696 -0.0039257365338310566 0 -0.011353978071478307 -0.0051267556701442996 0 -0.011698290160095404 -0.0051812703507961039 0 -0.011361262076860737 -0.0053499784756352734 0 -0.011460993254066685 -0.0052501636253789591 0 -0.011688659329567355 -0.0053956516551055848 0 -0.011405757929803362 -0.0055030206364894236 0 -0.011698290160095404 -0.0051812703507961039 0 -0.01175028625084989 -0.0050392446548792073 0 -0.011899465187991537 -0.0050609633242374441 0 -0.011698290160095404 -0.0051812703507961039 0 -0.01175028625084989 -0.0050392446548792073 0 -0.011594843816743399 -0.0049951322953942492 0 -0.011353978071478307 -0.0051267556701442996 0 -0.011698290160095404 -0.0051812703507961039 0 -0.011594843816743399 -0.0049951322953942492 0 -0.01132690977669126 -0.0047543942928014189 0 -0.011353978071478307 -0.0051267556701442996 0 -0.011594843816743399 -0.0049951322953942492 0 -0.01132690977669126 -0.0047543942928014189 0 -0.011594843816743399 -0.0049951322953942492 0 -0.011638843420035279 -0.0049964291772512832 0 -0.01132690977669126 -0.0047543942928014189 0 -0.011533496111758803 -0.004961833044176675 0 -0.011638843420035279 -0.0049964291772512832 0 -0.01175028625084989 -0.0050392446548792073 0 -0.011594843816743399 -0.0049951322953942492 0 -0.011638843420035279 -0.0049964291772512832 0 -0.01175028625084989 -0.0050392446548792073 0 -0.011638843420035279 -0.0049964291772512832 0 -0.011792322068743893 -0.0050971339675651662 0 -0.011638843420035279 -0.0049964291772512832 0 -0.011712693722897783 -0.0051133547869133779 0 -0.011648681677748974 -0.0051234769811716761 0 -0.011638843420035279 -0.0049964291772512832 0 -0.011712693722897783 -0.0051133547869133779 0 -0.011792322068743893 -0.0050971339675651662 0 -0.011728102102320176 -0.0052221479329297178 0 -0.011712693722897783 -0.0051133547869133779 0 -0.011816753688847952 -0.0051792712661971208 0 -0.011728102102320176 -0.0052221479329297178 0 -0.011712693722897783 -0.0051133547869133779 0 -0.011648681677748974 -0.0051234769811716761 0 -0.011533496111758803 -0.004961833044176675 0 -0.011638843420035279 -0.0049964291772512832 0 -0.011648681677748974 -0.0051234769811716761 0 -0.011679904646339355 -0.0052426023527335263 0 -0.011648681677748974 -0.0051234769811716761 0 -0.011619179374046254 -0.0050962172145023917 0 -0.011533496111758803 -0.004961833044176675 0 -0.011648681677748974 -0.0051234769811716761 0 -0.011619179374046254 -0.0050962172145023917 0 -0.011880134559829723 -0.005229552092749651 0 -0.011924385259635484 -0.0051298776398844698 0 -0.011816753688847952 -0.0051792712661971208 0 -0.011880134559829723 -0.005229552092749651 0 -0.011924385259635484 -0.0051298776398844698 0 -0.011954319895068009 -0.0052160708411496844 0 -0.011924385259635484 -0.0051298776398844698 0 -0.011816753688847952 -0.0051792712661971208 0 -0.011792322068743893 -0.0050971339675651662 0 -0.011712693722897783 -0.0051133547869133779 0 -0.011816753688847952 -0.0051792712661971208 0 -0.011792322068743893 -0.0050971339675651662 0 -0.011924385259635484 -0.0051298776398844698 0 -0.011792322068743893 -0.0050971339675651662 0 -0.011899465187991537 -0.0050609633242374441 0 -0.01175028625084989 -0.0050392446548792073 0 -0.011792322068743893 -0.0050971339675651662 0 -0.011899465187991537 -0.0050609633242374441 0 -0.011924385259635484 -0.0051298776398844698 0 -0.011899465187991537 -0.0050609633242374441 0 -0.01210611111446867 -0.0050840004650153344 0 -0.011899465187991537 -0.0050609633242374441 0 -0.012233245796896731 -0.0050619386735392203 0 -0.01210611111446867 -0.0050840004650153344 0 -0.01119776412293233 -0.0044595085359192266 0 -0.011405175928857158 -0.0045675094453589736 0 -0.011899465187991537 -0.0050609633242374441 0 -0.012073051827831912 -0.0052544998413301437 0 -0.011688659329567355 -0.0053956516551055848 0 -0.011460993254066685 -0.0052501636253789591 0 -0.011899465187991537 -0.0050609633242374441 0 -0.011688659329567355 -0.0053956516551055848 0 -0.011899465187991537 -0.0050609633242374441 0 -0.012233245796896731 -0.0050619386735392203 0 -0.012073051827831912 -0.0052544998413301437 0 -0.012233245796896731 -0.0050619386735392203 0 -0.012223590122695163 -0.0050477996171594429 0 -0.012820835578790444 -0.0049699660283919816 0 -0.012233245796896731 -0.0050619386735392203 0 -0.012820835578790444 -0.0049699660283919816 0 -0.012073051827831912 -0.0052544998413301437 0 -0.012233245796896731 -0.0050619386735392203 0 -0.01210611111446867 -0.0050840004650153344 0 -0.012223590122695163 -0.0050477996171594429 0 -0.013825179108083114 -0.0020631986028114163 0 -0.01485482239291723 -7.5289613329206843e-06 0 -0.01210611111446867 -0.0050840004650153344 0 -0.012223590122695163 -0.0050477996171594429 0 -0.01200914406929831 -0.005101458891159651 0 -0.013825179108083114 -0.0020631986028114163 0 -0.013366953669594197 -0.0031990108577512992 0 -0.014165868911360386 0.00038463549387868332 0 -0.01582310461508046 -0.0033638441579328117 0 -0.012820835578790444 -0.0049699660283919816 0 -0.014165868911360386 0.00038463549387868332 0 -0.021164510609814481 -0.0025383282268028294 0 -0.01582310461508046 -0.0033638441579328117 0 -0.014165868911360386 0.00038463549387868332 0 -0.021164510609814481 -0.0025383282268028294 0 -0.021671350921695452 0.0046698496433297413 0 -0.027625271775206899 0.0048482000076443344 0 -0.029880514243168576 0.0062988079903628612 0 -0.021164510609814481 -0.0025383282268028294 0 -0.021671350921695452 0.0046698496433297413 0 -0.0269973683510807 0.0026030247883414587 0 -0.014165868911360386 0.00038463549387868332 0 -0.021671350921695452 0.0046698496433297413 0 -0.016308342768675013 0.0060825512746552823 0 -0.01485482239291723 -7.5289613329206843e-06 0 -0.016076587501747043 0.0014383409558423078 0 -0.021671350921695452 0.0046698496433297413 0 -0.016308342768675013 0.0060825512746552823 0 -0.018515957321402713 0.011810099956951352 0 -0.021671350921695452 0.0046698496433297413 0 -0.024273757601923213 0.0094971915094872825 0 -0.025305579445742257 0.0059137490924638875 0 -0.021671350921695452 0.0046698496433297413 0 -0.024273757601923213 0.0094971915094872825 0 -0.018515957321402713 0.011810099956951352 0 -0.024273757601923213 0.0094971915094872825 0 -0.018515957321402713 0.011810099956951352 0 -0.022582635251437878 0.013401862471909436 0 -0.01200914406929831 -0.005101458891159651 0 -0.011895188228763658 -0.0052076115564301572 0 -0.011962967201556932 -0.0052266077404952392 0 -0.01200914406929831 -0.005101458891159651 0 -0.011962967201556932 -0.0052266077404952392 0 -0.012014710768737995 -0.0051561603702372947 0 -0.011924385259635484 -0.0051298776398844698 0 -0.012014710768737995 -0.0051561603702372947 0 -0.011954319895068009 -0.0052160708411496844 0 -0.011962967201556932 -0.0052266077404952392 0 -0.012014710768737995 -0.0051561603702372947 0 -0.011954319895068009 -0.0052160708411496844 0 -0.011924385259635484 -0.0051298776398844698 0 -0.01210611111446867 -0.0050840004650153344 0 -0.012014710768737995 -0.0051561603702372947 0 -0.01210611111446867 -0.0050840004650153344 0 -0.01200914406929831 -0.005101458891159651 0 -0.012014710768737995 -0.0051561603702372947 0 -0.031670114941148887 0.0090432610723700027 0 -0.031759379083094737 0.0092157396295937354 0 -0.031889037386994681 0.008975571379845804 0 -0.031759379083094737 0.0092157396295937354 0 -0.031940824754601096 0.0092724617981215819 0 -0.031889037386994681 0.008975571379845804 0 -0.032091466018141557 0.0090602381033569185 0 -0.031940824754601096 0.0092724617981215819 0 -0.032260856702584224 0.0094304092475795982 0 -0.032091466018141557 0.0090602381033569185 0 -0.031940824754601096 0.0092724617981215819 0 -0.031889037386994681 0.008975571379845804 0 -0.031940824754601096 0.0092724617981215819 0 -0.032017600687139609 0.0096251508164453773 0 -0.032260856702584224 0.0094304092475795982 0 -0.031940824754601096 0.0092724617981215819 0 -0.032017600687139609 0.0096251508164453773 0 -0.031745751039913325 0.0095305005514548166 0 -0.031759379083094737 0.0092157396295937354 0 -0.031940824754601096 0.0092724617981215819 0 -0.031745751039913325 0.0095305005514548166 0 -0.032017600687139609 0.0096251508164453773 0 -0.031745751039913325 0.0095305005514548166 0 -0.031752193864199307 0.010035178972599729 0 -0.031752193864199307 0.010035178972599729 0 -0.03218219170984251 0.010011300795607881 0 -0.031987694254919791 0.010685473945470408 0 -0.032017600687139609 0.0096251508164453773 0 -0.03218219170984251 0.010011300795607881 0 -0.032260856702584224 0.0094304092475795982 0 -0.032017600687139609 0.0096251508164453773 0 -0.031752193864199307 0.010035178972599729 0 -0.03218219170984251 0.010011300795607881 0 -0.03218219170984251 0.010011300795607881 0 -0.032901192778587975 0.010080816396333792 0 -0.032518190648946732 0.010580961091344794 0 -0.03218219170984251 0.010011300795607881 0 -0.032901192778587975 0.010080816396333792 0 -0.032260856702584224 0.0094304092475795982 0 -0.032901192778587975 0.010080816396333792 0 -0.032260856702584224 0.0094304092475795982 0 -0.032703735229987062 0.0092305169141850447 0 -0.032091466018141557 0.0090602381033569185 0 -0.032260856702584224 0.0094304092475795982 0 -0.03230345447666267 0.0089158211604379381 0 -0.032260856702584224 0.0094304092475795982 0 -0.032703735229987062 0.0092305169141850447 0 -0.03230345447666267 0.0089158211604379381 0 -0.032901192778587975 0.010080816396333792 0 -0.032703735229987062 0.0092305169141850447 0 -0.033932360732957974 0.0093718236253916617 0 -0.032703735229987062 0.0092305169141850447 0 -0.033932360732957974 0.0093718236253916617 0 -0.032320572131591764 0.0083240010978621257 0 -0.032901192778587975 0.010080816396333792 0 -0.033932360732957974 0.0093718236253916617 0 -0.033927817742280209 0.01062815742336062 0 -0.035021799300178937 0.010387750319848234 0 -0.033932360732957974 0.0093718236253916617 0 -0.033927817742280209 0.01062815742336062 0 -0.021671350921695452 0.0046698496433297413 0 -0.0269973683510807 0.0026030247883414587 0 -0.025305579445742257 0.0059137490924638875 0 -0.0269973683510807 0.0026030247883414587 0 -0.025305579445742257 0.0059137490924638875 0 -0.028106993989275637 0.0078864664362372026 0 -0.024273757601923213 0.0094971915094872825 0 -0.025305579445742257 0.0059137490924638875 0 -0.028106993989275637 0.0078864664362372026 0 -0.024273757601923213 0.0094971915094872825 0 -0.027967304328230691 0.011978777157400406 0 -0.022582635251437878 0.013401862471909436 0 -0.024273757601923213 0.0094971915094872825 0 -0.028106993989275637 0.0078864664362372026 0 -0.027967304328230691 0.011978777157400406 0 -0.027967304328230691 0.011978777157400406 0 -0.03122084721676522 0.0091168641735761263 0 -0.031859306104950781 0.013993099558425729 0 -0.028106993989275637 0.0078864664362372026 0 -0.027967304328230691 0.011978777157400406 0 -0.03122084721676522 0.0091168641735761263 0 -0.023692791569457326 0.0061626855957360527 0 -0.022273660852009762 0.0033195997300215492 0 -0.03122084721676522 0.0091168641735761263 0 -0.031965300291055598 0.0089381922339774253 0 -0.031884646098363729 0.0092540979377813901 0 -0.029880514243168576 0.0062988079903628612 0 -0.031073052450478724 0.0073066288230658983 0 -0.0269973683510807 0.0026030247883414587 0 -0.028106993989275637 0.0078864664362372026 0 -0.032320572131591764 0.0083240010978621257 0 -0.028106993989275637 0.0078864664362372026 0 -0.03122084721676522 0.0091168641735761263 0 -0.032320572131591764 0.0083240010978621257 0 -0.03122084721676522 0.0091168641735761263 0 -0.032320572131591764 0.0083240010978621257 0 -0.031965300291055598 0.0089381922339774253 0 -0.032703735229987062 0.0092305169141850447 0 -0.03230345447666267 0.0089158211604379381 0 -0.032320572131591764 0.0083240010978621257 0 -0.03230345447666267 0.0089158211604379381 0 -0.032320572131591764 0.0083240010978621257 0 -0.03219559168458494 0.0086255799088199823 0 -0.03230345447666267 0.0089158211604379381 0 -0.03219559168458494 0.0086255799088199823 0 -0.032087860913115406 0.008787771672318638 0 -0.032091466018141557 0.0090602381033569185 0 -0.03230345447666267 0.0089158211604379381 0 -0.032087860913115406 0.008787771672318638 0 -0.03219559168458494 0.0086255799088199823 0 -0.032033806455119704 0.0088511017841565991 0 -0.032087860913115406 0.008787771672318638 0 -0.032320572131591764 0.0083240010978621257 0 -0.03219559168458494 0.0086255799088199823 0 -0.031965300291055598 0.0089381922339774253 0 -0.03219559168458494 0.0086255799088199823 0 -0.031965300291055598 0.0089381922339774253 0 -0.032033806455119704 0.0088511017841565991 0 -0.02807426203772407 0.0038397074798032639 0 -0.022273660852009762 0.0033195997300215492 0 -0.031965300291055598 0.0089381922339774253 0 -0.032033806455119704 0.0088511017841565991 0 -0.031884646098363729 0.0092540979377813901 0 -0.032033806455119704 0.0088511017841565991 0 -0.031977823995536482 0.0086969391232682922 0 -0.031884646098363729 0.0092540979377813901 0 -0.032033806455119704 0.0088511017841565991 0 -0.031977823995536482 0.0086969391232682922 0 -0.031967362961610152 0.0087984812683813158 0 -0.031750284959596954 0.0088091839695746531 0 -0.031977823995536482 0.0086969391232682922 0 -0.031967362961610152 0.0087984812683813158 0 -0.031772214877625632 0.0089094190830008805 0 -0.031750284959596954 0.0088091839695746531 0 -0.031967362961610152 0.0087984812683813158 0 -0.032033806455119704 0.0088511017841565991 0 -0.031967362961610152 0.0087984812683813158 0 -0.032087860913115406 0.008787771672318638 0 -0.032091466018141557 0.0090602381033569185 0 -0.032087860913115406 0.008787771672318638 0 -0.031889037386994681 0.008975571379845804 0 -0.031967362961610152 0.0087984812683813158 0 -0.032087860913115406 0.008787771672318638 0 -0.031889037386994681 0.008975571379845804 0 -0.031772214877625632 0.0089094190830008805 0 -0.031670114941148887 0.0090432610723700027 0 -0.031889037386994681 0.008975571379845804 0 -0.031772214877625632 0.0089094190830008805 0 -0.031967362961610152 0.0087984812683813158 0 -0.031889037386994681 0.008975571379845804 0 -0.023218977925574466 -0.0015054200866928588 0 -0.022854927967532419 -0.00089438568899460251 0 -0.023257024579153646 -0.00069270274741245008 0 -0.024010020181319983 -0.0010361577976379262 0 -0.023218977925574466 -0.0015054200866928588 0 -0.023257024579153646 -0.00069270274741245008 0 -0.031603980270731233 0.0085617933821430375 0 -0.031977823995536482 0.0086969391232682922 0 -0.031979537616893892 0.0083717747155163981 0 -0.031977823995536482 0.0086969391232682922 0 -0.031979537616893892 0.0083717747155163981 0 -0.032169097692844879 0.0083706990107378781 0 -0.031977823995536482 0.0086969391232682922 0 -0.032169097692844879 0.0083706990107378781 0 -0.032303333992088359 0.0085037198165649214 0 -0.032169097692844879 0.0083706990107378781 0 -0.032251870644576464 0.0081921685279645329 0 -0.032303333992088359 0.0085037198165649214 0 -0.031979537616893892 0.0083717747155163981 0 -0.032169097692844879 0.0083706990107378781 0 -0.032251870644576464 0.0081921685279645329 0 -0.025603610668606933 0.001306539825834196 0 -0.02140475036285645 3.6125870628131324e-06 0 -0.023218977925574466 -0.0015054200866928588 0 -0.022442117307969765 -0.0010794434503612492 0 -0.022854927967532419 -0.00089438568899460251 0 -0.011433383602428449 -0.0067947188851062617 0 -0.011289144595993471 -0.0068296178958008012 0 -0.011386793733466471 -0.0069284459316405183 0 -0.011433383602428449 -0.0067947188851062617 0 -0.011398146703539386 -0.0067677246501297358 0 -0.011289144595993471 -0.0068296178958008012 0 -0.02140475036285645 3.6125870628131324e-06 0 -0.02114767828350379 1.3663846607687181e-05 0 -0.02140475036285645 3.6125870628131324e-06 0 -0.022273660852009762 0.0033195997300215492 0 -0.027967304328230691 0.011978777157400406 0 -0.031859306104950781 0.013993099558425729 0 -0.026255395472014196 0.0157954303398136 0 -0.022273660852009762 0.0033195997300215492 0 -0.018813613991588575 0.0019905334612132669 0 -0.011289144595993471 -0.0068296178958008012 0 -0.011386793733466471 -0.0069284459316405183 0 -0.011265263685512159 -0.0068772344896748079 0 -0.027967304328230691 0.011978777157400406 0 -0.026255395472014196 0.0157954303398136 0 -0.022582635251437878 0.013401862471909436 0 -0.011289144595993471 -0.0068296178958008012 0 -0.011265263685512159 -0.0068772344896748079 0 -0.011250973347326453 -0.006859178173533622 0 -0.011289144595993471 -0.0068296178958008012 0 -0.011250973347326453 -0.006859178173533622 0 -0.011250584721945803 -0.0068709155533215865 0 -0.011250973347326453 -0.006859178173533622 0 -0.011250584721945803 -0.0068709155533215865 0 -0.011227593272909227 -0.0068778646803263595 0 -0.011289144595993471 -0.0068296178958008012 0 -0.011250584721945803 -0.0068709155533215865 0 -0.011255902400591242 -0.0068926142492983277 0 -0.011250584721945803 -0.0068709155533215865 0 -0.011223441937702944 -0.0068800518193031105 0 -0.011255902400591242 -0.0068926142492983277 0 -0.011250584721945803 -0.0068709155533215865 0 -0.011223441937702944 -0.0068800518193031105 0 -0.011227593272909227 -0.0068778646803263595 0 -0.013348959836709614 -0.0056191108617755078 0 -0.012632730184141863 -0.0064395732696432726 0 -0.011223441937702944 -0.0068800518193031105 0 -0.011187593912397677 -0.0068909503776136624 0 -0.011156540022482233 -0.0067617123350827545 0 -0.011223441937702944 -0.0068800518193031105 0 -0.011227593272909227 -0.0068778646803263595 0 -0.011156540022482233 -0.0067617123350827545 0 -0.011223441937702944 -0.0068800518193031105 0 -0.011240417869301335 -0.0069504090449280017 0 -0.011187593912397677 -0.0068909503776136624 0 -0.011187593912397677 -0.0068909503776136624 0 -0.011254218638405668 -0.0070402295597590953 0 -0.011097769068806508 -0.0068303332477707666 0 -0.011154242904874049 -0.0071446141751115621 0 -0.011176597852299838 -0.0072516462887957239 0 -0.011254218638405668 -0.0070402295597590953 0 -0.011226200996356239 -0.0073368054500323344 0 -0.011220220779707565 -0.0072809807701944493 0 -0.011240417869301335 -0.0069504090449280017 0 -0.011187593912397677 -0.0068909503776136624 0 -0.011254218638405668 -0.0070402295597590953 0 -0.011240417869301335 -0.0069504090449280017 0 -0.011202800649529183 -0.0069035230124428401 0 -0.011254218638405668 -0.0070402295597590953 0 -0.011240417869301335 -0.0069504090449280017 0 -0.011255902400591242 -0.0068926142492983277 0 -0.011202800649529183 -0.0069035230124428401 0 -0.011223441937702944 -0.0068800518193031105 0 -0.011240417869301335 -0.0069504090449280017 0 -0.011255902400591242 -0.0068926142492983277 0 -0.011398146703539386 -0.0067677246501297358 0 -0.011289144595993471 -0.0068296178958008012 0 -0.01149725036138058 -0.0065924776243342529 0 -0.011475516252300196 -0.0068060428065676052 0 -0.011398146703539386 -0.0067677246501297358 0 -0.01149725036138058 -0.0065924776243342529 0 -0.015011667242121964 -0.0061171411220488012 0 -0.017449657010883714 -0.0042700423568242394 0 -0.011289144595993471 -0.0068296178958008012 0 -0.011255902400591242 -0.0068926142492983277 0 -0.011202800649529183 -0.0069035230124428401 0 -0.022854927967532419 -0.00089438568899460251 0 -0.022508191862072563 -0.00060620076905374093 0 -0.023257024579153646 -0.00069270274741245008 0 -0.02140475036285645 3.6125870628131324e-06 0 -0.017449657010883714 -0.0042700423568242394 0 -0.022442117307969765 -0.0010794434503612492 0 -0.022854927967532419 -0.00089438568899460251 0 -0.022508191862072563 -0.00060620076905374093 0 -0.017449657010883714 -0.0042700423568242394 0 -0.017200299481136112 -0.0058087349063209934 0 -0.011184463352017773 -0.0079020256284981685 0 -0.011226200996356239 -0.0073368054500323344 0 -0.011549937239294173 -0.0074755899629768384 0 -0.011184463352017773 -0.0079020256284981685 0 -0.011669528674279809 -0.0075100089867680929 0 -0.011549937239294173 -0.0074755899629768384 0 -0.017449657010883714 -0.0042700423568242394 0 -0.016277049998804315 -0.0060096228923229413 0 -0.011202800649529183 -0.0069035230124428401 0 -0.011254218638405668 -0.0070402295597590953 0 -0.011226200996356239 -0.0073368054500323344 0 -0.023725092247825087 -0.00012155110388999199 0 -0.023157048562696479 3.713665035427646e-05 0 -0.023257024579153646 -0.00069270274741245008 0 -0.018931632391867136 -0.0053931019227860541 0 -0.017200299481136112 -0.0058087349063209934 0 -0.017200299481136112 -0.0058087349063209934 0 -0.016993454994740934 -0.0057850905624664333 0 -0.022508191862072563 -0.00060620076905374093 0 -0.023157048562696479 3.713665035427646e-05 0 -0.023257024579153646 -0.00069270274741245008 0 -0.011982971306260123 -0.0054196745237855976 0 -0.011947235407350416 -0.005386764422135688 0 -0.011957235401876695 -0.0053340279527875267 0 -0.011982971306260123 -0.0054196745237855976 0 -0.011957235401876695 -0.0053340279527875267 0 -0.011924525974861025 -0.005299084182609045 0 -0.011982971306260123 -0.0054196745237855976 0 -0.011853561747741397 -0.0055101536243114171 0 -0.012020096179742873 -0.005552175682598577 0 -0.011982971306260123 -0.0054196745237855976 0 -0.011947235407350416 -0.005386764422135688 0 -0.011967311403218567 -0.0054653153434978327 0 -0.011947235407350416 -0.005386764422135688 0 -0.011915250501989192 -0.0054295408412837276 0 -0.011967311403218567 -0.0054653153434978327 0 -0.011898811777720529 -0.005352501657245763 0 -0.011947235407350416 -0.005386764422135688 0 -0.011915250501989192 -0.0054295408412837276 0 -0.011898811777720529 -0.005352501657245763 0 -0.011947235407350416 -0.005386764422135688 0 -0.011947599006173029 -0.0053059636126331789 0 -0.011947235407350416 -0.005386764422135688 0 -0.011947599006173029 -0.0053059636126331789 0 -0.011957235401876695 -0.0053340279527875267 0 -0.011962967201556932 -0.0052266077404952392 0 -0.011954319895068009 -0.0052160708411496844 0 -0.011947599006173029 -0.0053059636126331789 0 -0.011898811777720529 -0.005352501657245763 0 -0.011947599006173029 -0.0053059636126331789 0 -0.011915511971868815 -0.0052807281173495322 0 -0.011954319895068009 -0.0052160708411496844 0 -0.011947599006173029 -0.0053059636126331789 0 -0.011915511971868815 -0.0052807281173495322 0 -0.011962967201556932 -0.0052266077404952392 0 -0.011947599006173029 -0.0053059636126331789 0 -0.011957235401876695 -0.0053340279527875267 0 -0.011895188228763658 -0.0052076115564301572 0 -0.011962967201556932 -0.0052266077404952392 0 -0.011924525974861025 -0.005299084182609045 0 -0.011962967201556932 -0.0052266077404952392 0 -0.011957235401876695 -0.0053340279527875267 0 -0.011924525974861025 -0.005299084182609045 0 -0.016076587501747043 0.0014383409558423078 0 -0.016649196516583295 -0.00080101890415896116 0 -0.011895188228763658 -0.0052076115564301572 0 -0.011924525974861025 -0.005299084182609045 0 -0.011828901038747737 -0.0053310187268633766 0 -0.018813613991588575 0.0019905334612132669 0 -0.016649196516583295 -0.00080101890415896116 0 -0.018515957321402713 0.011810099956951352 0 -0.022582635251437878 0.013401862471909436 0 -0.020744264781599422 0.017564628402192316 0 -0.026255395472014196 0.0157954303398136 0 -0.022582635251437878 0.013401862471909436 0 -0.020744264781599422 0.017564628402192316 0 -0.011265263685512159 -0.0068772344896748079 0 -0.011250973347326453 -0.006859178173533622 0 -0.011260220156978073 -0.006849243563324928 0 -0.016649196516583295 -0.00080101890415896116 0 -0.013348959836709614 -0.0056191108617755078 0 -0.011250973347326453 -0.006859178173533622 0 -0.011260220156978073 -0.006849243563324928 0 -0.011227593272909227 -0.0068778646803263595 0 -0.014236896493253909 -0.0015440287693242324 0 -0.016649196516583295 -0.00080101890415896116 0 -0.01161687193199863 -0.0052519995289824024 0 -0.011853561747741397 -0.0055101536243114171 0 -0.01172679804421084 -0.0056279964236521894 0 -0.011982971306260123 -0.0054196745237855976 0 -0.01161687193199863 -0.0052519995289824024 0 -0.011853561747741397 -0.0055101536243114171 0 -0.011982971306260123 -0.0054196745237855976 0 -0.011924525974861025 -0.005299084182609045 0 -0.011828901038747737 -0.0053310187268633766 0 -0.011853561747741397 -0.0055101536243114171 0 -0.01172679804421084 -0.0056279964236521894 0 -0.011895479937770691 -0.0057118006837965389 0 -0.01172679804421084 -0.0056279964236521894 0 -0.011335928116288243 -0.0058096649395519492 0 -0.01189325405671264 -0.0060073912696544324 0 -0.01172679804421084 -0.0056279964236521894 0 -0.011895479937770691 -0.0057118006837965389 0 -0.01189325405671264 -0.0060073912696544324 0 -0.01161687193199863 -0.0052519995289824024 0 -0.01172679804421084 -0.0056279964236521894 0 -0.011335928116288243 -0.0058096649395519492 0 -0.011335928116288243 -0.0058096649395519492 0 -0.011565717944485372 -0.0063112705796345607 0 -0.01189325405671264 -0.0060073912696544324 0 -0.011335928116288243 -0.0058096649395519492 0 -0.011565717944485372 -0.0063112705796345607 0 -0.011156540022482233 -0.0067617123350827545 0 -0.011895479937770691 -0.0057118006837965389 0 -0.01189325405671264 -0.0060073912696544324 0 -0.012142825638756422 -0.0060681246256835452 0 -0.011565717944485372 -0.0063112705796345607 0 -0.01189325405671264 -0.0060073912696544324 0 -0.011955196619570035 -0.0065317541604590574 0 -0.01189325405671264 -0.0060073912696544324 0 -0.012407061088467711 -0.0062124879399047235 0 -0.011955196619570035 -0.0065317541604590574 0 -0.011584656145735511 -0.0067254612924205568 0 -0.011510829885842939 -0.006766617002200331 0 -0.011895479937770691 -0.0057118006837965389 0 -0.012142825638756422 -0.0060681246256835452 0 -0.012020096179742873 -0.005552175682598577 0 -0.011510829885842939 -0.006766617002200331 0 -0.011566791966205038 -0.0063421157939996748 0 -0.011986710580382521 -0.0054057577437316411 0 -0.012020096179742873 -0.005552175682598577 0 -0.011932810792700683 -0.0054494770534495498 0 -0.011982971306260123 -0.0054196745237855976 0 -0.012020096179742873 -0.005552175682598577 0 -0.011967311403218567 -0.0054653153434978327 0 -0.012020096179742873 -0.005552175682598577 0 -0.011967311403218567 -0.0054653153434978327 0 -0.011932810792700683 -0.0054494770534495498 0 -0.011853561747741397 -0.0055101536243114171 0 -0.011895479937770691 -0.0057118006837965389 0 -0.012020096179742873 -0.005552175682598577 0 -0.01186078504969305 -0.0054376308920723281 0 -0.011915250501989192 -0.0054295408412837276 0 -0.011932810792700683 -0.0054494770534495498 0 -0.011915250501989192 -0.0054295408412837276 0 -0.011967311403218567 -0.0054653153434978327 0 -0.011932810792700683 -0.0054494770534495498 0 -0.01186078504969305 -0.0054376308920723281 0 -0.011932810792700683 -0.0054494770534495498 0 -0.011855389883837572 -0.0054211868468873377 0 -0.011986710580382521 -0.0054057577437316411 0 -0.011932810792700683 -0.0054494770534495498 0 -0.011855389883837572 -0.0054211868468873377 0 -0.011510829885842939 -0.006766617002200331 0 -0.011411584500918719 -0.0072310139829347714 0 -0.011437740146829283 -0.0077877200534490964 0 -0.011414047372119601 -0.0078055516351925487 0 -0.011412940899009495 -0.0077708366589393733 0 -0.011462844370793611 -0.0078204483983293199 0 -0.011437740146829283 -0.0077877200534490964 0 -0.011414047372119601 -0.0078055516351925487 0 -0.011586223514981299 -0.008349611219548414 0 -0.011143004841036671 -0.0085394697656758899 0 -0.011437740146829283 -0.0077877200534490964 0 -0.011461571885127576 -0.0077553837482172089 0 -0.011412940899009495 -0.0077708366589393733 0 -0.012415462119815852 -0.006891147814662265 0 -0.012155234064294494 -0.0073556691508025627 0 -0.012421087935163135 -0.0074807093407375886 0 -0.011437740146829283 -0.0077877200534490964 0 -0.011461859444630098 -0.0077881221114665909 0 -0.011461571885127576 -0.0077553837482172089 0 -0.011603320109806421 -0.0074584028145391482 0 -0.011586223514981299 -0.008349611219548414 0 -0.011510829885842939 -0.006766617002200331 0 -0.011603320109806421 -0.0074584028145391482 0 -0.012407061088467711 -0.0062124879399047235 0 -0.012415462119815852 -0.006891147814662265 0 -0.011955196619570035 -0.0065317541604590574 0 -0.011462844370793611 -0.0078204483983293199 0 -0.011437740146829283 -0.0077877200534490964 0 -0.011461859444630098 -0.0077881221114665909 0 -0.011565717944485372 -0.0063112705796345607 0 -0.011955196619570035 -0.0065317541604590574 0 -0.011598716510523108 -0.0067389078972028968 0 -0.011955196619570035 -0.0065317541604590574 0 -0.011598716510523108 -0.0067389078972028968 0 -0.011955902128644629 -0.0070123966258437004 0 -0.011598716510523108 -0.0067389078972028968 0 -0.011697242937003336 -0.0071298375166251055 0 -0.011955902128644629 -0.0070123966258437004 0 -0.012415462119815852 -0.006891147814662265 0 -0.011955196619570035 -0.0065317541604590574 0 -0.011955902128644629 -0.0070123966258437004 0 -0.011565717944485372 -0.0063112705796345607 0 -0.011598716510523108 -0.0067389078972028968 0 -0.011156540022482233 -0.0067617123350827545 0 -0.011598716510523108 -0.0067389078972028968 0 -0.011391582713800762 -0.0069817744383173126 0 -0.011156540022482233 -0.0067617123350827545 0 -0.011598716510523108 -0.0067389078972028968 0 -0.011391582713800762 -0.0069817744383173126 0 -0.011697242937003336 -0.0071298375166251055 0 -0.011391582713800762 -0.0069817744383173126 0 -0.011499090148574838 -0.0072052557002557169 0 -0.011306628755450451 -0.007232566430503103 0 -0.011391582713800762 -0.0069817744383173126 0 -0.011499090148574838 -0.0072052557002557169 0 -0.011697242937003336 -0.0071298375166251055 0 -0.011499090148574838 -0.0072052557002557169 0 -0.011697242937003336 -0.0071298375166251055 0 -0.011662126317859105 -0.0074666331224336573 0 -0.011499090148574838 -0.0072052557002557169 0 -0.011472663953592525 -0.0074335666171690068 0 -0.011662126317859105 -0.0074666331224336573 0 -0.011697242937003336 -0.0071298375166251055 0 -0.011865843158516643 -0.0073511717972311623 0 -0.011662126317859105 -0.0074666331224336573 0 -0.011499090148574838 -0.0072052557002557169 0 -0.011472663953592525 -0.0074335666171690068 0 -0.011306628755450451 -0.007232566430503103 0 -0.011472663953592525 -0.0074335666171690068 0 -0.011315851954697077 -0.0075737986190165365 0 -0.011306628755450451 -0.007232566430503103 0 -0.012415462119815852 -0.006891147814662265 0 -0.011955902128644629 -0.0070123966258437004 0 -0.012155234064294494 -0.0073556691508025627 0 -0.011697242937003336 -0.0071298375166251055 0 -0.011955902128644629 -0.0070123966258437004 0 -0.011865843158516643 -0.0073511717972311623 0 -0.011865843158516643 -0.0073511717972311623 0 -0.012155234064294494 -0.0073556691508025627 0 -0.011906207667270782 -0.0076059263191055144 0 -0.011955902128644629 -0.0070123966258437004 0 -0.011865843158516643 -0.0073511717972311623 0 -0.012155234064294494 -0.0073556691508025627 0 -0.012155234064294494 -0.0073556691508025627 0 -0.011906207667270782 -0.0076059263191055144 0 -0.011923402593025078 -0.0076567697041209429 0 -0.011756415085666683 -0.0083591462638481599 0 -0.011586223514981299 -0.008349611219548414 0 -0.012155234064294494 -0.0073556691508025627 0 -0.011923402593025078 -0.0076567697041209429 0 -0.012421087935163135 -0.0074807093407375886 0 -0.011780757810482798 -0.0075502603376180486 0 -0.011906207667270782 -0.0076059263191055144 0 -0.011686422000984695 -0.0077920771476721277 0 -0.011865843158516643 -0.0073511717972311623 0 -0.011780757810482798 -0.0075502603376180486 0 -0.011906207667270782 -0.0076059263191055144 0 -0.011906207667270782 -0.0076059263191055144 0 -0.011924881182517586 -0.0076561380129070832 0 -0.011686422000984695 -0.0077920771476721277 0 -0.011865843158516643 -0.0073511717972311623 0 -0.011780757810482798 -0.0075502603376180486 0 -0.011662126317859105 -0.0074666331224336573 0 -0.011755661489405647 -0.0083553198276708329 0 -0.011756415085666683 -0.0083591462638481599 0 -0.012089450735018834 -0.0076740295922895739 0 -0.011686422000984695 -0.0077920771476721277 0 -0.011818038254999181 -0.008270165092843387 0 -0.011756415085666683 -0.0083591462638481599 0 -0.011777533825375731 -0.0083260169091463419 0 -0.011472663953592525 -0.0074335666171690068 0 -0.011315851954697077 -0.0075737986190165365 0 -0.011686422000984695 -0.0077920771476721277 0 -0.011472663953592525 -0.0074335666171690068 0 -0.011662126317859105 -0.0074666331224336573 0 -0.011686422000984695 -0.0077920771476721277 0 -0.011780757810482798 -0.0075502603376180486 0 -0.011662126317859105 -0.0074666331224336573 0 -0.011686422000984695 -0.0077920771476721277 0 -0.011315851954697077 -0.0075737986190165365 0 -0.011686422000984695 -0.0077920771476721277 0 -0.011238937444271648 -0.0081222434727283889 0 -0.011442816141901405 -0.0080822735694442774 0 -0.011556883884823899 -0.0083846497802734926 0 -0.011818038254999181 -0.008270165092843387 0 -0.011238937444271648 -0.0081222434727283889 0 -0.011682082395220493 -0.0089685288175384136 0 -0.011686422000984695 -0.0077920771476721277 0 -0.011818038254999181 -0.008270165092843387 0 -0.011238937444271648 -0.0081222434727283889 0 -0.011756415085666683 -0.0083591462638481599 0 -0.011893277213693832 -0.0087893641732555219 0 -0.011597362505883502 -0.0084862001278503442 0 -0.011845605427845629 -0.0087958899660116295 0 -0.011726517619596812 -0.0088379920695069638 0 -0.012089450735018834 -0.0076740295922895739 0 -0.011818038254999181 -0.008270165092843387 0 -0.012384136291218418 -0.0087337612642043472 0 -0.011770188200619142 -0.009270086176144875 0 -0.011350293456558559 -0.0098270134793940339 0 -0.011186758574160635 -0.0093719830163742739 0 -0.011350293456558559 -0.0098270134793940339 0 -0.011862726674298624 -0.010082225269989625 0 -0.011102055420330367 -0.010419578972783006 0 -0.011770188200619142 -0.009270086176144875 0 -0.011350293456558559 -0.0098270134793940339 0 -0.011862726674298624 -0.010082225269989625 0 -0.01177595061366425 -0.0090310016802690601 0 -0.011586223514981299 -0.008349611219548414 0 -0.011597362505883502 -0.0084862001278503442 0 -0.011845605427845629 -0.0087958899660116295 0 -0.011834999445250233 -0.0084021743461831257 0 -0.012581656650954141 -0.0073096518103509412 0 -0.011801635426166744 -0.0065306348321442298 0 -0.011696636302558327 -0.0072878948543246315 0 -0.011801635426166744 -0.0065306348321442298 0 -0.011696636302558327 -0.0072878948543246315 0 -0.011395364445722519 -0.0071574341182279403 0 -0.012581656650954141 -0.0073096518103509412 0 -0.011711877693585809 -0.007612339123372891 0 -0.011696636302558327 -0.0072878948543246315 0 -0.01438648214671992 -0.0075622820244477095 0 -0.017200299481136112 -0.0058087349063209934 0 -0.011549937239294173 -0.0074755899629768384 0 -0.011696636302558327 -0.0072878948543246315 0 -0.011384860070611662 -0.0073112336206136311 0 -0.011711877693585809 -0.007612339123372891 0 -0.011549937239294173 -0.0074755899629768384 0 -0.011696636302558327 -0.0072878948543246315 0 -0.011696636302558327 -0.0072878948543246315 0 -0.011395364445722519 -0.0071574341182279403 0 -0.011384860070611662 -0.0073112336206136311 0 -0.011226200996356239 -0.0073368054500323344 0 -0.011549937239294173 -0.0074755899629768384 0 -0.011384860070611662 -0.0073112336206136311 0 -0.011226200996356239 -0.0073368054500323344 0 -0.011384860070611662 -0.0073112336206136311 0 -0.011218597782365881 -0.0072903330867717595 0 -0.011395364445722519 -0.0071574341182279403 0 -0.011384860070611662 -0.0073112336206136311 0 -0.011218597782365881 -0.0072903330867717595 0 -0.011395364445722519 -0.0071574341182279403 0 -0.011218597782365881 -0.0072903330867717595 0 -0.011062726700920374 -0.007354511467452962 0 -0.011565575066970948 -0.0078240658538330787 0 -0.011331193425611202 -0.0076695169745043031 0 -0.010057677461388739 -0.0076327233948368248 0 -0.011062726700920374 -0.007354511467452962 0 -0.010557152424509051 -0.0080082378352015239 0 -0.011801635426166744 -0.0065306348321442298 0 -0.011395364445722519 -0.0071574341182279403 0 -0.011062726700920374 -0.007354511467452962 0 -0.011062726700920374 -0.007354511467452962 0 -0.011220220779707565 -0.0072809807701944493 0 -0.011376556081448993 -0.0075255298514141479 0 -0.011176597852299838 -0.0072516462887957239 0 -0.011273695011827007 -0.0075895068656171259 0 -0.011218597782365881 -0.0072903330867717595 0 -0.011062726700920374 -0.007354511467452962 0 -0.011220220779707565 -0.0072809807701944493 0 -0.011226200996356239 -0.0073368054500323344 0 -0.011218597782365881 -0.0072903330867717595 0 -0.011220220779707565 -0.0072809807701944493 0 -0.011187593912397677 -0.0068909503776136624 0 -0.011097769068806508 -0.0068303332477707666 0 -0.011156540022482233 -0.0067617123350827545 0 -0.011097769068806508 -0.0068303332477707666 0 -0.011156540022482233 -0.0067617123350827545 0 -0.011167536714262863 -0.0069915645477614391 0 -0.011391582713800762 -0.0069817744383173126 0 -0.011156540022482233 -0.0067617123350827545 0 -0.011167536714262863 -0.0069915645477614391 0 -0.011097769068806508 -0.0068303332477707666 0 -0.011167536714262863 -0.0069915645477614391 0 -0.011015870173762052 -0.0073057301573525319 0 -0.011167536714262863 -0.0069915645477614391 0 -0.011015870173762052 -0.0073057301573525319 0 -0.011306628755450451 -0.007232566430503103 0 -0.011391582713800762 -0.0069817744383173126 0 -0.011167536714262863 -0.0069915645477614391 0 -0.011306628755450451 -0.007232566430503103 0 -0.011315851954697077 -0.0075737986190165365 0 -0.011015870173762052 -0.0073057301573525319 0 -0.011306628755450451 -0.007232566430503103 0 -0.011315851954697077 -0.0075737986190165365 0 -0.011015870173762052 -0.0073057301573525319 0 -0.011238937444271648 -0.0081222434727283889 0 -0.011376556081448993 -0.0075255298514141479 0 -0.011611690220131508 -0.0083025415263414965 0 -0.011082061831258571 -0.0080346358075817619 0 -0.011273695011827007 -0.0075895068656171259 0 -0.011442816141901405 -0.0080822735694442774 0 -0.011611690220131508 -0.0083025415263414965 0 -0.011210146185729183 -0.0085050431119726155 0 -0.011082061831258571 -0.0080346358075817619 0 -0.011611690220131508 -0.0083025415263414965 0 -0.011210146185729183 -0.0085050431119726155 0 -0.01144423596984601 -0.0087419306535922066 0 -0.011210146185729183 -0.0085050431119726155 0 -0.011082061831258571 -0.0080346358075817619 0 -0.010601961688104176 -0.0086017076953083284 0 -0.011062726700920374 -0.007354511467452962 0 -0.011376556081448993 -0.0075255298514141479 0 -0.011082061831258571 -0.0080346358075817619 0 -0.011062726700920374 -0.007354511467452962 0 -0.011082061831258571 -0.0080346358075817619 0 -0.010557152424509051 -0.0080082378352015239 0 -0.011082061831258571 -0.0080346358075817619 0 -0.010557152424509051 -0.0080082378352015239 0 -0.010601961688104176 -0.0086017076953083284 0 -0.010557152424509051 -0.0080082378352015239 0 -0.010601961688104176 -0.0086017076953083284 0 -0.010004813733076679 -0.0083064718905352594 0 -0.010433996287568869 -0.0085951266618682041 0 -0.010004813733076679 -0.0083064718905352594 0 -0.010013322075312173 -0.008951495205902528 0 -0.010599870409447395 -0.0086797914237931942 0 -0.010347998318834258 -0.0085288359938375594 0 -0.010057677461388739 -0.0076327233948368248 0 -0.010557152424509051 -0.0080082378352015239 0 -0.010004813733076679 -0.0083064718905352594 0 -0.0097640039335323819 -0.0081488932760378288 0 -0.010057677461388739 -0.0076327233948368248 0 -0.010004813733076679 -0.0083064718905352594 0 -0.0096931866249815122 -0.0093176703624716795 0 -0.010013322075312173 -0.008951495205902528 0 -0.010444725747933032 -0.0093498913032224185 0 -0.0098187147991933253 -0.0087746184273568024 0 -0.010004813733076679 -0.0083064718905352594 0 -0.010013322075312173 -0.008951495205902528 0 -0.010433996287568869 -0.0085951266618682041 0 -0.010013322075312173 -0.008951495205902528 0 -0.010444725747933032 -0.0093498913032224185 0 -0.010444725747933032 -0.0093498913032224185 0 -0.011041310063657774 -0.0089050133145267031 0 -0.011199039747349999 -0.009486301219899386 0 -0.010599870409447395 -0.0086797914237931942 0 -0.011073047125325683 -0.0089747285351001096 0 -0.011210146185729183 -0.0085050431119726155 0 -0.010601961688104176 -0.0086017076953083284 0 -0.011133293049521873 -0.008930796476247737 0 -0.010433996287568869 -0.0085951266618682041 0 -0.010444725747933032 -0.0093498913032224185 0 -0.011041310063657774 -0.0089050133145267031 0 -0.011133293049521873 -0.008930796476247737 0 -0.01144423596984601 -0.0087419306535922066 0 -0.011538763653151068 -0.0093160781701268885 0 -0.011210146185729183 -0.0085050431119726155 0 -0.011133293049521873 -0.008930796476247737 0 -0.01144423596984601 -0.0087419306535922066 0 -0.011199039747349999 -0.009486301219899386 0 -0.011700886433992388 -0.0093889388213089734 0 -0.011762387594440642 -0.010017507407544774 0 -0.011041310063657774 -0.0089050133145267031 0 -0.011199039747349999 -0.009486301219899386 0 -0.011700886433992388 -0.0093889388213089734 0 -0.011073047125325683 -0.0089747285351001096 0 -0.011535351651580313 -0.0092837409326367842 0 -0.011199039747349999 -0.009486301219899386 0 -0.011204277186460845 -0.010071997424443577 0 -0.011762387594440642 -0.010017507407544774 0 -0.011607976988865547 -0.010457678708000573 0 -0.01148961330735569 -0.011109166035642581 0 -0.011858567865208407 -0.010636202111378444 0 -0.011607976988865547 -0.010457678708000573 0 -0.011204277186460845 -0.010071997424443577 0 -0.01148961330735569 -0.011109166035642581 0 -0.011607976988865547 -0.010457678708000573 0 -0.011204277186460845 -0.010071997424443577 0 -0.011762387594440642 -0.010017507407544774 0 -0.011204277186460845 -0.010071997424443577 0 -0.010016511719484974 -0.0099573061647854344 0 -0.010655472329142547 -0.011273400060422632 0 -0.011204277186460845 -0.010071997424443577 0 -0.010655472329142547 -0.011273400060422632 0 -0.01148961330735569 -0.011109166035642581 0 -0.010444725747933032 -0.0093498913032224185 0 -0.011199039747349999 -0.009486301219899386 0 -0.011204277186460845 -0.010071997424443577 0 -0.010444725747933032 -0.0093498913032224185 0 -0.011204277186460845 -0.010071997424443577 0 -0.010016511719484974 -0.0099573061647854344 0 -0.0076537409998661968 -0.010415486575318341 0 -0.010016511719484974 -0.0099573061647854344 0 -0.0089356766541277902 -0.011769612792101923 0 -0.0076537409998661968 -0.010415486575318341 0 -0.0078047244644752984 -0.0076796525856911999 0 -0.010016511719484974 -0.0099573061647854344 0 -0.0096931866249815122 -0.0093176703624716795 0 -0.010444725747933032 -0.0093498913032224185 0 -0.010016511719484974 -0.0099573061647854344 0 -0.010776825360104811 -0.008340633418249848 0 -0.010434419790206114 -0.0086166938092528279 0 -0.01245895618278892 -0.0096824120850931734 0 -0.012384136291218418 -0.0087337612642043472 0 -0.012262049868646775 -0.0094840076157254368 0 -0.012262049868646775 -0.0094840076157254368 0 -0.012087038588362192 -0.0098127601927129014 0 -0.012380562446242629 -0.0098632937515415482 0 -0.01245895618278892 -0.0096824120850931734 0 -0.012262049868646775 -0.0094840076157254368 0 -0.012380562446242629 -0.0098632937515415482 0 -0.011940592377342888 -0.0092572569896667047 0 -0.011945180520420191 -0.0092773106764053974 0 -0.011562552820474071 -0.0090415487944685898 0 -0.011830962857245362 -0.0093291241920602057 0 -0.011511008916931006 -0.0088943658102581934 0 -0.011523553561291561 -0.0090926058885121164 0 -0.011562552820474071 -0.0090415487944685898 0 -0.011830962857245362 -0.0093291241920602057 0 -0.011770188200619142 -0.009270086176144875 0 -0.011562552820474071 -0.0090415487944685898 0 -0.011186758574160635 -0.0093719830163742739 0 -0.011940592377342888 -0.0092572569896667047 0 -0.011893277213693832 -0.0087893641732555219 0 -0.011845605427845629 -0.0087958899660116295 0 -0.011856795288248722 -0.0091906237870328453 0 -0.011726517619596812 -0.0088379920695069638 0 -0.01177595061366425 -0.0090310016802690601 0 -0.011940592377342888 -0.0092572569896667047 0 -0.011770188200619142 -0.009270086176144875 0 -0.011523553561291561 -0.0090926058885121164 0 -0.011562552820474071 -0.0090415487944685898 0 -0.011818038254999181 -0.008270165092843387 0 -0.012384136291218418 -0.0087337612642043472 0 -0.011682082395220493 -0.0089685288175384136 0 -0.012384136291218418 -0.0087337612642043472 0 -0.011682082395220493 -0.0089685288175384136 0 -0.011968734118668188 -0.0092782592979810761 0 -0.012384136291218418 -0.0087337612642043472 0 -0.011968734118668188 -0.0092782592979810761 0 -0.012262049868646775 -0.0094840076157254368 0 -0.01144423596984601 -0.0087419306535922066 0 -0.011682082395220493 -0.0089685288175384136 0 -0.011538763653151068 -0.0093160781701268885 0 -0.011611690220131508 -0.0083025415263414965 0 -0.01144423596984601 -0.0087419306535922066 0 -0.011682082395220493 -0.0089685288175384136 0 -0.011535351651580313 -0.0092837409326367842 0 -0.011777526805893985 -0.0094515354457372462 0 -0.011538763653151068 -0.0093160781701268885 0 -0.011968734118668188 -0.0092782592979810761 0 -0.012087038588362192 -0.0098127601927129014 0 -0.011682082395220493 -0.0089685288175384136 0 -0.011538763653151068 -0.0093160781701268885 0 -0.011968734118668188 -0.0092782592979810761 0 -0.011968734118668188 -0.0092782592979810761 0 -0.012262049868646775 -0.0094840076157254368 0 -0.012087038588362192 -0.0098127601927129014 0 -0.012087038588362192 -0.0098127601927129014 0 -0.01203251561767445 -0.010280149295870473 0 -0.012191053357045151 -0.010094895869853683 0 -0.012087038588362192 -0.0098127601927129014 0 -0.011762387594440642 -0.010017507407544774 0 -0.01203251561767445 -0.010280149295870473 0 -0.011700886433992388 -0.0093889388213089734 0 -0.012087038588362192 -0.0098127601927129014 0 -0.011762387594440642 -0.010017507407544774 0 -0.011762387594440642 -0.010017507407544774 0 -0.01203251561767445 -0.010280149295870473 0 -0.011858567865208407 -0.010636202111378444 0 -0.011607976988865547 -0.010457678708000573 0 -0.011762387594440642 -0.010017507407544774 0 -0.011858567865208407 -0.010636202111378444 0 -0.01203251561767445 -0.010280149295870473 0 -0.011858567865208407 -0.010636202111378444 0 -0.012011876886237635 -0.01071581998428639 0 -0.01203251561767445 -0.010280149295870473 0 -0.012134270733279995 -0.010372389205932373 0 -0.012011876886237635 -0.01071581998428639 0 -0.01203251561767445 -0.010280149295870473 0 -0.012134270733279995 -0.010372389205932373 0 -0.012191053357045151 -0.010094895869853683 0 -0.012134270733279995 -0.010372389205932373 0 -0.012038792742396288 -0.01002751602027372 0 -0.01215173521189792 -0.010489965462553002 0 -0.012134270733279995 -0.010372389205932373 0 -0.012191053357045151 -0.010094895869853683 0 -0.012038792742396288 -0.01002751602027372 0 -0.012449622129501237 -0.0098299837098335674 0 -0.012380562446242629 -0.0098632937515415482 0 -0.012038792742396288 -0.01002751602027372 0 -0.012087038588362192 -0.0098127601927129014 0 -0.012191053357045151 -0.010094895869853683 0 -0.012380562446242629 -0.0098632937515415482 0 -0.011940592377342888 -0.0092572569896667047 0 -0.012007832477754566 -0.0095260352517516113 0 -0.012191053357045151 -0.010094895869853683 0 -0.012380562446242629 -0.0098632937515415482 0 -0.012038792742396288 -0.01002751602027372 0 -0.011523553561291561 -0.0090926058885121164 0 -0.011830962857245362 -0.0093291241920602057 0 -0.012038792742396288 -0.01002751602027372 0 -0.011830962857245362 -0.0093291241920602057 0 -0.012038792742396288 -0.01002751602027372 0 -0.012340613535769644 -0.0097937049010685465 0 -0.012038792742396288 -0.01002751602027372 0 -0.012340613535769644 -0.0097937049010685465 0 -0.01225806866466455 -0.010249919108991966 0 -0.011488164120480168 -0.0076685964275316895 0 -0.010892589879754251 -0.0070364770916765112 0 -0.011444923389552717 -0.0065315296210437714 0 -0.011685142295754724 -0.0091537322254521686 0 -0.011604154690932178 -0.0099291888220965959 0 -0.012340613535769644 -0.0097937049010685465 0 -0.012494185601902377 -0.010486176002619507 0 -0.01225806866466455 -0.010249919108991966 0 -0.011488164120480168 -0.0076685964275316895 0 -0.010892589879754251 -0.0070364770916765112 0 -0.010831400282752741 -0.0076337677378500298 0 -0.010269201182107871 -0.0074772941077312326 0 -0.010831400282752741 -0.0076337677378500298 0 -0.010695235021322455 -0.0082532930436357496 0 -0.010892589879754251 -0.0070364770916765112 0 -0.010269201182107871 -0.0074772941077312326 0 -0.010274934775879921 -0.0066854571293100433 0 -0.010892589879754251 -0.0070364770916765112 0 -0.010269201182107871 -0.0074772941077312326 0 -0.010831400282752741 -0.0076337677378500298 0 -0.010695235021322455 -0.0082532930436357496 0 -0.0099116004841544401 -0.0081134896647005426 0 -0.010220486732014537 -0.008764357980550537 0 -0.010269201182107871 -0.0074772941077312326 0 -0.010695235021322455 -0.0082532930436357496 0 -0.0099116004841544401 -0.0081134896647005426 0 -0.011830962857245362 -0.0093291241920602057 0 -0.012340613535769644 -0.0097937049010685465 0 -0.011511008916931006 -0.0088943658102581934 0 -0.011685142295754724 -0.0091537322254521686 0 -0.011677254885392275 -0.0091087579502641333 0 -0.011488164120480168 -0.0076685964275316895 0 -0.010831400282752741 -0.0076337677378500298 0 -0.010695235021322455 -0.0082532930436357496 0 -0.011488164120480168 -0.0076685964275316895 0 -0.010695235021322455 -0.0082532930436357496 0 -0.011511008916931006 -0.0088943658102581934 0 -0.0088693030713709424 -0.0071854507179523837 0 -0.0090901160115560067 -0.0080278732414147749 0 -0.0082659839072093504 -0.0075775555166034915 0 -0.0088693030713709424 -0.0071854507179523837 0 -0.0095953040430338289 -0.0076115475357695335 0 -0.0096288636305148657 -0.0069718815790979381 0 -0.0088693030713709424 -0.0071854507179523837 0 -0.0095953040430338289 -0.0076115475357695335 0 -0.0090901160115560067 -0.0080278732414147749 0 -0.010269201182107871 -0.0074772941077312326 0 -0.0096288636305148657 -0.0069718815790979381 0 -0.010274934775879921 -0.0066854571293100433 0 -0.010269201182107871 -0.0074772941077312326 0 -0.0095953040430338289 -0.0076115475357695335 0 -0.0096288636305148657 -0.0069718815790979381 0 -0.010269201182107871 -0.0074772941077312326 0 -0.0095953040430338289 -0.0076115475357695335 0 -0.0099116004841544401 -0.0081134896647005426 0 -0.0095841800122735184 -0.0084139277922787806 0 -0.0099116004841544401 -0.0081134896647005426 0 -0.0090901160115560067 -0.0080278732414147749 0 -0.0095953040430338289 -0.0076115475357695335 0 -0.0099116004841544401 -0.0081134896647005426 0 -0.0090901160115560067 -0.0080278732414147749 0 -0.0095841800122735184 -0.0084139277922787806 0 -0.0099116004841544401 -0.0081134896647005426 0 -0.010220486732014537 -0.008764357980550537 0 -0.0090901160115560067 -0.0080278732414147749 0 -0.0090913501407847482 -0.00872269151292758 0 -0.008179392828310655 -0.0085329647094811792 0 -0.0095841800122735184 -0.0084139277922787806 0 -0.0090901160115560067 -0.0080278732414147749 0 -0.0090913501407847482 -0.00872269151292758 0 -0.0090901160115560067 -0.0080278732414147749 0 -0.0080834761803613622 -0.0081558106587006195 0 -0.0082659839072093504 -0.0075775555166034915 0 -0.0095761440387315943 -0.0087718400268984413 0 -0.0096852814786288106 -0.0085804141072196236 0 -0.0097900332603979706 -0.0087969406712150484 0 -0.0096852814786288106 -0.0085804141072196236 0 -0.010220486732014537 -0.008764357980550537 0 -0.0097900332603979706 -0.0087969406712150484 0 -0.0090335848059219168 -0.0085555531076100411 0 -0.0095000703803248977 -0.0086492734415824727 0 -0.0095841800122735184 -0.0084139277922787806 0 -0.0090913501407847482 -0.00872269151292758 0 -0.010220486732014537 -0.008764357980550537 0 -0.010220486732014537 -0.008764357980550537 0 -0.009763386628570259 -0.0089473024080160661 0 -0.0097900332603979706 -0.0087969406712150484 0 -0.010220486732014537 -0.008764357980550537 0 -0.009763386628570259 -0.0089473024080160661 0 -0.010432948943607863 -0.0092757336304408744 0 -0.0095761440387315943 -0.0087718400268984413 0 -0.009763386628570259 -0.0089473024080160661 0 -0.0097900332603979706 -0.0087969406712150484 0 -0.008574469940457111 -0.0086038957139092289 0 -0.0089396542203975925 -0.0087936502567794155 0 -0.0088542234992761981 -0.007821735854784068 0 -0.009763386628570259 -0.0089473024080160661 0 -0.0086970024192788292 -0.0088691600434981557 0 -0.010695235021322455 -0.0082532930436357496 0 -0.011511008916931006 -0.0088943658102581934 0 -0.010871522305344704 -0.0090824140413310137 0 -0.011562552820474071 -0.0090415487944685898 0 -0.011511008916931006 -0.0088943658102581934 0 -0.010871522305344704 -0.0090824140413310137 0 -0.010695235021322455 -0.0082532930436357496 0 -0.010220486732014537 -0.008764357980550537 0 -0.010871522305344704 -0.0090824140413310137 0 -0.010220486732014537 -0.008764357980550537 0 -0.010871522305344704 -0.0090824140413310137 0 -0.010432948943607863 -0.0092757336304408744 0 -0.011562552820474071 -0.0090415487944685898 0 -0.010871522305344704 -0.0090824140413310137 0 -0.011186758574160635 -0.0093719830163742739 0 -0.010871522305344704 -0.0090824140413310137 0 -0.011186758574160635 -0.0093719830163742739 0 -0.010432948943607863 -0.0092757336304408744 0 -0.011350293456558559 -0.0098270134793940339 0 -0.011186758574160635 -0.0093719830163742739 0 -0.010765837008493446 -0.0098111069421636578 0 -0.011186758574160635 -0.0093719830163742739 0 -0.010765837008493446 -0.0098111069421636578 0 -0.010432948943607863 -0.0092757336304408744 0 -0.011350293456558559 -0.0098270134793940339 0 -0.010765837008493446 -0.0098111069421636578 0 -0.011102055420330367 -0.010419578972783006 0 -0.010765837008493446 -0.0098111069421636578 0 -0.010175380792234061 -0.0098183314937751454 0 -0.010240277526650085 -0.010293420921052997 0 -0.010765837008493446 -0.0098111069421636578 0 -0.010175380792234061 -0.0098183314937751454 0 -0.010432948943607863 -0.0092757336304408744 0 -0.010175380792234061 -0.0098183314937751454 0 -0.010432948943607863 -0.0092757336304408744 0 -0.0095297068219015561 -0.0095253497887693647 0 -0.009763386628570259 -0.0089473024080160661 0 -0.010432948943607863 -0.0092757336304408744 0 -0.0095297068219015561 -0.0095253497887693647 0 -0.009763386628570259 -0.0089473024080160661 0 -0.0095297068219015561 -0.0095253497887693647 0 -0.0086970024192788292 -0.0088691600434981557 0 -0.0095297068219015561 -0.0095253497887693647 0 -0.0083955227639085188 -0.0095867626146474323 0 -0.0086970024192788292 -0.0088691600434981557 0 -0.0095297068219015561 -0.0095253497887693647 0 -0.0089397430272003132 -0.010100397923103605 0 -0.0083955227639085188 -0.0095867626146474323 0 -0.0095297068219015561 -0.0095253497887693647 0 -0.0096811844788490392 -0.010162696295011304 0 -0.0089397430272003132 -0.010100397923103605 0 -0.010175380792234061 -0.0098183314937751454 0 -0.0095297068219015561 -0.0095253497887693647 0 -0.0096811844788490392 -0.010162696295011304 0 -0.010175380792234061 -0.0098183314937751454 0 -0.0096811844788490392 -0.010162696295011304 0 -0.010240277526650085 -0.010293420921052997 0 -0.0096811844788490392 -0.010162696295011304 0 -0.0091798350054665898 -0.010570881568240386 0 -0.0099385263550989828 -0.010781058945686341 0 -0.0096811844788490392 -0.010162696295011304 0 -0.0099385263550989828 -0.010781058945686341 0 -0.010240277526650085 -0.010293420921052997 0 -0.010091708427565658 -0.010828258596235572 0 -0.0099385263550989828 -0.010781058945686341 0 -0.010240277526650085 -0.010293420921052997 0 -0.0096811844788490392 -0.010162696295011304 0 -0.0089397430272003132 -0.010100397923103605 0 -0.0091798350054665898 -0.010570881568240386 0 -0.0089397430272003132 -0.010100397923103605 0 -0.0091798350054665898 -0.010570881568240386 0 -0.0085059120512299292 -0.01068237358793251 0 -0.0091798350054665898 -0.010570881568240386 0 -0.0087983096046184792 -0.011109046708224804 0 -0.0085059120512299292 -0.01068237358793251 0 -0.010650741954934057 -0.0081166299165990573 0 -0.011062702250356965 -0.0081558839559695544 0 -0.0087983096046184792 -0.011109046708224804 0 -0.010121199780054668 -0.010864459603232981 0 -0.0099385263550989828 -0.010781058945686341 0 -0.01179655196425867 -0.0055195812071552088 0 -0.011792213429044929 -0.0055854374737838615 0 -0.011803420540825683 -0.0054896721924887005 0 -0.0091798350054665898 -0.010570881568240386 0 -0.0087983096046184792 -0.011109046708224804 0 -0.0099385263550989828 -0.010781058945686341 0 -0.011062702250356965 -0.0081558839559695544 0 -0.011055414098753852 -0.0081688904660223802 0 -0.011821479275070077 -0.0054645886315845792 0 -0.011803420540825683 -0.0054896721924887005 0 -0.011855389883837572 -0.0054211868468873377 0 -0.011062702250356965 -0.0081558839559695544 0 -0.011411584500918719 -0.0072310139829347714 0 -0.011821479275070077 -0.0054645886315845792 0 -0.01179655196425867 -0.0055195812071552088 0 -0.011803420540825683 -0.0054896721924887005 0 -0.011362396711824395 -0.0077884921560853722 0 -0.011414047372119601 -0.0078055516351925487 0 -0.011412940899009495 -0.0077708366589393733 0 -0.010765837008493446 -0.0098111069421636578 0 -0.011102055420330367 -0.010419578972783006 0 -0.010240277526650085 -0.010293420921052997 0 -0.010091708427565658 -0.010828258596235572 0 -0.011102055420330367 -0.010419578972783006 0 -0.010240277526650085 -0.010293420921052997 0 -0.011062702250356965 -0.0081558839559695544 0 -0.011143004841036671 -0.0085394697656758899 0 -0.0070906613184818917 -0.010194419958281655 0 -0.0056170157183498826 -0.010421386036883728 0 -0.0065412607288519598 -0.0098155818340996889 0 -0.0056041555053733807 -0.010050839917073319 0 -0.0047475591398713803 -0.0099125999459275561 0 -0.0070906613184818917 -0.010194419958281655 0 -0.0069440663904087362 -0.010819005278064861 0 -0.0075624276415622114 -0.010672513207796216 0 -0.0053845945713725234 -0.0094330850626933894 0 -0.006178418135538973 -0.010999609427037713 0 -0.0049369255745273146 -0.010679359273340017 0 -0.0070906613184818917 -0.010194419958281655 0 -0.0053845945713725234 -0.0094330850626933894 0 -0.006178418135538973 -0.010999609427037713 0 -0.0053470762012066174 -0.011584559632616861 0 -0.0069212237248977891 -0.011466926274971133 0 -0.006178418135538973 -0.010999609427037713 0 -0.0049475550984509897 -0.011888682451992975 0 -0.006178418135538973 -0.010999609427037713 0 -0.0049369255745273146 -0.010679359273340017 0 -0.0067494016354135771 -0.010470844466533756 0 -0.0064289405051442122 -0.01070689472593318 0 -0.0069212237248977891 -0.011466926274971133 0 -0.006178418135538973 -0.010999609427037713 0 -0.0069440663904087362 -0.010819005278064861 0 -0.0070906613184818917 -0.010194419958281655 0 -0.006178418135538973 -0.010999609427037713 0 -0.0069440663904087362 -0.010819005278064861 0 -0.0069212237248977891 -0.011466926274971133 0 -0.0069440663904087362 -0.010819005278064861 0 -0.0075624276415622114 -0.010672513207796216 0 -0.0082264371236264542 -0.010775287442178086 0 -0.0069212237248977891 -0.011466926274971133 0 -0.0077382918102208466 -0.010872704023243857 0 -0.0069212237248977891 -0.011466926274971133 0 -0.0077382918102208466 -0.010872704023243857 0 -0.0075624276415622114 -0.010672513207796216 0 -0.0082264371236264542 -0.010775287442178086 0 -0.0077382918102208466 -0.010872704023243857 0 -0.008114825096434344 -0.010688647477580514 0 -0.0077382918102208466 -0.010872704023243857 0 -0.0075624276415622114 -0.010672513207796216 0 -0.008114825096434344 -0.010688647477580514 0 -0.0075624276415622114 -0.010672513207796216 0 -0.008114825096434344 -0.010688647477580514 0 -0.0081171505852006293 -0.010344644022366699 0 -0.0082264371236264542 -0.010775287442178086 0 -0.0087983096046184792 -0.011109046708224804 0 -0.0085059120512299292 -0.01068237358793251 0 -0.010746256695894945 -0.0078597396633196467 0 -0.010650741954934057 -0.0081166299165990573 0 -0.0082264371236264542 -0.010775287442178086 0 -0.008114825096434344 -0.010688647477580514 0 -0.0085059120512299292 -0.01068237358793251 0 -0.0089397430272003132 -0.010100397923103605 0 -0.0085059120512299292 -0.01068237358793251 0 -0.0081171505852006293 -0.010344644022366699 0 -0.008114825096434344 -0.010688647477580514 0 -0.0085059120512299292 -0.01068237358793251 0 -0.0081171505852006293 -0.010344644022366699 0 -0.0070906613184818917 -0.010194419958281655 0 -0.0081171505852006293 -0.010344644022366699 0 -0.0074194778541646468 -0.0097054838086589827 0 -0.0070906613184818917 -0.010194419958281655 0 -0.0075624276415622114 -0.010672513207796216 0 -0.0081171505852006293 -0.010344644022366699 0 -0.0081171505852006293 -0.010344644022366699 0 -0.0074194778541646468 -0.0097054838086589827 0 -0.0083955227639085188 -0.0095867626146474323 0 -0.0074194778541646468 -0.0097054838086589827 0 -0.0083955227639085188 -0.0095867626146474323 0 -0.0077170289993461812 -0.0090072576680269977 0 -0.0089397430272003132 -0.010100397923103605 0 -0.0081171505852006293 -0.010344644022366699 0 -0.0083955227639085188 -0.0095867626146474323 0 -0.0083955227639085188 -0.0095867626146474323 0 -0.0086970024192788292 -0.0088691600434981557 0 -0.0077170289993461812 -0.0090072576680269977 0 -0.0086970024192788292 -0.0088691600434981557 0 -0.0077170289993461812 -0.0090072576680269977 0 -0.0078109386603678471 -0.0081492027450279884 0 -0.0074194778541646468 -0.0097054838086589827 0 -0.0077170289993461812 -0.0090072576680269977 0 -0.0066417738276160956 -0.0091608113221920192 0 -0.0077170289993461812 -0.0090072576680269977 0 -0.0066417738276160956 -0.0091608113221920192 0 -0.007023663635391887 -0.0084640999366558563 0 -0.0066417738276160956 -0.0091608113221920192 0 -0.0062351832106454135 -0.0084370744753375238 0 -0.007023663635391887 -0.0084640999366558563 0 -0.0070906613184818917 -0.010194419958281655 0 -0.0074194778541646468 -0.0097054838086589827 0 -0.0065412607288519598 -0.0098155818340996889 0 -0.0074194778541646468 -0.0097054838086589827 0 -0.0066417738276160956 -0.0091608113221920192 0 -0.0065412607288519598 -0.0098155818340996889 0 -0.0066417738276160956 -0.0091608113221920192 0 -0.0065412607288519598 -0.0098155818340996889 0 -0.0057871390121275101 -0.0095887018891382715 0 -0.0056170157183498826 -0.010421386036883728 0 -0.0057871390121275101 -0.0095887018891382715 0 -0.004721855868561756 -0.009533627594902375 0 -0.0056170157183498826 -0.010421386036883728 0 -0.0065412607288519598 -0.0098155818340996889 0 -0.0057871390121275101 -0.0095887018891382715 0 -0.0057871390121275101 -0.0095887018891382715 0 -0.0057269505603552897 -0.0089420343451536433 0 -0.004721855868561756 -0.009533627594902375 0 -0.0066417738276160956 -0.0091608113221920192 0 -0.0057871390121275101 -0.0095887018891382715 0 -0.0057269505603552897 -0.0089420343451536433 0 -0.0066417738276160956 -0.0091608113221920192 0 -0.0057269505603552897 -0.0089420343451536433 0 -0.0062351832106454135 -0.0084370744753375238 0 -0.0057269505603552897 -0.0089420343451536433 0 -0.0062351832106454135 -0.0084370744753375238 0 -0.0053308874832456834 -0.0081049582295455898 0 -0.006128541634344814 -0.0084740736137402014 0 -0.0057180575985291823 -0.008381058084493952 0 -0.0056287636108703363 -0.0087372680674547686 0 -0.0062351832106454135 -0.0084370744753375238 0 -0.0066895393374632713 -0.0075696967998683928 0 -0.0053308874832456834 -0.0081049582295455898 0 -0.0064657801455019733 -0.0083293227720255773 0 -0.005179533108195745 -0.0086723808290938252 0 -0.0051326086036763072 -0.0083207039856921725 0 -0.005179533108195745 -0.0086723808290938252 0 -0.0062351832106454135 -0.0084370744753375238 0 -0.007023663635391887 -0.0084640999366558563 0 -0.0066895393374632713 -0.0075696967998683928 0 -0.006128541634344814 -0.0084740736137402014 0 -0.0059649014499769748 -0.0082465991058526603 0 -0.0062071328185088082 -0.0081069427406898764 0 -0.0038981771695023111 -0.0083519980366999029 0 -0.0039943299059165991 -0.0080211390930121952 0 -0.0036842212046608661 -0.0082528582820389964 0 -0.0057180575985291823 -0.008381058084493952 0 -0.0059649014499769748 -0.0082465991058526603 0 -0.0058062241280568763 -0.0080240166624242944 0 -0.006128541634344814 -0.0084740736137402014 0 -0.0057180575985291823 -0.008381058084493952 0 -0.0059649014499769748 -0.0082465991058526603 0 -0.0051326086036763072 -0.0083207039856921725 0 -0.0051908664169163111 -0.0078623822833036976 0 -0.0088542234992761981 -0.007821735854784068 0 -0.0086970024192788292 -0.0088691600434981557 0 -0.0078109386603678471 -0.0081492027450279884 0 -0.0077170289993461812 -0.0090072576680269977 0 -0.007023663635391887 -0.0084640999366558563 0 -0.0078109386603678471 -0.0081492027450279884 0 -0.007023663635391887 -0.0084640999366558563 0 -0.0066895393374632713 -0.0075696967998683928 0 -0.0078109386603678471 -0.0081492027450279884 0 -0.0064657801455019733 -0.0083293227720255773 0 -0.0076839303601808082 -0.00827182531190865 0 -0.006128541634344814 -0.0084740736137402014 0 -0.0066523398341342193 -0.0081997037029239439 0 -0.0066106930280695623 -0.0081909669944411848 0 -0.0066895393374632713 -0.0075696967998683928 0 -0.0078109386603678471 -0.0081492027450279884 0 -0.0080042569079323746 -0.0069483467260883962 0 -0.006128541634344814 -0.0084740736137402014 0 -0.0066106930280695623 -0.0081909669944411848 0 -0.0062071328185088082 -0.0081069427406898764 0 -0.0090335848059219168 -0.0085555531076100411 0 -0.0076839303601808082 -0.00827182531190865 0 -0.0095761440387315943 -0.0087718400268984413 0 -0.0096852814786288106 -0.0085804141072196236 0 -0.0092884089788403366 -0.0085016208507599101 0 -0.0088542234992761981 -0.007821735854784068 0 -0.0078109386603678471 -0.0081492027450279884 0 -0.0080042569079323746 -0.0069483467260883962 0 -0.008574469940457111 -0.0086038957139092289 0 -0.0076839303601808082 -0.00827182531190865 0 -0.0090901160115560067 -0.0080278732414147749 0 -0.007406580102351179 -0.0090580307088827545 0 -0.0080834761803613622 -0.0081558106587006195 0 -0.0082299286736767369 -0.0081147333402761535 0 -0.0076839303601808082 -0.00827182531190865 0 -0.007406580102351179 -0.0090580307088827545 0 -0.0080834761803613622 -0.0081558106587006195 0 -0.0073713222837694936 -0.0086304002003716566 0 -0.0080834761803613622 -0.0081558106587006195 0 -0.0075714518934652756 -0.0081139812501902341 0 -0.0076318111622333228 -0.0076670183621892511 0 -0.0080834761803613622 -0.0081558106587006195 0 -0.0073713222837694936 -0.0086304002003716566 0 -0.0075714518934652756 -0.0081139812501902341 0 -0.0071104675214805034 -0.0088713736610812419 0 -0.0063194835109780748 -0.0081755752608112797 0 -0.0059784326043171116 -0.0086385553175914575 0 -0.0074504248800373934 -0.0082493414141571846 0 -0.0062441521064929752 -0.0080892509342448595 0 -0.0073713222837694936 -0.0086304002003716566 0 -0.0075714518934652756 -0.0081139812501902341 0 -0.0069775516891497453 -0.0079152010484955983 0 -0.0073713222837694936 -0.0086304002003716566 0 -0.0063821808188647966 -0.008227895483513905 0 -0.0069775516891497453 -0.0079152010484955983 0 -0.0073713222837694936 -0.0086304002003716566 0 -0.0072695582969405674 -0.0090223068936171654 0 -0.0063821808188647966 -0.008227895483513905 0 -0.007406580102351179 -0.0090580307088827545 0 -0.0073713222837694936 -0.0086304002003716566 0 -0.0072695582969405674 -0.0090223068936171654 0 -0.0076839303601808082 -0.00827182531190865 0 -0.0074504248800373934 -0.0082493414141571846 0 -0.0074504248800373934 -0.0082493414141571846 0 -0.0068566565142705689 -0.0079760040032919987 0 -0.0063821808188647966 -0.008227895483513905 0 -0.0069775516891497453 -0.0079152010484955983 0 -0.0062415578095571583 -0.0075242894055256547 0 -0.0066144992343597315 -0.0071122440356199664 0 -0.0069775516891497453 -0.0079152010484955983 0 -0.0062415578095571583 -0.0075242894055256547 0 -0.0066144992343597315 -0.0071122440356199664 0 -0.0071878051074721755 -0.0073818737837514914 0 -0.0069775516891497453 -0.0079152010484955983 0 -0.0066144992343597315 -0.0071122440356199664 0 -0.0071878051074721755 -0.0073818737837514914 0 -0.0076197868494394735 -0.0068211645435484495 0 -0.0071878051074721755 -0.0073818737837514914 0 -0.0069775516891497453 -0.0079152010484955983 0 -0.0076318111622333228 -0.0076670183621892511 0 -0.0088693030713709424 -0.0071854507179523837 0 -0.0082659839072093504 -0.0075775555166034915 0 -0.0076197868494394735 -0.0068211645435484495 0 -0.0075714518934652756 -0.0081139812501902341 0 -0.0069775516891497453 -0.0079152010484955983 0 -0.0076318111622333228 -0.0076670183621892511 0 -0.0076318111622333228 -0.0076670183621892511 0 -0.0082659839072093504 -0.0075775555166034915 0 -0.0076197868494394735 -0.0068211645435484495 0 -0.0071878051074721755 -0.0073818737837514914 0 -0.0076318111622333228 -0.0076670183621892511 0 -0.0076197868494394735 -0.0068211645435484495 0 -0.0080834761803613622 -0.0081558106587006195 0 -0.0076318111622333228 -0.0076670183621892511 0 -0.0082659839072093504 -0.0075775555166034915 0 -0.0059649014499769748 -0.0082465991058526603 0 -0.0058062241280568763 -0.0080240166624242944 0 -0.0062071328185088082 -0.0081069427406898764 0 -0.0048405343657172851 -0.0084061626607313603 0 -0.0059784326043171116 -0.0086385553175914575 0 -0.0056995729756597387 -0.0080777778626721902 0 -0.0051908664169163111 -0.0078623822833036976 0 -0.0062441521064929752 -0.0080892509342448595 0 -0.0063194835109780748 -0.0081755752608112797 0 -0.0059784326043171116 -0.0086385553175914575 0 -0.0056995729756597387 -0.0080777778626721902 0 -0.0048405343657172851 -0.0084061626607313603 0 -0.0056995729756597387 -0.0080777778626721902 0 -0.0055256087407609582 -0.0074744433884092352 0 -0.0063821808188647966 -0.008227895483513905 0 -0.0062415578095571583 -0.0075242894055256547 0 -0.0055256087407609582 -0.0074744433884092352 0 -0.0063194835109780748 -0.0081755752608112797 0 -0.0056995729756597387 -0.0080777778626721902 0 -0.0055256087407609582 -0.0074744433884092352 0 -0.0068566565142705689 -0.0079760040032919987 0 -0.0065492104117564126 -0.0077814609327112386 0 -0.0066144992343597315 -0.0071122440356199664 0 -0.0062415578095571583 -0.0075242894055256547 0 -0.0058575211076785684 -0.0067556666517057714 0 -0.0062415578095571583 -0.0075242894055256547 0 -0.0055256087407609582 -0.0074744433884092352 0 -0.0058575211076785684 -0.0067556666517057714 0 -0.0055256087407609582 -0.0074744433884092352 0 -0.0051510116024749463 -0.0071079390850907241 0 -0.0058575211076785684 -0.0067556666517057714 0 -0.0045730554537059829 -0.0081962813084051934 0 -0.0049281861206906669 -0.0070889383810133853 0 -0.0039534950062333372 -0.007200838794969998 0 -0.0048405343657172851 -0.0084061626607313603 0 -0.0055256087407609582 -0.0074744433884092352 0 -0.0051510116024749463 -0.0071079390850907241 0 -0.0051908664169163111 -0.0078623822833036976 0 -0.0052401865314647524 -0.0071684645912512808 0 -0.0049281861206906669 -0.0070889383810133853 0 -0.0044132900213635596 -0.0064045526653326275 0 -0.0039534950062333372 -0.007200838794969998 0 -0.0049281861206906669 -0.0070889383810133853 0 -0.0044132900213635596 -0.0064045526653326275 0 -0.0054106185529076865 -0.0057822486070443569 0 -0.0052401865314647524 -0.0071684645912512808 0 -0.0053321293152453278 -0.0066663254015486874 0 -0.0058575211076785684 -0.0067556666517057714 0 -0.0054106185529076865 -0.0057822486070443569 0 -0.0067280998921047368 -0.0062589834602019669 0 -0.0051510116024749463 -0.0071079390850907241 0 -0.0058575211076785684 -0.0067556666517057714 0 -0.0054106185529076865 -0.0057822486070443569 0 -0.0054106185529076865 -0.0057822486070443569 0 -0.0064638316273977082 -0.0044994028777265707 0 -0.0067541077716013285 -0.0053965333282258521 0 -0.0044132900213635596 -0.0064045526653326275 0 -0.0054106185529076865 -0.0057822486070443569 0 -0.0042372064872422772 -0.0055181380890087922 0 -0.0054106185529076865 -0.0057822486070443569 0 -0.0042372064872422772 -0.0055181380890087922 0 -0.0046593508842062989 -0.0047273866744561082 0 -0.0046593508842062989 -0.0047273866744561082 0 -0.0055938009175639332 -0.0040630518675281967 0 -0.0043638111752814495 -0.0036531622448010294 0 -0.0046593508842062989 -0.0047273866744561082 0 -0.0043638111752814495 -0.0036531622448010294 0 -0.0036636352662677771 -0.0045962993291165793 0 -0.0042372064872422772 -0.0055181380890087922 0 -0.0046593508842062989 -0.0047273866744561082 0 -0.0036636352662677771 -0.0045962993291165793 0 -0.0054106185529076865 -0.0057822486070443569 0 -0.0046593508842062989 -0.0047273866744561082 0 -0.0055938009175639332 -0.0040630518675281967 0 -0.0054106185529076865 -0.0057822486070443569 0 -0.0055938009175639332 -0.0040630518675281967 0 -0.0064638316273977082 -0.0044994028777265707 0 -0.0055938009175639332 -0.0040630518675281967 0 -0.0064638316273977082 -0.0044994028777265707 0 -0.0067167449480574461 -0.0028239842173776925 0 -0.0055938009175639332 -0.0040630518675281967 0 -0.0052047445234265112 -0.002906551683772574 0 -0.0067167449480574461 -0.0028239842173776925 0 -0.0055938009175639332 -0.0040630518675281967 0 -0.0043638111752814495 -0.0036531622448010294 0 -0.0052047445234265112 -0.002906551683772574 0 -0.0080497235472219882 -0.004028873502696366 0 -0.0080021692927109422 -0.0042957295453975187 0 -0.0092566875669669191 -0.0036656873541188952 0 -0.0080497235472219882 -0.004028873502696366 0 -0.0075314255746112731 -0.0046342184047256279 0 -0.0076621896457510861 -0.003139179023811914 0 -0.0080497235472219882 -0.004028873502696366 0 -0.0080021692927109422 -0.0042957295453975187 0 -0.0075314255746112731 -0.0046342184047256279 0 -0.010653631327766986 -0.01142628936622795 0 -0.010319564261917536 -0.0139962565110198 0 -0.0080497235472219882 -0.004028873502696366 0 -0.0085987948752562458 -0.003452079154189101 0 -0.0083304134031272625 -0.0031797755591647229 0 -0.0080497235472219882 -0.004028873502696366 0 -0.0076621896457510861 -0.003139179023811914 0 -0.0083046338629809667 -0.0029648138409755719 0 -0.0075350416031525818 -0.0045203244714099641 0 -0.0072007510882795955 -0.0037936355908981668 0 -0.0075314255746112731 -0.0046342184047256279 0 -0.0067167449480574461 -0.0028239842173776925 0 -0.0076621896457510861 -0.003139179023811914 0 -0.0064638316273977082 -0.0044994028777265707 0 -0.0073643159717277579 -0.0042394151221120651 0 -0.0067167449480574461 -0.0028239842173776925 0 -0.0064638316273977082 -0.0044994028777265707 0 -0.0073643159717277579 -0.0042394151221120651 0 -0.0067541077716013285 -0.0053965333282258521 0 -0.0075350416031525818 -0.0045203244714099641 0 -0.0080821517805663209 -0.0056841168041523891 0 -0.0075314255746112731 -0.0046342184047256279 0 -0.00839759449336837 -0.005036735944606313 0 -0.0082606561042662622 -0.0059800716756989256 0 -0.0080021692927109422 -0.0042957295453975187 0 -0.00839759449336837 -0.005036735944606313 0 -0.0088347750955439664 -0.0045093925816797479 0 -0.0080021692927109422 -0.0042957295453975187 0 -0.0075314255746112731 -0.0046342184047256279 0 -0.00839759449336837 -0.005036735944606313 0 -0.0073643159717277579 -0.0042394151221120651 0 -0.0080910239949172676 -0.0056945399686194973 0 -0.0067541077716013285 -0.0053965333282258521 0 -0.0054106185529076865 -0.0057822486070443569 0 -0.0067541077716013285 -0.0053965333282258521 0 -0.0067280998921047368 -0.0062589834602019669 0 -0.0080910239949172676 -0.0056945399686194973 0 -0.0067541077716013285 -0.0053965333282258521 0 -0.0067280998921047368 -0.0062589834602019669 0 -0.0066144992343597315 -0.0071122440356199664 0 -0.0067280998921047368 -0.0062589834602019669 0 -0.0076197868494394735 -0.0068211645435484495 0 -0.0066144992343597315 -0.0071122440356199664 0 -0.0058575211076785684 -0.0067556666517057714 0 -0.0067280998921047368 -0.0062589834602019669 0 -0.0080910239949172676 -0.0056945399686194973 0 -0.0067280998921047368 -0.0062589834602019669 0 -0.0076197868494394735 -0.0068211645435484495 0 -0.0088693030713709424 -0.0071854507179523837 0 -0.0080910239949172676 -0.0056945399686194973 0 -0.0076197868494394735 -0.0068211645435484495 0 -0.0088693030713709424 -0.0071854507179523837 0 -0.0082606561042662622 -0.0059800716756989256 0 -0.0090894198983166204 -0.0064492358731362068 0 -0.0083983318092335554 -0.0063551619644633024 0 -0.0080821517805663209 -0.0056841168041523891 0 -0.0088693030713709424 -0.0071854507179523837 0 -0.0090894198983166204 -0.0064492358731362068 0 -0.0096288636305148657 -0.0069718815790979381 0 -0.0096288636305148657 -0.0069718815790979381 0 -0.0096643418372152935 -0.0062840135865682763 0 -0.010274934775879921 -0.0066854571293100433 0 -0.0096643418372152935 -0.0062840135865682763 0 -0.010274934775879921 -0.0066854571293100433 0 -0.010237596153396698 -0.0060394590813489957 0 -0.0090894198983166204 -0.0064492358731362068 0 -0.0096288636305148657 -0.0069718815790979381 0 -0.0096643418372152935 -0.0062840135865682763 0 -0.0096643418372152935 -0.0062840135865682763 0 -0.0097572501993950216 -0.0056368392559954907 0 -0.0090667646176957016 -0.0057489756014202174 0 -0.0096643418372152935 -0.0062840135865682763 0 -0.0097572501993950216 -0.0056368392559954907 0 -0.010237596153396698 -0.0060394590813489957 0 -0.0097572501993950216 -0.0056368392559954907 0 -0.010237596153396698 -0.0060394590813489957 0 -0.010529802002184351 -0.0053141889699037702 0 -0.0097572501993950216 -0.0056368392559954907 0 -0.0090667646176957016 -0.0057489756014202174 0 -0.0092044849660461933 -0.005054485694419705 0 -0.00839759449336837 -0.005036735944606313 0 -0.0082606561042662622 -0.0059800716756989256 0 -0.0090667646176957016 -0.0057489756014202174 0 -0.0082606561042662622 -0.0059800716756989256 0 -0.0090894198983166204 -0.0064492358731362068 0 -0.0090667646176957016 -0.0057489756014202174 0 -0.0090894198983166204 -0.0064492358731362068 0 -0.0096643418372152935 -0.0062840135865682763 0 -0.0090667646176957016 -0.0057489756014202174 0 -0.010892589879754251 -0.0070364770916765112 0 -0.011444923389552717 -0.0065315296210437714 0 -0.010892389049973947 -0.0063070466300633177 0 -0.010892589879754251 -0.0070364770916765112 0 -0.010892389049973947 -0.0063070466300633177 0 -0.010274934775879921 -0.0066854571293100433 0 -0.010892389049973947 -0.0063070466300633177 0 -0.010274934775879921 -0.0066854571293100433 0 -0.010237596153396698 -0.0060394590813489957 0 -0.010892389049973947 -0.0063070466300633177 0 -0.011035352047903327 -0.0059285891880415673 0 -0.010693620992304958 -0.0057670280681892073 0 -0.010892389049973947 -0.0063070466300633177 0 -0.010237596153396698 -0.0060394590813489957 0 -0.010529802002184351 -0.0053141889699037702 0 -0.0090719253911840381 -0.0078941017409402056 0 -0.0090370490492957638 -0.0086495944479497468 0 -0.012494185601902377 -0.010486176002619507 0 -0.012473388610341621 -0.010918377428742548 0 -0.012307236780402775 -0.010619274232687222 0 -0.011444923389552717 -0.0065315296210437714 0 -0.011035352047903327 -0.0059285891880415673 0 -0.011379066925990281 -0.005702559203876429 0 -0.011604154690932178 -0.0099291888220965959 0 -0.011319982618971493 -0.014204674136102454 0 -0.011444923389552717 -0.0065315296210437714 0 -0.010892389049973947 -0.0063070466300633177 0 -0.011035352047903327 -0.0059285891880415673 0 -0.011319982618971493 -0.014204674136102454 0 -0.010617869035223378 -0.02035772532631356 0 -0.0095934013042735244 -0.016538087705027075 0 -0.010246731247324599 -0.016897906031609747 0 -0.0095735413927963611 -0.017680128421453264 0 -0.011035352047903327 -0.0059285891880415673 0 -0.011379066925990281 -0.005702559203876429 0 -0.01090150037886284 -0.0054884777381520797 0 -0.011319982618971493 -0.014204674136102454 0 -0.010249935038900718 -0.013029182548358241 0 -0.01090150037886284 -0.0054884777381520797 0 -0.010693620992304958 -0.0057670280681892073 0 -0.010478040697499502 -0.005283530773873839 0 -0.0090370490492957638 -0.0086495944479497468 0 -0.00948801270349868 -0.012455440892581464 0 -0.011035352047903327 -0.0059285891880415673 0 -0.01090150037886284 -0.0054884777381520797 0 -0.010693620992304958 -0.0057670280681892073 0 -0.010249935038900718 -0.013029182548358241 0 -0.00948801270349868 -0.012455440892581464 0 -0.010347871528755576 -0.017622906972136129 0 -0.010897191073726447 -0.017256099555474549 0 -0.011196894791772223 -0.017954662357176507 0 -0.010246731247324599 -0.016897906031609747 0 -0.010347871528755576 -0.017622906972136129 0 -0.010897191073726447 -0.017256099555474549 0 -0.013929102023877453 -0.022064486637472489 0 -0.013876481206405019 -0.024483795231994867 0 -0.013066295753012869 -0.023826525968781161 0 -0.010246731247324599 -0.016897906031609747 0 -0.010347871528755576 -0.017622906972136129 0 -0.0095735413927963611 -0.017680128421453264 0 -0.0088347750955439664 -0.0045093925816797479 0 -0.0092044849660461933 -0.005054485694419705 0 -0.0094356439243877318 -0.004541480493468409 0 -0.00839759449336837 -0.005036735944606313 0 -0.0088347750955439664 -0.0045093925816797479 0 -0.0092044849660461933 -0.005054485694419705 0 -0.00839759449336837 -0.005036735944606313 0 -0.0090667646176957016 -0.0057489756014202174 0 -0.0092044849660461933 -0.005054485694419705 0 -0.0097572501993950216 -0.0056368392559954907 0 -0.0092044849660461933 -0.005054485694419705 0 -0.0098586330788423462 -0.005028093616010137 0 -0.010529802002184351 -0.0053141889699037702 0 -0.0098586330788423462 -0.005028093616010137 0 -0.010132142392703828 -0.004337489129810774 0 -0.0097572501993950216 -0.0056368392559954907 0 -0.010529802002184351 -0.0053141889699037702 0 -0.0098586330788423462 -0.005028093616010137 0 -0.0098586330788423462 -0.005028093616010137 0 -0.0094356439243877318 -0.004541480493468409 0 -0.010132142392703828 -0.004337489129810774 0 -0.0092044849660461933 -0.005054485694419705 0 -0.0098586330788423462 -0.005028093616010137 0 -0.0094356439243877318 -0.004541480493468409 0 -0.0094356439243877318 -0.004541480493468409 0 -0.010132142392703828 -0.004337489129810774 0 -0.0091436555940367821 -0.0037803019712895243 0 -0.00948801270349868 -0.012455440892581464 0 -0.0099192642863495314 -0.013562004887777068 0 -0.011178327505213236 -0.013970805293588353 0 -0.0091057997667232746 -0.012850805892830441 0 -0.010401175292632896 -0.01218227377328617 0 -0.00948801270349868 -0.012455440892581464 0 -0.0092404001610841557 -0.016753247259343094 0 -0.0099192642863495314 -0.013562004887777068 0 -0.0092404001610841557 -0.016753247259343094 0 -0.0080497235472219882 -0.004028873502696366 0 -0.0092566875669669191 -0.0036656873541188952 0 -0.0085987948752562458 -0.003452079154189101 0 -0.0080021692927109422 -0.0042957295453975187 0 -0.0088347750955439664 -0.0045093925816797479 0 -0.0091436555940367821 -0.0037803019712895243 0 -0.0099192642863495314 -0.013562004887777068 0 -0.010202091033449953 -0.014560139744033213 0 -0.010548826450350691 -0.011513909042410991 0 -0.0099192642863495314 -0.013562004887777068 0 -0.0088347750955439664 -0.0045093925816797479 0 -0.0094356439243877318 -0.004541480493468409 0 -0.0091436555940367821 -0.0037803019712895243 0 -0.0092566875669669191 -0.0036656873541188952 0 -0.0085987948752562458 -0.003452079154189101 0 -0.008734891810219721 -0.0033839726787394508 0 -0.010220384447434687 -0.014524285372288254 0 -0.010202091033449953 -0.014560139744033213 0 -0.010202091033449953 -0.014560139744033213 0 -0.0089844567113115809 -0.019417644115692769 0 -0.008186647803211846 -0.018279498308814788 0 -0.0075670640124409503 -0.018601771341177541 0 -0.0083527805470768792 -0.018695153566573613 0 -0.0085987948752562458 -0.003452079154189101 0 -0.0087269218685710956 -0.0033888722786948309 0 -0.0083304134031272625 -0.0031797755591647229 0 -0.0095989311138122164 -0.016960649742593148 0 -0.008004731168840722 -0.016095196543560883 0 -0.011157517253837027 -0.014481682327585954 0 -0.010202091033449953 -0.014560139744033213 0 -0.010319564261917536 -0.0139962565110198 0 -0.008186647803211846 -0.018279498308814788 0 -0.00843736808142302 -0.018411600528083126 0 -0.0083527805470768792 -0.018695153566573613 0 -0.0089844567113115809 -0.019417644115692769 0 -0.007762382437329074 -0.024305680334984099 0 -0.0095989311138122164 -0.016960649742593148 0 -0.011751793148471724 -0.015850709159115406 0 -0.011157517253837027 -0.014481682327585954 0 -0.0091422254226911047 -0.02212329267308541 0 -0.0091976187153026447 -0.022252448770928131 0 -0.0088161185305985369 -0.022307120464058885 0 -0.0092404001610841557 -0.016753247259343094 0 -0.0089844567113115809 -0.019417644115692769 0 -0.0071458654447710615 -0.032139887569450791 0 -0.0068940648371039045 -0.032726442056402669 0 -0.006462649933344315 -0.032529782680162767 0 -0.0071458654447710615 -0.032139887569450791 0 -0.0068940648371039045 -0.032726442056402669 0 -0.0075238100789929525 -0.033015404535311633 0 -0.0075670640124409503 -0.018601771341177541 0 -0.0079694079573270279 -0.019555957189975763 0 -0.0083527805470768792 -0.018695153566573613 0 -0.0081056157552320852 -0.019532085001221271 0 -0.0079694079573270279 -0.019555957189975763 0 -0.0083527805470768792 -0.018695153566573613 0 -0.0066589601536119368 -0.023956344296298563 0 -0.0096953276759884095 -0.014911870421673756 0 -0.0089844567113115809 -0.019417644115692769 0 -0.0066473728999498043 -0.025122839561867338 0 -0.0095735413927963611 -0.017680128421453264 0 -0.010380555117800137 -0.018387883864750241 0 -0.0095546834804922879 -0.018827103488614036 0 -0.010617869035223378 -0.02035772532631356 0 -0.0093638530397107522 -0.024551668108066645 0 -0.013876481206405019 -0.024483795231994867 0 -0.01346261574512583 -0.025651018978742508 0 -0.013807227800671262 -0.026851067223796148 0 -0.010347871528755576 -0.017622906972136129 0 -0.0095735413927963611 -0.017680128421453264 0 -0.010380555117800137 -0.018387883864750241 0 -0.0094537035198872851 -0.02055221878297973 0 -0.0093638530397107522 -0.024551668108066645 0 -0.0098753124080303428 -0.025613302972415389 0 -0.0095725600443215316 -0.025428682674075144 0 -0.010347871528755576 -0.017622906972136129 0 -0.011196894791772223 -0.017954662357176507 0 -0.010380555117800137 -0.018387883864750241 0 -0.0091976187153026447 -0.022252448770928131 0 -0.0088161185305985369 -0.022307120464058885 0 -0.0088430679519476852 -0.022451982330159787 0 -0.0092404001610841557 -0.016753247259343094 0 -0.0094537035198872851 -0.02055221878297973 0 -0.0088161185305985369 -0.022307120464058885 0 -0.0088430679519476852 -0.022451982330159787 0 -0.0084878195181022249 -0.022492546775906157 0 -0.0068940648371039045 -0.032726442056402669 0 -0.006462649933344315 -0.032529782680162767 0 -0.0064508219743272905 -0.033222187314150144 0 -0.006462649933344315 -0.032529782680162767 0 -0.0061462969174222752 -0.033122846772961782 0 -0.0064508219743272905 -0.033222187314150144 0 -0.007762382437329074 -0.024305680334984099 0 -0.0087811919365433123 -0.0267852526613842 0 -0.0088430679519476852 -0.022451982330159787 0 -0.008486471159223144 -0.022653321170252545 0 -0.0084878195181022249 -0.022492546775906157 0 -0.006462649933344315 -0.032529782680162767 0 -0.0058638354428455271 -0.032897318318893302 0 -0.0061462969174222752 -0.033122846772961782 0 -0.009317309941983461 -0.0251163305948615 0 -0.0086022130596345829 -0.025482015434400047 0 -0.0093165391660008073 -0.026735091259175857 0 -0.0087811919365433123 -0.0267852526613842 0 -0.0093638530397107522 -0.024551668108066645 0 -0.0091158559429337545 -0.027163700289026704 0 -0.0095725600443215316 -0.025428682674075144 0 -0.0091158559429337545 -0.027163700289026704 0 -0.0087811919365433123 -0.0267852526613842 0 -0.01346261574512583 -0.025651018978742508 0 -0.013441263476826171 -0.027038623976783114 0 -0.013807227800671262 -0.026851067223796148 0 -0.0086022130596345829 -0.025482015434400047 0 -0.0093165391660008073 -0.026735091259175857 0 -0.0085812984737856299 -0.027113801374713798 0 -0.0095725600443215316 -0.025428682674075144 0 -0.0093638530397107522 -0.024551668108066645 0 -0.0057772809331250183 -0.032954659129592515 0 -0.0058972397680896581 -0.033312681162086161 0 -0.00582945474142445 -0.03375348295583229 0 -0.0091158559429337545 -0.027163700289026704 0 -0.0091213490885179976 -0.030819352771472276 0 -0.0087811919365433123 -0.0267852526613842 0 -0.0085664506645398136 -0.028346265562530022 0 -0.0058638354428455271 -0.032897318318893302 0 -0.0058972397680896581 -0.033312681162086161 0 -0.0061462969174222752 -0.033122846772961782 0 -0.0057772809331250183 -0.032954659129592515 0 -0.0058920365753606183 -0.032893524129792344 0 -0.0058972397680896581 -0.033312681162086161 0 -0.0058972397680896581 -0.033312681162086161 0 -0.0061462969174222752 -0.033122846772961782 0 -0.0061554803420463397 -0.03356251616768955 0 -0.0061462969174222752 -0.033122846772961782 0 -0.0064508219743272905 -0.033222187314150144 0 -0.0061554803420463397 -0.03356251616768955 0 -0.0064604197545922847 -0.033887021812116024 0 -0.0061554803420463397 -0.03356251616768955 0 -0.0061761494080705623 -0.034024255002923422 0 -0.0064508219743272905 -0.033222187314150144 0 -0.0064604197545922847 -0.033887021812116024 0 -0.0067414712056072827 -0.033708159203143268 0 -0.0064508219743272905 -0.033222187314150144 0 -0.0064604197545922847 -0.033887021812116024 0 -0.0061554803420463397 -0.03356251616768955 0 -0.0061554803420463397 -0.03356251616768955 0 -0.00582945474142445 -0.03375348295583229 0 -0.0061761494080705623 -0.034024255002923422 0 -0.0058972397680896581 -0.033312681162086161 0 -0.0061554803420463397 -0.03356251616768955 0 -0.00582945474142445 -0.03375348295583229 0 -0.0071940672181484509 -0.033241268026780513 0 -0.0069163594644804536 -0.033405543783817146 0 -0.0070565978468717849 -0.033722381919006984 0 -0.0068830613950860882 -0.033620005516176554 0 -0.0069215973480187985 -0.033789828123448724 0 -0.0069521939567236722 -0.033674319039213065 0 -0.0066628809719889263 -0.026835474492608438 0 -0.0060947413329185286 -0.031231867899047552 0 -0.0066628809719889263 -0.026835474492608438 0 -0.007632142763841619 -0.030798883431341743 0 -0.0068830613950860882 -0.033620005516176554 0 -0.0068998704174733708 -0.033572613482243274 0 -0.0069521939567236722 -0.033674319039213065 0 -0.0066628809719889263 -0.026835474492608438 0 -0.0066589601536119368 -0.023956344296298563 0 -0.0050917373969018905 -0.02097263827806381 0 -0.0034387008057706141 -0.026615433716428237 0 -0.0072596773649152083 -0.025968489048530712 0 -0.0066628809719889263 -0.026835474492608438 0 -0.0066473728999498043 -0.025122839561867338 0 -0.0071940672181484509 -0.033241268026780513 0 -0.0071439201454298355 -0.033132501144119239 0 -0.0069163594644804536 -0.033405543783817146 0 -0.0066589601536119368 -0.023956344296298563 0 -0.0066473728999498043 -0.025122839561867338 0 -0.0064508219743272905 -0.033222187314150144 0 -0.0069163594644804536 -0.033405543783817146 0 -0.0067414712056072827 -0.033708159203143268 0 -0.0064508219743272905 -0.033222187314150144 0 -0.0071439201454298355 -0.033132501144119239 0 -0.0069163594644804536 -0.033405543783817146 0 -0.0068940648371039045 -0.032726442056402669 0 -0.0064508219743272905 -0.033222187314150144 0 -0.0075238100789929525 -0.033015404535311633 0 -0.0061197990303040323 -0.027567133775033219 0 -0.0066473728999498043 -0.025122839561867338 0 -0.0067414712056072827 -0.033708159203143268 0 -0.0070565978468717849 -0.033722381919006984 0 -0.0068178856192455733 -0.034223224466431924 0 -0.0069163594644804536 -0.033405543783817146 0 -0.0067414712056072827 -0.033708159203143268 0 -0.0070565978468717849 -0.033722381919006984 0 -0.0068942056896114361 -0.033712581106414313 0 -0.0068330629156971171 -0.033965902711240149 0 -0.0069806133930750778 -0.033937809165832708 0 -0.0068330629156971171 -0.033965902711240149 0 -0.0069806133930750778 -0.033937809165832708 0 -0.0069231175988592308 -0.03409904816085528 0 -0.0069215973480187985 -0.033789828123448724 0 -0.0070812169685805417 -0.03385854447823234 0 -0.0070255561298046311 -0.034077846941528794 0 -0.007632142763841619 -0.030798883431341743 0 -0.0078362650812988689 -0.031802442970228807 0 -0.0070812169685805417 -0.03385854447823234 0 -0.0070231683942763518 -0.033745311587364026 0 -0.0071401678677629754 -0.033756172458439204 0 -0.0069215973480187985 -0.033789828123448724 0 -0.0070231683942763518 -0.033745311587364026 0 -0.0069521939567236722 -0.033674319039213065 0 -0.0069215973480187985 -0.033789828123448724 0 -0.0070812169685805417 -0.03385854447823234 0 -0.0070231683942763518 -0.033745311587364026 0 -0.0070231683942763518 -0.033745311587364026 0 -0.0069521939567236722 -0.033674319039213065 0 -0.0070362566868379973 -0.033654257186561745 0 -0.0068998704174733708 -0.033572613482243274 0 -0.0070362566868379973 -0.033654257186561745 0 -0.0071370096306529497 -0.033572841620568665 0 -0.0070231683942763518 -0.033745311587364026 0 -0.0070362566868379973 -0.033654257186561745 0 -0.0071401678677629754 -0.033756172458439204 0 -0.0068998704174733708 -0.033572613482243274 0 -0.0069521939567236722 -0.033674319039213065 0 -0.0070362566868379973 -0.033654257186561745 0 -0.0070362566868379973 -0.033654257186561745 0 -0.0071563560521825933 -0.033651199825516141 0 -0.0071401678677629754 -0.033756172458439204 0 -0.0070362566868379973 -0.033654257186561745 0 -0.0071563560521825933 -0.033651199825516141 0 -0.0071370096306529497 -0.033572841620568665 0 -0.0071563560521825933 -0.033651199825516141 0 -0.0071606797215806187 -0.033599400350820777 0 -0.0071370096306529497 -0.033572841620568665 0 -0.0071563560521825933 -0.033651199825516141 0 -0.0071401678677629754 -0.033756172458439204 0 -0.0071799222959367751 -0.033728134013482243 0 -0.0071401678677629754 -0.033756172458439204 0 -0.0072250954264093436 -0.033815724780291573 0 -0.0071799222959367751 -0.033728134013482243 0 -0.0070812169685805417 -0.03385854447823234 0 -0.0071401678677629754 -0.033756172458439204 0 -0.0071947863999330128 -0.033870539417626008 0 -0.0071401678677629754 -0.033756172458439204 0 -0.0071947863999330128 -0.033870539417626008 0 -0.0072250954264093436 -0.033815724780291573 0 -0.0071947863999330128 -0.033870539417626008 0 -0.0072250954264093436 -0.033815724780291573 0 -0.007287545892605528 -0.033848245304104158 0 -0.0072250954264093436 -0.033815724780291573 0 -0.0072705344779012285 -0.033854381283107741 0 -0.007287545892605528 -0.033848245304104158 0 -0.0072250954264093436 -0.033815724780291573 0 -0.0072705344779012285 -0.033854381283107741 0 -0.0071991937468030669 -0.033795169979595488 0 -0.0072705344779012285 -0.033854381283107741 0 -0.0072398000390820703 -0.033972161807896605 0 -0.0071991937468030669 -0.033795169979595488 0 -0.0072398000390820703 -0.033972161807896605 0 -0.0071991937468030669 -0.033795169979595488 0 -0.0071576698888244032 -0.03368723144192539 0 -0.0071991937468030669 -0.033795169979595488 0 -0.0071576698888244032 -0.03368723144192539 0 -0.0071653920326128244 -0.033662669890524965 0 -0.0071991937468030669 -0.033795169979595488 0 -0.0071799222959367751 -0.033728134013482243 0 -0.0071653920326128244 -0.033662669890524965 0 -0.0072250954264093436 -0.033815724780291573 0 -0.0071991937468030669 -0.033795169979595488 0 -0.0071799222959367751 -0.033728134013482243 0 -0.0072398000390820703 -0.033972161807896605 0 -0.0071576698888244032 -0.03368723144192539 0 -0.0070706854178596758 -0.033449569716300323 0 -0.0075067807865478306 -0.03189394354779173 0 -0.0069216984871022453 -0.032788220341303673 0 -0.0070706854178596758 -0.033449569716300323 0 -0.0072086593004065183 -0.032511488078271436 0 -0.0070788509639724681 -0.033057288434024029 0 -0.0065741303407327346 -0.03208638656788252 0 -0.00694975153782327 -0.032247415375879926 0 -0.0066187165399351402 -0.032463132745093611 0 -0.0065741303407327346 -0.03208638656788252 0 -0.0069737538969010136 -0.031892842369629554 0 -0.0065874463420466604 -0.031707432731790879 0 -0.0065741303407327346 -0.03208638656788252 0 -0.0069737538969010136 -0.031892842369629554 0 -0.00694975153782327 -0.032247415375879926 0 -0.0075067807865478306 -0.03189394354779173 0 -0.00694975153782327 -0.032247415375879926 0 -0.0069216984871022453 -0.032788220341303673 0 -0.0075067807865478306 -0.03189394354779173 0 -0.0069737538969010136 -0.031892842369629554 0 -0.00694975153782327 -0.032247415375879926 0 -0.00694975153782327 -0.032247415375879926 0 -0.0069216984871022453 -0.032788220341303673 0 -0.0066187165399351402 -0.032463132745093611 0 -0.0069216984871022453 -0.032788220341303673 0 -0.0066187165399351402 -0.032463132745093611 0 -0.006429554568842092 -0.032815328112956878 0 -0.0069216984871022453 -0.032788220341303673 0 -0.0069181313596661815 -0.033268394366755993 0 -0.0070706854178596758 -0.033449569716300323 0 -0.0069216984871022453 -0.032788220341303673 0 -0.0065999751829994551 -0.033062184700014922 0 -0.006429554568842092 -0.032815328112956878 0 -0.0069216984871022453 -0.032788220341303673 0 -0.0065999751829994551 -0.033062184700014922 0 -0.0069181313596661815 -0.033268394366755993 0 -0.0071576698888244032 -0.03368723144192539 0 -0.0070706854178596758 -0.033449569716300323 0 -0.0071390813106790713 -0.033586979582502487 0 -0.0070706854178596758 -0.033449569716300323 0 -0.0071332400483942529 -0.033553341420394685 0 -0.0071390813106790713 -0.033586979582502487 0 -0.0071563560521825933 -0.033651199825516141 0 -0.0071799222959367751 -0.033728134013482243 0 -0.0071653920326128244 -0.033662669890524965 0 -0.0071563560521825933 -0.033651199825516141 0 -0.0071653920326128244 -0.033662669890524965 0 -0.0071606797215806187 -0.033599400350820777 0 -0.0071653920326128244 -0.033662669890524965 0 -0.0071390813106790713 -0.033586979582502487 0 -0.0071606797215806187 -0.033599400350820777 0 -0.0071576698888244032 -0.03368723144192539 0 -0.0071653920326128244 -0.033662669890524965 0 -0.0071390813106790713 -0.033586979582502487 0 -0.0071332400483942529 -0.033553341420394685 0 -0.0071390813106790713 -0.033586979582502487 0 -0.0071606797215806187 -0.033599400350820777 0 -0.0050692142476791132 -0.0015497045031935134 0 -0.0067167449480574461 -0.0028239842173776925 0 -0.0069338493453382933 -0.0013080429584353423 0 -0.0058405906879004299 -0.018877689249931384 0 -0.0070238081964470855 -0.020290778805431474 0 -0.0071606797215806187 -0.033599400350820777 0 -0.0071499193817456709 -0.033650859483664863 0 -0.0071370096306529497 -0.033572841620568665 0 -0.0071332400483942529 -0.033553341420394685 0 -0.0071606797215806187 -0.033599400350820777 0 -0.0071499193817456709 -0.033650859483664863 0 -0.0050692142476791132 -0.0015497045031935134 0 -0.0042601180612792788 -0.0024836408427845766 0 -0.0032050567930915577 -0.00176403798802549 0 -0.0070706854178596758 -0.033449569716300323 0 -0.0071499193817456709 -0.033650859483664863 0 -0.0065444369442164011 -0.033774993596326762 0 -0.0070706854178596758 -0.033449569716300323 0 -0.0071332400483942529 -0.033553341420394685 0 -0.0071499193817456709 -0.033650859483664863 0 -0.0043638111752814495 -0.0036531622448010294 0 -0.0052047445234265112 -0.002906551683772574 0 -0.0042601180612792788 -0.0024836408427845766 0 -0.0050692142476791132 -0.0015497045031935134 0 -0.0052047445234265112 -0.002906551683772574 0 -0.0042601180612792788 -0.0024836408427845766 0 -0.0050692142476791132 -0.0015497045031935134 0 -0.0052047445234265112 -0.002906551683772574 0 -0.0067167449480574461 -0.0028239842173776925 0 -0.0067167449480574461 -0.0028239842173776925 0 -0.0075751899252200225 -0.0022068568393318953 0 -0.0069338493453382933 -0.0013080429584353423 0 -0.0067167449480574461 -0.0028239842173776925 0 -0.0076621896457510861 -0.003139179023811914 0 -0.0075751899252200225 -0.0022068568393318953 0 -0.0076621896457510861 -0.003139179023811914 0 -0.0083046338629809667 -0.0029648138409755719 0 -0.0084292263996182983 -0.0024592045371342563 0 -0.010319564261917536 -0.0139962565110198 0 -0.0096953276759884095 -0.014911870421673756 0 -0.0084292263996182983 -0.0024592045371342563 0 -0.0075751899252200225 -0.0022068568393318953 0 -0.0079406165270625509 -0.0017546339814925105 0 -0.0076621896457510861 -0.003139179023811914 0 -0.0084292263996182983 -0.0024592045371342563 0 -0.0075751899252200225 -0.0022068568393318953 0 -0.0088287801572387026 -0.0010512571559351362 0 -0.0084292263996182983 -0.0024592045371342563 0 -0.0079406165270625509 -0.0017546339814925105 0 -0.0088287801572387026 -0.0010512571559351362 0 -0.0079406165270625509 -0.0017546339814925105 0 -0.0069338493453382933 -0.0013080429584353423 0 -0.0075751899252200225 -0.0022068568393318953 0 -0.0079406165270625509 -0.0017546339814925105 0 -0.0069338493453382933 -0.0013080429584353423 0 -0.0066589601536119368 -0.023956344296298563 0 -0.0070238081964470855 -0.020290778805431474 0 -0.0072197539188901703 -0.015240483643900482 0 -0.0084184662419685124 -0.01717444337784628 0 -0.0090312147415792746 -0.015248761388921053 0 -0.0084184662419685124 -0.01717444337784628 0 -0.010043765219421363 -0.017219909163269525 0 -0.0090312147415792746 -0.015248761388921053 0 -0.010043765219421363 -0.017219909163269525 0 -0.011009698556589457 -0.015189265796561668 0 -0.012465290979467086 -0.01783474986994479 0 -0.010043765219421363 -0.017219909163269525 0 -0.011009698556589457 -0.015189265796561668 0 -0.0090312147415792746 -0.015248761388921053 0 -0.011009698556589457 -0.015189265796561668 0 -0.0090312147415792746 -0.015248761388921053 0 -0.0096448036187902538 -0.013373736898145954 0 -0.011009698556589457 -0.015189265796561668 0 -0.0096448036187902538 -0.013373736898145954 0 -0.011180502950859565 -0.012588034468222152 0 -0.0072197539188901703 -0.015240483643900482 0 -0.0090312147415792746 -0.015248761388921053 0 -0.008046387680748739 -0.013554853519478419 0 -0.0090312147415792746 -0.015248761388921053 0 -0.008046387680748739 -0.013554853519478419 0 -0.0096448036187902538 -0.013373736898145954 0 -0.008046387680748739 -0.013554853519478419 0 -0.0089356766541277902 -0.011769612792101923 0 -0.0096448036187902538 -0.013373736898145954 0 -0.0073152615721604492 -0.012270146728632426 0 -0.008046387680748739 -0.013554853519478419 0 -0.0089356766541277902 -0.011769612792101923 0 -0.0089356766541277902 -0.011769612792101923 0 -0.010655472329142547 -0.011273400060422632 0 -0.0096448036187902538 -0.013373736898145954 0 -0.010016511719484974 -0.0099573061647854344 0 -0.0089356766541277902 -0.011769612792101923 0 -0.010655472329142547 -0.011273400060422632 0 -0.010655472329142547 -0.011273400060422632 0 -0.0096448036187902538 -0.013373736898145954 0 -0.011180502950859565 -0.012588034468222152 0 -0.011180502950859565 -0.012588034468222152 0 -0.01148961330735569 -0.011109166035642581 0 -0.011611191798836996 -0.011696035037514579 0 -0.012043872461120538 -0.01356411098035354 0 -0.012774752126808139 -0.013910450525878098 0 -0.010655472329142547 -0.011273400060422632 0 -0.011180502950859565 -0.012588034468222152 0 -0.01148961330735569 -0.011109166035642581 0 -0.01148961330735569 -0.011109166035642581 0 -0.011611191798836996 -0.011696035037514579 0 -0.011830576069758366 -0.011123034041453433 0 -0.01459305327840479 -0.013169229694524498 0 -0.013405818880662626 -0.015318650966631082 0 -0.015886749501739936 -0.01531668932569359 0 -0.011180502950859565 -0.012588034468222152 0 -0.01459305327840479 -0.013169229694524498 0 -0.013405818880662626 -0.015318650966631082 0 -0.011009698556589457 -0.015189265796561668 0 -0.011180502950859565 -0.012588034468222152 0 -0.013405818880662626 -0.015318650966631082 0 -0.011009698556589457 -0.015189265796561668 0 -0.013405818880662626 -0.015318650966631082 0 -0.012465290979467086 -0.01783474986994479 0 -0.013405818880662626 -0.015318650966631082 0 -0.014942884700671694 -0.017077763538338057 0 -0.015886749501739936 -0.01531668932569359 0 -0.013405818880662626 -0.015318650966631082 0 -0.014942884700671694 -0.017077763538338057 0 -0.012465290979467086 -0.01783474986994479 0 -0.016595754459298246 -0.016847740765304826 0 -0.018102282757225887 -0.015700985072510887 0 -0.015886749501739936 -0.01531668932569359 0 -0.014942884700671694 -0.017077763538338057 0 -0.016595754459298246 -0.016847740765304826 0 -0.015886749501739936 -0.01531668932569359 0 -0.014942884700671694 -0.017077763538338057 0 -0.016595754459298246 -0.016847740765304826 0 -0.016081107713728175 -0.018071710125486733 0 -0.016595754459298246 -0.016847740765304826 0 -0.018011254121691349 -0.017718571057211311 0 -0.018102282757225887 -0.015700985072510887 0 -0.016595754459298246 -0.016847740765304826 0 -0.018011254121691349 -0.017718571057211311 0 -0.016081107713728175 -0.018071710125486733 0 -0.015626114476714074 -0.020580294450509639 0 -0.016715427778816312 -0.019385550966626797 0 -0.016223249257641237 -0.020777389026682479 0 -0.01526479847761157 -0.019031198137621545 0 -0.013836487596672283 -0.018896470232620723 0 -0.018011254121691349 -0.017718571057211311 0 -0.018102282757225887 -0.015700985072510887 0 -0.020084443702939096 -0.015465221627480015 0 -0.013767999298530771 -0.014983196125113752 0 -0.013399454495184987 -0.017037336985475646 0 -0.018102282757225887 -0.015700985072510887 0 -0.017590463618258188 -0.013745281284079617 0 -0.020084443702939096 -0.015465221627480015 0 -0.017590463618258188 -0.013745281284079617 0 -0.020529172696451783 -0.014247157211433126 0 -0.020084443702939096 -0.015465221627480015 0 -0.01459305327840479 -0.013169229694524498 0 -0.017590463618258188 -0.013745281284079617 0 -0.015886749501739936 -0.01531668932569359 0 -0.018102282757225887 -0.015700985072510887 0 -0.017590463618258188 -0.013745281284079617 0 -0.015886749501739936 -0.01531668932569359 0 -0.012774752126808139 -0.013910450525878098 0 -0.013767999298530771 -0.014983196125113752 0 -0.011611191798836996 -0.011696035037514579 0 -0.011928121450477346 -0.01127942849014872 0 -0.011830576069758366 -0.011123034041453433 0 -0.011830576069758366 -0.011123034041453433 0 -0.011858567865208407 -0.010636202111378444 0 -0.012011876886237635 -0.01071581998428639 0 -0.01148961330735569 -0.011109166035642581 0 -0.011830576069758366 -0.011123034041453433 0 -0.011858567865208407 -0.010636202111378444 0 -0.011830576069758366 -0.011123034041453433 0 -0.012011876886237635 -0.01071581998428639 0 -0.012040883634337385 -0.010961462354603319 0 -0.012134270733279995 -0.010372389205932373 0 -0.012011876886237635 -0.01071581998428639 0 -0.012112288781358499 -0.010692687010286363 0 -0.012011876886237635 -0.01071581998428639 0 -0.012112288781358499 -0.010692687010286363 0 -0.012040883634337385 -0.010961462354603319 0 -0.011928121450477346 -0.01127942849014872 0 -0.012195051775130059 -0.011055971199955531 0 -0.012276501891507908 -0.011238814068453966 0 -0.011928121450477346 -0.01127942849014872 0 -0.011830576069758366 -0.011123034041453433 0 -0.012040883634337385 -0.010961462354603319 0 -0.012112288781358499 -0.010692687010286363 0 -0.012040883634337385 -0.010961462354603319 0 -0.012202716735320935 -0.010781500297854915 0 -0.011928121450477346 -0.01127942849014872 0 -0.012040883634337385 -0.010961462354603319 0 -0.012195051775130059 -0.011055971199955531 0 -0.012195051775130059 -0.011055971199955531 0 -0.012411793107359896 -0.010927450693383342 0 -0.012276501891507908 -0.011238814068453966 0 -0.011659769614237 -0.020819096615087445 0 -0.011806359885099968 -0.022358002778724788 0 -0.01113424799141211 -0.022245522509461779 0 -0.012388678408456703 -0.014224911984248891 0 -0.013399454495184987 -0.017037336985475646 0 -0.012248641785088615 -0.01077875345039205 0 -0.012202716735320935 -0.010781500297854915 0 -0.012193557005848846 -0.010490308210767844 0 -0.012388678408456703 -0.014224911984248891 0 -0.012266610462958762 -0.014070020369805904 0 -0.012195051775130059 -0.011055971199955531 0 -0.012411793107359896 -0.010927450693383342 0 -0.012202716735320935 -0.010781500297854915 0 -0.012040883634337385 -0.010961462354603319 0 -0.012195051775130059 -0.011055971199955531 0 -0.012202716735320935 -0.010781500297854915 0 -0.012038792742396288 -0.01002751602027372 0 -0.01215173521189792 -0.010489965462553002 0 -0.012193557005848846 -0.010490308210767844 0 -0.012112288781358499 -0.010692687010286363 0 -0.012202716735320935 -0.010781500297854915 0 -0.01215173521189792 -0.010489965462553002 0 -0.012388678408456703 -0.014224911984248891 0 -0.012562230973882942 -0.013481736158236113 0 -0.012202716735320935 -0.010781500297854915 0 -0.01215173521189792 -0.010489965462553002 0 -0.012193557005848846 -0.010490308210767844 0 -0.012134270733279995 -0.010372389205932373 0 -0.012112288781358499 -0.010692687010286363 0 -0.01215173521189792 -0.010489965462553002 0 -0.012494185601902377 -0.010486176002619507 0 -0.01225806866466455 -0.010249919108991966 0 -0.012307236780402775 -0.010619274232687222 0 -0.01225806866466455 -0.010249919108991966 0 -0.012193557005848846 -0.010490308210767844 0 -0.012307236780402775 -0.010619274232687222 0 -0.012038792742396288 -0.01002751602027372 0 -0.01225806866466455 -0.010249919108991966 0 -0.012193557005848846 -0.010490308210767844 0 -0.012473388610341621 -0.010918377428742548 0 -0.012095572392874688 -0.010689981939008769 0 -0.012307236780402775 -0.010619274232687222 0 -0.013929102023877453 -0.022064486637472489 0 -0.011659769614237 -0.020819096615087445 0 -0.012550056970770659 -0.022211150710319472 0 -0.011319982618971493 -0.014204674136102454 0 -0.012388678408456703 -0.014224911984248891 0 -0.012095572392874688 -0.010689981939008769 0 -0.012193557005848846 -0.010490308210767844 0 -0.012307236780402775 -0.010619274232687222 0 -0.011659769614237 -0.020819096615087445 0 -0.012550056970770659 -0.022211150710319472 0 -0.011806359885099968 -0.022358002778724788 0 -0.013929102023877453 -0.022064486637472489 0 -0.01255384291246915 -0.023185681191520469 0 -0.012550056970770659 -0.022211150710319472 0 -0.013929102023877453 -0.022064486637472489 0 -0.01255384291246915 -0.023185681191520469 0 -0.013066295753012869 -0.023826525968781161 0 -0.01255384291246915 -0.023185681191520469 0 -0.012119726430311138 -0.022822648466714515 0 -0.012550056970770659 -0.022211150710319472 0 -0.012020625699748457 -0.023351156183427337 0 -0.01255384291246915 -0.023185681191520469 0 -0.012119726430311138 -0.022822648466714515 0 -0.012119726430311138 -0.022822648466714515 0 -0.012550056970770659 -0.022211150710319472 0 -0.011806359885099968 -0.022358002778724788 0 -0.013315748477664771 -0.017128279753103038 0 -0.013399454495184987 -0.017037336985475646 0 -0.011806359885099968 -0.022358002778724788 0 -0.011143818750434886 -0.022255565363772094 0 -0.011411662772866748 -0.022632727072932058 0 -0.011143818750434886 -0.022255565363772094 0 -0.011048739041973848 -0.022917186339464796 0 -0.011411662772866748 -0.022632727072932058 0 -0.011143818750434886 -0.022255565363772094 0 -0.011048739041973848 -0.022917186339464796 0 -0.01080548349822405 -0.023181703326366022 0 -0.013399454495184987 -0.017037336985475646 0 -0.013836487596672283 -0.018896470232620723 0 -0.011048739041973848 -0.022917186339464796 0 -0.010800349789332876 -0.023190842824847596 0 -0.011239215935952911 -0.023312347635150214 0 -0.013767026896907709 -0.018976809521047806 0 -0.013836487596672283 -0.018896470232620723 0 -0.012119726430311138 -0.022822648466714515 0 -0.011806359885099968 -0.022358002778724788 0 -0.011667700395134683 -0.023005309724776671 0 -0.011806359885099968 -0.022358002778724788 0 -0.011411662772866748 -0.022632727072932058 0 -0.011667700395134683 -0.023005309724776671 0 -0.011048739041973848 -0.022917186339464796 0 -0.011411662772866748 -0.022632727072932058 0 -0.011667700395134683 -0.023005309724776671 0 -0.011239215935952911 -0.023312347635150214 0 -0.011667700395134683 -0.023005309724776671 0 -0.01156336296360733 -0.02364997008283307 0 -0.011048739041973848 -0.022917186339464796 0 -0.011239215935952911 -0.023312347635150214 0 -0.011667700395134683 -0.023005309724776671 0 -0.012020625699748457 -0.023351156183427337 0 -0.012119726430311138 -0.022822648466714515 0 -0.011667700395134683 -0.023005309724776671 0 -0.012020625699748457 -0.023351156183427337 0 -0.011667700395134683 -0.023005309724776671 0 -0.01156336296360733 -0.02364997008283307 0 -0.01156336296360733 -0.02364997008283307 0 -0.011353342299541987 -0.024247058014923443 0 -0.012130761453226823 -0.024144500395844863 0 -0.010800349789332876 -0.023190842824847596 0 -0.010778265320790147 -0.024316045154738494 0 -0.010108891708202847 -0.02519600658543238 0 -0.013836487596672283 -0.018896470232620723 0 -0.012667772121667656 -0.022552411696117297 0 -0.012020625699748457 -0.023351156183427337 0 -0.01156336296360733 -0.02364997008283307 0 -0.012130761453226823 -0.024144500395844863 0 -0.011239215935952911 -0.023312347635150214 0 -0.01156336296360733 -0.02364997008283307 0 -0.011138760963033581 -0.023747885683407584 0 -0.01156336296360733 -0.02364997008283307 0 -0.011138760963033581 -0.023747885683407584 0 -0.011353342299541987 -0.024247058014923443 0 -0.010800349789332876 -0.023190842824847596 0 -0.011138760963033581 -0.023747885683407584 0 -0.010778265320790147 -0.024316045154738494 0 -0.010800349789332876 -0.023190842824847596 0 -0.011239215935952911 -0.023312347635150214 0 -0.011138760963033581 -0.023747885683407584 0 -0.011138760963033581 -0.023747885683407584 0 -0.010778265320790147 -0.024316045154738494 0 -0.011353342299541987 -0.024247058014923443 0 -0.010778265320790147 -0.024316045154738494 0 -0.010686169397155757 -0.024906921958331357 0 -0.010108891708202847 -0.02519600658543238 0 -0.010778265320790147 -0.024316045154738494 0 -0.01103839010130084 -0.024763643383751664 0 -0.011353342299541987 -0.024247058014923443 0 -0.010778265320790147 -0.024316045154738494 0 -0.01103839010130084 -0.024763643383751664 0 -0.010686169397155757 -0.024906921958331357 0 -0.011544651164987466 -0.024932608519761795 0 -0.012144433768495085 -0.0249243080412988 0 -0.012130761453226823 -0.024144500395844863 0 -0.011353342299541987 -0.024247058014923443 0 -0.011544651164987466 -0.024932608519761795 0 -0.012130761453226823 -0.024144500395844863 0 -0.01103839010130084 -0.024763643383751664 0 -0.011353342299541987 -0.024247058014923443 0 -0.011544651164987466 -0.024932608519761795 0 -0.013066295753012869 -0.023826525968781161 0 -0.012130761453226823 -0.024144500395844863 0 -0.012809653128539426 -0.024951801145292867 0 -0.012144433768495085 -0.0249243080412988 0 -0.012130761453226823 -0.024144500395844863 0 -0.012809653128539426 -0.024951801145292867 0 -0.013876481206405019 -0.024483795231994867 0 -0.013066295753012869 -0.023826525968781161 0 -0.012809653128539426 -0.024951801145292867 0 -0.012020625699748457 -0.023351156183427337 0 -0.01255384291246915 -0.023185681191520469 0 -0.012130761453226823 -0.024144500395844863 0 -0.01255384291246915 -0.023185681191520469 0 -0.013066295753012869 -0.023826525968781161 0 -0.012130761453226823 -0.024144500395844863 0 -0.012592659474085671 -0.025912472913066427 0 -0.012082451321896987 -0.025519416058419609 0 -0.011954639448246296 -0.026148696490496729 0 -0.012592659474085671 -0.025912472913066427 0 -0.011954639448246296 -0.026148696490496729 0 -0.012296999248810316 -0.026657718441856954 0 -0.012592659474085671 -0.025912472913066427 0 -0.012976434863011961 -0.026423799737098602 0 -0.012296999248810316 -0.026657718441856954 0 -0.01346261574512583 -0.025651018978742508 0 -0.013443180741923702 -0.027033603958796518 0 -0.012976434863011961 -0.026423799737098602 0 -0.01346261574512583 -0.025651018978742508 0 -0.012592659474085671 -0.025912472913066427 0 -0.012976434863011961 -0.026423799737098602 0 -0.01346261574512583 -0.025651018978742508 0 -0.012592659474085671 -0.025912472913066427 0 -0.012809653128539426 -0.024951801145292867 0 -0.013876481206405019 -0.024483795231994867 0 -0.01346261574512583 -0.025651018978742508 0 -0.012809653128539426 -0.024951801145292867 0 -0.012592659474085671 -0.025912472913066427 0 -0.012809653128539426 -0.024951801145292867 0 -0.012082451321896987 -0.025519416058419609 0 -0.012144433768495085 -0.0249243080412988 0 -0.012809653128539426 -0.024951801145292867 0 -0.012082451321896987 -0.025519416058419609 0 -0.011544651164987466 -0.024932608519761795 0 -0.012144433768495085 -0.0249243080412988 0 -0.012082451321896987 -0.025519416058419609 0 -0.011544651164987466 -0.024932608519761795 0 -0.012082451321896987 -0.025519416058419609 0 -0.011539047327753149 -0.025762795332457265 0 -0.011544651164987466 -0.024932608519761795 0 -0.010827783132526601 -0.025419367433946918 0 -0.011539047327753149 -0.025762795332457265 0 -0.010686169397155757 -0.024906921958331357 0 -0.010827783132526601 -0.025419367433946918 0 -0.010108891708202847 -0.02519600658543238 0 -0.01103839010130084 -0.024763643383751664 0 -0.011544651164987466 -0.024932608519761795 0 -0.010827783132526601 -0.025419367433946918 0 -0.01103839010130084 -0.024763643383751664 0 -0.010686169397155757 -0.024906921958331357 0 -0.010827783132526601 -0.025419367433946918 0 -0.011539047327753149 -0.025762795332457265 0 -0.011954639448246296 -0.026148696490496729 0 -0.011309359285737156 -0.026663519354956561 0 -0.010827783132526601 -0.025419367433946918 0 -0.011539047327753149 -0.025762795332457265 0 -0.011309359285737156 -0.026663519354956561 0 -0.012082451321896987 -0.025519416058419609 0 -0.011539047327753149 -0.025762795332457265 0 -0.011954639448246296 -0.026148696490496729 0 -0.011309359285737156 -0.026663519354956561 0 -0.010536281693272163 -0.027399921437884563 0 -0.012020182319019539 -0.027728228455071634 0 -0.011954639448246296 -0.026148696490496729 0 -0.011309359285737156 -0.026663519354956561 0 -0.012296999248810316 -0.026657718441856954 0 -0.010827783132526601 -0.025419367433946918 0 -0.011309359285737156 -0.026663519354956561 0 -0.010536281693272163 -0.027399921437884563 0 -0.011309359285737156 -0.026663519354956561 0 -0.012020182319019539 -0.027728228455071634 0 -0.012296999248810316 -0.026657718441856954 0 -0.010536281693272163 -0.027399921437884563 0 -0.012020182319019539 -0.027728228455071634 0 -0.010635309516197627 -0.02834015661384837 0 -0.012020182319019539 -0.027728228455071634 0 -0.012683247457138166 -0.026962482054374581 0 -0.012296999248810316 -0.026657718441856954 0 -0.012976434863011961 -0.026423799737098602 0 -0.012683247457138166 -0.026962482054374581 0 -0.012296999248810316 -0.026657718441856954 0 -0.013443180741923702 -0.027033603958796518 0 -0.012976434863011961 -0.026423799737098602 0 -0.012683247457138166 -0.026962482054374581 0 -0.0095725600443215316 -0.025428682674075144 0 -0.010242696924546386 -0.02594672941591122 0 -0.012161689451146282 -0.028001061340814169 0 -0.012159161962170397 -0.027569630660439541 0 -0.011405347989656252 -0.027968462681354046 0 -0.013443180741923702 -0.027033603958796518 0 -0.012020182319019539 -0.027728228455071634 0 -0.012683247457138166 -0.026962482054374581 0 -0.0091158559429337545 -0.027163700289026704 0 -0.010169996190048543 -0.027521452499783973 0 -0.012321548326057042 -0.027176399855012821 0 -0.011765976757669177 -0.028101077484222973 0 -0.010766385493084061 -0.028012492000285306 0 -0.012161689451146282 -0.028001061340814169 0 -0.011405347989656252 -0.027968462681354046 0 -0.011012846112729699 -0.028618705958466766 0 -0.012321548326057042 -0.027176399855012821 0 -0.012366119770751988 -0.028974468467176363 0 -0.011765976757669177 -0.028101077484222973 0 -0.011765976757669177 -0.028101077484222973 0 -0.011177042300694105 -0.028703910185224425 0 -0.010766385493084061 -0.028012492000285306 0 -0.012366119770751988 -0.028974468467176363 0 -0.011765976757669177 -0.028101077484222973 0 -0.011177042300694105 -0.028703910185224425 0 -0.012366119770751988 -0.028974468467176363 0 -0.011177042300694105 -0.028703910185224425 0 -0.010660491537515209 -0.029519910890959806 0 -0.010334540265915413 -0.028933090220942908 0 -0.009865628872993918 -0.029314890978006856 0 -0.010660491537515209 -0.029519910890959806 0 -0.010334540265915413 -0.028933090220942908 0 -0.011177042300694105 -0.028703910185224425 0 -0.010660491537515209 -0.029519910890959806 0 -0.010334540265915413 -0.028933090220942908 0 -0.011177042300694105 -0.028703910185224425 0 -0.010766385493084061 -0.028012492000285306 0 -0.011012846112729699 -0.028618705958466766 0 -0.010635309516197627 -0.02834015661384837 0 -0.010105551712044844 -0.028605450922547956 0 -0.010242696924546386 -0.02594672941591122 0 -0.010252279113377033 -0.026207255054281998 0 -0.011405347989656252 -0.027968462681354046 0 -0.011012846112729699 -0.028618705958466766 0 -0.010635309516197627 -0.02834015661384837 0 -0.010536281693272163 -0.027399921437884563 0 -0.010635309516197627 -0.02834015661384837 0 -0.010027325796556193 -0.028087944012737478 0 -0.010027325796556193 -0.028087944012737478 0 -0.0094500658028114585 -0.029001597861267686 0 -0.0096154466931428276 -0.027174645850440934 0 -0.010635309516197627 -0.02834015661384837 0 -0.010027325796556193 -0.028087944012737478 0 -0.010105551712044844 -0.028605450922547956 0 -0.011012846112729699 -0.028618705958466766 0 -0.010105551712044844 -0.028605450922547956 0 -0.0095948393541361986 -0.029052679259685146 0 -0.010584255849541431 -0.027520656694600194 0 -0.011428533403272273 -0.02570862299821455 0 -0.010027325796556193 -0.028087944012737478 0 -0.010105551712044844 -0.028605450922547956 0 -0.0094500658028114585 -0.029001597861267686 0 -0.010105551712044844 -0.028605450922547956 0 -0.0095948393541361986 -0.029052679259685146 0 -0.0094500658028114585 -0.029001597861267686 0 -0.010169996190048543 -0.027521452499783973 0 -0.0099809733273274644 -0.027878230642537267 0 -0.010334540265915413 -0.028933090220942908 0 -0.010766385493084061 -0.028012492000285306 0 -0.0095948393541361986 -0.029052679259685146 0 -0.010334540265915413 -0.028933090220942908 0 -0.0095948393541361986 -0.029052679259685146 0 -0.009865628872993918 -0.029314890978006856 0 -0.0095823680077597659 -0.029139573195209819 0 -0.0095566633453269892 -0.029125962093810513 0 -0.010283619728716316 -0.029141907498808337 0 -0.0095948393541361986 -0.029052679259685146 0 -0.0095823680077597659 -0.029139573195209819 0 -0.0091839961377188448 -0.029317580289830048 0 -0.0095823680077597659 -0.029139573195209819 0 -0.0095566633453269892 -0.029125962093810513 0 -0.0094500658028114585 -0.029001597861267686 0 -0.0095948393541361986 -0.029052679259685146 0 -0.0095823680077597659 -0.029139573195209819 0 -0.0094500658028114585 -0.029001597861267686 0 -0.011714268623524081 -0.026193864073118404 0 -0.011428533403272273 -0.02570862299821455 0 -0.0095566633453269892 -0.029125962093810513 0 -0.0094500658028114585 -0.029001597861267686 0 -0.0093134899987866223 -0.029384400214538565 0 -0.014637618693980465 -0.023626396732641716 0 -0.014485987449102851 -0.021795941027902822 0 -0.015729891492133309 -0.022210595667772403 0 -0.010827783132526601 -0.025419367433946918 0 -0.010536281693272163 -0.027399921437884563 0 -0.0096154466931428276 -0.027174645850440934 0 -0.010536281693272163 -0.027399921437884563 0 -0.010027325796556193 -0.028087944012737478 0 -0.0096154466931428276 -0.027174645850440934 0 -0.011048772895698585 -0.025984508953695105 0 -0.011428533403272273 -0.02570862299821455 0 -0.010827783132526601 -0.025419367433946918 0 -0.0094138725432508143 -0.027120446220421947 0 -0.010108891708202847 -0.02519600658543238 0 -0.015626114476714074 -0.020580294450509639 0 -0.015729891492133309 -0.022210595667772403 0 -0.016223249257641237 -0.020777389026682479 0 -0.011428533403272273 -0.02570862299821455 0 -0.012667772121667656 -0.022552411696117297 0 -0.018011254121691349 -0.017718571057211311 0 -0.015930355524926904 -0.019952085644745536 0 -0.016081107713728175 -0.018071710125486733 0 -0.01526479847761157 -0.019031198137621545 0 -0.014611198674301922 -0.020553444964239675 0 -0.015626114476714074 -0.020580294450509639 0 -0.014485987449102851 -0.021795941027902822 0 -0.015729891492133309 -0.022210595667772403 0 -0.015930355524926904 -0.019952085644745536 0 -0.016081107713728175 -0.018071710125486733 0 -0.014926947969146861 -0.018749648499697753 0 -0.014942884700671694 -0.017077763538338057 0 -0.014926947969146861 -0.018749648499697753 0 -0.012465290979467086 -0.01783474986994479 0 -0.015930355524926904 -0.019952085644745536 0 -0.014926947969146861 -0.018749648499697753 0 -0.013538425476246577 -0.019466242131641751 0 -0.014926947969146861 -0.018749648499697753 0 -0.012465290979467086 -0.01783474986994479 0 -0.013538425476246577 -0.019466242131641751 0 -0.014942884700671694 -0.017077763538338057 0 -0.016081107713728175 -0.018071710125486733 0 -0.014926947969146861 -0.018749648499697753 0 -0.012465290979467086 -0.01783474986994479 0 -0.013538425476246577 -0.019466242131641751 0 -0.01163075307109881 -0.020281223394124467 0 -0.01163075307109881 -0.020281223394124467 0 -0.013900513327102697 -0.022157304075603516 0 -0.010928784003201217 -0.022469517167120933 0 -0.013538425476246577 -0.019466242131641751 0 -0.01163075307109881 -0.020281223394124467 0 -0.013900513327102697 -0.022157304075603516 0 -0.014637618693980465 -0.023626396732641716 0 -0.014485987449102851 -0.021795941027902822 0 -0.013228640683200975 -0.023076923253462701 0 -0.015930355524926904 -0.019952085644745536 0 -0.013538425476246577 -0.019466242131641751 0 -0.013900513327102697 -0.022157304075603516 0 -0.014611198674301922 -0.020553444964239675 0 -0.01346039268019243 -0.022151456397830258 0 -0.014637618693980465 -0.023626396732641716 0 -0.013286066173419545 -0.02411499141911113 0 -0.013228640683200975 -0.023076923253462701 0 -0.011714268623524081 -0.026193864073118404 0 -0.011582202359193881 -0.026808182399021142 0 -0.014637618693980465 -0.023626396732641716 0 -0.013286066173419545 -0.02411499141911113 0 -0.01343653537454364 -0.025341836153509743 0 -0.01343653537454364 -0.025341836153509743 0 -0.011730710639577726 -0.024438584688079808 0 -0.010915329587588216 -0.026034650941576296 0 -0.013286066173419545 -0.02411499141911113 0 -0.01343653537454364 -0.025341836153509743 0 -0.011730710639577726 -0.024438584688079808 0 -0.013900513327102697 -0.022157304075603516 0 -0.011730710639577726 -0.024438584688079808 0 -0.010928784003201217 -0.022469517167120933 0 -0.01346039268019243 -0.022151456397830258 0 -0.012737549927296499 -0.023021925575427288 0 -0.013286066173419545 -0.02411499141911113 0 -0.013228640683200975 -0.023076923253462701 0 -0.011730710639577726 -0.024438584688079808 0 -0.010928784003201217 -0.022469517167120933 0 -0.0099719317761735489 -0.0247962777487413 0 -0.0087044076778402691 -0.022913953885661149 0 -0.011730710639577726 -0.024438584688079808 0 -0.0099719317761735489 -0.0247962777487413 0 -0.010915329587588216 -0.026034650941576296 0 -0.011730710639577726 -0.024438584688079808 0 -0.010928784003201217 -0.022469517167120933 0 -0.0099719317761735489 -0.0247962777487413 0 -0.0079735679306565058 -0.025571311832719868 0 -0.0099719317761735489 -0.0247962777487413 0 -0.0087044076778402691 -0.022913953885661149 0 -0.010928784003201217 -0.022469517167120933 0 -0.0087044076778402691 -0.022913953885661149 0 -0.0095983540319091384 -0.020734738766870289 0 -0.007638893096435102 -0.020748645064730967 0 -0.0095983540319091384 -0.020734738766870289 0 -0.0086358796383883465 -0.018993097932330019 0 -0.007638893096435102 -0.020748645064730967 0 -0.0087044076778402691 -0.022913953885661149 0 -0.0095983540319091384 -0.020734738766870289 0 -0.01163075307109881 -0.020281223394124467 0 -0.0095983540319091384 -0.020734738766870289 0 -0.01038898793040456 -0.019010981566746202 0 -0.01163075307109881 -0.020281223394124467 0 -0.010928784003201217 -0.022469517167120933 0 -0.0095983540319091384 -0.020734738766870289 0 -0.010043765219421363 -0.017219909163269525 0 -0.012465290979467086 -0.01783474986994479 0 -0.01038898793040456 -0.019010981566746202 0 -0.012465290979467086 -0.01783474986994479 0 -0.01163075307109881 -0.020281223394124467 0 -0.01038898793040456 -0.019010981566746202 0 -0.0084184662419685124 -0.01717444337784628 0 -0.010043765219421363 -0.017219909163269525 0 -0.0086358796383883465 -0.018993097932330019 0 -0.010043765219421363 -0.017219909163269525 0 -0.01038898793040456 -0.019010981566746202 0 -0.0086358796383883465 -0.018993097932330019 0 -0.0071035283935371295 -0.01867802313555654 0 -0.0084184662419685124 -0.01717444337784628 0 -0.0086358796383883465 -0.018993097932330019 0 -0.0095983540319091384 -0.020734738766870289 0 -0.01038898793040456 -0.019010981566746202 0 -0.0086358796383883465 -0.018993097932330019 0 -0.010404707591500171 -0.032399468497935888 0 -0.012148106045924241 -0.031109140521242189 0 -0.010056182284127588 -0.030358470764929219 0 -0.010404707591500171 -0.032399468497935888 0 -0.012148106045924241 -0.031109140521242189 0 -0.012549823489370542 -0.032670503452270412 0 -0.012148106045924241 -0.031109140521242189 0 -0.014181903957622853 -0.030321840786893126 0 -0.013361183448021894 -0.03179037142328927 0 -0.012148106045924241 -0.031109140521242189 0 -0.013361183448021894 -0.03179037142328927 0 -0.012549823489370542 -0.032670503452270412 0 -0.013361183448021894 -0.03179037142328927 0 -0.013547590528626943 -0.032722052051454016 0 -0.012549823489370542 -0.032670503452270412 0 -0.010577886940238576 -0.029439901484881559 0 -0.01142806191190175 -0.030422295431376541 0 -0.012148106045924241 -0.031109140521242189 0 -0.012029631888843807 -0.029153203535674264 0 -0.014181903957622853 -0.030321840786893126 0 -0.0085787386956911547 -0.027828972663838231 0 -0.010056182284127588 -0.030358470764929219 0 -0.012029631888843807 -0.029153203535674264 0 -0.012148106045924241 -0.031109140521242189 0 -0.010056182284127588 -0.030358470764929219 0 -0.012029631888843807 -0.029153203535674264 0 -0.0085787386956911547 -0.027828972663838231 0 -0.0098164631637236727 -0.026800927853862764 0 -0.010383125223774187 -0.028107112395571142 0 -0.0097807306626124402 -0.028972785258240142 0 -0.010577886940238576 -0.029439901484881559 0 -0.0079735679306565058 -0.025571311832719868 0 -0.0099719317761735489 -0.0247962777487413 0 -0.0098164631637236727 -0.026800927853862764 0 -0.0079735679306565058 -0.025571311832719868 0 -0.0085787386956911547 -0.027828972663838231 0 -0.0098164631637236727 -0.026800927853862764 0 -0.0099719317761735489 -0.0247962777487413 0 -0.0098164631637236727 -0.026800927853862764 0 -0.010915329587588216 -0.026034650941576296 0 -0.0098164631637236727 -0.026800927853862764 0 -0.010915329587588216 -0.026034650941576296 0 -0.011346222036023092 -0.027658634914109789 0 -0.0098164631637236727 -0.026800927853862764 0 -0.010383125223774187 -0.028107112395571142 0 -0.011346222036023092 -0.027658634914109789 0 -0.011346222036023092 -0.027658634914109789 0 -0.010510242220659782 -0.027785784745983404 0 -0.010985920397452574 -0.027677936427657444 0 -0.010383125223774187 -0.028107112395571142 0 -0.011346222036023092 -0.027658634914109789 0 -0.010985920397452574 -0.027677936427657444 0 -0.011582202359193881 -0.026808182399021142 0 -0.011426888680800341 -0.027123973550039326 0 -0.01343653537454364 -0.025341836153509743 0 -0.010915329587588216 -0.026034650941576296 0 -0.011346222036023092 -0.027658634914109789 0 -0.0095823680077597659 -0.029139573195209819 0 -0.010283619728716316 -0.029141907498808337 0 -0.010017739514001088 -0.028616539615825311 0 -0.010283619728716316 -0.029141907498808337 0 -0.011346222036023092 -0.027658634914109789 0 -0.010017739514001088 -0.028616539615825311 0 -0.010017739514001088 -0.028616539615825311 0 -0.010510242220659782 -0.027785784745983404 0 -0.009654326437884754 -0.027862892013351404 0 -0.011346222036023092 -0.027658634914109789 0 -0.010017739514001088 -0.028616539615825311 0 -0.010510242220659782 -0.027785784745983404 0 -0.01142806191190175 -0.030422295431376541 0 -0.011341364028604759 -0.031947861060833575 0 -0.010510242220659782 -0.027785784745983404 0 -0.010985920397452574 -0.027677936427657444 0 -0.010138452932766885 -0.027110330783366627 0 -0.014181903957622853 -0.030321840786893126 0 -0.013361183448021894 -0.03179037142328927 0 -0.014366561721552866 -0.032000475984246532 0 -0.013361183448021894 -0.03179037142328927 0 -0.014366561721552866 -0.032000475984246532 0 -0.013547590528626943 -0.032722052051454016 0 -0.011341364028604759 -0.031947861060833575 0 -0.01227096673200086 -0.033001929123890258 0 -0.014181903957622853 -0.030321840786893126 0 -0.014366561721552866 -0.032000475984246532 0 -0.016035143260332188 -0.031148935194929808 0 -0.014366561721552866 -0.032000475984246532 0 -0.016035143260332188 -0.031148935194929808 0 -0.015035700276705699 -0.033194544965218613 0 -0.011597339802685838 -0.036112532386527688 0 -0.011350896112141779 -0.035339024170538719 0 -0.012355159777677517 -0.035229605640541957 0 -0.011341364028604759 -0.031947861060833575 0 -0.010968685656628546 -0.032897451955294393 0 -0.011597339802685838 -0.036112532386527688 0 -0.010904077258749914 -0.035585185645173968 0 -0.011350896112141779 -0.035339024170538719 0 -0.010904077258749914 -0.035585185645173968 0 -0.010645014421491019 -0.034820226314127477 0 -0.010799094770160465 -0.035217319369292052 0 -0.010968685656628546 -0.032897451955294393 0 -0.011032381251657338 -0.033230304879213628 0 -0.0089823531699985033 -0.034006602301145106 0 -0.0092638739444586594 -0.032443568163887285 0 -0.010493264355785908 -0.033324823874803018 0 -0.0072551238016025522 -0.033335134155954849 0 -0.0089823531699985033 -0.034006602301145106 0 -0.0092638739444586594 -0.032443568163887285 0 -0.010510242220659782 -0.027785784745983404 0 -0.010138452932766885 -0.027110330783366627 0 -0.009654326437884754 -0.027862892013351404 0 -0.011341364028604759 -0.031947861060833575 0 -0.010681663198508766 -0.030817976543930321 0 -0.0072551238016025522 -0.033335134155954849 0 -0.0092638739444586594 -0.032443568163887285 0 -0.0080206164388392908 -0.031491277366777017 0 -0.010017739514001088 -0.028616539615825311 0 -0.009654326437884754 -0.027862892013351404 0 -0.0091839961377188448 -0.029317580289830048 0 -0.010681663198508766 -0.030817976543930321 0 -0.010510951985823344 -0.03043801078703455 0 -0.0095823680077597659 -0.029139573195209819 0 -0.010017739514001088 -0.028616539615825311 0 -0.0091839961377188448 -0.029317580289830048 0 -0.0095948393541361986 -0.029052679259685146 0 -0.0091839961377188448 -0.029317580289830048 0 -0.009865628872993918 -0.029314890978006856 0 -0.0091839961377188448 -0.029317580289830048 0 -0.009865628872993918 -0.029314890978006856 0 -0.010048471969089151 -0.030436418926196019 0 -0.0080206164388392908 -0.031491277366777017 0 -0.0091839961377188448 -0.029317580289830048 0 -0.010048471969089151 -0.030436418926196019 0 -0.0092638739444586594 -0.032443568163887285 0 -0.010048471969089151 -0.030436418926196019 0 -0.010956301040365676 -0.031893623507683343 0 -0.0092638739444586594 -0.032443568163887285 0 -0.0080206164388392908 -0.031491277366777017 0 -0.010048471969089151 -0.030436418926196019 0 -0.010048471969089151 -0.030436418926196019 0 -0.011267794143663336 -0.030601613107829728 0 -0.010956301040365676 -0.031893623507683343 0 -0.010048471969089151 -0.030436418926196019 0 -0.011267794143663336 -0.030601613107829728 0 -0.010660491537515209 -0.029519910890959806 0 -0.009865628872993918 -0.029314890978006856 0 -0.010048471969089151 -0.030436418926196019 0 -0.010660491537515209 -0.029519910890959806 0 -0.012366119770751988 -0.028974468467176363 0 -0.011267794143663336 -0.030601613107829728 0 -0.010660491537515209 -0.029519910890959806 0 -0.012366119770751988 -0.028974468467176363 0 -0.011267794143663336 -0.030601613107829728 0 -0.012518094554718645 -0.030949717811310413 0 -0.011267794143663336 -0.030601613107829728 0 -0.010956301040365676 -0.031893623507683343 0 -0.012518094554718645 -0.030949717811310413 0 -0.010956301040365676 -0.031893623507683343 0 -0.012518094554718645 -0.030949717811310413 0 -0.01232007674527035 -0.033462528170760196 0 -0.010956301040365676 -0.031893623507683343 0 -0.010493264355785908 -0.033324823874803018 0 -0.01232007674527035 -0.033462528170760196 0 -0.0092638739444586594 -0.032443568163887285 0 -0.010956301040365676 -0.031893623507683343 0 -0.010493264355785908 -0.033324823874803018 0 -0.010493264355785908 -0.033324823874803018 0 -0.010645014421491019 -0.034820226314127477 0 -0.01232007674527035 -0.033462528170760196 0 -0.0089823531699985033 -0.034006602301145106 0 -0.010493264355785908 -0.033324823874803018 0 -0.010645014421491019 -0.034820226314127477 0 -0.010645014421491019 -0.034820226314127477 0 -0.01232007674527035 -0.033462528170760196 0 -0.011449439540574771 -0.035222844918048744 0 -0.010645014421491019 -0.034820226314127477 0 -0.010752539002487342 -0.035411303754540394 0 -0.011449439540574771 -0.035222844918048744 0 -0.010645014421491019 -0.034820226314127477 0 -0.010752539002487342 -0.035411303754540394 0 -0.010799094770160465 -0.035217319369292052 0 -0.010752539002487342 -0.035411303754540394 0 -0.010843441219408894 -0.035373254995457362 0 -0.010799094770160465 -0.035217319369292052 0 -0.010752539002487342 -0.035411303754540394 0 -0.010526564184984195 -0.03548996530692141 0 -0.010843441219408894 -0.035373254995457362 0 -0.010752539002487342 -0.035411303754540394 0 -0.011449439540574771 -0.035222844918048744 0 -0.010340781101368431 -0.03564370984374414 0 -0.0099292540284458188 -0.035364235996235824 0 -0.010526564184984195 -0.03548996530692141 0 -0.010340781101368431 -0.03564370984374414 0 -0.010752539002487342 -0.035411303754540394 0 -0.010526564184984195 -0.03548996530692141 0 -0.010340781101368431 -0.03564370984374414 0 -0.0099292540284458188 -0.035364235996235824 0 -0.010028175774409698 -0.034999618825733082 0 -0.0087502978124786544 -0.034999958405511011 0 -0.0099292540284458188 -0.035364235996235824 0 -0.010340781101368431 -0.03564370984374414 0 -0.0087502978124786544 -0.034999958405511011 0 -0.010028175774409698 -0.034999618825733082 0 -0.010526564184984195 -0.03548996530692141 0 -0.011304089554810499 -0.035000058527208409 0 -0.0099292540284458188 -0.035364235996235824 0 -0.010028175774409698 -0.034999618825733082 0 -0.010526564184984195 -0.03548996530692141 0 -0.010526564184984195 -0.03548996530692141 0 -0.011046235774335958 -0.035300403926033855 0 -0.010843441219408894 -0.035373254995457362 0 -0.011046235774335958 -0.035300403926033855 0 -0.011304089554810499 -0.035000058527208409 0 -0.011155180972082269 -0.035198065699299508 0 -0.011307147780096246 -0.034999891336476234 0 -0.012196696058475353 -0.035169000179751705 0 -0.010526564184984195 -0.03548996530692141 0 -0.011046235774335958 -0.035300403926033855 0 -0.011304089554810499 -0.035000058527208409 0 -0.011306066426135701 -0.034999999129646936 0 -0.013033147550713716 -0.034999996592761713 0 -0.012628551447530298 -0.035809621960040838 0 -0.013033147550713716 -0.034999996592761713 0 -0.012628551447530298 -0.035809621960040838 0 -0.013570143807964707 -0.035726727865052411 0 -0.011046235774335958 -0.035300403926033855 0 -0.011155180972082269 -0.035198065699299508 0 -0.011135766654926892 -0.035261877416151853 0 -0.011046235774335958 -0.035300403926033855 0 -0.011135766654926892 -0.035261877416151853 0 -0.01106058131942091 -0.035274091752681445 0 -0.011135766654926892 -0.035261877416151853 0 -0.01106058131942091 -0.035274091752681445 0 -0.011171542104284591 -0.035285503088993801 0 -0.011046235774335958 -0.035300403926033855 0 -0.01106058131942091 -0.035274091752681445 0 -0.010843441219408894 -0.035373254995457362 0 -0.01106058131942091 -0.035274091752681445 0 -0.010843441219408894 -0.035373254995457362 0 -0.010799094770160465 -0.035217319369292052 0 -0.010904077258749914 -0.035585185645173968 0 -0.010799094770160465 -0.035217319369292052 0 -0.011350896112141779 -0.035339024170538719 0 -0.01106058131942091 -0.035274091752681445 0 -0.010799094770160465 -0.035217319369292052 0 -0.011350896112141779 -0.035339024170538719 0 -0.01106058131942091 -0.035274091752681445 0 -0.011350896112141779 -0.035339024170538719 0 -0.011171542104284591 -0.035285503088993801 0 -0.012460965756951714 -0.035577563594970031 0 -0.01272144073160548 -0.035446152964636476 0 -0.011350896112141779 -0.035339024170538719 0 -0.012355159777677517 -0.035229605640541957 0 -0.012291164266889554 -0.034488989191006153 0 -0.014366561721552866 -0.032000475984246532 0 -0.015035700276705699 -0.033194544965218613 0 -0.014189928941153663 -0.033027956442494164 0 -0.014366561721552866 -0.032000475984246532 0 -0.014189928941153663 -0.033027956442494164 0 -0.013547590528626943 -0.032722052051454016 0 -0.014189928941153663 -0.033027956442494164 0 -0.013547590528626943 -0.032722052051454016 0 -0.013776176778217441 -0.033497796583110598 0 -0.013776176778217441 -0.033497796583110598 0 -0.013583481654346238 -0.033967811372573598 0 -0.013230443119534469 -0.033532590320857328 0 -0.013547590528626943 -0.032722052051454016 0 -0.013776176778217441 -0.033497796583110598 0 -0.013230443119534469 -0.033532590320857328 0 -0.015035700276705699 -0.033194544965218613 0 -0.014189928941153663 -0.033027956442494164 0 -0.014101105654973235 -0.033620471015991069 0 -0.014189928941153663 -0.033027956442494164 0 -0.013776176778217441 -0.033497796583110598 0 -0.014101105654973235 -0.033620471015991069 0 -0.014101105654973235 -0.033620471015991069 0 -0.013801490622147611 -0.033930074751503822 0 -0.013581938707067923 -0.034105128413069258 0 -0.013776176778217441 -0.033497796583110598 0 -0.014101105654973235 -0.033620471015991069 0 -0.013801490622147611 -0.033930074751503822 0 -0.013776176778217441 -0.033497796583110598 0 -0.013801490622147611 -0.033930074751503822 0 -0.013583481654346238 -0.033967811372573598 0 -0.013801490622147611 -0.033930074751503822 0 -0.013583481654346238 -0.033967811372573598 0 -0.013772270013902289 -0.034131797764252958 0 -0.013801490622147611 -0.033930074751503822 0 -0.013772270013902289 -0.034131797764252958 0 -0.013581938707067923 -0.034105128413069258 0 -0.012355159777677517 -0.035229605640541957 0 -0.013581938707067923 -0.034105128413069258 0 -0.012291164266889554 -0.034488989191006153 0 -0.015035700276705699 -0.033194544965218613 0 -0.014101105654973235 -0.033620471015991069 0 -0.013581938707067923 -0.034105128413069258 0 -0.01272144073160548 -0.035446152964636476 0 -0.013393853164664215 -0.035316552918719817 0 -0.01227096673200086 -0.033001929123890258 0 -0.01256835560171077 -0.033194144051242609 0 -0.013581938707067923 -0.034105128413069258 0 -0.012291164266889554 -0.034488989191006153 0 -0.013306875476459805 -0.033608887364828782 0 -0.011135766654926892 -0.035261877416151853 0 -0.011171542104284591 -0.035285503088993801 0 -0.01118605940107207 -0.035250248401992458 0 -0.011155180972082269 -0.035198065699299508 0 -0.011135766654926892 -0.035261877416151853 0 -0.01118605940107207 -0.035250248401992458 0 -0.012196696058475353 -0.035169000179751705 0 -0.013393853164664215 -0.035316552918719817 0 -0.013946981516300673 -0.036617690091310898 0 -0.013570143807964707 -0.035726727865052411 0 -0.014760217266567257 -0.034999997898372916 0 -0.012628551447530298 -0.035809621960040838 0 -0.013946981516300673 -0.036617690091310898 0 -0.013570143807964707 -0.035726727865052411 0 -0.013033147550713716 -0.034999996592761713 0 -0.013570143807964707 -0.035726727865052411 0 -0.014760217266567257 -0.034999997898372916 0 -0.014760424365695113 -0.035000466195415102 0 -0.014924953616953646 -0.035877293549958146 0 -0.015090160200566844 -0.036294176364441273 0 -0.013393853164664215 -0.035316552918719817 0 -0.014758134919323804 -0.035000012873117228 0 -0.014625274594954513 -0.035986727322145626 0 -0.014760424365695113 -0.035000466195415102 0 -0.014924953616953646 -0.035877293549958146 0 -0.015167621528645862 -0.035762732682748183 0 -0.014625274594954513 -0.035986727322145626 0 -0.014924953616953646 -0.035877293549958146 0 -0.013529832248241391 -0.035134856653121979 0 -0.013393853164664215 -0.035316552918719817 0 -0.013772270013902289 -0.034131797764252958 0 -0.013581938707067923 -0.034105128413069258 0 -0.013306875476459805 -0.033608887364828782 0 -0.015167621528645862 -0.035762732682748183 0 -0.014924953616953646 -0.035877293549958146 0 -0.015090160200566844 -0.036294176364441273 0 -0.015167621528645862 -0.035762732682748183 0 -0.015090160200566844 -0.036294176364441273 0 -0.014084138806391928 -0.035231325847573103 0 -0.015090160200566844 -0.036294176364441273 0 -0.016556492753886778 -0.03681991031544847 0 -0.016230599944045656 -0.038141460608658535 0 -0.014760424365695113 -0.035000466195415102 0 -0.015090160200566844 -0.036294176364441273 0 -0.016382960224234459 -0.035852869974681366 0 -0.014760424365695113 -0.035000466195415102 0 -0.016810061092633454 -0.034999557824043882 0 -0.016382960224234459 -0.035852869974681366 0 -0.017774259842394544 -0.036264447122187113 0 -0.016810061092633454 -0.034999557824043882 0 -0.016382960224234459 -0.035852869974681366 0 -0.017774259842394544 -0.036264447122187113 0 -0.016556492753886778 -0.03681991031544847 0 -0.017195405621962159 -0.037632609525416867 0 -0.017774259842394544 -0.036264447122187113 0 -0.016382960224234459 -0.035852869974681366 0 -0.016556492753886778 -0.03681991031544847 0 -0.015090160200566844 -0.036294176364441273 0 -0.016382960224234459 -0.035852869974681366 0 -0.016556492753886778 -0.03681991031544847 0 -0.016556492753886778 -0.03681991031544847 0 -0.017195405621962159 -0.037632609525416867 0 -0.016230599944045656 -0.038141460608658535 0 -0.017195405621962159 -0.037632609525416867 0 -0.016230599944045656 -0.038141460608658535 0 -0.017099157565248258 -0.038516185627889055 0 -0.015090160200566844 -0.036294176364441273 0 -0.01215471756567053 -0.034295001846520096 0 -0.014084138806391928 -0.035231325847573103 0 -0.015046680714733763 -0.035441938931519895 0 -0.015100238172398785 -0.035231185872214008 0 -0.013529832248241391 -0.035134856653121979 0 -0.013426410632898319 -0.034992174937195523 0 -0.013583481654346238 -0.033967811372573598 0 -0.013772270013902289 -0.034131797764252958 0 -0.013262706907703262 -0.034316643585028173 0 -0.015167621528645862 -0.035762732682748183 0 -0.014084138806391928 -0.035231325847573103 0 -0.013262706907703262 -0.034316643585028173 0 -0.013583481654346238 -0.033967811372573598 0 -0.013262706907703262 -0.034316643585028173 0 -0.013230443119534469 -0.033532590320857328 0 -0.01215471756567053 -0.034295001846520096 0 -0.014084138806391928 -0.035231325847573103 0 -0.013262706907703262 -0.034316643585028173 0 -0.01215471756567053 -0.034295001846520096 0 -0.013262706907703262 -0.034316643585028173 0 -0.012337025737643444 -0.033440421174553259 0 -0.013262706907703262 -0.034316643585028173 0 -0.012337025737643444 -0.033440421174553259 0 -0.013230443119534469 -0.033532590320857328 0 -0.012337025737643444 -0.033440421174553259 0 -0.013230443119534469 -0.033532590320857328 0 -0.012549823489370542 -0.032670503452270412 0 -0.013547590528626943 -0.032722052051454016 0 -0.013230443119534469 -0.033532590320857328 0 -0.012549823489370542 -0.032670503452270412 0 -0.010404707591500171 -0.032399468497935888 0 -0.012337025737643444 -0.033440421174553259 0 -0.012549823489370542 -0.032670503452270412 0 -0.017120363058183333 -0.039672061317334431 0 -0.016230599944045656 -0.038141460608658535 0 -0.017099157565248258 -0.038516185627889055 0 -0.010404707591500171 -0.032399468497935888 0 -0.01215471756567053 -0.034295001846520096 0 -0.012337025737643444 -0.033440421174553259 0 -0.015500695070714367 -0.034467450743357136 0 -0.015100238172398785 -0.035231185872214008 0 -0.0075611072543569254 -0.031147028830433996 0 -0.0074478486565180283 -0.030133191568176534 0 -0.0072030550666329204 -0.032420205540946864 0 -0.0075611072543569254 -0.031147028830433996 0 -0.0079564017672422802 -0.03027676016689845 0 -0.0074781631619059777 -0.032284205704295528 0 -0.0072401155771558059 -0.032703175748516562 0 -0.0072009896707647767 -0.033243084431623215 0 -0.0072805965318253488 -0.034602989699628287 0 -0.0073189405217160873 -0.034920396280800389 0 -0.0074548994655145428 -0.034384066570256153 0 -0.007199558089689171 -0.034769792690467857 0 -0.0072805965318253488 -0.034602989699628287 0 -0.0073189405217160873 -0.034920396280800389 0 -0.0075611072543569254 -0.031147028830433996 0 -0.0079564017672422802 -0.03027676016689845 0 -0.0076938325090452567 -0.030330738283926711 0 -0.0072805965318253488 -0.034602989699628287 0 -0.0071865366491703888 -0.034475438288521905 0 -0.0072903573948807608 -0.034411318871621119 0 -0.007199558089689171 -0.034769792690467857 0 -0.0072805965318253488 -0.034602989699628287 0 -0.0071667013889091637 -0.034633257400673675 0 -0.0072805965318253488 -0.034602989699628287 0 -0.0071667013889091637 -0.034633257400673675 0 -0.0071865366491703888 -0.034475438288521905 0 -0.0071667013889091637 -0.034633257400673675 0 -0.0071865366491703888 -0.034475438288521905 0 -0.0070642777705388618 -0.034528303872966376 0 -0.0071667013889091637 -0.034633257400673675 0 -0.0070748666890092021 -0.034804842991796002 0 -0.0070642777705388618 -0.034528303872966376 0 -0.0070748666890092021 -0.034804842991796002 0 -0.0070642777705388618 -0.034528303872966376 0 -0.0069422362496125876 -0.034707917063126391 0 -0.0070748666890092021 -0.034804842991796002 0 -0.0069422362496125876 -0.034707917063126391 0 -0.0068760017025588484 -0.035026886163686224 0 -0.007199558089689171 -0.034769792690467857 0 -0.0071667013889091637 -0.034633257400673675 0 -0.0070748666890092021 -0.034804842991796002 0 -0.007199558089689171 -0.034769792690467857 0 -0.0070748666890092021 -0.034804842991796002 0 -0.0071623353547297418 -0.034890195218160829 0 -0.0071623353547297418 -0.034890195218160829 0 -0.0070694469894742335 -0.035071827885683818 0 -0.0073189405217160873 -0.034920396280800389 0 -0.0070748666890092021 -0.034804842991796002 0 -0.0071623353547297418 -0.034890195218160829 0 -0.0070694469894742335 -0.035071827885683818 0 -0.0070694469894742335 -0.035071827885683818 0 -0.0073189405217160873 -0.034920396280800389 0 -0.0070424442610960702 -0.03537071125593591 0 -0.0070748666890092021 -0.034804842991796002 0 -0.0070694469894742335 -0.035071827885683818 0 -0.0068760017025588484 -0.035026886163686224 0 -0.0070694469894742335 -0.035071827885683818 0 -0.0068760017025588484 -0.035026886163686224 0 -0.0068656909642373582 -0.035249928756282606 0 -0.0077512781138041513 -0.030025520611202158 0 -0.0075409590734867747 -0.029506635543665536 0 -0.0084470958724637158 -0.028886943023547999 0 -0.0079564017672422802 -0.03027676016689845 0 -0.0077512781138041513 -0.030025520611202158 0 -0.0084470958724637158 -0.028886943023547999 0 -0.0072401155771558059 -0.032703175748516562 0 -0.0069544924982808676 -0.032456757562877844 0 -0.007199558089689171 -0.034769792690467857 0 -0.0071623353547297418 -0.034890195218160829 0 -0.0073189405217160873 -0.034920396280800389 0 -0.0075611072543569254 -0.031147028830433996 0 -0.0076938325090452567 -0.030330738283926711 0 -0.0074478486565180283 -0.030133191568176534 0 -0.0079564017672422802 -0.03027676016689845 0 -0.0076938325090452567 -0.030330738283926711 0 -0.0077512781138041513 -0.030025520611202158 0 -0.0074179747952031949 -0.030187854794781886 0 -0.0074097971514265381 -0.030191217623785967 0 -0.0076938325090452567 -0.030330738283926711 0 -0.0077512781138041513 -0.030025520611202158 0 -0.0074478486565180283 -0.030133191568176534 0 -0.0077512781138041513 -0.030025520611202158 0 -0.0074875422135932072 -0.030064515691037245 0 -0.0073906610842138162 -0.029872725481572607 0 -0.0077512781138041513 -0.030025520611202158 0 -0.0073906610842138162 -0.029872725481572607 0 -0.0075409590734867747 -0.029506635543665536 0 -0.0073906610842138162 -0.029872725481572607 0 -0.0075409590734867747 -0.029506635543665536 0 -0.0071711953317725539 -0.029686521620046154 0 -0.0074875422135932072 -0.030064515691037245 0 -0.0069530573565872869 -0.02989451465787937 0 -0.0061464550571532651 -0.030289822136989736 0 -0.0074097971514265381 -0.030191217623785967 0 -0.0067040563246197442 -0.030102509682521456 0 -0.0075409590734867747 -0.029506635543665536 0 -0.0071711953317725539 -0.029686521620046154 0 -0.0070346679222236738 -0.029436408863357966 0 -0.0073906610842138162 -0.029872725481572607 0 -0.0071711953317725539 -0.029686521620046154 0 -0.0069530573565872869 -0.02989451465787937 0 -0.0069568842773358782 -0.02970332126657925 0 -0.0070346679222236738 -0.029436408863357966 0 -0.0066299094205614787 -0.029732850294762882 0 -0.0071711953317725539 -0.029686521620046154 0 -0.0069568842773358782 -0.02970332126657925 0 -0.0069530573565872869 -0.02989451465787937 0 -0.0071711953317725539 -0.029686521620046154 0 -0.0069568842773358782 -0.02970332126657925 0 -0.0070346679222236738 -0.029436408863357966 0 -0.0066299094205614787 -0.029732850294762882 0 -0.0063477662351006745 -0.029569514632250868 0 -0.0065350398540155123 -0.029302039442800402 0 -0.0070346679222236738 -0.029436408863357966 0 -0.0066299094205614787 -0.029732850294762882 0 -0.0065350398540155123 -0.029302039442800402 0 -0.0069568842773358782 -0.02970332126657925 0 -0.0066299094205614787 -0.029732850294762882 0 -0.0069530573565872869 -0.02989451465787937 0 -0.0066299094205614787 -0.029732850294762882 0 -0.0069530573565872869 -0.02989451465787937 0 -0.0061464550571532651 -0.030289822136989736 0 -0.0074875422135932072 -0.030064515691037245 0 -0.0073906610842138162 -0.029872725481572607 0 -0.0069530573565872869 -0.02989451465787937 0 -0.0060234549176824649 -0.029471460193950375 0 -0.0061568922720486316 -0.029788716555059141 0 -0.0056433252851022832 -0.029888186657690489 0 -0.0066299094205614787 -0.029732850294762882 0 -0.0063477662351006745 -0.029569514632250868 0 -0.0061568922720486316 -0.029788716555059141 0 -0.0060234549176824649 -0.029471460193950375 0 -0.0063477662351006745 -0.029569514632250868 0 -0.0065350398540155123 -0.029302039442800402 0 -0.0060234549176824649 -0.029471460193950375 0 -0.0063477662351006745 -0.029569514632250868 0 -0.0061568922720486316 -0.029788716555059141 0 -0.0066299094205614787 -0.029732850294762882 0 -0.0061568922720486316 -0.029788716555059141 0 -0.0061464550571532651 -0.030289822136989736 0 -0.0061568922720486316 -0.029788716555059141 0 -0.0061464550571532651 -0.030289822136989736 0 -0.0056433252851022832 -0.029888186657690489 0 -0.0071380835346482856 -0.029361672808303027 0 -0.0076281456277794233 -0.029814775559002978 0 -0.0073103022428216424 -0.030398726008527579 0 -0.0071380835346482856 -0.029361672808303027 0 -0.006550064772489911 -0.030206577164856738 0 -0.0073103022428216424 -0.030398726008527579 0 -0.0085098731871723222 -0.028855923042314529 0 -0.0071380835346482856 -0.029361672808303027 0 -0.0076281456277794233 -0.029814775559002978 0 -0.0085098731871723222 -0.028855923042314529 0 -0.0076281456277794233 -0.029814775559002978 0 -0.0079979527150690136 -0.030367249019948563 0 -0.0074097971514265381 -0.030191217623785967 0 -0.0074301915695629151 -0.031226904604734592 0 -0.0075611072543569254 -0.031147028830433996 0 -0.0072030550666329204 -0.032420205540946864 0 -0.0074781631619059777 -0.032284205704295528 0 -0.0072030550666329204 -0.032420205540946864 0 -0.0074781631619059777 -0.032284205704295528 0 -0.007312985943330296 -0.033681019102168044 0 -0.0072009896707647767 -0.033243084431623215 0 -0.0071445709741824858 -0.033504015668841383 0 -0.0076281456277794233 -0.029814775559002978 0 -0.0079979527150690136 -0.030367249019948563 0 -0.0073103022428216424 -0.030398726008527579 0 -0.0079979527150690136 -0.030367249019948563 0 -0.0073103022428216424 -0.030398726008527579 0 -0.007377895391953132 -0.031144180941206693 0 -0.006550064772489911 -0.030206577164856738 0 -0.0073103022428216424 -0.030398726008527579 0 -0.0066103190201417701 -0.030757965131698987 0 -0.0073103022428216424 -0.030398726008527579 0 -0.0066103190201417701 -0.030757965131698987 0 -0.0070036365120925903 -0.030992044048283023 0 -0.0073103022428216424 -0.030398726008527579 0 -0.0070036365120925903 -0.030992044048283023 0 -0.007377895391953132 -0.031144180941206693 0 -0.0066103190201417701 -0.030757965131698987 0 -0.0066621587067865508 -0.03129613531380035 0 -0.0070036365120925903 -0.030992044048283023 0 -0.0066621587067865508 -0.03129613531380035 0 -0.0070579829874588464 -0.031361352712623886 0 -0.0070036365120925903 -0.030992044048283023 0 -0.0070579829874588464 -0.031361352712623886 0 -0.007377895391953132 -0.031144180941206693 0 -0.0071841735200074575 -0.031631866645394309 0 -0.0070579829874588464 -0.031361352712623886 0 -0.0070036365120925903 -0.030992044048283023 0 -0.007377895391953132 -0.031144180941206693 0 -0.0075067807865478306 -0.03189394354779173 0 -0.0069737538969010136 -0.031892842369629554 0 -0.0071841735200074575 -0.031631866645394309 0 -0.0075067807865478306 -0.03189394354779173 0 -0.007377895391953132 -0.031144180941206693 0 -0.0071841735200074575 -0.031631866645394309 0 -0.0069737538969010136 -0.031892842369629554 0 -0.0071841735200074575 -0.031631866645394309 0 -0.0068921668417137524 -0.031600992714495353 0 -0.0070579829874588464 -0.031361352712623886 0 -0.0071841735200074575 -0.031631866645394309 0 -0.0068921668417137524 -0.031600992714495353 0 -0.0066621587067865508 -0.03129613531380035 0 -0.0070579829874588464 -0.031361352712623886 0 -0.0068921668417137524 -0.031600992714495353 0 -0.0069737538969010136 -0.031892842369629554 0 -0.0068921668417137524 -0.031600992714495353 0 -0.0065874463420466604 -0.031707432731790879 0 -0.0066621587067865508 -0.03129613531380035 0 -0.0068921668417137524 -0.031600992714495353 0 -0.0065874463420466604 -0.031707432731790879 0 -0.0075067807865478306 -0.03189394354779173 0 -0.0079979527150690136 -0.030367249019948563 0 -0.007377895391953132 -0.031144180941206693 0 -0.0074548994655145428 -0.034384066570256153 0 -0.0073161961443254193 -0.033984651976373639 0 -0.007312985943330296 -0.033681019102168044 0 -0.0072398000390820703 -0.033972161807896605 0 -0.0072030550666329204 -0.032420205540946864 0 -0.007312985943330296 -0.033681019102168044 0 -0.0072086593004065183 -0.032511488078271436 0 -0.0074301915695629151 -0.031226904604734592 0 -0.0072705344779012285 -0.033854381283107741 0 -0.0072398000390820703 -0.033972161807896605 0 -0.007312985943330296 -0.033681019102168044 0 -0.0072705344779012285 -0.033854381283107741 0 -0.007312985943330296 -0.033681019102168044 0 -0.007287545892605528 -0.033848245304104158 0 -0.0073161961443254193 -0.033984651976373639 0 -0.007312985943330296 -0.033681019102168044 0 -0.007287545892605528 -0.033848245304104158 0 -0.0071947863999330128 -0.033870539417626008 0 -0.007287545892605528 -0.033848245304104158 0 -0.007244842355118776 -0.033978888908391368 0 -0.0071947863999330128 -0.033870539417626008 0 -0.0071450807186845405 -0.033979921396074433 0 -0.007244842355118776 -0.033978888908391368 0 -0.0070812169685805417 -0.03385854447823234 0 -0.0071947863999330128 -0.033870539417626008 0 -0.0071450807186845405 -0.033979921396074433 0 -0.0071450807186845405 -0.033979921396074433 0 -0.007160283970873503 -0.034132937532273908 0 -0.007244842355118776 -0.033978888908391368 0 -0.007160283970873503 -0.034132937532273908 0 -0.007244842355118776 -0.033978888908391368 0 -0.00731029141726871 -0.034166945980121967 0 -0.0073161961443254193 -0.033984651976373639 0 -0.007244842355118776 -0.033978888908391368 0 -0.00731029141726871 -0.034166945980121967 0 -0.0073161961443254193 -0.033984651976373639 0 -0.007287545892605528 -0.033848245304104158 0 -0.007244842355118776 -0.033978888908391368 0 -0.0074548994655145428 -0.034384066570256153 0 -0.0073161961443254193 -0.033984651976373639 0 -0.00731029141726871 -0.034166945980121967 0 -0.00731029141726871 -0.034166945980121967 0 -0.0072210776106497489 -0.034293146576582029 0 -0.0073255483584214404 -0.034310930794977261 0 -0.007160283970873503 -0.034132937532273908 0 -0.00731029141726871 -0.034166945980121967 0 -0.0072210776106497489 -0.034293146576582029 0 -0.0072210776106497489 -0.034293146576582029 0 -0.0071865366491703888 -0.034475438288521905 0 -0.0072903573948807608 -0.034411318871621119 0 -0.0072210776106497489 -0.034293146576582029 0 -0.0072903573948807608 -0.034411318871621119 0 -0.0073255483584214404 -0.034310930794977261 0 -0.0074548994655145428 -0.034384066570256153 0 -0.00731029141726871 -0.034166945980121967 0 -0.0073255483584214404 -0.034310930794977261 0 -0.0072805965318253488 -0.034602989699628287 0 -0.0074548994655145428 -0.034384066570256153 0 -0.0072903573948807608 -0.034411318871621119 0 -0.0074548994655145428 -0.034384066570256153 0 -0.0072903573948807608 -0.034411318871621119 0 -0.0073255483584214404 -0.034310930794977261 0 -0.0070642777705388618 -0.034528303872966376 0 -0.0069529717711429581 -0.034338573847333326 0 -0.0069422362496125876 -0.034707917063126391 0 -0.0070642777705388618 -0.034528303872966376 0 -0.0070757397434143094 -0.034277910195432963 0 -0.0069529717711429581 -0.034338573847333326 0 -0.0071865366491703888 -0.034475438288521905 0 -0.0070642777705388618 -0.034528303872966376 0 -0.0070757397434143094 -0.034277910195432963 0 -0.0072210776106497489 -0.034293146576582029 0 -0.0071865366491703888 -0.034475438288521905 0 -0.0070757397434143094 -0.034277910195432963 0 -0.007160283970873503 -0.034132937532273908 0 -0.0072210776106497489 -0.034293146576582029 0 -0.0070757397434143094 -0.034277910195432963 0 -0.0070757397434143094 -0.034277910195432963 0 -0.0070255561298046311 -0.034077846941528794 0 -0.0069529717711429581 -0.034338573847333326 0 -0.0069806133930750778 -0.033937809165832708 0 -0.0070255561298046311 -0.034077846941528794 0 -0.0069231175988592308 -0.03409904816085528 0 -0.007160283970873503 -0.034132937532273908 0 -0.0070757397434143094 -0.034277910195432963 0 -0.0070255561298046311 -0.034077846941528794 0 -0.0071450807186845405 -0.033979921396074433 0 -0.007160283970873503 -0.034132937532273908 0 -0.0070255561298046311 -0.034077846941528794 0 -0.0070812169685805417 -0.03385854447823234 0 -0.0071450807186845405 -0.033979921396074433 0 -0.0070255561298046311 -0.034077846941528794 0 -0.0068330629156971171 -0.033965902711240149 0 -0.0069231175988592308 -0.03409904816085528 0 -0.0068178856192455733 -0.034223224466431924 0 -0.0069231175988592308 -0.03409904816085528 0 -0.0068178856192455733 -0.034223224466431924 0 -0.0069529717711429581 -0.034338573847333326 0 -0.0070255561298046311 -0.034077846941528794 0 -0.0069231175988592308 -0.03409904816085528 0 -0.0069529717711429581 -0.034338573847333326 0 -0.0064604197545922847 -0.033887021812116024 0 -0.0067414712056072827 -0.033708159203143268 0 -0.0068178856192455733 -0.034223224466431924 0 -0.0060947413329185286 -0.031231867899047552 0 -0.0059970691527094508 -0.032304887023258039 0 -0.0066952836132428547 -0.034515667376317664 0 -0.0064658633000902674 -0.034413402150129814 0 -0.0066335492190303467 -0.034828434172527296 0 -0.0068178856192455733 -0.034223224466431924 0 -0.0066952836132428547 -0.034515667376317664 0 -0.0068293429971977015 -0.03463505411567365 0 -0.0068178856192455733 -0.034223224466431924 0 -0.0066952836132428547 -0.034515667376317664 0 -0.0064658633000902674 -0.034413402150129814 0 -0.0068178856192455733 -0.034223224466431924 0 -0.0069529717711429581 -0.034338573847333326 0 -0.0068293429971977015 -0.03463505411567365 0 -0.0069529717711429581 -0.034338573847333326 0 -0.0069422362496125876 -0.034707917063126391 0 -0.0068293429971977015 -0.03463505411567365 0 -0.00582945474142445 -0.03375348295583229 0 -0.0061761494080705623 -0.034024255002923422 0 -0.0059558508615807377 -0.034436784123687336 0 -0.0091213490885179976 -0.030819352771472276 0 -0.0091322896000467033 -0.03255929421351321 0 -0.0061761494080705623 -0.034024255002923422 0 -0.0064658633000902674 -0.034413402150129814 0 -0.0059558508615807377 -0.034436784123687336 0 -0.0064604197545922847 -0.033887021812116024 0 -0.0068178856192455733 -0.034223224466431924 0 -0.0064658633000902674 -0.034413402150129814 0 -0.0064604197545922847 -0.033887021812116024 0 -0.0061761494080705623 -0.034024255002923422 0 -0.0064658633000902674 -0.034413402150129814 0 -0.0064658633000902674 -0.034413402150129814 0 -0.0059558508615807377 -0.034436784123687336 0 -0.0063666736648924013 -0.034814638779583074 0 -0.0061618401781522083 -0.035052505254915094 0 -0.0063666736648924013 -0.034814638779583074 0 -0.0065526260337170862 -0.035280704395339084 0 -0.0091322896000467033 -0.03255929421351321 0 -0.0090935924900389254 -0.033854721074519548 0 -0.0059558508615807377 -0.034436784123687336 0 -0.0061618401781522083 -0.035052505254915094 0 -0.0063666736648924013 -0.034814638779583074 0 -0.0064658633000902674 -0.034413402150129814 0 -0.0063666736648924013 -0.034814638779583074 0 -0.0066335492190303467 -0.034828434172527296 0 -0.0063666736648924013 -0.034814638779583074 0 -0.0065526260337170862 -0.035280704395339084 0 -0.0066335492190303467 -0.034828434172527296 0 -0.0061618401781522083 -0.035052505254915094 0 -0.0065526260337170862 -0.035280704395339084 0 -0.0065637363968233785 -0.035561653453808663 0 -0.0090935924900389254 -0.033854721074519548 0 -0.0089898141056302637 -0.034694094877450767 0 -0.0067876620443882759 -0.034914953093173315 0 -0.0069422362496125876 -0.034707917063126391 0 -0.0068760017025588484 -0.035026886163686224 0 -0.0067876620443882759 -0.034914953093173315 0 -0.0069422362496125876 -0.034707917063126391 0 -0.0068293429971977015 -0.03463505411567365 0 -0.0067876620443882759 -0.034914953093173315 0 -0.0068293429971977015 -0.03463505411567365 0 -0.0066335492190303467 -0.034828434172527296 0 -0.0066952836132428547 -0.034515667376317664 0 -0.0068293429971977015 -0.03463505411567365 0 -0.0066335492190303467 -0.034828434172527296 0 -0.0067876620443882759 -0.034914953093173315 0 -0.0066335492190303467 -0.034828434172527296 0 -0.0066956166070742951 -0.035158829410725623 0 -0.0065526260337170862 -0.035280704395339084 0 -0.0066335492190303467 -0.034828434172527296 0 -0.0066956166070742951 -0.035158829410725623 0 -0.0065526260337170862 -0.035280704395339084 0 -0.0066956166070742951 -0.035158829410725623 0 -0.0066523423593197809 -0.03551931845048048 0 -0.0066956166070742951 -0.035158829410725623 0 -0.0068760017025588484 -0.035026886163686224 0 -0.006732885301341948 -0.035293549135911408 0 -0.0067876620443882759 -0.034914953093173315 0 -0.0066956166070742951 -0.035158829410725623 0 -0.0068760017025588484 -0.035026886163686224 0 -0.0068760017025588484 -0.035026886163686224 0 -0.0068656909642373582 -0.035249928756282606 0 -0.006732885301341948 -0.035293549135911408 0 -0.0068656909642373582 -0.035249928756282606 0 -0.0066708279048031645 -0.035454965281319514 0 -0.006732885301341948 -0.035293549135911408 0 -0.0066956166070742951 -0.035158829410725623 0 -0.006732885301341948 -0.035293549135911408 0 -0.0066523423593197809 -0.03551931845048048 0 -0.0066708279048031645 -0.035454965281319514 0 -0.006732885301341948 -0.035293549135911408 0 -0.0066523423593197809 -0.03551931845048048 0 -0.0066708279048031645 -0.035454965281319514 0 -0.0066523423593197809 -0.03551931845048048 0 -0.0065171060948731657 -0.035635534115457279 0 -0.0066523423593197809 -0.03551931845048048 0 -0.0065171060948731657 -0.035635534115457279 0 -0.0067194786102644927 -0.035689842449880362 0 -0.0065171060948731657 -0.035635534115457279 0 -0.0065770222821934423 -0.035590524418839919 0 -0.0063624727581391427 -0.035672392349120792 0 -0.0066708279048031645 -0.035454965281319514 0 -0.0065770222821934423 -0.035590524418839919 0 -0.0070424442610960702 -0.03537071125593591 0 -0.0065770222821934423 -0.035590524418839919 0 -0.0063624727581391427 -0.035672392349120792 0 -0.0066657607967373625 -0.035679063529947007 0 -0.0066708279048031645 -0.035454965281319514 0 -0.0065171060948731657 -0.035635534115457279 0 -0.0065770222821934423 -0.035590524418839919 0 -0.0065526260337170862 -0.035280704395339084 0 -0.0065637363968233785 -0.035561653453808663 0 -0.0068334416487872661 -0.035698731763258836 0 -0.0065526260337170862 -0.035280704395339084 0 -0.0066523423593197809 -0.03551931845048048 0 -0.0068334416487872661 -0.035698731763258836 0 -0.0066523423593197809 -0.03551931845048048 0 -0.0068334416487872661 -0.035698731763258836 0 -0.0067194786102644927 -0.035689842449880362 0 -0.0089898141056302637 -0.034694094877450767 0 -0.0088676811077639979 -0.03490982267059025 0 -0.0065637363968233785 -0.035561653453808663 0 -0.0068334416487872661 -0.035698731763258836 0 -0.0073675840058064325 -0.035744723029696682 0 -0.0068334416487872661 -0.035698731763258836 0 -0.0073675840058064325 -0.035744723029696682 0 -0.0072618067547310112 -0.035597656031777843 0 -0.0068334416487872661 -0.035698731763258836 0 -0.0072618067547310112 -0.035597656031777843 0 -0.0067194786102644927 -0.035689842449880362 0 -0.0072618067547310112 -0.035597656031777843 0 -0.0067194786102644927 -0.035689842449880362 0 -0.0065727171462628157 -0.035465107648835092 0 -0.0072618067547310112 -0.035597656031777843 0 -0.0070385132514184994 -0.034999576356152688 0 -0.0065727171462628157 -0.035465107648835092 0 -0.0073675840058064325 -0.035744723029696682 0 -0.0072618067547310112 -0.035597656031777843 0 -0.0087468102637634181 -0.034999987630105915 0 -0.0072618067547310112 -0.035597656031777843 0 -0.0070385132514184994 -0.034999576356152688 0 -0.0087468102637634181 -0.034999987630105915 0 -0.0088676811077639979 -0.03490982267059025 0 -0.0087489443055774954 -0.034999444906272062 0 -0.0063624727581391427 -0.035672392349120792 0 -0.0063258154383473292 -0.035607915863597163 0 -0.0060678064159390786 -0.035511863570311282 0 -0.0063258154383473292 -0.035607915863597163 0 -0.0060178334617113569 -0.035429981732324423 0 -0.0060678064159390786 -0.035511863570311282 0 -0.0053698000748768219 -0.034727896286697271 0 -0.0056267138633227954 -0.033732748764438096 0 -0.0048007730252496751 -0.036041465113435048 0 -0.0039999605493089962 -0.036186690156669012 0 -0.0042916968428089739 -0.037061377326497842 0 -0.0063624727581391427 -0.035672392349120792 0 -0.0060678064159390786 -0.035511863570311282 0 -0.0063230797942076065 -0.035716383898276839 0 -0.0056506607841543014 -0.033786098066372755 0 -0.0056267138633227954 -0.033732748764438096 0 -0.0065171060948731657 -0.035635534115457279 0 -0.0063624727581391427 -0.035672392349120792 0 -0.0063258154383473292 -0.035607915863597163 0 -0.0065171060948731657 -0.035635534115457279 0 -0.0067194786102644927 -0.035689842449880362 0 -0.0063258154383473292 -0.035607915863597163 0 -0.0067194786102644927 -0.035689842449880362 0 -0.0063258154383473292 -0.035607915863597163 0 -0.0065727171462628157 -0.035465107648835092 0 -0.0070385132514184994 -0.034999576356152688 0 -0.0065727171462628157 -0.035465107648835092 0 -0.005330947902881621 -0.035000119872475866 0 -0.0060178334617113569 -0.035429981732324423 0 -0.0065727171462628157 -0.035465107648835092 0 -0.005330947902881621 -0.035000119872475866 0 -0.0063258154383473292 -0.035607915863597163 0 -0.0060178334617113569 -0.035429981732324423 0 -0.0065727171462628157 -0.035465107648835092 0 -0.0053288391540960538 -0.034999556867844228 0 -0.0053698000748768219 -0.034727896286697271 0 -0.0053287865024057171 -0.034999989512374603 0 -0.0048007730252496751 -0.036041465113435048 0 -0.0038556157454792328 -0.034999967496891597 0 -0.0060178334617113569 -0.035429981732324423 0 -0.005330947902881621 -0.035000119872475866 0 -0.0060678064159390786 -0.035511863570311282 0 -0.0048007730252496751 -0.036041465113435048 0 -0.0038556157454792328 -0.034999967496891597 0 -0.0039999605493089962 -0.036186690156669012 0 -0.0038556157454792328 -0.034999967496891597 0 -0.0031290744764165997 -0.036231750288485527 0 -0.0039999605493089962 -0.036186690156669012 0 -0.0038556157454792328 -0.034999967496891597 0 -0.0023826990621803905 -0.03500001432880117 0 -0.0031290744764165997 -0.036231750288485527 0 -0.0023826990621803905 -0.03500001432880117 0 -0.0031290744764165997 -0.036231750288485527 0 -0.0021266944363034115 -0.03622720909121227 0 -0.0031290744764165997 -0.036231750288485527 0 -0.0025482914143554157 -0.037783484957223626 0 -0.0021266944363034115 -0.03622720909121227 0 -0.0031290744764165997 -0.036231750288485527 0 -0.0042916968428089739 -0.037061377326497842 0 -0.0025482914143554157 -0.037783484957223626 0 -0.0031290744764165997 -0.036231750288485527 0 -0.0039999605493089962 -0.036186690156669012 0 -0.0042916968428089739 -0.037061377326497842 0 -0.0089917415066923558 -0.027695461933989647 0 -0.0075683245368294181 -0.028295526096387035 0 -0.0084470958724637158 -0.028886943023547999 0 -0.0056267138633227954 -0.033732748764438096 0 -0.0049199812200517315 -0.033008042558943157 0 -0.0065770222821934423 -0.035590524418839919 0 -0.0066657607967373625 -0.035679063529947007 0 -0.0070424442610960702 -0.03537071125593591 0 -0.0056267138633227954 -0.033732748764438096 0 -0.0069544924982808676 -0.032456757562877844 0 -0.0075409590734867747 -0.029506635543665536 0 -0.0074848522019950294 -0.029082895586797476 0 -0.0084470958724637158 -0.028886943023547999 0 -0.0075683245368294181 -0.028295526096387035 0 -0.0074848522019950294 -0.029082895586797476 0 -0.0084470958724637158 -0.028886943023547999 0 -0.0075683245368294181 -0.028295526096387035 0 -0.0074848522019950294 -0.029082895586797476 0 -0.0069438965076202225 -0.029099847594924989 0 -0.0075409590734867747 -0.029506635543665536 0 -0.0070346679222236738 -0.029436408863357966 0 -0.0074848522019950294 -0.029082895586797476 0 -0.0068656909642373582 -0.035249928756282606 0 -0.0066708279048031645 -0.035454965281319514 0 -0.0070424442610960702 -0.03537071125593591 0 -0.0070694469894742335 -0.035071827885683818 0 -0.0068656909642373582 -0.035249928756282606 0 -0.0070424442610960702 -0.03537071125593591 0 -0.0060234549176824649 -0.029471460193950375 0 -0.0061004598782240724 -0.029034273018921489 0 -0.0052421841504977683 -0.029402589720518436 0 -0.0060234549176824649 -0.029471460193950375 0 -0.0061084736802237112 -0.02892632871928975 0 -0.0065350398540155123 -0.029302039442800402 0 -0.0038718413165180115 -0.031911346005260126 0 -0.0036998730472790216 -0.032441546390290885 0 -0.0070346679222236738 -0.029436408863357966 0 -0.0065350398540155123 -0.029302039442800402 0 -0.0069438965076202225 -0.029099847594924989 0 -0.0075683245368294181 -0.028295526096387035 0 -0.0061084736802237112 -0.02892632871928975 0 -0.0069438965076202225 -0.029099847594924989 0 -0.0049199812200517315 -0.033008042558943157 0 -0.0036998730472790216 -0.032441546390290885 0 -0.0061084736802237112 -0.02892632871928975 0 -0.0065350398540155123 -0.029302039442800402 0 -0.0069438965076202225 -0.029099847594924989 0 -0.0070346679222236738 -0.029436408863357966 0 -0.0074848522019950294 -0.029082895586797476 0 -0.0069438965076202225 -0.029099847594924989 0 -0.0025482914143554157 -0.037783484957223626 0 -0.00087101931387855336 -0.038495982157185756 0 -0.0011514510027039611 -0.036877471513190097 0 -0.0036998730472790216 -0.032441546390290885 0 -0.0021647889414552358 -0.034428903847659245 0 -0.0012670826426161425 -0.032739098397072862 0 -0.0012694770078616657 -0.032713127880962665 0 -0.0012468171130110793 -0.03272329771889896 0 -0.0012694770078616657 -0.032713127880962665 0 -0.0012537609920855971 -0.032703498134153977 0 -0.0012468171130110793 -0.03272329771889896 0 -0.0012694770078616657 -0.032713127880962665 0 -0.0012537609920855971 -0.032703498134153977 0 -0.0012728274312151201 -0.032689446479770908 0 -0.0021647889414552358 -0.034428903847659245 0 -0.0014270749591310358 -0.034836857980052635 0 -0.0011514510027039611 -0.036877471513190097 0 -0.0021266944363034115 -0.03622720909121227 0 -0.0014258803732262047 -0.035226803697422447 0 -0.0025482914143554157 -0.037783484957223626 0 -0.0011514510027039611 -0.036877471513190097 0 -0.0021266944363034115 -0.03622720909121227 0 -0.0023826990621803905 -0.03500001432880117 0 -0.0021266944363034115 -0.03622720909121227 0 -0.0014258803732262047 -0.035226803697422447 0 -0.0014270749591310358 -0.034836857980052635 0 -0.0013749344432448219 -0.034998843518426435 0 -0.0023808272833679297 -0.034999199486851006 0 -0.0014270749591310358 -0.034836857980052635 0 -0.0023825200633105564 -0.034999999434152204 0 -0.0013325061746298484 -0.03523114670128244 0 -0.0013743859176423509 -0.034999998382310771 0 -0.0012537609920855971 -0.032703498134153977 0 -0.0012728274312151201 -0.032689446479770908 0 -0.0012460409335894281 -0.032688229723879393 0 -0.0014270749591310358 -0.034836857980052635 0 -0.00053379873079399459 -0.034420085523407265 0 -0.0013325038124720047 -0.035230988396601805 0 -0.0013743701847535189 -0.034999998277898701 0 0.0002799867385829277 -0.035582791422949282 0 -0.0013743701847535189 -0.034999998277898701 0 0.0002799867385829277 -0.035582791422949282 0 0.00065123175280231229 -0.034999993550118666 0 -0.00053379873079399459 -0.034420085523407265 0 0.00035743019974620102 -0.03414526065031967 0 0.0002799867385829277 -0.035582791422949282 0 0.00065123175280231229 -0.034999993550118666 0 0.0018725516884465399 -0.035928605892643323 0 0.00065125837900901443 -0.034999998560885669 0 0.0025278067251025466 -0.034999997409843435 0 0.0021987718238024555 -0.03557523805755862 0 0.00065271073503955573 -0.035000538895122002 0 0.0019549443430078792 -0.035484733877007624 0 0.00065123175280231229 -0.034999993550118666 0 0.0018725516884465399 -0.035928605892643323 0 0.0021788727634817801 -0.035564236915890342 0 -0.0012092829322338111 -0.032682849497314384 0 -0.0012295190066713062 -0.032706600938038011 0 -0.0012032635655951404 -0.032715762281995082 0 -0.0012460409335894281 -0.032688229723879393 0 -0.0012092829322338111 -0.032682849497314384 0 -0.0012295190066713062 -0.032706600938038011 0 -0.0012537609920855971 -0.032703498134153977 0 -0.0012460409335894281 -0.032688229723879393 0 -0.0012295190066713062 -0.032706600938038011 0 -0.0012537609920855971 -0.032703498134153977 0 -0.0012295190066713062 -0.032706600938038011 0 -0.0012468171130110793 -0.03272329771889896 0 0.0031661874397386925 -0.035499967894923629 0 0.0025278067251025466 -0.034999997409843435 0 0.004404344043251328 -0.034999995419993331 0 0.0031661874397386925 -0.035499967894923629 0 0.0037384931140126108 -0.036146236819361022 0 0.004404344043251328 -0.034999995419993331 0 0.0021788727634817801 -0.035564236915890342 0 0.0034948148473571026 -0.036290969908932304 0 0.0037384931140126108 -0.036146236819361022 0 0.0018725516884465399 -0.035928605892643323 0 0.0021788727634817801 -0.035564236915890342 0 0.0034948148473571026 -0.036290969908932304 0 0.0019549443430078792 -0.035484733877007624 0 0.0026616736918555687 -0.035747706565995435 0 0.0031661874397386925 -0.035499967894923629 0 0.0021987718238024555 -0.03557523805755862 0 0.0037384931140126108 -0.036146236819361022 0 0.0031661874397386925 -0.035499967894923629 0 0.0025278067251025466 -0.034999997409843435 0 0.0021987718238024555 -0.03557523805755862 0 -0.0011473013016242313 -0.032681656332322673 0 -0.0011676591282087994 -0.032727544402303861 0 -0.0012032635655951404 -0.032715762281995082 0 0.00035743019974620102 -0.03414526065031967 0 0.0012217070081950276 -0.033784327000652391 0 -0.0012092829322338111 -0.032682849497314384 0 -0.0011473013016242313 -0.032681656332322673 0 -0.0012032635655951404 -0.032715762281995082 0 -0.0011473013016242313 -0.032681656332322673 0 -0.0011322615010474623 -0.032746391821913717 0 -0.0010724863411878344 -0.03269352315011733 0 0.0034948148473571026 -0.036290969908932304 0 0.0037384931140126108 -0.036146236819361022 0 0.0051075619239997231 -0.036645001745220514 0 0.0012217070081950276 -0.033784327000652391 0 0.0018922108892049782 -0.033038185671668954 0 -0.0011473013016242313 -0.032681656332322673 0 -0.0011322615010474623 -0.032746391821913717 0 -0.0011676591282087994 -0.032727544402303861 0 -0.0011322615010474623 -0.032746391821913717 0 -0.0011676591282087994 -0.032727544402303861 0 -0.001191678241127802 -0.032755097873093379 0 -0.0011676591282087994 -0.032727544402303861 0 -0.0012032635655951404 -0.032715762281995082 0 -0.001191678241127802 -0.032755097873093379 0 -0.0016851512104142537 -0.032241744993907591 0 -0.0017771154033051704 -0.032001496909766974 0 -0.0011322615010474623 -0.032746391821913717 0 -0.001191678241127802 -0.032755097873093379 0 -0.0011841086256535324 -0.032791279192337493 0 -0.0017771154033051704 -0.032001496909766974 0 -0.00211371294811497 -0.031045026667703 0 -0.00120957977121851 -0.032729789028409492 0 -0.0012102719168738416 -0.032742187283782032 0 -0.001220122915848912 -0.032739208398034778 0 -0.0030799554940414095 -0.026907909791472708 0 -0.0041350219845591313 -0.028074864108897282 0 -0.0031083348223745503 -0.028429432373332807 0 -0.00048242360377303954 -0.031444190902218574 0 -0.00211371294811497 -0.031045026667703 0 -0.0030799554940414095 -0.026907909791472708 0 -0.0031083348223745503 -0.028429432373332807 0 -0.0020890136211384907 -0.028081378338966317 0 -0.0012295190066713062 -0.032706600938038011 0 -0.0012468171130110793 -0.03272329771889896 0 -0.0012245879817152502 -0.032728231483932113 0 -0.0012295190066713062 -0.032706600938038011 0 -0.0012032635655951404 -0.032715762281995082 0 -0.0012245879817152502 -0.032728231483932113 0 -0.0012032635655951404 -0.032715762281995082 0 -0.00120957977121851 -0.032729789028409492 0 -0.0012245879817152502 -0.032728231483932113 0 -0.0012245879817152502 -0.032728231483932113 0 -0.001220122915848912 -0.032739208398034778 0 -0.0012409089078272921 -0.032746506535840582 0 -0.00120957977121851 -0.032729789028409492 0 -0.0012245879817152502 -0.032728231483932113 0 -0.001220122915848912 -0.032739208398034778 0 -0.0012468171130110793 -0.03272329771889896 0 -0.0012245879817152502 -0.032728231483932113 0 -0.0012409089078272921 -0.032746506535840582 0 -0.0012670826426161425 -0.032739098397072862 0 -0.0012468171130110793 -0.03272329771889896 0 -0.0012409089078272921 -0.032746506535840582 0 -0.0036998730472790216 -0.032441546390290885 0 -0.0032811802012656668 -0.031506727897315831 0 -0.0060234549176824649 -0.029471460193950375 0 -0.0052421841504977683 -0.029402589720518436 0 -0.0056433252851022832 -0.029888186657690489 0 -0.0052421841504977683 -0.029402589720518436 0 -0.0051092315077384031 -0.029945411643781686 0 -0.0056433252851022832 -0.029888186657690489 0 -0.0067040563246197442 -0.030102509682521456 0 -0.005706627153347783 -0.03028901636680233 0 -0.0071380835346482856 -0.029361672808303027 0 -0.006550064772489911 -0.030206577164856738 0 -0.0057233916116748882 -0.029878435581599475 0 -0.0051092315077384031 -0.029945411643781686 0 -0.0056433252851022832 -0.029888186657690489 0 -0.0051126552159923549 -0.030436664308731275 0 -0.0061464550571532651 -0.030289822136989736 0 -0.0056433252851022832 -0.029888186657690489 0 -0.0051126552159923549 -0.030436664308731275 0 -0.0051126552159923549 -0.030436664308731275 0 -0.0047472139089528749 -0.030183563975562381 0 -0.0043171620308377996 -0.030517512075707107 0 -0.0047472139089528749 -0.030183563975562381 0 -0.0043999123576154977 -0.030144703720043395 0 -0.0043171620308377996 -0.030517512075707107 0 -0.0051092315077384031 -0.029945411643781686 0 -0.0047472139089528749 -0.030183563975562381 0 -0.0046192285138114903 -0.029845897757896766 0 -0.0051092315077384031 -0.029945411643781686 0 -0.0051126552159923549 -0.030436664308731275 0 -0.0047472139089528749 -0.030183563975562381 0 -0.0047472139089528749 -0.030183563975562381 0 -0.0045460696334450349 -0.030029410249788405 0 -0.0043999123576154977 -0.030144703720043395 0 -0.0047472139089528749 -0.030183563975562381 0 -0.0045460696334450349 -0.030029410249788405 0 -0.0046192285138114903 -0.029845897757896766 0 -0.0045460696334450349 -0.030029410249788405 0 -0.0046192285138114903 -0.029845897757896766 0 -0.0044271754925727389 -0.029940870051400705 0 -0.0046192285138114903 -0.029845897757896766 0 -0.0045149655739089075 -0.029734115889967775 0 -0.0044271754925727389 -0.029940870051400705 0 -0.001220122915848912 -0.032739208398034778 0 -0.0012409089078272921 -0.032746506535840582 0 -0.0012191535727661949 -0.032750693709681256 0 -0.0052421841504977683 -0.029402589720518436 0 -0.0051092315077384031 -0.029945411643781686 0 -0.0046192285138114903 -0.029845897757896766 0 -0.0032811802012656668 -0.031506727897315831 0 -0.0026548364877497293 -0.030847213795103027 0 -0.0052421841504977683 -0.029402589720518436 0 -0.0046192285138114903 -0.029845897757896766 0 -0.0044988106991909324 -0.029713678718283891 0 -0.0026824666608640923 -0.030848008121625543 0 -0.0026548364877497293 -0.030847213795103027 0 -0.0012102719168738416 -0.032742187283782032 0 -0.001220122915848912 -0.032739208398034778 0 -0.0012191535727661949 -0.032750693709681256 0 -0.0022333005063761976 -0.030699551923926486 0 -0.0023889370596121766 -0.030871557780539585 0 -0.0021732636958016077 -0.030966290843798802 0 -0.0041350219845591313 -0.028074864108897282 0 -0.0039393775747344267 -0.028933847966255203 0 -0.0031083348223745503 -0.028429432373332807 0 -0.00211371294811497 -0.031045026667703 0 -0.0026548364877497293 -0.030847213795103027 0 -0.00211371294811497 -0.031045026667703 0 -0.0029193046944195958 -0.030320042674696509 0 -0.0045149655739089075 -0.029734115889967775 0 -0.0041720189454935233 -0.029875359272756918 0 -0.0044271754925727389 -0.029940870051400705 0 -0.0026548364877497293 -0.030847213795103027 0 -0.0029193046944195958 -0.030320042674696509 0 -0.0039393775747344267 -0.028933847966255203 0 -0.0031083348223745503 -0.028429432373332807 0 -0.0031797518073652287 -0.029268842138466828 0 -0.0031083348223745503 -0.028429432373332807 0 -0.0031797518073652287 -0.029268842138466828 0 -0.0024259222339233786 -0.029283043732324748 0 -0.0039409599091191697 -0.028933956632603432 0 -0.0031797518073652287 -0.029268842138466828 0 -0.0036784333004794131 -0.030149426260123277 0 -0.0031797518073652287 -0.029268842138466828 0 -0.0030222578693409633 -0.029872100277221057 0 -0.0024259222339233786 -0.029283043732324748 0 -0.0029193046944195958 -0.030320042674696509 0 -0.003118819381614857 -0.030161189012429278 0 -0.0031797518073652287 -0.029268842138466828 0 -0.0030222578693409633 -0.029872100277221057 0 -0.0036784333004794131 -0.030149426260123277 0 -0.0029193046944195958 -0.030320042674696509 0 -0.0032008498239877708 -0.030402474128561476 0 -0.0041720189454935233 -0.029875359272756918 0 -0.0042006563931578141 -0.030237453066960643 0 -0.0039239188327826087 -0.030425045155120411 0 -0.0041720189454935233 -0.029875359272756918 0 -0.0043999123576154977 -0.030144703720043395 0 -0.0044271754925727389 -0.029940870051400705 0 -0.0041720189454935233 -0.029875359272756918 0 -0.0043999123576154977 -0.030144703720043395 0 -0.0042006563931578141 -0.030237453066960643 0 -0.0045460696334450349 -0.030029410249788405 0 -0.0043999123576154977 -0.030144703720043395 0 -0.0044271754925727389 -0.029940870051400705 0 -0.0043999123576154977 -0.030144703720043395 0 -0.0042006563931578141 -0.030237453066960643 0 -0.0043171620308377996 -0.030517512075707107 0 -0.0039239188327826087 -0.030425045155120411 0 -0.0034624145053905237 -0.031376999326349179 0 -0.0041347180101907058 -0.031108961696949201 0 -0.0042006563931578141 -0.030237453066960643 0 -0.0043171620308377996 -0.030517512075707107 0 -0.0039239188327826087 -0.030425045155120411 0 -0.0043171620308377996 -0.030517512075707107 0 -0.0039239188327826087 -0.030425045155120411 0 -0.0041347180101907058 -0.031108961696949201 0 -0.0043171620308377996 -0.030517512075707107 0 -0.0041347180101907058 -0.031108961696949201 0 -0.0046454637464902332 -0.03104686929937826 0 -0.0032008498239877708 -0.030402474128561476 0 -0.003214402226812743 -0.030705762637778949 0 -0.0036784333004794131 -0.030149426260123277 0 -0.0030373673079698987 -0.030493539996035997 0 -0.0034624145053905237 -0.031376999326349179 0 -0.0030222578693409633 -0.029872100277221057 0 -0.0030373673079698987 -0.030493539996035997 0 -0.0025082176200485976 -0.030189625285697151 0 -0.0030222578693409633 -0.029872100277221057 0 -0.0036784333004794131 -0.030149426260123277 0 -0.0030373673079698987 -0.030493539996035997 0 -0.0034624145053905237 -0.031376999326349179 0 -0.0025541970190617164 -0.030988334275847424 0 -0.0028825025926527393 -0.032109411447408011 0 -0.0030373673079698987 -0.030493539996035997 0 -0.0034624145053905237 -0.031376999326349179 0 -0.0025541970190617164 -0.030988334275847424 0 -0.0041347180101907058 -0.031108961696949201 0 -0.0046188666524107826 -0.031580625123262818 0 -0.0046454637464902332 -0.03104686929937826 0 -0.0034624145053905237 -0.031376999326349179 0 -0.0041347180101907058 -0.031108961696949201 0 -0.0039217354536389354 -0.031934933747237507 0 -0.0041347180101907058 -0.031108961696949201 0 -0.0046188666524107826 -0.031580625123262818 0 -0.0039217354536389354 -0.031934933747237507 0 -0.0046188666524107826 -0.031580625123262818 0 -0.0051183228350541428 -0.031341309263705375 0 -0.0051476598377838021 -0.031854389912105492 0 -0.0046188666524107826 -0.031580625123262818 0 -0.0046454637464902332 -0.03104686929937826 0 -0.0051183228350541428 -0.031341309263705375 0 -0.0046454637464902332 -0.03104686929937826 0 -0.0051183228350541428 -0.031341309263705375 0 -0.0051888943226130798 -0.030752782943503504 0 -0.0051183228350541428 -0.031341309263705375 0 -0.0056590781202881689 -0.031189579464354415 0 -0.0051888943226130798 -0.030752782943503504 0 -0.0051183228350541428 -0.031341309263705375 0 -0.0056118569504780211 -0.031689670481773104 0 -0.0056590781202881689 -0.031189579464354415 0 -0.0051183228350541428 -0.031341309263705375 0 -0.0056118569504780211 -0.031689670481773104 0 -0.0051476598377838021 -0.031854389912105492 0 -0.0056118569504780211 -0.031689670481773104 0 -0.0061599714907804711 -0.031476905639364672 0 -0.0056590781202881689 -0.031189579464354415 0 -0.0056118569504780211 -0.031689670481773104 0 -0.0061599714907804711 -0.031476905639364672 0 -0.006110351444453585 -0.031881475607036358 0 -0.0065874463420466604 -0.031707432731790879 0 -0.0061599714907804711 -0.031476905639364672 0 -0.006110351444453585 -0.031881475607036358 0 -0.0066621587067865508 -0.03129613531380035 0 -0.0065874463420466604 -0.031707432731790879 0 -0.0061599714907804711 -0.031476905639364672 0 -0.0066621587067865508 -0.03129613531380035 0 -0.0061599714907804711 -0.031476905639364672 0 -0.0061476358008769995 -0.031084912103882156 0 -0.0066103190201417701 -0.030757965131698987 0 -0.0066621587067865508 -0.03129613531380035 0 -0.0061476358008769995 -0.031084912103882156 0 -0.0061476358008769995 -0.031084912103882156 0 -0.0056590781202881689 -0.031189579464354415 0 -0.0059590348008256595 -0.030635800131019377 0 -0.0061599714907804711 -0.031476905639364672 0 -0.0061476358008769995 -0.031084912103882156 0 -0.0056590781202881689 -0.031189579464354415 0 -0.0056590781202881689 -0.031189579464354415 0 -0.0059590348008256595 -0.030635800131019377 0 -0.0051888943226130798 -0.030752782943503504 0 -0.0066103190201417701 -0.030757965131698987 0 -0.0061476358008769995 -0.031084912103882156 0 -0.0059590348008256595 -0.030635800131019377 0 -0.006550064772489911 -0.030206577164856738 0 -0.0066103190201417701 -0.030757965131698987 0 -0.0059590348008256595 -0.030635800131019377 0 -0.006550064772489911 -0.030206577164856738 0 -0.0057233916116748882 -0.029878435581599475 0 -0.0059590348008256595 -0.030635800131019377 0 -0.0057233916116748882 -0.029878435581599475 0 -0.0059590348008256595 -0.030635800131019377 0 -0.0051888943226130798 -0.030752782943503504 0 -0.0057233916116748882 -0.029878435581599475 0 -0.0043171620308377996 -0.030517512075707107 0 -0.0051888943226130798 -0.030752782943503504 0 -0.005706627153347783 -0.03028901636680233 0 -0.0051635472907813774 -0.030432375712422629 0 -0.0043171620308377996 -0.030517512075707107 0 -0.0046454637464902332 -0.03104686929937826 0 -0.0051888943226130798 -0.030752782943503504 0 -0.00034283317188827712 -0.03083752607319391 0 -0.0014392341997397937 -0.029998148794030316 0 0.00024811147326220565 -0.029601578913399033 0 0.00074207069524737589 -0.030809111671520912 0 0.00024811147326220565 -0.029601578913399033 0 0.0017508841789080809 -0.0304368025757322 0 0.00074207069524737589 -0.030809111671520912 0 -0.00034283317188827712 -0.03083752607319391 0 0.00024811147326220565 -0.029601578913399033 0 0.00074207069524737589 -0.030809111671520912 0 -0.00034283317188827712 -0.03083752607319391 0 0.00069847582570155633 -0.031855425360145032 0 -0.00034283317188827712 -0.03083752607319391 0 -0.00045930600829417111 -0.031783414344185565 0 0.00069847582570155633 -0.031855425360145032 0 -0.0017271554250855418 -0.031203572517821507 0 -0.0015272734590064448 -0.030114130865893634 0 -0.00034283317188827712 -0.03083752607319391 0 -0.0017112358798704781 -0.03128031002200958 0 -0.0014392341997397937 -0.029998148794030316 0 -0.00034283317188827712 -0.03083752607319391 0 -0.0017112358798704781 -0.03128031002200958 0 -0.00045930600829417111 -0.031783414344185565 0 -0.0018580803450722423 -0.031515194992685104 0 -0.0025541970190617164 -0.030988334275847424 0 -0.0028825025926527393 -0.032109411447408011 0 -0.0018580803450722423 -0.031515194992685104 0 -0.0025541970190617164 -0.030988334275847424 0 -0.0016036127604896952 -0.030220380739226966 0 -0.0025541970190617164 -0.030988334275847424 0 -0.0025082176200485976 -0.030189625285697151 0 -0.0016036127604896952 -0.030220380739226966 0 -0.0030373673079698987 -0.030493539996035997 0 -0.0025541970190617164 -0.030988334275847424 0 -0.0025082176200485976 -0.030189625285697151 0 -0.0015272734590064448 -0.030114130865893634 0 -0.0013303955271288127 -0.029033995648413056 0 -0.0014392341997397937 -0.029998148794030316 0 -0.0012100768569522627 -0.028766664549032612 0 0.00024811147326220565 -0.029601578913399033 0 -0.0025082176200485976 -0.030189625285697151 0 -0.0016036127604896952 -0.030220380739226966 0 -0.0024259222339233786 -0.029283043732324748 0 -0.0016036127604896952 -0.030220380739226966 0 -0.0024259222339233786 -0.029283043732324748 0 -0.0013320463292413889 -0.028902355324521657 0 -0.0030222578693409633 -0.029872100277221057 0 -0.0025082176200485976 -0.030189625285697151 0 -0.0024259222339233786 -0.029283043732324748 0 -0.0024259222339233786 -0.029283043732324748 0 -0.0013320463292413889 -0.028902355324521657 0 -0.0020890136211384907 -0.028081378338966317 0 -0.0031083348223745503 -0.028429432373332807 0 -0.0024259222339233786 -0.029283043732324748 0 -0.0020890136211384907 -0.028081378338966317 0 -0.0013303955271288127 -0.029033995648413056 0 -0.0012273066596395449 -0.028455804761788758 0 -0.0013320463292413889 -0.028902355324521657 0 -0.0020890136211384907 -0.028081378338966317 0 -0.0010428961130499912 -0.027545417151522505 0 -0.0012100768569522627 -0.028766664549032612 0 -7.4031247099548949e-05 -0.028494989931301364 0 -0.0010428961130499912 -0.027545417151522505 0 -0.0012100768569522627 -0.028766664549032612 0 -7.4031247099548949e-05 -0.028494989931301364 0 0.00024811147326220565 -0.029601578913399033 0 0.0023299850868639359 -0.02966227825202461 0 0.0034754979644420194 -0.02903564334247612 0 -7.4031247099548949e-05 -0.028494989931301364 0 0.00024811147326220565 -0.029601578913399033 0 0.0010581120471086652 -0.028296545112235286 0 -7.4031247099548949e-05 -0.028494989931301364 0 0.00027434211569475327 -0.027399294157923207 0 0.0010581120471086652 -0.028296545112235286 0 0.00027434211569475327 -0.027399294157923207 0 0.0011045729428901898 -0.02716626228250368 0 0.0012017959405495335 -0.028444728946137039 0 0.0023267586366950139 -0.028080770045216519 0 0.0034754979644420194 -0.02903564334247612 0 -7.4031247099548949e-05 -0.028494989931301364 0 0.00027434211569475327 -0.027399294157923207 0 -0.0010428961130499912 -0.027545417151522505 0 0.00027434211569475327 -0.027399294157923207 0 -0.0010428961130499912 -0.027545417151522505 0 -0.00059329077830061157 -0.026055286068509063 0 0.0049370677761219357 -0.031796843097459733 0 0.0031590321765327372 -0.032198421551768358 0 0.00027434211569475327 -0.027399294157923207 0 0.00082774126508161953 -0.026354494632805453 0 -0.00059329077830061157 -0.026055286068509063 0 0.00027434211569475327 -0.027399294157923207 0 0.0011045729428901898 -0.02716626228250368 0 0.00082774126508161953 -0.026354494632805453 0 -0.0030799554940414095 -0.026907909791472708 0 -0.0020890136211384907 -0.028081378338966317 0 -0.001993580137238824 -0.027001094946083968 0 -0.0020890136211384907 -0.028081378338966317 0 -0.0010428961130499912 -0.027545417151522505 0 -0.001993580137238824 -0.027001094946083968 0 -0.0010428961130499912 -0.027545417151522505 0 -0.001993580137238824 -0.027001094946083968 0 -0.00059329077830061157 -0.026055286068509063 0 -0.001993580137238824 -0.027001094946083968 0 -0.0020113737252040807 -0.025744847860956006 0 -0.00059329077830061157 -0.026055286068509063 0 -0.00048242360377303954 -0.031444190902218574 0 0.0018922108892049782 -0.033038185671668954 0 -0.0030799554940414095 -0.026907909791472708 0 -0.001993580137238824 -0.027001094946083968 0 -0.0020113737252040807 -0.025744847860956006 0 0.0037384931140126108 -0.036146236819361022 0 0.0051075619239997231 -0.036645001745220514 0 0.0051913219267963251 -0.035597468028897711 0 0.0051122874818165997 -0.036627133735607137 0 0.0064157093217340998 -0.036191535565516367 0 0.0067412869928059381 -0.036991234125954668 0 0.0018922108892049782 -0.033038185671668954 0 0.0031590321765327372 -0.032198421551768358 0 0.0018922108892049782 -0.033038185671668954 0 0.0031726804984135173 -0.033477250728102141 0 0.0062808992590359042 -0.034999986918586183 0 0.0064240963143487213 -0.035196203851442565 0 0.0051913219267963251 -0.035597468028897711 0 0.0051122874818165997 -0.036627133735607137 0 0.0064157093217340998 -0.036191535565516367 0 0.0064240963143487213 -0.035196203851442565 0 0.0051075619239997231 -0.036645001745220514 0 0.0064240963143487213 -0.035196203851442565 0 0.0051913219267963251 -0.035597468028897711 0 0.0062808992590359042 -0.034999986918586183 0 0.004404344043251328 -0.034999995419993331 0 0.0051913219267963251 -0.035597468028897711 0 0.0037384931140126108 -0.036146236819361022 0 0.004404344043251328 -0.034999995419993331 0 0.0051913219267963251 -0.035597468028897711 0 0.0083738470600269437 -0.037348765446427422 0 0.007387218767958139 -0.035951745607984281 0 0.0086168449863489073 -0.036069369582668313 0 0.0083738470600269437 -0.037348765446427422 0 0.0067412869928059381 -0.036991234125954668 0 0.007387218767958139 -0.035951745607984281 0 0.0064157093217340998 -0.036191535565516367 0 0.0067412869928059381 -0.036991234125954668 0 0.007387218767958139 -0.035951745607984281 0 0.0062808992590359042 -0.034999986918586183 0 0.0064240963143487213 -0.035196203851442565 0 0.0081574453909445174 -0.034999990315469034 0 0.0064240963143487213 -0.035196203851442565 0 0.007387218767958139 -0.035951745607984281 0 0.0081574453909445174 -0.034999990315469034 0 0.0064157093217340998 -0.036191535565516367 0 0.0064240963143487213 -0.035196203851442565 0 0.007387218767958139 -0.035951745607984281 0 0.007387218767958139 -0.035951745607984281 0 0.0081574453909445174 -0.034999990315469034 0 0.0086168449863489073 -0.036069369582668313 0 0.0081574453909445174 -0.034999990315469034 0 0.0086168449863489073 -0.036069369582668313 0 0.010034008372687964 -0.034999981773583676 0 0.0086168449863489073 -0.036069369582668313 0 0.0096526753463181854 -0.036348383832945801 0 0.010034008372687964 -0.034999981773583676 0 0.0083738470600269437 -0.037348765446427422 0 0.0086168449863489073 -0.036069369582668313 0 0.0096526753463181854 -0.036348383832945801 0 0.0083738470600269437 -0.037348765446427422 0 0.0096526753463181854 -0.036348383832945801 0 0.010005562442955465 -0.037705876887292315 0 0.01104755081686724 -0.036057578784992911 0 0.0116897757171974 -0.037051139192579283 0 0.010064718517103867 -0.037641249525199802 0 0.0077574768458739335 -0.033771263390477334 0 0.0075233719040994984 -0.031509528437508837 0 0.0096526753463181854 -0.036348383832945801 0 0.01104755081686724 -0.036057578784992911 0 0.010005562442955465 -0.037705876887292315 0 0.0096526753463181854 -0.036348383832945801 0 0.010034008372687964 -0.034999981773583676 0 0.01104755081686724 -0.036057578784992911 0 0.01104755081686724 -0.036057578784992911 0 0.011910546539157426 -0.03499999230843031 0 0.012532093917016153 -0.035698618776130633 0 0.010034008372687964 -0.034999981773583676 0 0.01104755081686724 -0.036057578784992911 0 0.011910546539157426 -0.03499999230843031 0 0.01104755081686724 -0.036057578784992911 0 0.012532093917016153 -0.035698618776130633 0 0.012522684434479143 -0.036469889049892283 0 0.011910546539157426 -0.03499999230843031 0 0.012532093917016153 -0.035698618776130633 0 0.013787087001264709 -0.03499998578115792 0 0.012532093917016153 -0.035698618776130633 0 0.012522684434479143 -0.036469889049892283 0 0.013409687998200118 -0.035962165594782318 0 0.013547494051372698 -0.035995905490790903 0 0.013783119312329251 -0.035983692891298734 0 0.012522684434479143 -0.036469889049892283 0 0.01307301549621603 -0.037317460268260036 0 0.013561567178737318 -0.036858616416275213 0 0.012522684434479143 -0.036469889049892283 0 0.012231859589671717 -0.037094383323077504 0 0.0116897757171974 -0.037051139192579283 0 0.012522684434479143 -0.036469889049892283 0 0.012231859589671717 -0.037094383323077504 0 0.01266084003716344 -0.037341573845084741 0 0.012522684434479143 -0.036469889049892283 0 0.01307301549621603 -0.037317460268260036 0 0.01266084003716344 -0.037341573845084741 0 0.01104755081686724 -0.036057578784992911 0 0.012522684434479143 -0.036469889049892283 0 0.0116897757171974 -0.037051139192579283 0 0.010256352360855382 -0.032235486426247559 0 0.012585402796410801 -0.032971916051213843 0 0.0116897757171974 -0.037051139192579283 0 0.011137977018238142 -0.037883777234459161 0 0.010064718517103867 -0.037641249525199802 0 0.011137977018238142 -0.037883777234459161 0 0.01205191193035551 -0.03751456331562391 0 0.012213951535794715 -0.038123425451234878 0 0.012231859589671717 -0.037094383323077504 0 0.0116897757171974 -0.037051139192579283 0 0.01205191193035551 -0.03751456331562391 0 0.0116897757171974 -0.037051139192579283 0 0.011137977018238142 -0.037883777234459161 0 0.01205191193035551 -0.03751456331562391 0 0.01307861565986955 -0.037318432325459519 0 0.01266084003716344 -0.037341573845084741 0 0.012213951535794715 -0.038123425451234878 0 0.013238816208616827 -0.035616594483434377 0 0.013208972276372773 -0.035643756365040608 0 0.012231859589671717 -0.037094383323077504 0 0.01266084003716344 -0.037341573845084741 0 0.01205191193035551 -0.03751456331562391 0 0.01266084003716344 -0.037341573845084741 0 0.01205191193035551 -0.03751456331562391 0 0.012213951535794715 -0.038123425451234878 0 0.013238816208616827 -0.035616594483434377 0 0.012585402796410801 -0.032971916051213843 0 0.011679528727937111 -0.026037333828352698 0 0.012404836534766966 -0.027167630653512718 0 0.013920382490828611 -0.026466009096939629 0 0.011679528727937111 -0.026037333828352698 0 0.012404836534766966 -0.027167630653512718 0 0.010588736854912236 -0.027106874146581628 0 0.010358041799962588 -0.025888288607622406 0 0.010588736854912236 -0.027106874146581628 0 0.0096062204490394883 -0.026771013502300805 0 0.010358041799962588 -0.025888288607622406 0 0.011593346970263964 -0.026172202008135626 0 0.010588736854912236 -0.027106874146581628 0 0.012585402796410801 -0.032971916051213843 0 0.01297821568915981 -0.031696480732922819 0 0.010588736854912236 -0.027106874146581628 0 0.0096062204490394883 -0.026771013502300805 0 0.010238999348046895 -0.027916234591796971 0 0.0096062204490394883 -0.026771013502300805 0 0.0090427751205985254 -0.027510518435114314 0 0.010238999348046895 -0.027916234591796971 0 0.0096062204490394883 -0.026771013502300805 0 0.0083850118525617308 -0.026724842530207672 0 0.0090921090924257209 -0.025606165226142293 0 0.0096062204490394883 -0.026771013502300805 0 0.0083850118525617308 -0.026724842530207672 0 0.0090427751205985254 -0.027510518435114314 0 0.0011045729428901898 -0.02716626228250368 0 0.0017519631060813846 -0.027554213643023202 0 0.0012017959405495335 -0.028444728946137039 0 0.0083850118525617308 -0.026724842530207672 0 0.0076697177623657291 -0.027862835088139196 0 0.0090427751205985254 -0.027510518435114314 0 0.0057597787766026911 -0.029458598143951027 0 0.0034754979644420194 -0.02903564334247612 0 0.0011045729428901898 -0.02716626228250368 0 0.0017519631060813846 -0.027554213643023202 0 0.0023048774038921223 -0.026673592588077184 0 0.0049370677761219357 -0.031796843097459733 0 0.0075233719040994984 -0.031509528437508837 0 0.0011045729428901898 -0.02716626228250368 0 0.00082774126508161953 -0.026354494632805453 0 0.0023048774038921223 -0.026673592588077184 0 0.0057597787766026911 -0.029458598143951027 0 0.0075233719040994984 -0.031509528437508837 0 0.010256352360855382 -0.032235486426247559 0 0.0075233719040994984 -0.031509528437508837 0 0.010358041799962588 -0.025888288607622406 0 0.0096062204490394883 -0.026771013502300805 0 0.0090921090924257209 -0.025606165226142293 0 0.016428996834219989 -0.036722055737834929 0 0.017237525437973144 -0.03676318319335193 0 0.017278040820355296 -0.03621635859559847 0 0.016548397628967374 -0.037114120523591365 0 0.018322592693418217 -0.037001809346707076 0 0.017278040820355296 -0.03621635859559847 0 0.016019835943332728 -0.036086779717562981 0 0.016548397628967374 -0.037114120523591365 0 0.017278040820355296 -0.03621635859559847 0 0.017229709742704508 -0.034999959767406698 0 0.016019835943332728 -0.036086779717562981 0 0.017228072456123972 -0.035000768948758268 0 0.015933905193004295 -0.035866371792696305 0 0.015663693590314349 -0.034999995571316826 0 0.015924973647100646 -0.036114830686299934 0 0.014686675789443016 -0.03593219777029813 0 0.017229476842352775 -0.034999996419330055 0 0.015663693590314349 -0.034999995571316826 0 0.015924973647100646 -0.036114830686299934 0 0.015544853783069737 -0.036895090540186901 0 0.014839765663069908 -0.03720254690152737 0 0.016548397628967374 -0.037114120523591365 0 0.016019835943332728 -0.036086779717562981 0 0.015544853783069737 -0.036895090540186901 0 0.014735666370651589 -0.037208359102392861 0 0.016019835943332728 -0.036086779717562981 0 0.015544853783069737 -0.036895090540186901 0 0.016548397628967374 -0.037114120523591365 0 0.015933905193004295 -0.035866371792696305 0 0.01480470065853904 -0.036430460947898355 0 0.014686675789443016 -0.03593219777029813 0 0.013715382441891086 -0.036845361752903816 0 0.014630428291202723 -0.037233202678623088 0 0.015924973647100646 -0.036114830686299934 0 0.014686675789443016 -0.03593219777029813 0 0.014630428291202723 -0.037233202678623088 0 0.015663648529230963 -0.035000000985498214 0 0.014646203386609361 -0.035945226891303042 0 0.013787087001264709 -0.03499998578115792 0 0.015662144466368245 -0.035000618477032987 0 0.014640070478661348 -0.035625802251161076 0 0.014646203386609361 -0.035945226891303042 0 0.013787087001264709 -0.03499998578115792 0 0.013409687998200118 -0.035962165594782318 0 0.012532093917016153 -0.035698618776130633 0 0.013787087001264709 -0.03499998578115792 0 0.013409687998200118 -0.035962165594782318 0 0.014646203386609361 -0.035945226891303042 0 0.013409687998200118 -0.035962165594782318 0 0.013629630392664797 -0.036891330975935048 0 0.012522684434479143 -0.036469889049892283 0 0.013409687998200118 -0.035962165594782318 0 0.013629630392664797 -0.036891330975935048 0 0.014640070478661348 -0.035625802251161076 0 0.013783119312329251 -0.035983692891298734 0 0.013783119312329251 -0.035983692891298734 0 0.01480470065853904 -0.036430460947898355 0 0.013238816208616827 -0.035616594483434377 0 0.013783119312329251 -0.035983692891298734 0 0.013321266229727851 -0.037047586237694809 0 0.014227637775132428 -0.037432492182974265 0 0.014752582344430731 -0.036974962146248638 0 0.013321266229727851 -0.037047586237694809 0 0.012455380981236866 -0.037851991775868864 0 0.014223396606241176 -0.038258216095047551 0 0.013321266229727851 -0.037047586237694809 0 0.014227637775132428 -0.037432492182974265 0 0.014223396606241176 -0.038258216095047551 0 0.013730513348285393 -0.035938491813629188 0 0.013862567688868696 -0.035816053950195915 0 0.014107555825115857 -0.035919703201177405 0 0.013238816208616827 -0.035616594483434377 0 0.01480470065853904 -0.036430460947898355 0 0.012585402796410801 -0.032971916051213843 0 0.014148442908370373 -0.032791114584546123 0 0.014223396606241176 -0.038258216095047551 0 0.015042715574603618 -0.037854740854782395 0 0.016004042126900309 -0.038677192327686731 0 0.014148442908370373 -0.032791114584546123 0 0.016146377906224404 -0.032963110925792884 0 0.013920382490828611 -0.026466009096939629 0 0.016264892901791023 -0.026922631488448166 0 0.015308603842226444 -0.028632529620989236 0 0.01545306366313349 -0.037550064519849893 0 0.015042715574603618 -0.037854740854782395 0 0.014862618743576462 -0.037331967246864065 0 0.01545306366313349 -0.037550064519849893 0 0.015042715574603618 -0.037854740854782395 0 0.015795758751590134 -0.037909975538921135 0 0.014227637775132428 -0.037432492182974265 0 0.015042715574603618 -0.037854740854782395 0 0.014862618743576462 -0.037331967246864065 0 0.014227637775132428 -0.037432492182974265 0 0.014223396606241176 -0.038258216095047551 0 0.015042715574603618 -0.037854740854782395 0 0.014227637775132428 -0.037432492182974265 0 0.014862618743576462 -0.037331967246864065 0 0.014753398086980082 -0.036976813259459014 0 0.014717110139668027 -0.036527261532100959 0 0.01480470065853904 -0.036430460947898355 0 0.014862618743576462 -0.037331967246864065 0 0.014753398086980082 -0.036976813259459014 0 0.014859646195160421 -0.036970519554490704 0 0.01480470065853904 -0.036430460947898355 0 0.014983734129205667 -0.036494556137106927 0 0.015544853783069737 -0.036895090540186901 0 0.014735666370651589 -0.037208359102392861 0 0.014839765663069908 -0.03720254690152737 0 0.01545306366313349 -0.037550064519849893 0 0.014862618743576462 -0.037331967246864065 0 0.014859646195160421 -0.036970519554490704 0 0.014983734129205667 -0.036494556137106927 0 0.016673815140223862 -0.037420932560374112 0 0.015150758048530607 -0.037171062178122889 0 0.016825668780365677 -0.037799395514000154 0 0.016737140927394208 -0.037087697123807356 0 0.01545306366313349 -0.037550064519849893 0 0.014859646195160421 -0.036970519554490704 0 0.016705193593428307 -0.037682885866912597 0 0.01545306366313349 -0.037550064519849893 0 0.015795758751590134 -0.037909975538921135 0 0.016705193593428307 -0.037682885866912597 0 0.014983734129205667 -0.036494556137106927 0 0.016428996834219989 -0.036722055737834929 0 0.015042715574603618 -0.037854740854782395 0 0.015795758751590134 -0.037909975538921135 0 0.016004042126900309 -0.038677192327686731 0 0.015795758751590134 -0.037909975538921135 0 0.016004042126900309 -0.038677192327686731 0 0.016705193593428307 -0.037682885866912597 0 0.016146377906224404 -0.032963110925792884 0 0.018210839972726843 -0.033248631681249162 0 0.016004042126900309 -0.038677192327686731 0 0.016705193593428307 -0.037682885866912597 0 0.017787186692226471 -0.039103555923145461 0 0.016825668780365677 -0.037799395514000154 0 0.016737140927394208 -0.037087697123807356 0 0.018322592693418217 -0.037001809346707076 0 0.017250534033373541 -0.028989109501673962 0 0.01760989767218744 -0.030399174339834623 0 0.018856413576932678 -0.029658223753787745 0 0.017250534033373541 -0.028989109501673962 0 0.016395311832448418 -0.030021079244498622 0 0.01760989767218744 -0.030399174339834623 0 0.017250534033373541 -0.028989109501673962 0 0.018648844445655063 -0.027410524416395358 0 0.018856413576932678 -0.029658223753787745 0 0.016264892901791023 -0.026922631488448166 0 0.017250534033373541 -0.028989109501673962 0 0.018648844445655063 -0.027410524416395358 0 0.016264892901791023 -0.026922631488448166 0 0.017250534033373541 -0.028989109501673962 0 0.015308603842226444 -0.028632529620989236 0 0.017250534033373541 -0.028989109501673962 0 0.016395311832448418 -0.030021079244498622 0 0.015308603842226444 -0.028632529620989236 0 0.016395311832448418 -0.030021079244498622 0 0.015308603842226444 -0.028632529620989236 0 0.014979241186207835 -0.030249915142745158 0 0.015308603842226444 -0.028632529620989236 0 0.013141212614544949 -0.028859044194582607 0 0.014979241186207835 -0.030249915142745158 0 0.013920382490828611 -0.026466009096939629 0 0.015308603842226444 -0.028632529620989236 0 0.013141212614544949 -0.028859044194582607 0 0.012404836534766966 -0.027167630653512718 0 0.013920382490828611 -0.026466009096939629 0 0.013141212614544949 -0.028859044194582607 0 0.014525857713270297 -0.029058002961506468 0 0.015290218397857151 -0.029392350576200949 0 0.013141212614544949 -0.028859044194582607 0 0.013517323076303062 -0.030338715998934642 0 0.012543289882368502 -0.030284381756443355 0 0.013141212614544949 -0.028859044194582607 0 0.013517323076303062 -0.030338715998934642 0 0.014731898672892634 -0.030095011575820167 0 0.013517323076303062 -0.030338715998934642 0 0.013106599034778827 -0.03109706534510288 0 0.012543289882368502 -0.030284381756443355 0 0.013517323076303062 -0.030338715998934642 0 0.013106599034778827 -0.03109706534510288 0 0.014259748870624454 -0.031013542963874995 0 0.01197417817483605 -0.030240004427488445 0 0.0096747883118885082 -0.030879106707243802 0 0.011109623916810571 -0.030585762968014695 0 0.011086210665435425 -0.030591045376107958 0 0.011104249939592728 -0.030602239217622482 0 0.011109623916810571 -0.030585762968014695 0 0.011117999252146097 -0.030595735454470963 0 0.011104249939592728 -0.030602239217622482 0 0.013106599034778827 -0.03109706534510288 0 0.01380921102718036 -0.031782840588215802 0 0.012328791812049194 -0.032071298379298029 0 0.013106599034778827 -0.03109706534510288 0 0.01380921102718036 -0.031782840588215802 0 0.014259748870624454 -0.031013542963874995 0 0.01197417817483605 -0.030240004427488445 0 0.01382001405260362 -0.029383600046032736 0 0.01113151593174048 -0.030580933155396207 0 0.01112917715667998 -0.030600039899960102 0 0.011117999252146097 -0.030595735454470963 0 0.01380921102718036 -0.031782840588215802 0 0.014259748870624454 -0.031013542963874995 0 0.015261734377077195 -0.031498386346997566 0 0.011109623916810571 -0.030585762968014695 0 0.01113151593174048 -0.030580933155396207 0 0.011117999252146097 -0.030595735454470963 0 0.015224913593614411 -0.031194228052114116 0 0.014259748870624454 -0.031013542963874995 0 0.015261734377077195 -0.031498386346997566 0 0.015224913593614411 -0.031194228052114116 0 0.014259748870624454 -0.031013542963874995 0 0.014731898672892634 -0.030095011575820167 0 0.013517323076303062 -0.030338715998934642 0 0.014259748870624454 -0.031013542963874995 0 0.014731898672892634 -0.030095011575820167 0 0.016395311832448418 -0.030021079244498622 0 0.016826248830431378 -0.031634225160767512 0 0.01760989767218744 -0.030399174339834623 0 0.015224913593614411 -0.031194228052114116 0 0.014731898672892634 -0.030095011575820167 0 0.016325275034601398 -0.031297681522466508 0 0.016395311832448418 -0.030021079244498622 0 0.014979241186207835 -0.030249915142745158 0 0.016826248830431378 -0.031634225160767512 0 0.015290218397857151 -0.029392350576200949 0 0.016058813689912951 -0.029103164355796216 0 0.01382001405260362 -0.029383600046032736 0 0.016058813689912951 -0.029103164355796216 0 0.01382001405260362 -0.029383600046032736 0 0.012500890854011223 -0.029676870643022202 0 0.015224913593614411 -0.031194228052114116 0 0.015260464169669185 -0.031492841309640314 0 0.016325275034601398 -0.031297681522466508 0 0.016094471712986388 -0.02723486609970642 0 0.016193090201484031 -0.027389601319668146 0 0.016138177433322964 -0.027612444272261196 0 0.016094471712986388 -0.02723486609970642 0 0.016193090201484031 -0.027389601319668146 0 0.016351804291436119 -0.027192394270090823 0 0.013832767361840567 -0.029431111950236635 0 0.01382001405260362 -0.029383600046032736 0 0.01644018587331407 -0.027834831165424827 0 0.016698536554341392 -0.028032649714921597 0 0.017281401755313706 -0.027466887938382832 0 0.017474809665643812 -0.027427593245820552 0 0.017470100244264802 -0.027600764989107476 0 0.016193090201484031 -0.027389601319668146 0 0.016351804291436119 -0.027192394270090823 0 0.016731745580335952 -0.027480912048324743 0 0.016058813689912951 -0.029103164355796216 0 0.016698536554341392 -0.028032649714921597 0 0.01760989767218744 -0.030399174339834623 0 0.018856413576932678 -0.029658223753787745 0 0.018717645653353022 -0.031284896309335633 0 0.016058813689912951 -0.029103164355796216 0 0.017843554049701067 -0.029100963578212978 0 0.016826248830431378 -0.031634225160767512 0 0.01760989767218744 -0.030399174339834623 0 0.018717645653353022 -0.031284896309335633 0 0.008968450609148507 -0.02931220787368384 0 0.0099041253112003725 -0.029251414742539106 0 0.0093375917076539833 -0.02842321201226803 0 0.0099041253112003725 -0.029251414742539106 0 0.0093375917076539833 -0.02842321201226803 0 0.010274129998762918 -0.028783188536286784 0 0.008968450609148507 -0.02931220787368384 0 0.0099041253112003725 -0.029251414742539106 0 0.010117847242094876 -0.030140625582049888 0 0.00024811147326220565 -0.029601578913399033 0 0.0020673384162444852 -0.029226214643483552 0 0.001130900609276213 -0.028182444777033418 0 0.008968450609148507 -0.02931220787368384 0 0.0076697177623657291 -0.027862835088139196 0 0.0093375917076539833 -0.02842321201226803 0 0.0076697177623657291 -0.027862835088139196 0 0.0090427751205985254 -0.027510518435114314 0 0.0093375917076539833 -0.02842321201226803 0 0.0050369845333617233 -0.029682398297853952 0 0.0034754979644420194 -0.02903564334247612 0 0.0093375917076539833 -0.02842321201226803 0 0.010238999348046895 -0.027916234591796971 0 0.010274129998762918 -0.028783188536286784 0 0.0090427751205985254 -0.027510518435114314 0 0.0093375917076539833 -0.02842321201226803 0 0.010238999348046895 -0.027916234591796971 0 0.010238999348046895 -0.027916234591796971 0 0.011700762590394084 -0.028108655490217269 0 0.011007026661120722 -0.028752755458206863 0 0.010588736854912236 -0.027106874146581628 0 0.010238999348046895 -0.027916234591796971 0 0.011700762590394084 -0.028108655490217269 0 0.010238999348046895 -0.027916234591796971 0 0.010274129998762918 -0.028783188536286784 0 0.011007026661120722 -0.028752755458206863 0 0.012404836534766966 -0.027167630653512718 0 0.010588736854912236 -0.027106874146581628 0 0.011700762590394084 -0.028108655490217269 0 0.012404836534766966 -0.027167630653512718 0 0.013141212614544949 -0.028859044194582607 0 0.011700762590394084 -0.028108655490217269 0 0.013141212614544949 -0.028859044194582607 0 0.011700762590394084 -0.028108655490217269 0 0.011745940598773446 -0.029520228064384077 0 0.013141212614544949 -0.028859044194582607 0 0.011745940598773446 -0.029520228064384077 0 0.012543289882368502 -0.030284381756443355 0 0.011700762590394084 -0.028108655490217269 0 0.011745940598773446 -0.029520228064384077 0 0.011007026661120722 -0.028752755458206863 0 0.0099041253112003725 -0.029251414742539106 0 0.010274129998762918 -0.028783188536286784 0 0.010714537018945395 -0.029455000968279264 0 0.010274129998762918 -0.028783188536286784 0 0.011007026661120722 -0.028752755458206863 0 0.010714537018945395 -0.029455000968279264 0 0.011745940598773446 -0.029520228064384077 0 0.011007026661120722 -0.028752755458206863 0 0.010714537018945395 -0.029455000968279264 0 0.011745940598773446 -0.029520228064384077 0 0.010714537018945395 -0.029455000968279264 0 0.011121805727784094 -0.030152198979606547 0 0.010714537018945395 -0.029455000968279264 0 0.011121805727784094 -0.030152198979606547 0 0.010117847242094876 -0.030140625582049888 0 0.0099041253112003725 -0.029251414742539106 0 0.010714537018945395 -0.029455000968279264 0 0.010117847242094876 -0.030140625582049888 0 0.010282612149010035 -0.031109989315111605 0 0.010240144306005164 -0.030977144149145382 0 0.011121805727784094 -0.030152198979606547 0 0.011237042200321802 -0.031127701774144714 0 0.011770229890491443 -0.03046091310214314 0 0.011121805727784094 -0.030152198979606547 0 0.011237042200321802 -0.031127701774144714 0 0.010117847242094876 -0.030140625582049888 0 0.011053879240899534 -0.031013605737985065 0 0.010231380793647812 -0.030706603654225888 0 0.010117847242094876 -0.030140625582049888 0 0.012543289882368502 -0.030284381756443355 0 0.011770229890491443 -0.03046091310214314 0 0.012159445381550079 -0.031091784205255206 0 0.011745940598773446 -0.029520228064384077 0 0.012543289882368502 -0.030284381756443355 0 0.011770229890491443 -0.03046091310214314 0 0.011745940598773446 -0.029520228064384077 0 0.011121805727784094 -0.030152198979606547 0 0.011770229890491443 -0.03046091310214314 0 0.011237042200321802 -0.031127701774144714 0 0.011770229890491443 -0.03046091310214314 0 0.012159445381550079 -0.031091784205255206 0 0.013106599034778827 -0.03109706534510288 0 0.012543289882368502 -0.030284381756443355 0 0.012159445381550079 -0.031091784205255206 0 0.013106599034778827 -0.03109706534510288 0 0.012159445381550079 -0.031091784205255206 0 0.012328791812049194 -0.032071298379298029 0 0.010282612149010035 -0.031109989315111605 0 0.0096747883118885082 -0.030879106707243802 0 0.011237042200321802 -0.031127701774144714 0 0.012159445381550079 -0.031091784205255206 0 0.012328791812049194 -0.032071298379298029 0 0.011053879240899534 -0.031013605737985065 0 0.011340043073340748 -0.031939089537996117 0 0.011960075942306074 -0.031822839193973357 0 0.0073630083637262972 -0.031197323599940395 0 0.0096747883118885082 -0.030879106707243802 0 0.008781226774585902 -0.031127719136492857 0 0.008767066825085457 -0.031128741658658934 0 0.008772088896287453 -0.031114605579537949 0 0.0062499392062380262 -0.031212090263777647 0 0.0069216711277109849 -0.031156293290815453 0 0.0072668790157057184 -0.031769413308880071 0 0.0077874960945967008 -0.031674779211190607 0 0.0066026929507073083 -0.03102394037329299 0 0.0073630083637262972 -0.031197323599940395 0 0.0069216711277109849 -0.031156293290815453 0 0.0030024306514377951 -0.030256600652939343 0 0.0039522438687865889 -0.031297505038441829 0 0.0033026486278359916 -0.031139839465312371 0 0.0036854816535749077 -0.031349102122877635 0 0.0033026486278359916 -0.031139839465312371 0 0.0021698949875069845 -0.031611697247803411 0 0.0063528296248961053 -0.030526539949788236 0 0.0073630083637262972 -0.031197323599940395 0 0.011053879240899534 -0.031013605737985065 0 0.010231380793647812 -0.030706603654225888 0 0.011340043073340748 -0.031939089537996117 0 0.0030024306514377951 -0.030256600652939343 0 0.0033026486278359916 -0.031139839465312371 0 0.0025289357989089229 -0.030901320823499775 0 0.0039522438687865889 -0.031297505038441829 0 0.0036868448298739563 -0.031346768942130926 0 0.0033026486278359916 -0.031139839465312371 0 0.0062499392062380262 -0.031212090263777647 0 0.0060579468317399675 -0.031140038830770333 0 0.0073630083637262972 -0.031197323599940395 0 0.0062499392062380262 -0.031212090263777647 0 0.0025289357989089229 -0.030901320823499775 0 0.0017508841789080809 -0.0304368025757322 0 0.0021698949875069845 -0.031611697247803411 0 0.0033026486278359916 -0.031139839465312371 0 0.0025289357989089229 -0.030901320823499775 0 0.0021698949875069845 -0.031611697247803411 0 0.0062499392062380262 -0.031212090263777647 0 0.0029542245524843001 -0.031635319299698109 0 0.0030024306514377951 -0.030256600652939343 0 0.0025289357989089229 -0.030901320823499775 0 0.0017508841789080809 -0.0304368025757322 0 0.0020673384162444852 -0.029226214643483552 0 0.0030024306514377951 -0.030256600652939343 0 0.0017508841789080809 -0.0304368025757322 0 0.008968450609148507 -0.02931220787368384 0 0.010231380793647812 -0.030706603654225888 0 0.010117847242094876 -0.030140625582049888 0 0.0050369845333617233 -0.029682398297853952 0 0.0063528296248961053 -0.030526539949788236 0 0.00024811147326220565 -0.029601578913399033 0 0.0020673384162444852 -0.029226214643483552 0 0.0017508841789080809 -0.0304368025757322 0 0.00074207069524737589 -0.030809111671520912 0 0.0021698949875069845 -0.031611697247803411 0 0.00069847582570155633 -0.031855425360145032 0 0.00074207069524737589 -0.030809111671520912 0 0.0017508841789080809 -0.0304368025757322 0 0.0021698949875069845 -0.031611697247803411 0 0.0018305099348004707 -0.03245417389299482 0 0.002313211577321356 -0.031465989710191669 0 0.00069847582570155633 -0.031855425360145032 0 0.0029542245524843001 -0.031635319299698109 0 0.0018905761571295266 -0.031782966673300564 0 0.0018305099348004707 -0.03245417389299482 0 0.0016669740412154749 -0.033288353351840293 0 0.00066879056012316177 -0.032900864987176447 0 0.0018305099348004707 -0.03245417389299482 0 0.0016669740412154749 -0.033288353351840293 0 0.0027487766710375667 -0.033003119752734247 0 0.0018305099348004707 -0.03245417389299482 0 0.0027487766710375667 -0.033003119752734247 0 0.002913671373445986 -0.032196132883065824 0 0.0027487766710375667 -0.033003119752734247 0 0.0034635097657183525 -0.03307671737844748 0 0.0026041622768248323 -0.033749247621816782 0 0.0027487766710375667 -0.033003119752734247 0 0.002913671373445986 -0.032196132883065824 0 0.0033672534921702765 -0.032570243233548665 0 0.0018305099348004707 -0.03245417389299482 0 0.002913671373445986 -0.032196132883065824 0 0.002313211577321356 -0.031465989710191669 0 0.0039242791776615549 -0.031142516896940618 0 0.002913671373445986 -0.032196132883065824 0 0.002313211577321356 -0.031465989710191669 0 0.0039242791776615549 -0.031142516896940618 0 0.002913671373445986 -0.032196132883065824 0 0.0038019746285605999 -0.032112745057927425 0 0.0039242791776615549 -0.031142516896940618 0 0.0038019746285605999 -0.032112745057927425 0 0.0042237166068138194 -0.031685296512251715 0 0.002913671373445986 -0.032196132883065824 0 0.0038019746285605999 -0.032112745057927425 0 0.0033672534921702765 -0.032570243233548665 0 0.008767066825085457 -0.031128741658658934 0 0.008772088896287453 -0.031114605579537949 0 0.0087471856674573353 -0.031102349799920815 0 0.0069216711277109849 -0.031156293290815453 0 0.0078382245744742264 -0.031041323562201829 0 0.0069216711277109849 -0.031156293290815453 0 0.0066892126083210905 -0.03110756988696245 0 0.0039242791776615549 -0.031142516896940618 0 0.0042237166068138194 -0.031685296512251715 0 0.0045575057010090727 -0.031483091262114141 0 0.0042237166068138194 -0.031685296512251715 0 0.0045575057010090727 -0.031483091262114141 0 0.0045703219852016959 -0.032017869178721951 0 0.0038019746285605999 -0.032112745057927425 0 0.0042237166068138194 -0.031685296512251715 0 0.0045703219852016959 -0.032017869178721951 0 0.0038019746285605999 -0.032112745057927425 0 0.0045703219852016959 -0.032017869178721951 0 0.0044617122960280906 -0.032508002616871597 0 0.0045703219852016959 -0.032017869178721951 0 0.0048692136450127913 -0.032388178310295279 0 0.0044617122960280906 -0.032508002616871597 0 0.0045703219852016959 -0.032017869178721951 0 0.0048692136450127913 -0.032388178310295279 0 0.0051310840478635406 -0.032098554158287405 0 0.0045575057010090727 -0.031483091262114141 0 0.0045703219852016959 -0.032017869178721951 0 0.0051310840478635406 -0.032098554158287405 0 0.0048692136450127913 -0.032388178310295279 0 0.0044617122960280906 -0.032508002616871597 0 0.0049816212676367568 -0.032833240922891353 0 0.0048692136450127913 -0.032388178310295279 0 0.0049816212676367568 -0.032833240922891353 0 0.0053672487886566684 -0.032472269352472771 0 0.0044617122960280906 -0.032508002616871597 0 0.0042563483467051057 -0.033002760028199123 0 0.0038789339470052635 -0.032628919109347086 0 0.0044617122960280906 -0.032508002616871597 0 0.0042563483467051057 -0.033002760028199123 0 0.0049816212676367568 -0.032833240922891353 0 0.0049816212676367568 -0.032833240922891353 0 0.0046809689163857995 -0.033348992536429721 0 0.005269998399261352 -0.033479678370380954 0 0.0042563483467051057 -0.033002760028199123 0 0.0049816212676367568 -0.032833240922891353 0 0.0046809689163857995 -0.033348992536429721 0 0.0033672534921702765 -0.032570243233548665 0 0.0038789339470052635 -0.032628919109347086 0 0.0034635097657183525 -0.03307671737844748 0 0.0038019746285605999 -0.032112745057927425 0 0.0044617122960280906 -0.032508002616871597 0 0.0038789339470052635 -0.032628919109347086 0 0.0038019746285605999 -0.032112745057927425 0 0.0033672534921702765 -0.032570243233548665 0 0.0038789339470052635 -0.032628919109347086 0 0.0042563483467051057 -0.033002760028199123 0 0.0034635097657183525 -0.03307671737844748 0 0.0040698231774457362 -0.033620436079886504 0 0.0042563483467051057 -0.033002760028199123 0 0.0038789339470052635 -0.032628919109347086 0 0.0034635097657183525 -0.03307671737844748 0 0.0027487766710375667 -0.033003119752734247 0 0.0033672534921702765 -0.032570243233548665 0 0.0034635097657183525 -0.03307671737844748 0 0.0034635097657183525 -0.03307671737844748 0 0.0040698231774457362 -0.033620436079886504 0 0.0034161552179792381 -0.034064667612988826 0 0.0034635097657183525 -0.03307671737844748 0 0.0034161552179792381 -0.034064667612988826 0 0.0026041622768248323 -0.033749247621816782 0 0.0040698231774457362 -0.033620436079886504 0 0.0034161552179792381 -0.034064667612988826 0 0.0041087748529812394 -0.03431325087377924 0 0.0046809689163857995 -0.033348992536429721 0 0.0048077382296036753 -0.033980244012765039 0 0.005269998399261352 -0.033479678370380954 0 0.0042563483467051057 -0.033002760028199123 0 0.0040698231774457362 -0.033620436079886504 0 0.0046809689163857995 -0.033348992536429721 0 0.0040698231774457362 -0.033620436079886504 0 0.0046809689163857995 -0.033348992536429721 0 0.0048077382296036753 -0.033980244012765039 0 0.0040698231774457362 -0.033620436079886504 0 0.0048077382296036753 -0.033980244012765039 0 0.0041087748529812394 -0.03431325087377924 0 0.0041087748529812394 -0.03431325087377924 0 0.0049668911871983898 -0.034920264644501375 0 0.0035832160347651233 -0.034914337793825176 0 0.0048077382296036753 -0.033980244012765039 0 0.0041087748529812394 -0.03431325087377924 0 0.0049668911871983898 -0.034920264644501375 0 0.0034161552179792381 -0.034064667612988826 0 0.0035832160347651233 -0.034914337793825176 0 0.0026717214396698662 -0.034705702387473523 0 0.0034161552179792381 -0.034064667612988826 0 0.0041087748529812394 -0.03431325087377924 0 0.0035832160347651233 -0.034914337793825176 0 0.0026717214396698662 -0.034705702387473523 0 0.0028462919512234016 -0.035498304246486305 0 0.0011106748945056179 -0.035249077127476693 0 0.0035832160347651233 -0.034914337793825176 0 0.0026717214396698662 -0.034705702387473523 0 0.0028583123152992698 -0.035480397939952474 0 0.004586443562589893 -0.024614281954946349 0 0.0042214906030894018 -0.021526315083003802 0 0.0017467056663786772 -0.034208865762773058 0 0.0011106748945056179 -0.035249077127476693 0 0.00068384203229930271 -0.034051145756772497 0 0.0026717214396698662 -0.034705702387473523 0 0.0017467056663786772 -0.034208865762773058 0 0.0011106748945056179 -0.035249077127476693 0 0.0016669740412154749 -0.033288353351840293 0 0.0017467056663786772 -0.034208865762773058 0 0.00068384203229930271 -0.034051145756772497 0 0.0016669740412154749 -0.033288353351840293 0 0.0017467056663786772 -0.034208865762773058 0 0.0026041622768248323 -0.033749247621816782 0 0.0026717214396698662 -0.034705702387473523 0 0.0017467056663786772 -0.034208865762773058 0 0.0026041622768248323 -0.033749247621816782 0 0.0034161552179792381 -0.034064667612988826 0 0.0026717214396698662 -0.034705702387473523 0 0.0026041622768248323 -0.033749247621816782 0 0.0016669740412154749 -0.033288353351840293 0 0.0027487766710375667 -0.033003119752734247 0 0.0026041622768248323 -0.033749247621816782 0 0.016500883020956415 -0.027896305817843706 0 0.016181008934311011 -0.028018372972613129 0 0.016566733234403302 -0.028223080076740528 0 0.016500883020956415 -0.027896305817843706 0 0.016566733234403302 -0.028223080076740528 0 0.016843261459168198 -0.027882379053811763 0 0.016193090201484031 -0.027389601319668146 0 0.016471278840539495 -0.027566216946372939 0 0.016798420798695077 -0.027461938303217418 0 0.016471278840539495 -0.027566216946372939 0 0.016843261459168198 -0.027882379053811763 0 0.016798420798695077 -0.027461938303217418 0 0.016500883020956415 -0.027896305817843706 0 0.016471278840539495 -0.027566216946372939 0 0.016843261459168198 -0.027882379053811763 0 0.016500883020956415 -0.027896305817843706 0 0.016471278840539495 -0.027566216946372939 0 0.016324340845411952 -0.027746118957282934 0 0.016324340845411952 -0.027746118957282934 0 0.01628126954357046 -0.027577609400982139 0 0.016138177433322964 -0.027612444272261196 0 0.016471278840539495 -0.027566216946372939 0 0.016324340845411952 -0.027746118957282934 0 0.01628126954357046 -0.027577609400982139 0 0.016193090201484031 -0.027389601319668146 0 0.016471278840539495 -0.027566216946372939 0 0.01628126954357046 -0.027577609400982139 0 0.016193090201484031 -0.027389601319668146 0 0.01628126954357046 -0.027577609400982139 0 0.016138177433322964 -0.027612444272261196 0 0.01112917715667998 -0.030600039899960102 0 0.011128699111574073 -0.030615268839777152 0 0.011118794884141109 -0.030610976059016609 0 0.016324340845411952 -0.027746118957282934 0 0.016138177433322964 -0.027612444272261196 0 0.016181008934311011 -0.028018372972613129 0 0.012500890854011223 -0.029676870643022202 0 0.010873729450637229 -0.030686445735027029 0 0.016500883020956415 -0.027896305817843706 0 0.016324340845411952 -0.027746118957282934 0 0.016181008934311011 -0.028018372972613129 0 0.0073247478625564589 -0.032943275639312888 0 0.0070692533914520636 -0.032968309794586557 0 0.0068946137922312641 -0.03346345525958818 0 0.0070692533914520636 -0.032968309794586557 0 0.006394631773503418 -0.033107130164167844 0 0.0068946137922312641 -0.03346345525958818 0 0.0070692533914520636 -0.032968309794586557 0 0.006394631773503418 -0.033107130164167844 0 0.0065706870466104815 -0.032536299777836862 0 0.0073247478625564589 -0.032943275639312888 0 0.0070692533914520636 -0.032968309794586557 0 0.0065946178500827938 -0.03254379391582108 0 0.006394631773503418 -0.033107130164167844 0 0.0065706870466104815 -0.032536299777836862 0 0.0059150280913020954 -0.032621247572463562 0 0.0091147040816040945 -0.03099776973740289 0 0.0092665651519802522 -0.030954803170653265 0 0.010873729450637229 -0.030686445735027029 0 0.0092665651519802522 -0.030954803170653265 0 0.01112917715667998 -0.030600039899960102 0 0.011118794884141109 -0.030610976059016609 0 0.011117999252146097 -0.030595735454470963 0 0.011118794884141109 -0.030610976059016609 0 0.011117999252146097 -0.030595735454470963 0 0.011104249939592728 -0.030602239217622482 0 0.0092665651519802522 -0.030954803170653265 0 0.0078382245744742264 -0.031041323562201829 0 0.0092665651519802522 -0.030954803170653265 0 0.0095983987740828718 -0.03096635112855451 0 0.0045734689738745771 -0.031475235081926879 0 0.0055651851671331583 -0.032009694474592336 0 0.0051310840478635406 -0.032098554158287405 0 0.008772088896287453 -0.031114605579537949 0 0.0087495862050251654 -0.031096417943793878 0 0.0087471856674573353 -0.031102349799920815 0 0.0087356917309931986 -0.031079755757178685 0 0.0087495862050251654 -0.031096417943793878 0 0.0087471856674573353 -0.031102349799920815 0 0.0096747883118885082 -0.030879106707243802 0 0.0095983987740828718 -0.03096635112855451 0 0.0055651851671331583 -0.032009694474592336 0 0.0051310840478635406 -0.032098554158287405 0 0.0053672487886566684 -0.032472269352472771 0 0.0048692136450127913 -0.032388178310295279 0 0.0051310840478635406 -0.032098554158287405 0 0.0053672487886566684 -0.032472269352472771 0 0.0049816212676367568 -0.032833240922891353 0 0.0053672487886566684 -0.032472269352472771 0 0.0056776525992214685 -0.032980813444077238 0 0.0065706870466104815 -0.032536299777836862 0 0.0055651851671331583 -0.032009694474592336 0 0.0059150280913020954 -0.032621247572463562 0 0.0053672487886566684 -0.032472269352472771 0 0.0059150280913020954 -0.032621247572463562 0 0.0056776525992214685 -0.032980813444077238 0 0.0055651851671331583 -0.032009694474592336 0 0.0053672487886566684 -0.032472269352472771 0 0.0059150280913020954 -0.032621247572463562 0 0.006394631773503418 -0.033107130164167844 0 0.0059150280913020954 -0.032621247572463562 0 0.0056776525992214685 -0.032980813444077238 0 0.006394631773503418 -0.033107130164167844 0 0.0056776525992214685 -0.032980813444077238 0 0.0058426078485777433 -0.033506424101805252 0 0.0049816212676367568 -0.032833240922891353 0 0.0056776525992214685 -0.032980813444077238 0 0.005269998399261352 -0.033479678370380954 0 0.005269998399261352 -0.033479678370380954 0 0.0058426078485777433 -0.033506424101805252 0 0.0056281722632358158 -0.034032543331225247 0 0.0056776525992214685 -0.032980813444077238 0 0.005269998399261352 -0.033479678370380954 0 0.0058426078485777433 -0.033506424101805252 0 0.0058426078485777433 -0.033506424101805252 0 0.0056281722632358158 -0.034032543331225247 0 0.0063670112884237767 -0.033807854628421043 0 0.0048077382296036753 -0.033980244012765039 0 0.005269998399261352 -0.033479678370380954 0 0.0056281722632358158 -0.034032543331225247 0 0.0049668911871983898 -0.034920264644501375 0 0.0056281722632358158 -0.034032543331225247 0 0.0064666828344858377 -0.034639710331937405 0 0.0048077382296036753 -0.033980244012765039 0 0.0049668911871983898 -0.034920264644501375 0 0.0056281722632358158 -0.034032543331225247 0 0.0064666828344858377 -0.034639710331937405 0 0.007519927645223726 -0.034372782476724054 0 0.0071009471575082684 -0.035388459674582644 0 0.0064666828344858377 -0.034639710331937405 0 0.0068203153557251425 -0.034095244040065746 0 0.007519927645223726 -0.034372782476724054 0 0.0064666828344858377 -0.034639710331937405 0 0.0068203153557251425 -0.034095244040065746 0 0.0063670112884237767 -0.033807854628421043 0 0.0068203153557251425 -0.034095244040065746 0 0.0063670112884237767 -0.033807854628421043 0 0.0068946137922312641 -0.03346345525958818 0 0.0056281722632358158 -0.034032543331225247 0 0.0064666828344858377 -0.034639710331937405 0 0.0063670112884237767 -0.033807854628421043 0 0.006394631773503418 -0.033107130164167844 0 0.0058426078485777433 -0.033506424101805252 0 0.0063670112884237767 -0.033807854628421043 0 0.006394631773503418 -0.033107130164167844 0 0.0063670112884237767 -0.033807854628421043 0 0.0068946137922312641 -0.03346345525958818 0 0.0073247478625564589 -0.032943275639312888 0 0.0068946137922312641 -0.03346345525958818 0 0.007519927645223726 -0.034372782476724054 0 0.010873729450637229 -0.030686445735027029 0 0.0096191402994281125 -0.032984522641835753 0 0.0071327205605275345 -0.02994638688025714 0 0.0074650770304679369 -0.032855752567392031 0 0.0093536142645134247 -0.031158945690066588 0 0.010873729450637229 -0.030686445735027029 0 0.012929303198090731 -0.028964047758865387 0 0.0068203153557251425 -0.034095244040065746 0 0.0068946137922312641 -0.03346345525958818 0 0.007519927645223726 -0.034372782476724054 0 0.0096191402994281125 -0.032984522641835753 0 0.0093196800939701011 -0.034099765474506702 0 0.0074650770304679369 -0.032855752567392031 0 0.0095326083000059608 -0.032858997834447207 0 0.0087413080390172388 -0.034500474223582052 0 0.0095326083000059608 -0.032858997834447207 0 0.010162180719219451 -0.034447925157011117 0 0.0087413080390172388 -0.034500474223582052 0 0.0074650770304679369 -0.032855752567392031 0 0.0095326083000059608 -0.032858997834447207 0 0.0093536142645134247 -0.031158945690066588 0 0.0095326083000059608 -0.032858997834447207 0 0.0093536142645134247 -0.031158945690066588 0 0.0115953671908617 -0.032369617313209711 0 0.012366302543897097 -0.017367473114477949 0 0.012534012787022748 -0.01712319408997456 0 0.01537138131200559 -0.017880954996260259 0 0.016037832979388364 -0.005918872982358582 0 0.016202104612500549 -0.0054577355675473191 0 0.015919226745201281 -0.0056624003857048662 0 0.012598676480660716 -0.017414844956320005 0 0.016094390664484731 -0.014619648442334789 0 0.016037832979388364 -0.005918872982358582 0 0.015919226745201281 -0.0056624003857048662 0 0.015631994887326951 -0.0058795933144052863 0 0.017577811910498644 -0.011383132056969015 0 0.016094390664484731 -0.014619648442334789 0 0.012598676480660716 -0.017414844956320005 0 0.012158601654239525 -0.018398299857713667 0 0.0086926379701999321 -0.03644231181290164 0 0.0087413080390172388 -0.034500474223582052 0 0.0078114792549695382 -0.03579690006567602 0 0.0086926379701999321 -0.03644231181290164 0 0.010162180719219451 -0.034447925157011117 0 0.0087413080390172388 -0.034500474223582052 0 0.012158601654239525 -0.018398299857713667 0 0.012290254320243967 -0.024588361964998914 0 0.013971933938410529 -0.021212031599788725 0 0.014168952407130873 -0.020942450407789803 0 0.014412927959084004 -0.021209755751037319 0 0.007519927645223726 -0.034372782476724054 0 0.0078114792549695382 -0.03579690006567602 0 0.0071009471575082684 -0.035388459674582644 0 0.0074650770304679369 -0.032855752567392031 0 0.0087413080390172388 -0.034500474223582052 0 0.0078114792549695382 -0.03579690006567602 0 0.0078114792549695382 -0.03579690006567602 0 0.0071009471575082684 -0.035388459674582644 0 0.0076976795482652125 -0.036305094135191625 0 0.0092182661824558206 -0.015559332775051622 0 0.0091199889701525146 -0.015541726607576592 0 0.009053127466431686 -0.01577235145154144 0 0.0091199889701525146 -0.015541726607576592 0 0.0089591837494373272 -0.015660397292571526 0 0.009053127466431686 -0.01577235145154144 0 0.011032521575108548 -0.018403085115849614 0 0.0098703540737982917 -0.017744060345522727 0 0.012598676480660716 -0.017414844956320005 0 0.01267257386239317 -0.012248677959464587 0 0.0086926379701999321 -0.03644231181290164 0 0.0078114792549695382 -0.03579690006567602 0 0.0076976795482652125 -0.036305094135191625 0 0.013807026907793226 -0.019007874058105657 0 0.014212556420041425 -0.018416285655919559 0 0.010749936889427516 -0.018486968163454059 0 0.012158601654239525 -0.018398299857713667 0 0.011032521575108548 -0.018403085115849614 0 0.012598676480660716 -0.017414844956320005 0 0.011032521575108548 -0.018403085115849614 0 0.0089725908667352451 -0.015590991136115782 0 0.0088289077207192417 -0.015506295540039412 0 0.008740113379283522 -0.015562296836603354 0 0.0092242247013301516 -0.01560738057484376 0 0.0089725908667352451 -0.015590991136115782 0 0.0088289077207192417 -0.015506295540039412 0 0.011032521575108548 -0.018403085115849614 0 0.0083317049763685074 -0.021630055881443417 0 0.0098703540737982917 -0.017744060345522727 0 0.0095429006976460295 -0.017537835345586728 0 0.0088382029039276097 -0.015647348183485465 0 0.0089260993265785245 -0.015545392564160381 0 0.008740113379283522 -0.015562296836603354 0 0.0091199889701525146 -0.015541726607576592 0 0.0089591837494373272 -0.015660397292571526 0 0.0089260993265785245 -0.015545392564160381 0 0.0089591837494373272 -0.015660397292571526 0 0.0088382029039276097 -0.015647348183485465 0 0.0089260993265785245 -0.015545392564160381 0 0.0064666828344858377 -0.034639710331937405 0 0.0071009471575082684 -0.035388459674582644 0 0.0060207331695451543 -0.035978112124762797 0 0.0071009471575082684 -0.035388459674582644 0 0.0076976795482652125 -0.036305094135191625 0 0.0060207331695451543 -0.035978112124762797 0 0.0088289077207192417 -0.015506295540039412 0 0.008740113379283522 -0.015562296836603354 0 0.0085161594558883346 -0.015461258604559647 0 0.0049668911871983898 -0.034920264644501375 0 0.0060207331695451543 -0.035978112124762797 0 0.0044369016235072068 -0.03573260599235166 0 0.0049668911871983898 -0.034920264644501375 0 0.0064666828344858377 -0.034639710331937405 0 0.0060207331695451543 -0.035978112124762797 0 0.0083317049763685074 -0.021630055881443417 0 0.0066612573197483756 -0.022542016486956598 0 0.0088382029039276097 -0.015647348183485465 0 0.008740113379283522 -0.015562296836603354 0 0.0087115489393073484 -0.015691253580900549 0 0.008740113379283522 -0.015562296836603354 0 0.0087115489393073484 -0.015691253580900549 0 0.0085915540645884209 -0.015626977930695958 0 0.0087115489393073484 -0.015691253580900549 0 0.0086975005125198845 -0.015850682324124572 0 0.0085475365112609985 -0.015757075844993394 0 0.0088382029039276097 -0.015647348183485465 0 0.0087115489393073484 -0.015691253580900549 0 0.0088575971613591865 -0.015763882106692481 0 0.0087115489393073484 -0.015691253580900549 0 0.0086975005125198845 -0.015850682324124572 0 0.0088575971613591865 -0.015763882106692481 0 0.011412188213591801 -0.0098410247609558837 0 0.0089091897961588503 -0.010312134141042196 0 0.0086975005125198845 -0.015850682324124572 0 0.008895177833271881 -0.015975114461982326 0 0.0086406796958866123 -0.016022398146067662 0 0.0086975005125198845 -0.015850682324124572 0 0.008895177833271881 -0.015975114461982326 0 0.0088575971613591865 -0.015763882106692481 0 0.011412188213591801 -0.0098410247609558837 0 0.01267257386239317 -0.012248677959464587 0 0.015757812688969614 -0.0057808172376959252 0 0.016015180293098667 -0.0056927509078037071 0 0.016224922246910498 -0.0054716567348887446 0 0.015757812688969614 -0.0057808172376959252 0 0.015918207568542776 -0.0057719960830449083 0 0.016015180293098667 -0.0056927509078037071 0 0.015685366020256226 -0.0057951800960201506 0 0.015918207568542776 -0.0057719960830449083 0 0.015752870667444022 -0.0061352478469930034 0 0.011412188213591801 -0.0098410247609558837 0 0.011713624414606503 -0.0097265111952103637 0 0.008895177833271881 -0.015975114461982326 0 0.0088575971613591865 -0.015763882106692481 0 0.009053127466431686 -0.01577235145154144 0 0.0089591837494373272 -0.015660397292571526 0 0.0088575971613591865 -0.015763882106692481 0 0.009053127466431686 -0.01577235145154144 0 0.0089591837494373272 -0.015660397292571526 0 0.0088382029039276097 -0.015647348183485465 0 0.0088575971613591865 -0.015763882106692481 0 0.016037832979388364 -0.005918872982358582 0 0.016224922246910498 -0.0054716567348887446 0 0.016202104612500549 -0.0054577355675473191 0 0.016202104612500549 -0.0054577355675473191 0 0.016269753128732776 -0.0056058398521266111 0 0.016432571463818654 -0.0055223411221205759 0 0.016202104612500549 -0.0054577355675473191 0 0.016193715816067173 -0.0055531053670168085 0 0.016269753128732776 -0.0056058398521266111 0 0.016224922246910498 -0.0054716567348887446 0 0.016193715816067173 -0.0055531053670168085 0 0.016135158114430954 -0.0056172128978106547 0 0.016015180293098667 -0.0056927509078037071 0 0.016224922246910498 -0.0054716567348887446 0 0.016135158114430954 -0.0056172128978106547 0 0.016224922246910498 -0.0054716567348887446 0 0.016202104612500549 -0.0054577355675473191 0 0.016193715816067173 -0.0055531053670168085 0 0.016193715816067173 -0.0055531053670168085 0 0.016135158114430954 -0.0056172128978106547 0 0.016191207184783615 -0.0056828101358271654 0 0.016191207184783615 -0.0056828101358271654 0 0.016114006612823636 -0.0057648839219766202 0 0.016305117820104756 -0.0057644899101393617 0 0.016135158114430954 -0.0056172128978106547 0 0.016191207184783615 -0.0056828101358271654 0 0.016114006612823636 -0.0057648839219766202 0 0.016015180293098667 -0.0056927509078037071 0 0.016135158114430954 -0.0056172128978106547 0 0.016114006612823636 -0.0057648839219766202 0 0.015918207568542776 -0.0057719960830449083 0 0.016015180293098667 -0.0056927509078037071 0 0.016114006612823636 -0.0057648839219766202 0 0.016114006612823636 -0.0057648839219766202 0 0.016246249791258906 -0.0059528732309499007 0 0.016040844362590703 -0.0059671367708352433 0 0.015918207568542776 -0.0057719960830449083 0 0.016114006612823636 -0.0057648839219766202 0 0.016040844362590703 -0.0059671367708352433 0 0.016447980768488749 -0.0059284137513123886 0 0.016305117820104756 -0.0057644899101393617 0 0.016246249791258906 -0.0059528732309499007 0 0.016114006612823636 -0.0057648839219766202 0 0.016305117820104756 -0.0057644899101393617 0 0.016246249791258906 -0.0059528732309499007 0 0.016305117820104756 -0.0057644899101393617 0 0.016269753128732776 -0.0056058398521266111 0 0.016428649780474102 -0.0056655755185114507 0 0.016191207184783615 -0.0056828101358271654 0 0.016305117820104756 -0.0057644899101393617 0 0.016269753128732776 -0.0056058398521266111 0 0.016193715816067173 -0.0055531053670168085 0 0.016191207184783615 -0.0056828101358271654 0 0.016269753128732776 -0.0056058398521266111 0 0.016269753128732776 -0.0056058398521266111 0 0.016428649780474102 -0.0056655755185114507 0 0.016432571463818654 -0.0055223411221205759 0 0.016428649780474102 -0.0056655755185114507 0 0.016674436780976659 -0.0055652007438647937 0 0.016432571463818654 -0.0055223411221205759 0 0.016305117820104756 -0.0057644899101393617 0 0.016428649780474102 -0.0056655755185114507 0 0.016574358902183336 -0.0057871835927292767 0 0.016428649780474102 -0.0056655755185114507 0 0.016574358902183336 -0.0057871835927292767 0 0.016674436780976659 -0.0055652007438647937 0 0.016447980768488749 -0.0059284137513123886 0 0.016574358902183336 -0.0057871835927292767 0 0.016686636026214154 -0.0060365094754156008 0 0.016447980768488749 -0.0059284137513123886 0 0.016305117820104756 -0.0057644899101393617 0 0.016574358902183336 -0.0057871835927292767 0 0.016574358902183336 -0.0057871835927292767 0 0.016969207865754066 -0.0057969909296121834 0 0.016686636026214154 -0.0060365094754156008 0 0.016574358902183336 -0.0057871835927292767 0 0.016674436780976659 -0.0055652007438647937 0 0.016969207865754066 -0.0057969909296121834 0 0.016674436780976659 -0.0055652007438647937 0 0.01693580121533151 -0.005400079244648308 0 0.016969207865754066 -0.0057969909296121834 0 0.016674436780976659 -0.0055652007438647937 0 0.016647386930666915 -0.0051754401669157173 0 0.01693580121533151 -0.005400079244648308 0 0.016647386930666915 -0.0051754401669157173 0 0.017018758124467914 -0.0049550769166820932 0 0.01693580121533151 -0.005400079244648308 0 0.016674436780976659 -0.0055652007438647937 0 0.016432571463818654 -0.0055223411221205759 0 0.016647386930666915 -0.0051754401669157173 0 0.016202104612500549 -0.0054577355675473191 0 0.016432571463818654 -0.0055223411221205759 0 0.016647386930666915 -0.0051754401669157173 0 0.017874306844196025 -0.010490165456076846 0 0.017577811910498644 -0.011383132056969015 0 0.0024176316543617696 -0.0092689975219803194 0 0.0012359872697242031 -0.0088509121504169019 0 0.0018795493771382966 -0.0079904085429934862 0 0.0024176316543617696 -0.0092689975219803194 0 0.0014700112549248683 -0.010093082916057329 0 0.0012359872697242031 -0.0088509121504169019 0 0.0042214906030894018 -0.021526315083003802 0 0.0023672731572367831 -0.021653895909959548 0 0.0024176316543617696 -0.0092689975219803194 0 0.0014700112549248683 -0.010093082916057329 0 0.0030545376578154505 -0.010389741587668628 0 0.0042214906030894018 -0.021526315083003802 0 0.004539158444142927 -0.014596465990364673 0 0.0042214906030894018 -0.021526315083003802 0 0.0066612573197483756 -0.022542016486956598 0 0.0035832160347651233 -0.034914337793825176 0 0.0028583123152992698 -0.035480397939952474 0 0.0044369016235072068 -0.03573260599235166 0 0.0082283897566648029 -0.015425425070077724 0 0.0085161594558883346 -0.015461258604559647 0 0.0082865808204745268 -0.015639161114418938 0 0.0049668911871983898 -0.034920264644501375 0 0.0035832160347651233 -0.034914337793825176 0 0.0044369016235072068 -0.03573260599235166 0 0.0085161594558883346 -0.015461258604559647 0 0.0085915540645884209 -0.015626977930695958 0 0.0084527654308907373 -0.015665747258932279 0 0.008740113379283522 -0.015562296836603354 0 0.0085161594558883346 -0.015461258604559647 0 0.0085915540645884209 -0.015626977930695958 0 0.0085915540645884209 -0.015626977930695958 0 0.0084527654308907373 -0.015665747258932279 0 0.0085475365112609985 -0.015757075844993394 0 0.0085161594558883346 -0.015461258604559647 0 0.0082865808204745268 -0.015639161114418938 0 0.0084527654308907373 -0.015665747258932279 0 0.0082865808204745268 -0.015639161114418938 0 0.0084527654308907373 -0.015665747258932279 0 0.0083449132584015786 -0.015850367896834777 0 0.0084527654308907373 -0.015665747258932279 0 0.0085475365112609985 -0.015757075844993394 0 0.0083449132584015786 -0.015850367896834777 0 0.004539158444142927 -0.014596465990364673 0 0.0054897669987781705 -0.011932663854530052 0 0.0085475365112609985 -0.015757075844993394 0 0.0085139700559542144 -0.015901620703885188 0 0.0083449132584015786 -0.015850367896834777 0 0.0086975005125198845 -0.015850682324124572 0 0.0085475365112609985 -0.015757075844993394 0 0.0085139700559542144 -0.015901620703885188 0 0.0087115489393073484 -0.015691253580900549 0 0.0085915540645884209 -0.015626977930695958 0 0.0085475365112609985 -0.015757075844993394 0 0.0086975005125198845 -0.015850682324124572 0 0.0085139700559542144 -0.015901620703885188 0 0.0086406796958866123 -0.016022398146067662 0 0.0085139700559542144 -0.015901620703885188 0 0.0083952731097494439 -0.016063646995913571 0 0.0086406796958866123 -0.016022398146067662 0 0.0054897669987781705 -0.011932663854530052 0 0.006811997227619911 -0.0096930833612384332 0 0.0011222466768182765 -0.0076840784399751323 0 0.0016469756120016028 -0.0071529849047873018 0 0.0011018600829130875 -0.0068054683241946749 0 0.0085139700559542144 -0.015901620703885188 0 0.0083449132584015786 -0.015850367896834777 0 0.0083952731097494439 -0.016063646995913571 0 0.0011222466768182765 -0.0076840784399751323 0 0.0016469756120016028 -0.0071529849047873018 0 0.0018795493771382966 -0.0079904085429934862 0 0.0016469756120016028 -0.0071529849047873018 0 0.0018795493771382966 -0.0079904085429934862 0 0.0021277619575430251 -0.0070810202669574331 0 0.0012359872697242031 -0.0088509121504169019 0 0.0011222466768182765 -0.0076840784399751323 0 0.0018795493771382966 -0.0079904085429934862 0 0.0024176316543617696 -0.0092689975219803194 0 0.0018795493771382966 -0.0079904085429934862 0 0.0030380547680513613 -0.0082346511487762977 0 0.0018795493771382966 -0.0079904085429934862 0 0.0021277619575430251 -0.0070810202669574331 0 0.0030380547680513613 -0.0082346511487762977 0 0.00084405837895035315 -0.0086196849634099064 0 0.00070735020076930432 -0.0093697569405043341 0 0.0021277619575430251 -0.0070810202669574331 0 0.0020609127924617059 -0.0067692900664605704 0 0.0021325277221424556 -0.0069598898107228521 0 0.001943581500708268 -0.0068411582453253988 0 0.0020609127924617059 -0.0067692900664605704 0 0.0021325277221424556 -0.0069598898107228521 0 0.001943581500708268 -0.0068411582453253988 0 0.0017215348755997464 -0.0067986669363415764 0 0.00176338932327065 -0.0069533148353286955 0 0.001943581500708268 -0.0068411582453253988 0 0.0017523101330289502 -0.0067304875077382302 0 0.0017215348755997464 -0.0067986669363415764 0 0.001943581500708268 -0.0068411582453253988 0 0.0018923626620847953 -0.0067224291633909434 0 0.0017523101330289502 -0.0067304875077382302 0 0.0018923626620847953 -0.0067224291633909434 0 0.0017558851354487748 -0.0066924036575578237 0 0.0017523101330289502 -0.0067304875077382302 0 0.0018923626620847953 -0.0067224291633909434 0 0.0017976154263097998 -0.0066638660487825119 0 0.0017558851354487748 -0.0066924036575578237 0 0.001943581500708268 -0.0068411582453253988 0 0.0018923626620847953 -0.0067224291633909434 0 0.0020609127924617059 -0.0067692900664605704 0 0.00070735020076930432 -0.0093697569405043341 0 0.0002665597288796864 -0.012141117657698855 0 0.0024176316543617696 -0.0092689975219803194 0 0.0030380547680513613 -0.0082346511487762977 0 0.0038593072706191284 -0.0094596020512483225 0 0.0018923626620847953 -0.0067224291633909434 0 0.0020609127924617059 -0.0067692900664605704 0 0.0018764804505363543 -0.0066256827256994258 0 0.0018923626620847953 -0.0067224291633909434 0 0.0018764804505363543 -0.0066256827256994258 0 0.0017976154263097998 -0.0066638660487825119 0 0.0018764804505363543 -0.0066256827256994258 0 0.0017976154263097998 -0.0066638660487825119 0 0.0017541211269930972 -0.0066439535601328795 0 0.0018764804505363543 -0.0066256827256994258 0 0.0017541211269930972 -0.0066439535601328795 0 0.0017726116840642437 -0.0066075684395486313 0 0.0002665597288796864 -0.012141117657698855 0 0.0010170453730353221 -0.021000151338123944 0 0.0038593072706191284 -0.0094596020512483225 0 0.0030545376578154505 -0.010389741587668628 0 0.0046639175362648772 -0.010702067611081736 0 0.0024176316543617696 -0.0092689975219803194 0 0.0038593072706191284 -0.0094596020512483225 0 0.0030545376578154505 -0.010389741587668628 0 0.0017040054945142351 -0.0066491873878523509 0 0.0016533964264677744 -0.0066768535002309599 0 0.0016730240360187268 -0.0066429621681874064 0 0.0017040054945142351 -0.0066491873878523509 0 0.0016802155371803999 -0.0066758372487864823 0 0.0016533964264677744 -0.0066768535002309599 0 0.0017040054945142351 -0.0066491873878523509 0 0.0017541211269930972 -0.0066439535601328795 0 0.0016802155371803999 -0.0066758372487864823 0 0.0017040054945142351 -0.0066491873878523509 0 0.0017541211269930972 -0.0066439535601328795 0 0.0017726116840642437 -0.0066075684395486313 0 0.0017541211269930972 -0.0066439535601328795 0 0.001713049861097564 -0.0066762126122285334 0 0.0016802155371803999 -0.0066758372487864823 0 0.0017976154263097998 -0.0066638660487825119 0 0.0017541211269930972 -0.0066439535601328795 0 0.001713049861097564 -0.0066762126122285334 0 0.0017976154263097998 -0.0066638660487825119 0 0.001713049861097564 -0.0066762126122285334 0 0.0017558851354487748 -0.0066924036575578237 0 0.001713049861097564 -0.0066762126122285334 0 0.0016802155371803999 -0.0066758372487864823 0 0.0016711052052775354 -0.0066908828071500078 0 0.0016802155371803999 -0.0066758372487864823 0 0.0016595983093505944 -0.0066842537204438706 0 0.0016533964264677744 -0.0066768535002309599 0 0.0016802155371803999 -0.0066758372487864823 0 0.0016595983093505944 -0.0066842537204438706 0 0.0016615713299511982 -0.0066924678733456897 0 0.0016802155371803999 -0.0066758372487864823 0 0.0016615713299511982 -0.0066924678733456897 0 0.0016711052052775354 -0.0066908828071500078 0 0.0016615713299511982 -0.0066924678733456897 0 0.0016637937281467803 -0.0066963415669347619 0 0.0016692118803864409 -0.0066952741842749271 0 0.0012280777433817207 -0.0064671004850398546 0 0.001283748175774547 -0.0063996630927027395 0 0.0015501040865925483 -0.0066876077714699339 0 0.0016615713299511982 -0.0066924678733456897 0 0.0016637937281467803 -0.0066963415669347619 0 0.0016711052052775354 -0.0066908828071500078 0 0.0016637937281467803 -0.0066963415669347619 0 0.0016475124131500227 -0.006697627722211697 0 0.0016692118803864409 -0.0066952741842749271 0 0.0016637937281467803 -0.0066963415669347619 0 0.0016711052052775354 -0.0066908828071500078 0 0.0016475124131500227 -0.006697627722211697 0 0.0016711052052775354 -0.0066908828071500078 0 0.0016475124131500227 -0.006697627722211697 0 0.0016743577964400415 -0.0066953425384383381 0 0.0016475124131500227 -0.006697627722211697 0 0.0016692118803864409 -0.0066952741842749271 0 0.0015501040865925483 -0.0066876077714699339 0 0.001713049861097564 -0.0066762126122285334 0 0.0017558851354487748 -0.0066924036575578237 0 0.0016743577964400415 -0.0066953425384383381 0 0.001713049861097564 -0.0066762126122285334 0 0.0016711052052775354 -0.0066908828071500078 0 0.0016743577964400415 -0.0066953425384383381 0 0.0016475124131500227 -0.006697627722211697 0 0.0016743577964400415 -0.0066953425384383381 0 0.0015501040865925483 -0.0066876077714699339 0 0.0017558851354487748 -0.0066924036575578237 0 0.0016743577964400415 -0.0066953425384383381 0 0.0017523101330289502 -0.0067304875077382302 0 0.0017523101330289502 -0.0067304875077382302 0 0.0015501040865925483 -0.0066876077714699339 0 0.0017215348755997464 -0.0067986669363415764 0 0.0016743577964400415 -0.0066953425384383381 0 0.0017523101330289502 -0.0067304875077382302 0 0.0015501040865925483 -0.0066876077714699339 0 0.0015501040865925483 -0.0066876077714699339 0 0.001363545246295609 -0.0067543893923951541 0 0.0015589131634063133 -0.0068356713840158475 0 0.0015501040865925483 -0.0066876077714699339 0 0.0017215348755997464 -0.0067986669363415764 0 0.0015589131634063133 -0.0068356713840158475 0 0.0012280777433817207 -0.0064671004850398546 0 0.0015501040865925483 -0.0066876077714699339 0 0.001363545246295609 -0.0067543893923951541 0 0.00085346415831465876 -0.0058270961189033094 0 0.001363545246295609 -0.0067543893923951541 0 0.00079076340479714989 -0.006438371676459372 0 0.00045566736622741676 -0.0066463511838122259 0 0.0006258841072798566 -0.0067184886187952337 0 0.00073243276154915011 -0.0069879047843934249 0 0.00090148244626337619 -0.0070084423568204258 0 0.001363545246295609 -0.0067543893923951541 0 0.00079076340479714989 -0.006438371676459372 0 0.00096923635447055258 -0.0067814157833628527 0 0.00032045742996495271 -0.0061506491475443051 0 0.00045353821633486064 -0.0066314310065320008 0 -0.00044963318326874757 -0.0062299438586420368 0 0.00079076340479714989 -0.006438371676459372 0 0.00032045742996495271 -0.0061506491475443051 0 0.00045353821633486064 -0.0066314310065320008 0 0.00079076340479714989 -0.006438371676459372 0 0.00045353821633486064 -0.0066314310065320008 0 0.00096923635447055258 -0.0067814157833628527 0 0.00085346415831465876 -0.0058270961189033094 0 0.00079076340479714989 -0.006438371676459372 0 0.00032045742996495271 -0.0061506491475443051 0 0.00045353821633486064 -0.0066314310065320008 0 -0.00044963318326874757 -0.0062299438586420368 0 0.00030009017035182556 -0.007041402737259614 0 0.00032045742996495271 -0.0061506491475443051 0 -0.00044963318326874757 -0.0062299438586420368 0 -2.9206890681482654e-05 -0.0055739339956316089 0 -0.001237877320096071 -0.0060411771686989715 0 -0.001100305834590807 -0.0053196693747584274 0 -0.0019152137381169916 -0.0064288240831578934 0 -0.002023599958550241 -0.0050285427743506422 0 -0.00098882669970798702 -0.0046928732031748617 0 -0.00044963318326874757 -0.0062299438586420368 0 -2.9206890681482654e-05 -0.0055739339956316089 0 -0.00098882669970798702 -0.0046928732031748617 0 0.0012280777433817207 -0.0064671004850398546 0 0.001283748175774547 -0.0063996630927027395 0 0.0010206109291758471 -0.0061178860812374026 0 0.00045566736622741676 -0.0066463511838122259 0 0.00019273066572857145 -0.0069516737064329124 0 0.00085346415831465876 -0.0058270961189033094 0 -2.9206890681482654e-05 -0.0055739339956316089 0 0.00010577172341741737 -0.0047127409960702601 0 0.00073243276154915011 -0.0069879047843934249 0 0.00019273066572857145 -0.0069516737064329124 0 0.0016615713299511982 -0.0066924678733456897 0 0.0016692118803864409 -0.0066952741842749271 0 0.0016475778014224912 -0.006691873790467413 0 0.00085346415831465876 -0.0058270961189033094 0 0.00032045742996495271 -0.0061506491475443051 0 -2.9206890681482654e-05 -0.0055739339956316089 0 -0.0035791938605716661 -0.006330030297693235 0 -0.0030279348634585216 -0.0071001754596092936 0 -0.0039534950062333372 -0.007200838794969998 0 -0.0044132900213635596 -0.0064045526653326275 0 -0.0035791938605716661 -0.006330030297693235 0 -0.0039534950062333372 -0.007200838794969998 0 -0.0044132900213635596 -0.0064045526653326275 0 -0.0042372064872422772 -0.0055181380890087922 0 -0.0035791938605716661 -0.006330030297693235 0 -0.0019152137381169916 -0.0064288240831578934 0 -0.0035791938605716661 -0.006330030297693235 0 -0.0030279348634585216 -0.0071001754596092936 0 -0.0019152137381169916 -0.0064288240831578934 0 -0.0035791938605716661 -0.006330030297693235 0 -0.0030086812820508259 -0.0053987431002833425 0 -0.0019152137381169916 -0.0064288240831578934 0 -0.0030086812820508259 -0.0053987431002833425 0 -0.002023599958550241 -0.0050285427743506422 0 -0.0042372064872422772 -0.0055181380890087922 0 -0.0035791938605716661 -0.006330030297693235 0 -0.0030086812820508259 -0.0053987431002833425 0 -0.0042372064872422772 -0.0055181380890087922 0 -0.0030086812820508259 -0.0053987431002833425 0 -0.0036636352662677771 -0.0045962993291165793 0 -0.0036636352662677771 -0.0045962993291165793 0 -0.0026231217842410232 -0.0043963756617584693 0 -0.0033787220291132758 -0.0038065217849549146 0 -0.0030086812820508259 -0.0053987431002833425 0 -0.0026231217842410232 -0.0043963756617584693 0 -0.002023599958550241 -0.0050285427743506422 0 -0.0030086812820508259 -0.0053987431002833425 0 -0.0036636352662677771 -0.0045962993291165793 0 -0.0026231217842410232 -0.0043963756617584693 0 -0.0026231217842410232 -0.0043963756617584693 0 -0.002023599958550241 -0.0050285427743506422 0 -0.0015929554866143648 -0.0040726328137031488 0 -0.0026231217842410232 -0.0043963756617584693 0 -0.00266100532936287 -0.0033584404208169515 0 -0.0015929554866143648 -0.0040726328137031488 0 -0.00266100532936287 -0.0033584404208169515 0 -0.0015929554866143648 -0.0040726328137031488 0 -0.0017396694548330756 -0.003118087412401768 0 -0.0026231217842410232 -0.0043963756617584693 0 -0.00266100532936287 -0.0033584404208169515 0 -0.0033787220291132758 -0.0038065217849549146 0 -0.0043638111752814495 -0.0036531622448010294 0 -0.0042601180612792788 -0.0024836408427845766 0 -0.003535324007150723 -0.0030453859540199519 0 -0.00266100532936287 -0.0033584404208169515 0 -0.0033787220291132758 -0.0038065217849549146 0 -0.003535324007150723 -0.0030453859540199519 0 -0.0043638111752814495 -0.0036531622448010294 0 -0.0033787220291132758 -0.0038065217849549146 0 -0.003535324007150723 -0.0030453859540199519 0 -0.0043638111752814495 -0.0036531622448010294 0 -0.0036636352662677771 -0.0045962993291165793 0 -0.0033787220291132758 -0.0038065217849549146 0 0.00019273066572857145 -0.0069516737064329124 0 0.00073254309123880915 -0.0070191485577581229 0 0.0016595983093505944 -0.0066842537204438706 0 0.0016475778014224912 -0.006691873790467413 0 0.0016533964264677744 -0.0066768535002309599 0 0.0016595983093505944 -0.0066842537204438706 0 0.0016615713299511982 -0.0066924678733456897 0 0.0016475778014224912 -0.006691873790467413 0 -2.9206890681482654e-05 -0.0055739339956316089 0 0.00010577172341741737 -0.0047127409960702601 0 -0.00098882669970798702 -0.0046928732031748617 0 0.00010577172341741737 -0.0047127409960702601 0 -0.0015929554866143648 -0.0040726328137031488 0 -0.0017396694548330756 -0.003118087412401768 0 0.00010577172341741737 -0.0047127409960702601 0 -0.00098882669970798702 -0.0046928732031748617 0 -0.0015929554866143648 -0.0040726328137031488 0 -0.002023599958550241 -0.0050285427743506422 0 -0.00098882669970798702 -0.0046928732031748617 0 -0.0015929554866143648 -0.0040726328137031488 0 0.00019273066572857145 -0.0069516737064329124 0 -0.0024748988021029614 -0.0089641909224685325 0 0.0015994185407658984 -0.0068239728063265179 0 0.001583430823930427 -0.0067759340028155915 0 0.0015617472624153881 -0.0067615586417928749 0 0.001583430823930427 -0.0067759340028155915 0 0.0015617472624153881 -0.0067615586417928749 0 0.0015686943526776321 -0.0067123712218131121 0 0.0016252528654102343 -0.006687533341789678 0 0.0016301500075045427 -0.0066799675615867721 0 0.0016084221119232617 -0.0066932640109830322 0 0.0016475778014224912 -0.006691873790467413 0 0.0016252528654102343 -0.006687533341789678 0 0.0016533964264677744 -0.0066768535002309599 0 0.0016533964264677744 -0.0066768535002309599 0 0.0016301500075045427 -0.0066799675615867721 0 0.0016730240360187268 -0.0066429621681874064 0 0.0016252528654102343 -0.006687533341789678 0 0.0016533964264677744 -0.0066768535002309599 0 0.0016301500075045427 -0.0066799675615867721 0 0.0016301500075045427 -0.0066799675615867721 0 0.0016008492544484442 -0.0066873020409143674 0 0.0016730240360187268 -0.0066429621681874064 0 -0.0012884695414944437 -0.019881686555870415 0 -0.00024474080348342976 -0.020510888651191911 0 0.0016301500075045427 -0.0066799675615867721 0 0.0016084221119232617 -0.0066932640109830322 0 0.0016008492544484442 -0.0066873020409143674 0 0.0016252528654102343 -0.006687533341789678 0 0.0016084221119232617 -0.0066932640109830322 0 0.0015686943526776321 -0.0067123712218131121 0 0.00073254309123880915 -0.0070191485577581229 0 0.00087427271007117801 -0.007006611802008283 0 0.0016084221119232617 -0.0066932640109830322 0 0.0015686943526776321 -0.0067123712218131121 0 0.0016008492544484442 -0.0066873020409143674 0 -0.0040003011363586773 -0.034647385425558161 0 -0.0046302261141288863 -0.03363361168423501 0 -0.0037196661850817988 -0.033138558414318516 0 -0.0040003011363586773 -0.034647385425558161 0 -0.0028432125774747376 -0.03388969090711566 0 -0.0023339278057787319 -0.034864231346040678 0 -0.0040003011363586773 -0.034647385425558161 0 -0.0028432125774747376 -0.03388969090711566 0 -0.0037196661850817988 -0.033138558414318516 0 -0.0042601180612792788 -0.0024836408427845766 0 -0.003535324007150723 -0.0030453859540199519 0 -0.0032050567930915577 -0.00176403798802549 0 -0.00266100532936287 -0.0033584404208169515 0 -0.003535324007150723 -0.0030453859540199519 0 -0.0032050567930915577 -0.00176403798802549 0 -0.0024748988021029614 -0.0089641909224685325 0 -0.00311645711763425 -0.018592169640053863 0 -0.00266100532936287 -0.0033584404208169515 0 -0.0017396694548330756 -0.003118087412401768 0 -0.0032050567930915577 -0.00176403798802549 0 0.0015686943526776321 -0.0067123712218131121 0 0.0016008492544484442 -0.0066873020409143674 0 0.0014771488393167998 -0.0067105253380651394 0 0.0015617472624153881 -0.0067615586417928749 0 0.0015686943526776321 -0.0067123712218131121 0 0.0014771488393167998 -0.0067105253380651394 0 -0.0012884695414944437 -0.019881686555870415 0 -0.00311645711763425 -0.018592169640053863 0 -0.0056460814700478859 -0.034439559581584352 0 -0.0046302261141288863 -0.03363361168423501 0 -0.0053978250741241116 -0.03308416186035476 0 -0.0040003011363586773 -0.034647385425558161 0 -0.0056460814700478859 -0.034439559581584352 0 -0.0046302261141288863 -0.03363361168423501 0 -0.0058405906879004299 -0.018877689249931384 0 -0.00311645711763425 -0.018592169640053863 0 -0.0015600475588681622 -0.025467075398054446 0 -0.00311645711763425 -0.018592169640053863 0 -0.0069181313596661815 -0.033268394366755993 0 -0.0070706854178596758 -0.033449569716300323 0 -0.0065444369442164011 -0.033774993596326762 0 -0.0069181313596661815 -0.033268394366755993 0 -0.0056460814700478859 -0.034439559581584352 0 -0.0061174847385104172 -0.03337744435794366 0 -0.0056460814700478859 -0.034439559581584352 0 -0.0061174847385104172 -0.03337744435794366 0 -0.0053978250741241116 -0.03308416186035476 0 -0.006429554568842092 -0.032815328112956878 0 -0.0061174847385104172 -0.03337744435794366 0 -0.0059446974775534253 -0.032836781121209802 0 -0.0065999751829994551 -0.033062184700014922 0 -0.006429554568842092 -0.032815328112956878 0 -0.0061174847385104172 -0.03337744435794366 0 -0.0065999751829994551 -0.033062184700014922 0 -0.0069181313596661815 -0.033268394366755993 0 -0.0061174847385104172 -0.03337744435794366 0 -0.0061174847385104172 -0.03337744435794366 0 -0.0059446974775534253 -0.032836781121209802 0 -0.0053978250741241116 -0.03308416186035476 0 -0.0046302261141288863 -0.03363361168423501 0 -0.0053978250741241116 -0.03308416186035476 0 -0.0048014912000538604 -0.032375250448390583 0 -0.0046188666524107826 -0.031580625123262818 0 -0.0048014912000538604 -0.032375250448390583 0 -0.0051476598377838021 -0.031854389912105492 0 -0.0048014912000538604 -0.032375250448390583 0 -0.0051476598377838021 -0.031854389912105492 0 -0.0055951298473958079 -0.032296834947548043 0 -0.0056118569504780211 -0.031689670481773104 0 -0.0051476598377838021 -0.031854389912105492 0 -0.0055951298473958079 -0.032296834947548043 0 -0.0053978250741241116 -0.03308416186035476 0 -0.0048014912000538604 -0.032375250448390583 0 -0.0055951298473958079 -0.032296834947548043 0 -0.0059446974775534253 -0.032836781121209802 0 -0.0055951298473958079 -0.032296834947548043 0 -0.006219606388280517 -0.03238775275805849 0 -0.0059446974775534253 -0.032836781121209802 0 -0.0053978250741241116 -0.03308416186035476 0 -0.0055951298473958079 -0.032296834947548043 0 -0.0055951298473958079 -0.032296834947548043 0 -0.006110351444453585 -0.031881475607036358 0 -0.006219606388280517 -0.03238775275805849 0 -0.0056118569504780211 -0.031689670481773104 0 -0.0055951298473958079 -0.032296834947548043 0 -0.006110351444453585 -0.031881475607036358 0 -0.0065741303407327346 -0.03208638656788252 0 -0.0065874463420466604 -0.031707432731790879 0 -0.006110351444453585 -0.031881475607036358 0 -0.0065741303407327346 -0.03208638656788252 0 -0.006110351444453585 -0.031881475607036358 0 -0.006219606388280517 -0.03238775275805849 0 -0.0065741303407327346 -0.03208638656788252 0 -0.0066187165399351402 -0.032463132745093611 0 -0.006219606388280517 -0.03238775275805849 0 -0.0066187165399351402 -0.032463132745093611 0 -0.006429554568842092 -0.032815328112956878 0 -0.006219606388280517 -0.03238775275805849 0 -0.006429554568842092 -0.032815328112956878 0 -0.0059446974775534253 -0.032836781121209802 0 -0.006219606388280517 -0.03238775275805849 0 -0.0037196661850817988 -0.033138558414318516 0 -0.0028825025926527393 -0.032109411447408011 0 -0.0026962714222079987 -0.033004613720628316 0 -0.0028432125774747376 -0.03388969090711566 0 -0.0037196661850817988 -0.033138558414318516 0 -0.0026962714222079987 -0.033004613720628316 0 -0.0046302261141288863 -0.03363361168423501 0 -0.0048014912000538604 -0.032375250448390583 0 -0.0037196661850817988 -0.033138558414318516 0 -0.0048014912000538604 -0.032375250448390583 0 -0.0037196661850817988 -0.033138558414318516 0 -0.0039217354536389354 -0.031934933747237507 0 -0.0046188666524107826 -0.031580625123262818 0 -0.0048014912000538604 -0.032375250448390583 0 -0.0039217354536389354 -0.031934933747237507 0 -0.0037196661850817988 -0.033138558414318516 0 -0.0039217354536389354 -0.031934933747237507 0 -0.0028825025926527393 -0.032109411447408011 0 -0.0034624145053905237 -0.031376999326349179 0 -0.0039217354536389354 -0.031934933747237507 0 -0.0028825025926527393 -0.032109411447408011 0 -0.0017271554250855418 -0.031203572517821507 0 -0.0018338752758878284 -0.031794039301874494 0 -0.0018580803450722423 -0.031515194992685104 0 -0.0028825025926527393 -0.032109411447408011 0 -0.0020336482735531223 -0.032724770554890981 0 -0.0028825025926527393 -0.032109411447408011 0 -0.0026962714222079987 -0.033004613720628316 0 -0.0020336482735531223 -0.032724770554890981 0 -0.0026962714222079987 -0.033004613720628316 0 -0.0020336482735531223 -0.032724770554890981 0 -0.0019846082456097787 -0.03319032581390096 0 -0.0020336482735531223 -0.032724770554890981 0 -0.0019846082456097787 -0.03319032581390096 0 -0.0012511568906656361 -0.032859828078587998 0 -0.0028432125774747376 -0.03388969090711566 0 -0.0026962714222079987 -0.033004613720628316 0 -0.0019846082456097787 -0.03319032581390096 0 -0.0019846082456097787 -0.03319032581390096 0 -0.0012511568906656361 -0.032859828078587998 0 -0.0012612004393694376 -0.034065274683216115 0 -0.0020336482735531223 -0.032724770554890981 0 -0.0012511568906656361 -0.032859828078587998 0 -0.0012434419762831254 -0.032206777880801243 0 -0.0012511568906656361 -0.032859828078587998 0 -0.0012434419762831254 -0.032206777880801243 0 -0.00045660589326609088 -0.032695459272351124 0 -0.0017112358798704781 -0.03128031002200958 0 -0.0020336482735531223 -0.032724770554890981 0 -0.0012434419762831254 -0.032206777880801243 0 -0.0017112358798704781 -0.03128031002200958 0 -0.0012434419762831254 -0.032206777880801243 0 -0.00045930600829417111 -0.031783414344185565 0 -0.00045930600829417111 -0.031783414344185565 0 0.00069847582570155633 -0.031855425360145032 0 -0.00045660589326609088 -0.032695459272351124 0 -0.0012434419762831254 -0.032206777880801243 0 -0.00045930600829417111 -0.031783414344185565 0 -0.00045660589326609088 -0.032695459272351124 0 0.0018305099348004707 -0.03245417389299482 0 0.00069847582570155633 -0.031855425360145032 0 0.00066879056012316177 -0.032900864987176447 0 0.00069847582570155633 -0.031855425360145032 0 0.00066879056012316177 -0.032900864987176447 0 -0.00045660589326609088 -0.032695459272351124 0 0.00066879056012316177 -0.032900864987176447 0 -0.00045660589326609088 -0.032695459272351124 0 -0.00040923233984012787 -0.033601928628586235 0 -0.0012511568906656361 -0.032859828078587998 0 -0.00045660589326609088 -0.032695459272351124 0 -0.00040923233984012787 -0.033601928628586235 0 -0.00040923233984012787 -0.033601928628586235 0 0.00068384203229930271 -0.034051145756772497 0 -0.00059727881182727622 -0.034991022470051779 0 0.0016669740412154749 -0.033288353351840293 0 0.00066879056012316177 -0.032900864987176447 0 0.00068384203229930271 -0.034051145756772497 0 0.00066879056012316177 -0.032900864987176447 0 -0.00040923233984012787 -0.033601928628586235 0 0.00068384203229930271 -0.034051145756772497 0 0.0023672731572367831 -0.021653895909959548 0 0.0010170453730353221 -0.021000151338123944 0 0.0011106748945056179 -0.035249077127476693 0 0.00068384203229930271 -0.034051145756772497 0 -0.00059727881182727622 -0.034991022470051779 0 0.0017040054945142351 -0.0066491873878523509 0 0.0017726116840642437 -0.0066075684395486313 0 0.0016730240360187268 -0.0066429621681874064 0 -0.00070276595729557934 -0.03508340942312918 0 -0.0023339278057787319 -0.034864231346040678 0 -0.0013475370749630533 -0.034165526125593718 0 0.0010170453730353221 -0.021000151338123944 0 -0.00024474080348342976 -0.020510888651191911 0 0.0010170453730353221 -0.021000151338123944 0 0.0020724416634457961 -0.027773479745219685 0 -0.0028432125774747376 -0.03388969090711566 0 -0.0023339278057787319 -0.034864231346040678 0 -0.0021132095776505832 -0.034014650289249861 0 -0.0023339278057787319 -0.034864231346040678 0 -0.0021132095776505832 -0.034014650289249861 0 -0.0013475370749630533 -0.034165526125593718 0 -0.0019846082456097787 -0.03319032581390096 0 -0.0021132095776505832 -0.034014650289249861 0 -0.0013475370749630533 -0.034165526125593718 0 -0.0028432125774747376 -0.03388969090711566 0 -0.0019846082456097787 -0.03319032581390096 0 -0.0021132095776505832 -0.034014650289249861 0 -0.0012511568906656361 -0.032859828078587998 0 -0.00040923233984012787 -0.033601928628586235 0 -0.0012612004393694376 -0.034065274683216115 0 0.0019638706151593587 -0.029185081636433463 0 0.0020724416634457961 -0.027773479745219685 0 -0.00040923233984012787 -0.033601928628586235 0 -0.00059727881182727622 -0.034991022470051779 0 -0.0012612004393694376 -0.034065274683216115 0 0.035999839318628803 -0.027914921629096184 0 0.035341450236962932 -0.030292717512006968 0 0.035329130354674901 -0.029247771611420691 0 0.0353296436683865 -0.028056706812617759 0 0.035648890421991201 -0.028833892317296928 0 0.035341450236962932 -0.030292717512006968 0 0.035677208106304793 -0.027633010805054758 0 0.035841262948195493 -0.028458445983116323 0 0.0353296436683865 -0.028056706812617759 0 0.035648890421991201 -0.028833892317296928 0 0.036343878161816938 -0.02761377327418366 0 0.035999839318628803 -0.027914921629096184 0 0.035332448439776717 -0.027886570495767583 0 0.035329130354674901 -0.029247771611420691 0 0.034999384669865796 -0.028365823595226273 0 0.035332448439776717 -0.027886570495767583 0 0.034999800881120376 -0.026452791118562243 0 0.034999384669865796 -0.028365823595226273 0 0.035332448439776717 -0.027886570495767583 0 0.035329130354674901 -0.029247771611420691 0 0.035999839318628803 -0.027914921629096184 0 0.035332448439776717 -0.027886570495767583 0 0.035486175148883935 -0.027109900127282274 0 0.035677208106304793 -0.027633010805054758 0 0.035363603982373433 -0.026150674041477195 0 0.035332448439776717 -0.027886570495767583 0 0.035486175148883935 -0.027109900127282274 0 0.034999800881120376 -0.026452791118562243 0 0.035999839318628803 -0.027914921629096184 0 0.035486175148883935 -0.027109900127282274 0 0.035655290650229959 -0.026076988396395811 0 0.035486175148883935 -0.027109900127282274 0 0.034999800881120376 -0.026452791118562243 0 0.035655290650229959 -0.026076988396395811 0 0.0353296436683865 -0.028056706812617759 0 0.035662252589561939 -0.026604604462150388 0 0.035895630039822914 -0.027165976236174602 0 0.0353296436683865 -0.028056706812617759 0 0.035662252589561939 -0.026604604462150388 0 0.035016189960384976 -0.026035173090565189 0 0.035895630039822914 -0.027165976236174602 0 0.03636489509911589 -0.026551186227595967 0 0.036343878161816938 -0.02761377327418366 0 0.0353296436683865 -0.028056706812617759 0 0.035895630039822914 -0.027165976236174602 0 0.036343878161816938 -0.02761377327418366 0 0.035662252589561939 -0.026604604462150388 0 0.035895630039822914 -0.027165976236174602 0 0.03636489509911589 -0.026551186227595967 0 0.03636489509911589 -0.026551186227595967 0 0.037166058429123516 -0.027398612626368335 0 0.037558405233208851 -0.026334945057337796 0 0.03636489509911589 -0.026551186227595967 0 0.037166058429123516 -0.027398612626368335 0 0.036343878161816938 -0.02761377327418366 0 0.038222357089094466 -0.027250576981036868 0 0.039065170409254502 -0.025912605785423266 0 0.037558405233208851 -0.026334945057337796 0 0.037166058429123516 -0.027398612626368335 0 0.038222357089094466 -0.027250576981036868 0 0.037558405233208851 -0.026334945057337796 0 0.037166058429123516 -0.027398612626368335 0 0.038222357089094466 -0.027250576981036868 0 0.037543862151594234 -0.028393551442287564 0 0.037543862151594234 -0.028393551442287564 0 0.03809963643057928 -0.029069061870209668 0 0.038740388339589253 -0.028377298549510672 0 0.038222357089094466 -0.027250576981036868 0 0.037543862151594234 -0.028393551442287564 0 0.038740388339589253 -0.028377298549510672 0 0.037543862151594234 -0.028393551442287564 0 0.036771758307184002 -0.028438490915990149 0 0.037393001451656228 -0.029856746166559124 0 0.035648890421991201 -0.028833892317296928 0 0.036771758307184002 -0.028438490915990149 0 0.037393001451656228 -0.029856746166559124 0 0.037166058429123516 -0.027398612626368335 0 0.036343878161816938 -0.02761377327418366 0 0.036771758307184002 -0.028438490915990149 0 0.035648890421991201 -0.028833892317296928 0 0.036343878161816938 -0.02761377327418366 0 0.036771758307184002 -0.028438490915990149 0 0.037166058429123516 -0.027398612626368335 0 0.037543862151594234 -0.028393551442287564 0 0.036771758307184002 -0.028438490915990149 0 0.035648890421991201 -0.028833892317296928 0 0.035155130543232153 -0.031172866627519218 0 0.035341450236962932 -0.030292717512006968 0 0.034849493780362735 -0.030238123147321432 0 0.035067917767336858 -0.030875021600582891 0 0.035155130543232153 -0.031172866627519218 0 0.034948559337597607 -0.031280593409717908 0 0.035341450236962932 -0.030292717512006968 0 0.037393001451656228 -0.029856746166559124 0 0.038782592698924576 -0.030909446263878058 0 0.038715837155483011 -0.029641814453122011 0 0.037543862151594234 -0.028393551442287564 0 0.037393001451656228 -0.029856746166559124 0 0.03809963643057928 -0.029069061870209668 0 0.03809963643057928 -0.029069061870209668 0 0.038715837155483011 -0.029641814453122011 0 0.038740388339589253 -0.028377298549510672 0 0.037393001451656228 -0.029856746166559124 0 0.03809963643057928 -0.029069061870209668 0 0.038715837155483011 -0.029641814453122011 0 0.035155130543232153 -0.031172866627519218 0 0.03446441184263082 -0.032000337623855984 0 0.033696095028899864 -0.032816468447416328 0 0.035067917767336858 -0.030875021600582891 0 0.03501629966369018 -0.031996251001266997 0 0.03446441184263082 -0.032000337623855984 0 0.033800349145495193 -0.032576354937959157 0 0.033696095028899864 -0.032816468447416328 0 0.03446441184263082 -0.032000337623855984 0 0.034948559337597607 -0.031280593409717908 0 0.034474608983590269 -0.032021804068629908 0 0.034948559337597607 -0.031280593409717908 0 0.03504886553022965 -0.030874763660547706 0 0.034474608983590269 -0.032021804068629908 0 0.035155130543232153 -0.031172866627519218 0 0.03446441184263082 -0.032000337623855984 0 0.034948559337597607 -0.031280593409717908 0 0.034948559337597607 -0.031280593409717908 0 0.03504886553022965 -0.030874763660547706 0 0.035341450236962932 -0.030292717512006968 0 0.03504886553022965 -0.030874763660547706 0 0.035341450236962932 -0.030292717512006968 0 0.035329130354674901 -0.029247771611420691 0 0.034999384669865796 -0.028365823595226273 0 0.035329130354674901 -0.029247771611420691 0 0.034999183162577031 -0.03027919500548866 0 0.03504886553022965 -0.030874763660547706 0 0.035329130354674901 -0.029247771611420691 0 0.034999183162577031 -0.03027919500548866 0 0.03504886553022965 -0.030874763660547706 0 0.034999183162577031 -0.03027919500548866 0 0.034767156833926526 -0.031873728408404876 0 0.034999183162577031 -0.03027919500548866 0 0.034767156833926526 -0.031873728408404876 0 0.034998884250059994 -0.032187671372721674 0 0.03504886553022965 -0.030874763660547706 0 0.034767156833926526 -0.031873728408404876 0 0.034474608983590269 -0.032021804068629908 0 0.034767156833926526 -0.031873728408404876 0 0.034083104491359859 -0.032188921630125975 0 0.034031344985770026 -0.032323150322318354 0 0.034998531987902121 -0.03219076845493337 0 0.034199918136818656 -0.032746165438393128 0 0.034767156833926526 -0.031873728408404876 0 0.034998884250059994 -0.032187671372721674 0 0.034083104491359859 -0.032188921630125975 0 0.034997279367499627 -0.034998162763956869 0 0.033983499329849863 -0.034320434316159408 0 0.031273141210509503 -0.034996139271361477 0 0.034999165917639685 -0.032194652498875063 0 0.034997279367499627 -0.034998162763956869 0 0.033983499329849863 -0.034320434316159408 0 0.032288894257534624 -0.034081739975297821 0 0.031273141210509503 -0.034996139271361477 0 0.033277866974669661 -0.033053278566845978 0 0.031265346155849964 -0.034998837347115688 0 0.031494533584372243 -0.03436463265529871 0 0.033983499329849863 -0.034320434316159408 0 0.032288894257534624 -0.034081739975297821 0 0.031273141210509503 -0.034996139271361477 0 0.034199918136818656 -0.032746165438393128 0 0.033820829167312633 -0.033036746241742306 0 0.034083104491359859 -0.032188921630125975 0 0.032288894257534624 -0.034081739975297821 0 0.033183094388617829 -0.032799044351347721 0 0.033183094388617829 -0.032799044351347721 0 0.033026736007084841 -0.032953173424848249 0 0.033277866974669661 -0.033053278566845978 0 0.032288894257534624 -0.034081739975297821 0 0.033183094388617829 -0.032799044351347721 0 0.033277866974669661 -0.033053278566845978 0 0.033183094388617829 -0.032799044351347721 0 0.033483707894710002 -0.032665153576228817 0 0.033026736007084841 -0.032953173424848249 0 0.033183094388617829 -0.032799044351347721 0 0.033483707894710002 -0.032665153576228817 0 0.034031344985770026 -0.032323150322318354 0 0.033483707894710002 -0.032665153576228817 0 0.032893925191309195 -0.033036713841321917 0 0.033026736007084841 -0.032953173424848249 0 0.034083104491359859 -0.032188921630125975 0 0.033183094388617829 -0.032799044351347721 0 0.034031344985770026 -0.032323150322318354 0 0.033483707894710002 -0.032665153576228817 0 0.034031344985770026 -0.032323150322318354 0 0.034474608983590269 -0.032021804068629908 0 0.034767156833926526 -0.031873728408404876 0 0.034031344985770026 -0.032323150322318354 0 0.034474608983590269 -0.032021804068629908 0 0.03446441184263082 -0.032000337623855984 0 0.034474608983590269 -0.032021804068629908 0 0.033800349145495193 -0.032576354937959157 0 0.033483707894710002 -0.032665153576228817 0 0.034474608983590269 -0.032021804068629908 0 0.033800349145495193 -0.032576354937959157 0 0.033800349145495193 -0.032576354937959157 0 0.032893925191309195 -0.033036713841321917 0 0.033696095028899864 -0.032816468447416328 0 0.033483707894710002 -0.032665153576228817 0 0.033800349145495193 -0.032576354937959157 0 0.032893925191309195 -0.033036713841321917 0 0.034240706740760719 -0.03312954422795622 0 0.03501629966369018 -0.031996251001266997 0 0.032893925191309195 -0.033036713841321917 0 0.031481150209864001 -0.033568260762293224 0 0.033696095028899864 -0.032816468447416328 0 0.032893925191309195 -0.033036713841321917 0 0.031481150209864001 -0.033568260762293224 0 0.031406690792498332 -0.033433707696245436 0 0.040042396932503659 -0.031941079287306461 0 0.040431866898053323 -0.031108258366315769 0 0.038782592698924576 -0.030909446263878058 0 0.040042396932503659 -0.031941079287306461 0 0.04072012061784757 -0.031944414556018812 0 0.040431866898053323 -0.031108258366315769 0 0.031481150209864001 -0.033568260762293224 0 0.030886803781225283 -0.033965415641570525 0 0.03049049947112932 -0.034335975756792973 0 0.034240706740760719 -0.03312954422795622 0 0.031750522854605098 -0.033728887244404378 0 0.040042396932503659 -0.031941079287306461 0 0.04072012061784757 -0.031944414556018812 0 0.041230544936939277 -0.032958829624734766 0 0.031481150209864001 -0.033568260762293224 0 0.031406690792498332 -0.033433707696245436 0 0.030886803781225283 -0.033965415641570525 0 0.031406690792498332 -0.033433707696245436 0 0.030886803781225283 -0.033965415641570525 0 0.030646291127022444 -0.034304320365459551 0 0.030886803781225283 -0.033965415641570525 0 0.030210035312683521 -0.034698642220448786 0 0.03049049947112932 -0.034335975756792973 0 0.031406690792498332 -0.033433707696245436 0 0.029909000143991823 -0.035168680725175032 0 0.030646291127022444 -0.034304320365459551 0 0.031406690792498332 -0.033433707696245436 0 0.033026736007084841 -0.032953173424848249 0 0.033277866974669661 -0.033053278566845978 0 0.031469946672794499 -0.034245067645826667 0 0.031494533584372243 -0.03436463265529871 0 0.032893925191309195 -0.033036713841321917 0 0.031406690792498332 -0.033433707696245436 0 0.033026736007084841 -0.032953173424848249 0 0.029909000143991823 -0.035168680725175032 0 0.030210035312683521 -0.034698642220448786 0 0.029756155471530595 -0.035194250475880547 0 0.029909000143991823 -0.035168680725175032 0 0.030646291127022444 -0.034304320365459551 0 0.030210035312683521 -0.034698642220448786 0 0.030886803781225283 -0.033965415641570525 0 0.030646291127022444 -0.034304320365459551 0 0.030210035312683521 -0.034698642220448786 0 0.030210035312683521 -0.034698642220448786 0 0.029383393580198376 -0.035128475189303156 0 0.029566922471686404 -0.034957222959022892 0 0.030210035312683521 -0.034698642220448786 0 0.029383393580198376 -0.035128475189303156 0 0.029756155471530595 -0.035194250475880547 0 0.029383393580198376 -0.035128475189303156 0 0.029498791388129313 -0.034999246165495101 0 0.02773510688296946 -0.034999607149739341 0 0.029383393580198376 -0.035128475189303156 0 0.029498791388129313 -0.034999246165495101 0 0.029756155471530595 -0.035194250475880547 0 0.031263431055482724 -0.035000057932574768 0 0.029909000143991823 -0.035168680725175032 0 0.029756155471530595 -0.035194250475880547 0 0.031263431055482724 -0.035000057932574768 0 0.029498791388129313 -0.034999246165495101 0 0.029756155471530595 -0.035194250475880547 0 0.026697563748036252 -0.035608318618874701 0 0.027731253226294533 -0.034999766155522347 0 0.025799115847707353 -0.035000145392132885 0 0.026697563748036252 -0.035608318618874701 0 0.026970061110298229 -0.03652722185883648 0 0.026106923359549596 -0.035719209127993687 0 0.027736923571571249 -0.034998976826336327 0 0.029618562374194714 -0.034574009408862467 0 0.029383393580198376 -0.035128475189303156 0 0.02773510688296946 -0.034999607149739341 0 0.029566922471686404 -0.034957222959022892 0 0.026697563748036252 -0.035608318618874701 0 0.027731253226294533 -0.034999766155522347 0 0.027762853977910257 -0.036108936646660601 0 0.029618562374194714 -0.034574009408862467 0 0.031750522854605098 -0.033728887244404378 0 0.030210035312683521 -0.034698642220448786 0 0.029566922471686404 -0.034957222959022892 0 0.03049049947112932 -0.034335975756792973 0 0.027762853977910257 -0.036108936646660601 0 0.026970061110298229 -0.03652722185883648 0 0.027836570855216403 -0.037251806593719655 0 0.029804235930510153 -0.033837004893933181 0 0.031750522854605098 -0.033728887244404378 0 0.026697563748036252 -0.035608318618874701 0 0.027762853977910257 -0.036108936646660601 0 0.026970061110298229 -0.03652722185883648 0 0.026325163493727651 -0.035979147329683582 0 0.026163424565276174 -0.036014221959843253 0 0.026106923359549596 -0.035719209127993687 0 0.029804235930510153 -0.033837004893933181 0 0.029175971331467872 -0.033844061263738137 0 0.026227603381731069 -0.036071397983869623 0 0.026142566514081578 -0.036134849524971813 0 0.026163424565276174 -0.036014221959843253 0 0.026325163493727651 -0.035979147329683582 0 0.026227603381731069 -0.036071397983869623 0 0.026163424565276174 -0.036014221959843253 0 0.026227603381731069 -0.036071397983869623 0 0.026285461299872036 -0.036148227259582048 0 0.026142566514081578 -0.036134849524971813 0 0.026325163493727651 -0.035979147329683582 0 0.026227603381731069 -0.036071397983869623 0 0.026285461299872036 -0.036148227259582048 0 0.026325163493727651 -0.035979147329683582 0 0.026285461299872036 -0.036148227259582048 0 0.026443066403685839 -0.036102193498100586 0 0.026285461299872036 -0.036148227259582048 0 0.026362370971498298 -0.036207954471402681 0 0.026294694782556298 -0.036233333979541232 0 0.026285461299872036 -0.036148227259582048 0 0.026294694782556298 -0.036233333979541232 0 0.026184993398286414 -0.036261709392144618 0 0.026285461299872036 -0.036148227259582048 0 0.026184993398286414 -0.036261709392144618 0 0.026142566514081578 -0.036134849524971813 0 0.04072012061784757 -0.031944414556018812 0 0.041230544936939277 -0.032958829624734766 0 0.041176005557400107 -0.031756614504467207 0 0.026443066403685839 -0.036102193498100586 0 0.026362370971498298 -0.036207954471402681 0 0.026438061074723844 -0.036271909072835937 0 0.031750522854605098 -0.033728887244404378 0 0.032989968544875396 -0.033889008997032982 0 0.026285461299872036 -0.036148227259582048 0 0.026443066403685839 -0.036102193498100586 0 0.026362370971498298 -0.036207954471402681 0 0.026362370971498298 -0.036207954471402681 0 0.026438061074723844 -0.036271909072835937 0 0.02634349778531812 -0.036282459514518216 0 0.026438061074723844 -0.036271909072835937 0 0.02634349778531812 -0.036282459514518216 0 0.02639570284889918 -0.036330831073626252 0 0.04072012061784757 -0.031944414556018812 0 0.041176005557400107 -0.031756614504467207 0 0.040431866898053323 -0.031108258366315769 0 0.026294694782556298 -0.036233333979541232 0 0.026277191047238666 -0.036285035590926648 0 0.026184993398286414 -0.036261709392144618 0 0.026362370971498298 -0.036207954471402681 0 0.026294694782556298 -0.036233333979541232 0 0.02634349778531812 -0.036282459514518216 0 0.026294694782556298 -0.036233333979541232 0 0.02634349778531812 -0.036282459514518216 0 0.026277191047238666 -0.036285035590926648 0 0.02634349778531812 -0.036282459514518216 0 0.026312797148833451 -0.036323115637214097 0 0.02632344774813624 -0.036370925614598371 0 0.030547355527342817 -0.034127031011493031 0 0.031061790097486136 -0.033041465674591951 0 0.02634349778531812 -0.036282459514518216 0 0.026312797148833451 -0.036323115637214097 0 0.026277191047238666 -0.036285035590926648 0 0.026277191047238666 -0.036285035590926648 0 0.026237416583765657 -0.036329409550597325 0 0.026184993398286414 -0.036261709392144618 0 0.026312797148833451 -0.036323115637214097 0 0.026277191047238666 -0.036285035590926648 0 0.026237416583765657 -0.036329409550597325 0 0.027613925877363006 -0.033884875770896529 0 0.027993658615155837 -0.033481251071814995 0 0.026312797148833451 -0.036323115637214097 0 0.026279094598311171 -0.036354533576587481 0 0.02632344774813624 -0.036370925614598371 0 0.026312797148833451 -0.036323115637214097 0 0.026237416583765657 -0.036329409550597325 0 0.026230422493586817 -0.03639415611194264 0 0.026237416583765657 -0.036329409550597325 0 0.026230422493586817 -0.03639415611194264 0 0.026191959661810576 -0.036385038944358933 0 0.027993658615155837 -0.033481251071814995 0 0.031061790097486136 -0.033041465674591951 0 0.02634349778531812 -0.036282459514518216 0 0.026356731679022118 -0.036372074071647921 0 0.02639570284889918 -0.036330831073626252 0 0.042228507676683957 -0.030613514710616508 0 0.042371086240953315 -0.029557256726756988 0 0.041824371537605563 -0.030004716650487144 0 0.031061790097486136 -0.033041465674591951 0 0.031434283944454147 -0.031167032220881002 0 0.029177071744450514 -0.033564240506666884 0 0.029762301091348912 -0.032931786965912507 0 0.029356773936835105 -0.032128286155663065 0 0.030100901586421817 -0.033724374400027388 0 0.029177071744450514 -0.033564240506666884 0 0.029762301091348912 -0.032931786965912507 0 0.030100901586421817 -0.033724374400027388 0 0.029762301091348912 -0.032931786965912507 0 0.030606707148008738 -0.033270160292189779 0 0.028938898235937056 -0.031127945227421228 0 0.027571647313498763 -0.032935349013437178 0 0.029762301091348912 -0.032931786965912507 0 0.029858615845086811 -0.031573859155131397 0 0.030606707148008738 -0.033270160292189779 0 0.029762301091348912 -0.032931786965912507 0 0.029356773936835105 -0.032128286155663065 0 0.029858615845086811 -0.031573859155131397 0 0.042371086240953315 -0.029557256726756988 0 0.041717810162209275 -0.029037215271659294 0 0.041824371537605563 -0.030004716650487144 0 0.029356773936835105 -0.032128286155663065 0 0.029624850251836792 -0.031521646595746335 0 0.029537781086565507 -0.030691960228858919 0 0.042371086240953315 -0.029557256726756988 0 0.041717810162209275 -0.029037215271659294 0 0.042499601443857414 -0.028503020857010297 0 0.031434283944454147 -0.031167032220881002 0 0.030863850710173443 -0.029940562926657879 0 0.026157193599871724 -0.029092852180635176 0 0.026281313066731159 -0.029427001409942935 0 0.025802973444801626 -0.029015512784132159 0 0.028947259593686096 -0.031130426364435183 0 0.028938898235937056 -0.031127945227421228 0 0.029356773936835105 -0.032128286155663065 0 0.029624850251836792 -0.031521646595746335 0 0.029858615845086811 -0.031573859155131397 0 0.041717810162209275 -0.029037215271659294 0 0.041245406760579251 -0.02964000749341968 0 0.040872844553444872 -0.028626831834691766 0 0.041824371537605563 -0.030004716650487144 0 0.041245406760579251 -0.02964000749341968 0 0.041275804399984559 -0.030444673116931498 0 0.041717810162209275 -0.029037215271659294 0 0.041824371537605563 -0.030004716650487144 0 0.041245406760579251 -0.02964000749341968 0 0.034341146135939651 -0.033140263563090244 0 0.033976699764910953 -0.033840108237397679 0 0.032989968544875396 -0.033889008997032982 0 0.033976699764910953 -0.033840108237397679 0 0.026438061074723844 -0.036271909072835937 0 0.026446669985515009 -0.036388550674909682 0 0.02639570284889918 -0.036330831073626252 0 0.041176005557400107 -0.031756614504467207 0 0.041117357344923555 -0.030539963495117575 0 0.040431866898053323 -0.031108258366315769 0 0.042228507676683957 -0.030613514710616508 0 0.041824371537605563 -0.030004716650487144 0 0.041275804399984559 -0.030444673116931498 0 0.031061790097486136 -0.033041465674591951 0 0.033976699764910953 -0.033840108237397679 0 0.026356731679022118 -0.036372074071647921 0 0.026446669985515009 -0.036388550674909682 0 0.02639570284889918 -0.036330831073626252 0 0.040431866898053323 -0.031108258366315769 0 0.039985267781030544 -0.030305736873161616 0 0.038782592698924576 -0.030909446263878058 0 0.041117357344923555 -0.030539963495117575 0 0.040431866898053323 -0.031108258366315769 0 0.039985267781030544 -0.030305736873161616 0 0.041245406760579251 -0.02964000749341968 0 0.041293863051980656 -0.030523604581318538 0 0.039985267781030544 -0.030305736873161616 0 0.033976699764910953 -0.033840108237397679 0 0.036268072931222965 -0.033682466128862512 0 0.039985267781030544 -0.030305736873161616 0 0.038782592698924576 -0.030909446263878058 0 0.038715837155483011 -0.029641814453122011 0 0.039985267781030544 -0.030305736873161616 0 0.038715837155483011 -0.029641814453122011 0 0.039765591324502136 -0.029053629293977392 0 0.038715837155483011 -0.029641814453122011 0 0.039765591324502136 -0.029053629293977392 0 0.038740388339589253 -0.028377298549510672 0 0.039985267781030544 -0.030305736873161616 0 0.039765591324502136 -0.029053629293977392 0 0.040469010934561254 -0.029403986254479972 0 0.041245406760579251 -0.02964000749341968 0 0.039985267781030544 -0.030305736873161616 0 0.040469010934561254 -0.029403986254479972 0 0.041245406760579251 -0.02964000749341968 0 0.040469010934561254 -0.029403986254479972 0 0.040872844553444872 -0.028626831834691766 0 0.039765591324502136 -0.029053629293977392 0 0.040469010934561254 -0.029403986254479972 0 0.040872844553444872 -0.028626831834691766 0 0.039765591324502136 -0.029053629293977392 0 0.040872844553444872 -0.028626831834691766 0 0.039872158975260572 -0.027940373397807538 0 0.039765591324502136 -0.029053629293977392 0 0.039872158975260572 -0.027940373397807538 0 0.038740388339589253 -0.028377298549510672 0 0.039872158975260572 -0.027940373397807538 0 0.038740388339589253 -0.028377298549510672 0 0.039194241505016561 -0.027193084976063379 0 0.039194241505016561 -0.027193084976063379 0 0.040615479152543009 -0.026646181782143504 0 0.039065170409254502 -0.025912605785423266 0 0.038222357089094466 -0.027250576981036868 0 0.039194241505016561 -0.027193084976063379 0 0.039065170409254502 -0.025912605785423266 0 0.038222357089094466 -0.027250576981036868 0 0.038740388339589253 -0.028377298549510672 0 0.039194241505016561 -0.027193084976063379 0 0.040872844553444872 -0.028626831834691766 0 0.039872158975260572 -0.027940373397807538 0 0.040615479152543009 -0.026646181782143504 0 0.039872158975260572 -0.027940373397807538 0 0.039194241505016561 -0.027193084976063379 0 0.040615479152543009 -0.026646181782143504 0 0.039986659435040026 -0.02754892309239837 0 0.03962265974011777 -0.026705589636578934 0 0.040500274605909985 -0.026952408156171552 0 0.041972850398638822 -0.027071126248357686 0 0.041485908903830783 -0.027907493793593679 0 0.040872844553444872 -0.028626831834691766 0 0.040500274605909985 -0.026952408156171552 0 0.041485908903830783 -0.027907493793593679 0 0.030493721706267671 -0.028321117302096421 0 0.030863850710173443 -0.029940562926657879 0 0.034075629619727314 -0.027973460518203659 0 0.030863850710173443 -0.029940562926657879 0 0.033037977413132538 -0.027407401431344274 0 0.032345254220998793 -0.027198582733859597 0 0.032873844931918694 -0.028674100258236301 0 0.041972850398638822 -0.027071126248357686 0 0.042499601443857414 -0.028503020857010297 0 0.041485908903830783 -0.027907493793593679 0 0.026200140963382152 -0.030079508541243596 0 0.026281313066731159 -0.029427001409942935 0 0.025713485033279668 -0.029718973343531362 0 0.029624850251836792 -0.031521646595746335 0 0.029859298557825115 -0.031573442553749886 0 0.029537781086565507 -0.030691960228858919 0 0.028938898235937056 -0.031127945227421228 0 0.030863850710173443 -0.029940562926657879 0 0.041717810162209275 -0.029037215271659294 0 0.040872844553444872 -0.028626831834691766 0 0.041485908903830783 -0.027907493793593679 0 0.041717810162209275 -0.029037215271659294 0 0.042499601443857414 -0.028503020857010297 0 0.041485908903830783 -0.027907493793593679 0 0.024986801554406381 -0.029709598814981746 0 0.025237345944200126 -0.029456393239468692 0 0.02525494326429226 -0.029809461965264353 0 0.024986801554406381 -0.029709598814981746 0 0.025237345944200126 -0.029456393239468692 0 0.024737366004230307 -0.02943644937497536 0 0.025237345944200126 -0.029456393239468692 0 0.024737366004230307 -0.02943644937497536 0 0.025271982437870131 -0.028972928071314696 0 0.025237345944200126 -0.029456393239468692 0 0.02547146883061386 -0.029324936787354847 0 0.025277311382202541 -0.029000201532886533 0 0.026790388652229501 -0.030467127163407527 0 0.027240139605618677 -0.03149820170260869 0 0.02547146883061386 -0.029324936787354847 0 0.025642493942775704 -0.029752056299773531 0 0.025706501436973075 -0.029092423864298018 0 0.026281313066731159 -0.029427001409942935 0 0.025713485033279668 -0.029718973343531362 0 0.025802973444801626 -0.029015512784132159 0 0.025237345944200126 -0.029456393239468692 0 0.025642493942775704 -0.029752056299773531 0 0.02525494326429226 -0.029809461965264353 0 0.025237345944200126 -0.029456393239468692 0 0.02547146883061386 -0.029324936787354847 0 0.025642493942775704 -0.029752056299773531 0 0.025642493942775704 -0.029752056299773531 0 0.025386454374447174 -0.030124186019131846 0 0.02525494326429226 -0.029809461965264353 0 0.025642493942775704 -0.029752056299773531 0 0.025386454374447174 -0.030124186019131846 0 0.025604319453098007 -0.030451145838814597 0 0.026790388652229501 -0.030467127163407527 0 0.02662829443964906 -0.030403119385361881 0 0.026200140963382152 -0.030079508541243596 0 0.025713485033279668 -0.029718973343531362 0 0.025604319453098007 -0.030451145838814597 0 0.025386454374447174 -0.030124186019131846 0 0.025023502086845815 -0.030055496711594892 0 0.025307470974594123 -0.030528100220324102 0 0.025023502086845815 -0.030055496711594892 0 0.024528331750289647 -0.030284695265253386 0 0.025307470974594123 -0.030528100220324102 0 0.025386454374447174 -0.030124186019131846 0 0.02525494326429226 -0.029809461965264353 0 0.025023502086845815 -0.030055496711594892 0 0.024986801554406381 -0.029709598814981746 0 0.02525494326429226 -0.029809461965264353 0 0.025023502086845815 -0.030055496711594892 0 0.024986801554406381 -0.029709598814981746 0 0.025023502086845815 -0.030055496711594892 0 0.02469363667708652 -0.029873011521681807 0 0.025023502086845815 -0.030055496711594892 0 0.024528331750289647 -0.030284695265253386 0 0.02469363667708652 -0.029873011521681807 0 0.024528331750289647 -0.030284695265253386 0 0.02469363667708652 -0.029873011521681807 0 0.024215764571488496 -0.029914798032528212 0 0.024733952466293351 -0.028121778200067206 0 0.024525207895047894 -0.028406047760656816 0 0.023933840121788855 -0.029917017459411673 0 0.024039094270901642 -0.029969849634462833 0 0.023678598849207554 -0.029139789562998931 0 0.024528331750289647 -0.030284695265253386 0 0.023933840121788855 -0.029917017459411673 0 0.024215764571488496 -0.029914798032528212 0 0.023933840121788855 -0.029917017459411673 0 0.024015536436312025 -0.029836380749616604 0 0.024039094270901642 -0.029969849634462833 0 0.023933840121788855 -0.029917017459411673 0 0.024215764571488496 -0.029914798032528212 0 0.024015536436312025 -0.029836380749616604 0 0.024215764571488496 -0.029914798032528212 0 0.024015536436312025 -0.029836380749616604 0 0.024263674206952874 -0.029732386674978323 0 0.024015536436312025 -0.029836380749616604 0 0.024263674206952874 -0.029732386674978323 0 0.024010688111609932 -0.029639185104427451 0 0.024263674206952874 -0.029732386674978323 0 0.024010688111609932 -0.029639185104427451 0 0.024532441373855303 -0.02945621240816498 0 0.02469363667708652 -0.029873011521681807 0 0.024215764571488496 -0.029914798032528212 0 0.024737366004230307 -0.02943644937497536 0 0.024986801554406381 -0.029709598814981746 0 0.02469363667708652 -0.029873011521681807 0 0.024737366004230307 -0.02943644937497536 0 0.024215764571488496 -0.029914798032528212 0 0.024263674206952874 -0.029732386674978323 0 0.024718070275522377 -0.029710252196453964 0 0.025550892959257415 -0.031019458230788149 0 0.025738353724069012 -0.031234576194666405 0 0.024263674206952874 -0.029732386674978323 0 0.024718070275522377 -0.029710252196453964 0 0.024532441373855303 -0.02945621240816498 0 0.024532441373855303 -0.02945621240816498 0 0.024423684837048446 -0.029006531502930321 0 0.025249716990445811 -0.029277300068168605 0 0.023985540235881005 -0.033397335175086029 0 0.0258710045084471 -0.032372863851135553 0 0.024010688111609932 -0.029639185104427451 0 0.024532441373855303 -0.02945621240816498 0 0.024423684837048446 -0.029006531502930321 0 0.024010688111609932 -0.029639185104427451 0 0.024423684837048446 -0.029006531502930321 0 0.023038025628150348 -0.028513640973827852 0 0.023985540235881005 -0.033397335175086029 0 0.022167696209371288 -0.033644403161081256 0 0.023242779266569886 -0.04027085608717413 0 0.022178985123408587 -0.038808858026735185 0 0.021327728925912958 -0.039884028817099418 0 0.023242779266569886 -0.04027085608717413 0 0.02454411793861901 -0.039919697990245466 0 0.023773992637968124 -0.038903424532931628 0 0.023242779266569886 -0.04027085608717413 0 0.023773992637968124 -0.038903424532931628 0 0.022178985123408587 -0.038808858026735185 0 0.02454411793861901 -0.039919697990245466 0 0.025379970218292851 -0.039165955093419053 0 0.023773992637968124 -0.038903424532931628 0 0.02454411793861901 -0.039919697990245466 0 0.025126757316299909 -0.04065949126150524 0 0.025379970218292851 -0.039165955093419053 0 0.0258710045084471 -0.032372863851135553 0 0.026253332960166877 -0.034983780541249614 0 0.026253332960166877 -0.034983780541249614 0 0.025483865760173939 -0.0356279473554603 0 0.024718070275522377 -0.029710252196453964 0 0.024532441373855303 -0.02945621240816498 0 0.025249716990445811 -0.029277300068168605 0 0.023242779266569886 -0.04027085608717413 0 0.02454411793861901 -0.039919697990245466 0 0.025126757316299909 -0.04065949126150524 0 0.02586380151006203 -0.031601181109653473 0 0.0258710045084471 -0.032372863851135553 0 0.025738353724069012 -0.031234576194666405 0 0.0258710045084471 -0.032372863851135553 0 0.02758628025813779 -0.03227061819286408 0 0.02749796286662147 -0.032250606069752483 0 0.027486761773957997 -0.032363909572465321 0 0.027240139605618677 -0.03149820170260869 0 0.027571647313498763 -0.032935349013437178 0 0.027602577400536035 -0.030762156310771172 0 0.028325855045887086 -0.030922780510037814 0 0.028193128533854077 -0.032101693449764254 0 0.028938898235937056 -0.031127945227421228 0 0.027240139605618677 -0.03149820170260869 0 0.02547146883061386 -0.029324936787354847 0 0.025277311382202541 -0.029000201532886533 0 0.025706501436973075 -0.029092423864298018 0 0.0258710045084471 -0.032372863851135553 0 0.027240139605618677 -0.03149820170260869 0 0.0258710045084471 -0.032372863851135553 0 0.027571647313498763 -0.032935349013437178 0 0.026037007174907808 -0.033339817579300525 0 0.026036471271184747 -0.033348976533587565 0 0.026037999306897739 -0.03335209548876044 0 0.02603502667884048 -0.033348046011724926 0 0.026036471271184747 -0.033348976533587565 0 0.026035305942718853 -0.033349458305131398 0 0.027993658615155837 -0.033481251071814995 0 0.027571647313498763 -0.032935349013437178 0 0.026891985391737667 -0.033645142337601283 0 0.026602937767400362 -0.033901900049318062 0 0.026620336725685582 -0.033747510621947009 0 0.027571647313498763 -0.032935349013437178 0 0.027437581836380658 -0.033455051892998036 0 0.026037007174907808 -0.033339817579300525 0 0.02603502667884048 -0.033348046011724926 0 0.026036471271184747 -0.033348976533587565 0 0.026253332960166877 -0.034983780541249614 0 0.027317849403145605 -0.0339434513886386 0 0.026036471271184747 -0.033348976533587565 0 0.026037999306897739 -0.03335209548876044 0 0.026035323515007272 -0.033350699216750108 0 0.027993658615155837 -0.033481251071814995 0 0.027317849403145605 -0.0339434513886386 0 0.026891985391737667 -0.033645142337601283 0 0.026636839775267547 -0.033600914437295869 0 0.026620336725685582 -0.033747510621947009 0 0.027317849403145605 -0.0339434513886386 0 0.027437581836380658 -0.033455051892998036 0 0.026036471271184747 -0.033348976533587565 0 0.026035323515007272 -0.033350699216750108 0 0.026035305942718853 -0.033349458305131398 0 0.026237416583765657 -0.036329409550597325 0 0.026191959661810576 -0.036385038944358933 0 0.026184993398286414 -0.036261709392144618 0 0.027317849403145605 -0.0339434513886386 0 0.027153544634074381 -0.034697360226475744 0 0.026174314558837959 -0.036396487943980288 0 0.026184993398286414 -0.036261709392144618 0 0.026074011132092047 -0.036214711024261284 0 0.026253332960166877 -0.034983780541249614 0 0.02649634681631776 -0.03570640905672498 0 0.02716936983527549 -0.034289012303367207 0 0.02666769079687363 -0.034201323530847594 0 0.02706099316794882 -0.035124355307735049 0 0.027317849403145605 -0.0339434513886386 0 0.02649634681631776 -0.03570640905672498 0 0.025387983276655039 -0.039171409055038922 0 0.024874091278064149 -0.038385869916438962 0 0.02556915978698332 -0.037764712835129076 0 0.024874091278064149 -0.038385869916438962 0 0.024482866867251329 -0.037643844158821285 0 0.023773992637968124 -0.038903424532931628 0 0.025387983276655039 -0.039171409055038922 0 0.024874091278064149 -0.038385869916438962 0 0.023773992637968124 -0.038903424532931628 0 0.024874091278064149 -0.038385869916438962 0 0.024482866867251329 -0.037643844158821285 0 0.02556915978698332 -0.037764712835129076 0 0.024482866867251329 -0.037643844158821285 0 0.025229421537979736 -0.036843957969400508 0 0.02556915978698332 -0.037764712835129076 0 0.024482866867251329 -0.037643844158821285 0 0.025229421537979736 -0.036843957969400508 0 0.02434010127155806 -0.036660635441121386 0 0.02649634681631776 -0.03570640905672498 0 0.026053068958836696 -0.035759368718603496 0 0.025229421537979736 -0.036843957969400508 0 0.025563559107158362 -0.037748860041364095 0 0.025752667249640235 -0.036293470062985292 0 0.026074011132092047 -0.036214711024261284 0 0.026142566514081578 -0.036134849524971813 0 0.026006317971192659 -0.036049473539915423 0 0.026184993398286414 -0.036261709392144618 0 0.026074011132092047 -0.036214711024261284 0 0.026142566514081578 -0.036134849524971813 0 0.026473452222407757 -0.035964130324756635 0 0.02649634681631776 -0.03570640905672498 0 0.026142566514081578 -0.036134849524971813 0 0.026163424565276174 -0.036014221959843253 0 0.026006317971192659 -0.036049473539915423 0 0.025752667249640235 -0.036293470062985292 0 0.024776061498152431 -0.035848116058340332 0 0.025942731892390779 -0.034825741139139589 0 0.026163424565276174 -0.036014221959843253 0 0.026006317971192659 -0.036049473539915423 0 0.026106923359549596 -0.035719209127993687 0 0.025229421537979736 -0.036843957969400508 0 0.025752667249640235 -0.036293470062985292 0 0.024776061498152431 -0.035848116058340332 0 0.025229421537979736 -0.036843957969400508 0 0.02434010127155806 -0.036660635441121386 0 0.024776061498152431 -0.035848116058340332 0 0.02434010127155806 -0.036660635441121386 0 0.024776061498152431 -0.035848116058340332 0 0.023709275883445541 -0.035802640117959729 0 0.024776061498152431 -0.035848116058340332 0 0.024481096315273461 -0.034661510141904127 0 0.023709275883445541 -0.035802640117959729 0 0.024332117582989879 -0.035205882193715246 0 0.024368845371502842 -0.034999979010178588 0 0.025751078364146734 -0.035365093074363065 0 0.024776061498152431 -0.035848116058340332 0 0.024481096315273461 -0.034661510141904127 0 0.025942731892390779 -0.034825741139139589 0 0.024972287938340762 -0.035438448447635391 0 0.025732138634669759 -0.035244791650685996 0 0.024368845371502842 -0.034999979010178588 0 0.025798622479104194 -0.035000008946780632 0 0.025751078364146734 -0.035365093074363065 0 0.026006317971192659 -0.036049473539915423 0 0.025809761999030813 -0.035368725353334039 0 0.026106923359549596 -0.035719209127993687 0 0.026053068958836696 -0.035759368718603496 0 0.025732138634669759 -0.035244791650685996 0 0.026697563748036252 -0.035608318618874701 0 0.025799115847707353 -0.035000145392132885 0 0.025809761999030813 -0.035368725353334039 0 0.025798154900329353 -0.035001129278440679 0 0.025732138634669759 -0.035244791650685996 0 0.026697563748036252 -0.035608318618874701 0 0.025809761999030813 -0.035368725353334039 0 0.026106923359549596 -0.035719209127993687 0 0.025223971601141822 -0.035903268152665896 0 0.023413036313927663 -0.036755844302325792 0 0.023016432030251055 -0.034497136293550196 0 0.023709275883445541 -0.035802640117959729 0 0.022215710968281212 -0.035969064384648829 0 0.022465566701902983 -0.034999976373280929 0 0.022091603055712939 -0.036417918309864822 0 0.021528856173525034 -0.03572661377873465 0 0.022465566701902983 -0.034999976373280929 0 0.022901403011994306 -0.035049463277118054 0 0.022091603055712939 -0.036417918309864822 0 0.022467474519756492 -0.035005759665906647 0 0.025223971601141822 -0.035903268152665896 0 0.024972287938340762 -0.035438448447635391 0 0.025223971601141822 -0.035903268152665896 0 0.024481096315273461 -0.034661510141904127 0 0.023016432030251055 -0.034497136293550196 0 0.023709275883445541 -0.035802640117959729 0 0.024332117582989879 -0.035205882193715246 0 0.024368845371502842 -0.034999979010178588 0 0.022912342501081831 -0.034950332902922494 0 0.02434010127155806 -0.036660635441121386 0 0.023709275883445541 -0.035802640117959729 0 0.023500360104308705 -0.037167573755419799 0 0.023709275883445541 -0.035802640117959729 0 0.022215710968281212 -0.035969064384648829 0 0.023500360104308705 -0.037167573755419799 0 0.022215710968281212 -0.035969064384648829 0 0.022494347330693821 -0.037609072210651587 0 0.021404518655514796 -0.037454695689942981 0 0.022215710968281212 -0.035969064384648829 0 0.022494347330693821 -0.037609072210651587 0 0.023500360104308705 -0.037167573755419799 0 0.024482866867251329 -0.037643844158821285 0 0.02434010127155806 -0.036660635441121386 0 0.023500360104308705 -0.037167573755419799 0 0.024482866867251329 -0.037643844158821285 0 0.023500360104308705 -0.037167573755419799 0 0.023773992637968124 -0.038903424532931628 0 0.022494347330693821 -0.037609072210651587 0 0.023500360104308705 -0.037167573755419799 0 0.023773992637968124 -0.038903424532931628 0 0.022494347330693821 -0.037609072210651587 0 0.023773992637968124 -0.038903424532931628 0 0.022178985123408587 -0.038808858026735185 0 0.022494347330693821 -0.037609072210651587 0 0.022178985123408587 -0.038808858026735185 0 0.021404518655514796 -0.037454695689942981 0 0.021762586317336789 -0.038308152013273519 0 0.022253876297659021 -0.037736779091362686 0 0.022178985123408587 -0.038808858026735185 0 0.020593794499974317 -0.038992134790102502 0 0.021404518655514796 -0.037454695689942981 0 0.020593794499974317 -0.038992134790102502 0 0.019441075572783739 -0.038584641335242649 0 0.019517397329510713 -0.039487677562388399 0 0.020593794499974317 -0.038992134790102502 0 0.019838496646497304 -0.037800668782835396 0 0.019441075572783739 -0.038584641335242649 0 0.020593794499974317 -0.038992134790102502 0 0.019838496646497304 -0.037800668782835396 0 0.021303646614560006 -0.037731222222319789 0 0.019838496646497304 -0.037800668782835396 0 0.021303646614560006 -0.037731222222319789 0 0.020844269156534166 -0.036476732190212392 0 0.023413036313927663 -0.036755844302325792 0 0.022253876297659021 -0.037736779091362686 0 0.022091603055712939 -0.036417918309864822 0 0.020844269156534166 -0.036476732190212392 0 0.021528856173525034 -0.03572661377873465 0 0.022091603055712939 -0.036417918309864822 0 0.021303646614560006 -0.037731222222319789 0 0.020844269156534166 -0.036476732190212392 0 0.019838496646497304 -0.037800668782835396 0 0.020844269156534166 -0.036476732190212392 0 0.019558488930614647 -0.036270022265717745 0 0.020720295857357088 -0.034999975829790246 0 0.018974905565891934 -0.034999967632392333 0 0.019558488930614647 -0.036270022265717745 0 0.020844269156534166 -0.036476732190212392 0 0.020720295857357088 -0.034999975829790246 0 0.019558488930614647 -0.036270022265717745 0 0.020844269156534166 -0.036476732190212392 0 0.020720295857357088 -0.034999975829790246 0 0.021528856173525034 -0.03572661377873465 0 0.022465566701902983 -0.034999976373280929 0 0.020720295857357088 -0.034999975829790246 0 0.021528856173525034 -0.03572661377873465 0 0.017278040820355296 -0.03621635859559847 0 0.017229709742704508 -0.034999959767406698 0 0.018275737037654519 -0.035900791856923339 0 0.017229709742704508 -0.034999959767406698 0 0.018275737037654519 -0.035900791856923339 0 0.018974905565891934 -0.034999967632392333 0 0.018275737037654519 -0.035900791856923339 0 0.018974905565891934 -0.034999967632392333 0 0.019558488930614647 -0.036270022265717745 0 0.018275737037654519 -0.035900791856923339 0 0.019558488930614647 -0.036270022265717745 0 0.018322592693418217 -0.037001809346707076 0 0.019838496646497304 -0.037800668782835396 0 0.019558488930614647 -0.036270022265717745 0 0.018322592693418217 -0.037001809346707076 0 0.017278040820355296 -0.03621635859559847 0 0.018275737037654519 -0.035900791856923339 0 0.018322592693418217 -0.037001809346707076 0 0.016825668780365677 -0.037799395514000154 0 0.018322592693418217 -0.037001809346707076 0 0.018531477501309929 -0.03842902803588636 0 0.019838496646497304 -0.037800668782835396 0 0.018322592693418217 -0.037001809346707076 0 0.018531477501309929 -0.03842902803588636 0 0.019838496646497304 -0.037800668782835396 0 0.019441075572783739 -0.038584641335242649 0 0.018531477501309929 -0.03842902803588636 0 0.019441075572783739 -0.038584641335242649 0 0.018531477501309929 -0.03842902803588636 0 0.019517397329510713 -0.039487677562388399 0 0.016673815140223862 -0.037420932560374112 0 0.01759708830840577 -0.037847826728419506 0 0.018531477501309929 -0.03842902803588636 0 0.017787186692226471 -0.039103555923145461 0 0.019517397329510713 -0.039487677562388399 0 0.016705193593428307 -0.037682885866912597 0 0.018531477501309929 -0.03842902803588636 0 0.017787186692226471 -0.039103555923145461 0 0.018648844445655063 -0.027410524416395358 0 0.018856413576932678 -0.029658223753787745 0 0.020103290291524099 -0.029001923110787038 0 0.018856413576932678 -0.029658223753787745 0 0.020103290291524099 -0.029001923110787038 0 0.020609135492228842 -0.030922606613925308 0 0.020103290291524099 -0.029001923110787038 0 0.021335604135434193 -0.029109941781183809 0 0.020609135492228842 -0.030922606613925308 0 0.020103290291524099 -0.029001923110787038 0 0.021025913582061358 -0.027955490886743775 0 0.021335604135434193 -0.029109941781183809 0 0.018210839972726843 -0.033248631681249162 0 0.020239960223822035 -0.033520627328704755 0 0.018648844445655063 -0.027410524416395358 0 0.020103290291524099 -0.029001923110787038 0 0.021025913582061358 -0.027955490886743775 0 0.020593794499974317 -0.038992134790102502 0 0.019517397329510713 -0.039487677562388399 0 0.021327728925912958 -0.039884028817099418 0 0.021025913582061358 -0.027955490886743775 0 0.023038025628150348 -0.028513640973827852 0 0.021335604135434193 -0.029109941781183809 0 0.020239960223822035 -0.033520627328704755 0 0.022167696209371288 -0.033644403161081256 0 0.022178985123408587 -0.038808858026735185 0 0.020593794499974317 -0.038992134790102502 0 0.021327728925912958 -0.039884028817099418 0 0.024010688111609932 -0.029639185104427451 0 0.023038025628150348 -0.028513640973827852 0 0.022326814577085592 -0.030119144293579415 0 0.021154470032318913 -0.029249912764946363 0 0.020846209835116244 -0.028942200838567769 0 0.023038025628150348 -0.028513640973827852 0 0.021335604135434193 -0.029109941781183809 0 0.022326814577085592 -0.030119144293579415 0 0.021335604135434193 -0.029109941781183809 0 0.022525115599072016 -0.030562700151470588 0 0.020609135492228842 -0.030922606613925308 0 0.017859316921903051 -0.027349700118582926 0 0.017827972559626596 -0.0275063456600745 0 0.017668078624055901 -0.027388460496595504 0 0.020846209835116244 -0.028942200838567769 0 0.019239411008359839 -0.029056251234852025 0 0.024015536436312025 -0.029836380749616604 0 0.024010688111609932 -0.029639185104427451 0 0.02377364444172058 -0.029744606801086284 0 0.020846209835116244 -0.028942200838567769 0 0.020998003710019079 -0.028508407457094473 0 0.022492472694569662 -0.028934270403974935 0 0.020846209835116244 -0.028942200838567769 0 0.024015536436312025 -0.029836380749616604 0 0.02377364444172058 -0.029744606801086284 0 0.024039094270901642 -0.029969849634462833 0 0.017998682463984526 -0.027497344054454941 0 0.017827972559626596 -0.0275063456600745 0 0.01796943974957178 -0.027683503186572041 0 0.017859316921903051 -0.027349700118582926 0 0.017998682463984526 -0.027497344054454941 0 0.017827972559626596 -0.0275063456600745 0 0.017827972559626596 -0.0275063456600745 0 0.01770696668377595 -0.027510969384725647 0 0.017668078624055901 -0.027388460496595504 0 0.017827972559626596 -0.0275063456600745 0 0.01770696668377595 -0.027510969384725647 0 0.017720952708923706 -0.027635120496242043 0 0.01770696668377595 -0.027510969384725647 0 0.017610809703502366 -0.02751541160079447 0 0.017720952708923706 -0.027635120496242043 0 0.017610809703502366 -0.02751541160079447 0 0.017470100244264802 -0.027600764989107476 0 0.017720952708923706 -0.027635120496242043 0 0.01770696668377595 -0.027510969384725647 0 0.017610809703502366 -0.02751541160079447 0 0.017668078624055901 -0.027388460496595504 0 0.017610809703502366 -0.02751541160079447 0 0.017474809665643812 -0.027427593245820552 0 0.017470100244264802 -0.027600764989107476 0 0.017843554049701067 -0.029100963578212978 0 0.019239411008359839 -0.029056251234852025 0 0.018856413576932678 -0.029658223753787745 0 0.018717645653353022 -0.031284896309335633 0 0.020609135492228842 -0.030922606613925308 0 0.017610809703502366 -0.02751541160079447 0 0.017474809665643812 -0.027427593245820552 0 0.017668078624055901 -0.027388460496595504 0 0.01727090707381234 -0.027804925720665785 0 0.017360719065346468 -0.02807862606750328 0 0.017521890154091377 -0.027967637426391707 0 0.01727090707381234 -0.027804925720665785 0 0.017360719065346468 -0.02807862606750328 0 0.017087674414955557 -0.028032585482954002 0 0.017087674414955557 -0.028032585482954002 0 0.016843261459168198 -0.027882379053811763 0 0.016914089806946562 -0.028154422460459849 0 0.016566733234403302 -0.028223080076740528 0 0.016843261459168198 -0.027882379053811763 0 0.016914089806946562 -0.028154422460459849 0 0.01727090707381234 -0.027804925720665785 0 0.017087674414955557 -0.028032585482954002 0 0.016843261459168198 -0.027882379053811763 0 0.016846531700235003 -0.027980992037779366 0 0.016698536554341392 -0.028032649714921597 0 0.01727090707381234 -0.027804925720665785 0 0.016843261459168198 -0.027882379053811763 0 0.016798420798695077 -0.027461938303217418 0 0.016698536554341392 -0.028032649714921597 0 0.017408328708186406 -0.027871127324832313 0 0.01727090707381234 -0.027804925720665785 0 0.016821907832022337 -0.027469848315134892 0 0.017388835740089665 -0.027557450152415102 0 0.017408328708186406 -0.027871127324832313 0 0.017672471625894727 -0.02784063503394928 0 0.017827972559626596 -0.0275063456600745 0 0.017720952708923706 -0.027635120496242043 0 0.01796943974957178 -0.027683503186572041 0 0.01727090707381234 -0.027804925720665785 0 0.017388835740089665 -0.027557450152415102 0 0.017608244178045469 -0.027794583244531275 0 0.017388835740089665 -0.027557450152415102 0 0.01796943974957178 -0.027683503186572041 0 0.017608244178045469 -0.027794583244531275 0 0.01796943974957178 -0.027683503186572041 0 0.017829197236285489 -0.027854771500352336 0 0.017608244178045469 -0.027794583244531275 0 0.01796943974957178 -0.027683503186572041 0 0.017829197236285489 -0.027854771500352336 0 0.018061102630252606 -0.027829299394097087 0 0.017829197236285489 -0.027854771500352336 0 0.017995591469930801 -0.027971157808368671 0 0.018061102630252606 -0.027829299394097087 0 0.017829197236285489 -0.027854771500352336 0 0.017847573932143614 -0.028016826944283462 0 0.017682549447352851 -0.027921628566659105 0 0.017847573932143614 -0.028016826944283462 0 0.017664956159364212 -0.028049233820902474 0 0.017731709460891393 -0.028181112664438318 0 0.017847573932143614 -0.028016826944283462 0 0.017682549447352851 -0.027921628566659105 0 0.017664956159364212 -0.028049233820902474 0 0.017847573932143614 -0.028016826944283462 0 0.017936652122546831 -0.028065651818003228 0 0.017879649886960513 -0.028165163306901202 0 0.017829197236285489 -0.027854771500352336 0 0.017847573932143614 -0.028016826944283462 0 0.017995591469930801 -0.027971157808368671 0 0.017847573932143614 -0.028016826944283462 0 0.017936652122546831 -0.028065651818003228 0 0.017995591469930801 -0.027971157808368671 0 0.017936652122546831 -0.028065651818003228 0 0.017995591469930801 -0.027971157808368671 0 0.018023233966778813 -0.028110280578918831 0 0.01727090707381234 -0.027804925720665785 0 0.017608244178045469 -0.027794583244531275 0 0.017521890154091377 -0.027967637426391707 0 0.017829197236285489 -0.027854771500352336 0 0.017608244178045469 -0.027794583244531275 0 0.017682549447352851 -0.027921628566659105 0 0.017608244178045469 -0.027794583244531275 0 0.017682549447352851 -0.027921628566659105 0 0.017521890154091377 -0.027967637426391707 0 0.017682549447352851 -0.027921628566659105 0 0.017664956159364212 -0.028049233820902474 0 0.017521890154091377 -0.027967637426391707 0 0.017664956159364212 -0.028049233820902474 0 0.017521890154091377 -0.027967637426391707 0 0.017542076274636029 -0.028154620485341543 0 0.017360719065346468 -0.02807862606750328 0 0.017521890154091377 -0.027967637426391707 0 0.017542076274636029 -0.028154620485341543 0 0.017360719065346468 -0.02807862606750328 0 0.017542076274636029 -0.028154620485341543 0 0.017342031971807802 -0.028319635897658561 0 0.017542076274636029 -0.028154620485341543 0 0.017634781015809342 -0.028319903093245159 0 0.017731709460891393 -0.028181112664438318 0 0.017664956159364212 -0.028049233820902474 0 0.017542076274636029 -0.028154620485341543 0 0.017731709460891393 -0.028181112664438318 0 0.017634781015809342 -0.028319903093245159 0 0.017483387908520404 -0.028484325993244377 0 0.017342031971807802 -0.028319635897658561 0 0.017542076274636029 -0.028154620485341543 0 0.017634781015809342 -0.028319903093245159 0 0.017342031971807802 -0.028319635897658561 0 0.017958278560566143 -0.028216337626964589 0 0.018023233966778813 -0.028110280578918831 0 0.018083068451169672 -0.028258104351562622 0 0.017958278560566143 -0.028216337626964589 0 0.018023233966778813 -0.028110280578918831 0 0.017879649886960513 -0.028165163306901202 0 0.017936652122546831 -0.028065651818003228 0 0.018023233966778813 -0.028110280578918831 0 0.017879649886960513 -0.028165163306901202 0 0.017958278560566143 -0.028216337626964589 0 0.017879649886960513 -0.028165163306901202 0 0.017893790214368946 -0.028280512570382874 0 0.017879649886960513 -0.028165163306901202 0 0.017731709460891393 -0.028181112664438318 0 0.017893790214368946 -0.028280512570382874 0 0.017847573932143614 -0.028016826944283462 0 0.017879649886960513 -0.028165163306901202 0 0.017731709460891393 -0.028181112664438318 0 0.017634781015809342 -0.028319903093245159 0 0.017893790214368946 -0.028280512570382874 0 0.017845362648521153 -0.028506069401662351 0 0.017634781015809342 -0.028319903093245159 0 0.017731709460891393 -0.028181112664438318 0 0.017893790214368946 -0.028280512570382874 0 0.017958278560566143 -0.028216337626964589 0 0.017893790214368946 -0.028280512570382874 0 0.018083068451169672 -0.028258104351562622 0 0.017893790214368946 -0.028280512570382874 0 0.017845362648521153 -0.028506069401662351 0 0.018124032593242304 -0.02830808983291035 0 0.018943190363993872 -0.015765330925396968 0 0.019407257117780283 -0.016030730177440455 0 0.019438180714249433 -0.015436832076060929 0 0.018943190363993872 -0.015765330925396968 0 0.018458726106513449 -0.016097832878773109 0 0.019000231535509636 -0.016384289369581119 0 0.018943190363993872 -0.015765330925396968 0 0.019000231535509636 -0.016384289369581119 0 0.019407257117780283 -0.016030730177440455 0 0.018341111147843415 -0.022528581909679553 0 0.019694060630490229 -0.024117983380567993 0 0.017634781015809342 -0.028319903093245159 0 0.017845362648521153 -0.028506069401662351 0 0.017483387908520404 -0.028484325993244377 0 0.017845362648521153 -0.028506069401662351 0 0.017483387908520404 -0.028484325993244377 0 0.017558072916407319 -0.028699890382584602 0 0.018341111147843415 -0.022528581909679553 0 0.016785694211788774 -0.021164931371701029 0 0.016785694211788774 -0.021164931371701029 0 0.015794947435314483 -0.024080390393308462 0 0.017483387908520404 -0.028484325993244377 0 0.017558072916407319 -0.028699890382584602 0 0.017268949808737447 -0.028552107861206592 0 0.014606046126436604 -0.020795142091656314 0 0.014365485971040363 -0.020671565347762436 0 0.014436342020945804 -0.020937028017887684 0 0.017268949808737447 -0.028552107861206592 0 0.017342031971807802 -0.028319635897658561 0 0.016978516794784938 -0.028402425083945675 0 0.014850912625420711 -0.020924303179515949 0 0.014606046126436604 -0.020795142091656314 0 0.014631017136573719 -0.021069107217097111 0 0.015794947435314483 -0.024080390393308462 0 0.014496015914454336 -0.026713672527580945 0 0.017483387908520404 -0.028484325993244377 0 0.017268949808737447 -0.028552107861206592 0 0.017342031971807802 -0.028319635897658561 0 0.017342031971807802 -0.028319635897658561 0 0.017116029405037165 -0.028207302035801806 0 0.016978516794784938 -0.028402425083945675 0 0.017360719065346468 -0.02807862606750328 0 0.017087674414955557 -0.028032585482954002 0 0.017116029405037165 -0.028207302035801806 0 0.017360719065346468 -0.02807862606750328 0 0.017342031971807802 -0.028319635897658561 0 0.017116029405037165 -0.028207302035801806 0 0.016566733234403302 -0.028223080076740528 0 0.016914089806946562 -0.028154422460459849 0 0.016958844720385974 -0.028432230984725432 0 0.012929303198090731 -0.028964047758865387 0 0.014496015914454336 -0.026713672527580945 0 0.017087674414955557 -0.028032585482954002 0 0.017116029405037165 -0.028207302035801806 0 0.016914089806946562 -0.028154422460459849 0 0.017116029405037165 -0.028207302035801806 0 0.016914089806946562 -0.028154422460459849 0 0.016958844720385974 -0.028432230984725432 0 0.014661449853831797 -0.02678557769587854 0 0.014496015914454336 -0.026713672527580945 0 0.012290254320243967 -0.024588361964998914 0 0.014496015914454336 -0.026713672527580945 0 0.014168952407130873 -0.020942450407789803 0 0.014365485971040363 -0.020671565347762436 0 0.014436342020945804 -0.020937028017887684 0 0.0095326083000059608 -0.032858997834447207 0 0.010162180719219451 -0.034447925157011117 0 0.0115953671908617 -0.032369617313209711 0 0.014168952407130873 -0.020942450407789803 0 0.014436342020945804 -0.020937028017887684 0 0.014412927959084004 -0.021209755751037319 0 0.01785206053985823 -0.016366276291310457 0 0.017329967779370802 -0.016720908278104213 0 0.018278599051524885 -0.016691523843022568 0 0.014436342020945804 -0.020937028017887684 0 0.014631017136573719 -0.021069107217097111 0 0.014412927959084004 -0.021209755751037319 0 0.014606046126436604 -0.020795142091656314 0 0.014436342020945804 -0.020937028017887684 0 0.014631017136573719 -0.021069107217097111 0 0.016269515445133574 -0.018986467967646019 0 0.015686464212334755 -0.016911408069983525 0 0.017018758124467914 -0.0049550769166820932 0 0.017352160057352174 -0.0055069481630795813 0 0.017709640354408876 -0.005095212475249208 0 0.015686464212334755 -0.016911408069983525 0 0.016947828273444546 -0.016852386692228914 0 0.017340712832420231 -0.016690607615984107 0 0.018278599051524885 -0.016691523843022568 0 0.018091981500607038 -0.017090499352707861 0 0.017023662512515945 -0.01690259901074689 0 0.017340712832420231 -0.016690607615984107 0 0.018091981500607038 -0.017090499352707861 0 0.016094390664484731 -0.014619648442334789 0 0.017633346164325103 -0.012522867237490076 0 0.012158601654239525 -0.018398299857713667 0 0.015686464212334755 -0.016911408069983525 0 0.012534012787022748 -0.01712319408997456 0 0.01537138131200559 -0.017880954996260259 0 0.016602065888510164 -0.01704353480679216 0 0.016094390664484731 -0.014619648442334789 0 0.015686464212334755 -0.016911408069983525 0 0.017018758124467914 -0.0049550769166820932 0 0.01693580121533151 -0.005400079244648308 0 0.017352160057352174 -0.0055069481630795813 0 0.01693580121533151 -0.005400079244648308 0 0.017352160057352174 -0.0055069481630795813 0 0.016969207865754066 -0.0057969909296121834 0 0.017352160057352174 -0.0055069481630795813 0 0.017916893736246008 -0.0056621535604345335 0 0.017709640354408876 -0.005095212475249208 0 0.019375064558214857 -0.0075778455289671528 0 0.018593936994690849 -0.0068796523578549132 0 0.017352160057352174 -0.0055069481630795813 0 0.017916893736246008 -0.0056621535604345335 0 0.01746098344030347 -0.0061043642424989811 0 0.017352160057352174 -0.0055069481630795813 0 0.016969207865754066 -0.0057969909296121834 0 0.01746098344030347 -0.0061043642424989811 0 0.018894289424668476 -0.0048763301601825884 0 0.020109082519547773 -0.0051245251694972726 0 0.019338641377263467 -0.0060132981099925388 0 0.017916893736246008 -0.0056621535604345335 0 0.018377361367201795 -0.0052265541259195834 0 0.017709640354408876 -0.005095212475249208 0 0.019375064558214857 -0.0075778455289671528 0 0.018966557172501092 -0.011344474224943666 0 0.018894289424668476 -0.0048763301601825884 0 0.019701652247479693 -0.0041271316683001002 0 0.020109082519547773 -0.0051245251694972726 0 0.019124246642544324 -0.01724450418938658 0 0.018278599051524885 -0.016691523843022568 0 0.019000231535509636 -0.016384289369581119 0 0.019124246642544324 -0.01724450418938658 0 0.018278599051524885 -0.016691523843022568 0 0.018091981500607038 -0.017090499352707861 0 0.018966557172501092 -0.011344474224943666 0 0.017633346164325103 -0.012522867237490076 0 0.018364159040889411 -0.016029185119526827 0 0.018278599051524885 -0.016691523843022568 0 0.019000231535509636 -0.016384289369581119 0 0.018364159040889411 -0.016029185119526827 0 0.01785206053985823 -0.016366276291310457 0 0.018278599051524885 -0.016691523843022568 0 0.016785694211788774 -0.021164931371701029 0 0.016269515445133574 -0.018986467967646019 0 0.016785694211788774 -0.021164931371701029 0 0.016896671311104783 -0.020483955758580738 0 0.019000231535509636 -0.016384289369581119 0 0.019809418655452039 -0.016540079414296287 0 0.019407257117780283 -0.016030730177440455 0 0.019809418655452039 -0.016540079414296287 0 0.019948132966069055 -0.016056562590799694 0 0.019407257117780283 -0.016030730177440455 0 0.022557115923538398 -0.023986465915325546 0 0.022456606974515774 -0.025315290762632836 0 0.023606263910244688 -0.025348584072842909 0 0.022828272906250533 -0.018991456622297356 0 0.021278646697105209 -0.021293160741579806 0 0.019809418655452039 -0.016540079414296287 0 0.020414192145680726 -0.016641038405607073 0 0.019948132966069055 -0.016056562590799694 0 0.019809418655452039 -0.016540079414296287 0 0.019991748939562869 -0.017222014141123409 0 0.020414192145680726 -0.016641038405607073 0 0.019991748939562869 -0.017222014141123409 0 0.020414192145680726 -0.016641038405607073 0 0.020490499852057597 -0.017066305381204801 0 0.019124246642544324 -0.01724450418938658 0 0.019000231535509636 -0.016384289369581119 0 0.019809418655452039 -0.016540079414296287 0 0.018966557172501092 -0.011344474224943666 0 0.018151624175444064 -0.01356077658144045 0 0.01925089882629941 -0.017081920329636117 0 0.019809418655452039 -0.016540079414296287 0 0.019991748939562869 -0.017222014141123409 0 0.019701652247479693 -0.0041271316683001002 0 0.020758664541524773 -0.0043226661327675029 0 0.020109082519547773 -0.0051245251694972726 0 0.018966557172501092 -0.011344474224943666 0 0.020797092584487899 -0.012094456007305594 0 0.020758664541524773 -0.0043226661327675029 0 0.020109082519547773 -0.0051245251694972726 0 0.021244979348713604 -0.0053068016642107904 0 0.023278588227365983 -0.0039665597187499993 0 0.024086879060508 -0.0043829524785914155 0 0.023755632907816751 -0.0036250059010963934 0 0.023278588227365983 -0.0039665597187499993 0 0.024086879060508 -0.0043829524785914155 0 0.023292639187691633 -0.0047767954173806903 0 0.023852944993050393 -0.0084194257809248971 0 0.024335215285901088 -0.0137980969555515 0 0.023278588227365983 -0.0039665597187499993 0 0.022187118906372479 -0.0044389885702052776 0 0.023292639187691633 -0.0047767954173806903 0 0.023278588227365983 -0.0039665597187499993 0 0.022187118906372479 -0.0044389885702052776 0 0.023000261209770594 -0.0032833725557536541 0 0.020797092584487899 -0.012094456007305594 0 0.024335215285901088 -0.0137980969555515 0 0.019991748939562869 -0.017222014141123409 0 0.02076620682126392 -0.017353760680989181 0 0.020490499852057597 -0.017066305381204801 0 0.020758664541524773 -0.0043226661327675029 0 0.021244979348713604 -0.0053068016642107904 0 0.021805241006997999 -0.0045197151061725453 0 0.02076620682126392 -0.017353760680989181 0 0.020875464294355606 -0.017194542882310558 0 0.020490499852057597 -0.017066305381204801 0 0.024335215285901088 -0.0137980969555515 0 0.024774772423251872 -0.015787456355440148 0 0.027503196553796645 -0.016348785123193033 0 0.027058420659881264 -0.015788634206867064 0 0.026807465133512485 -0.017360131225445271 0 0.026156520021612201 -0.01524444299719478 0 0.02672409813328027 -0.018346761754296639 0 0.038424485069051592 -0.021322900437235663 0 0.038384340063232353 -0.021540256898537502 0 0.038323376616342331 -0.021442473216323234 0 0.024139032091103959 -0.013321859386858721 0 0.024483028676932146 -0.012825155627236956 0 0.024997351924518178 -0.013468047536487346 0 0.024774772423251872 -0.015787456355440148 0 0.026156520021612201 -0.01524444299719478 0 0.023278588227365983 -0.0039665597187499993 0 0.023000261209770594 -0.0032833725557536541 0 0.023543630976277641 -0.0033699311498987866 0 0.023278588227365983 -0.0039665597187499993 0 0.023543630976277641 -0.0033699311498987866 0 0.023755632907816751 -0.0036250059010963934 0 0.024335215285901088 -0.0137980969555515 0 0.026156520021612201 -0.01524444299719478 0 0.026156520021612201 -0.01524444299719478 0 0.025904944077817217 -0.014829622741969454 0 0.038424485069051592 -0.021322900437235663 0 0.038323376616342331 -0.021442473216323234 0 0.03827913251605361 -0.021389243316642825 0 0.038384340063232353 -0.021540256898537502 0 0.038317350743826896 -0.021516149195199948 0 0.038323376616342331 -0.021442473216323234 0 0.024774772423251872 -0.015787456355440148 0 0.02672409813328027 -0.018346761754296639 0 0.038325492074351909 -0.021604397569018222 0 0.038384340063232353 -0.021540256898537502 0 0.038317350743826896 -0.021516149195199948 0 0.027110503563096848 -0.018218718043016165 0 0.02672409813328027 -0.018346761754296639 0 0.024774772423251872 -0.015787456355440148 0 0.022828272906250533 -0.018991456622297356 0 0.020875464294355606 -0.017194542882310558 0 0.020414192145680726 -0.016641038405607073 0 0.020490499852057597 -0.017066305381204801 0 0.020877418006974038 -0.023498758771125564 0 0.022557115923538398 -0.023986465915325546 0 0.021499456255961225 -0.024524052799183089 0 0.021487541788897824 -0.022607853225862642 0 0.020877418006974038 -0.023498758771125564 0 0.022557115923538398 -0.023986465915325546 0 0.022557115923538398 -0.023986465915325546 0 0.021499456255961225 -0.024524052799183089 0 0.022456606974515774 -0.025315290762632836 0 0.02672409813328027 -0.018346761754296639 0 0.028250449933773698 -0.022528424217177715 0 0.020877418006974038 -0.023498758771125564 0 0.021499456255961225 -0.024524052799183089 0 0.020654397505181069 -0.025356877352575028 0 0.038325492074351909 -0.021604397569018222 0 0.038325247046651474 -0.021601009251499603 0 0.038302359602247489 -0.02161338902510453 0 0.021499456255961225 -0.024524052799183089 0 0.020654397505181069 -0.025356877352575028 0 0.021689853634610338 -0.02615346496836439 0 0.020654397505181069 -0.025356877352575028 0 0.021689853634610338 -0.02615346496836439 0 0.020459126036728233 -0.027192116943331009 0 0.028250449933773698 -0.022528424217177715 0 0.0293466991007519 -0.024335158179722104 0 0.021471583120888062 -0.027243593140282074 0 0.021689853634610338 -0.02615346496836439 0 0.020459126036728233 -0.027192116943331009 0 0.021471583120888062 -0.027243593140282074 0 0.021167062201712744 -0.027985855802362077 0 0.020459126036728233 -0.027192116943331009 0 0.022187195296200925 -0.02715315543289493 0 0.021689853634610338 -0.02615346496836439 0 0.022924258023942545 -0.02655417279968551 0 0.022187195296200925 -0.02715315543289493 0 0.022924258023942545 -0.02655417279968551 0 0.022740669219952429 -0.027476875419561685 0 0.022187195296200925 -0.02715315543289493 0 0.021881764897701512 -0.027738111495754336 0 0.02234569247213479 -0.027710521503546845 0 0.022187195296200925 -0.02715315543289493 0 0.022740669219952429 -0.027476875419561685 0 0.02234569247213479 -0.027710521503546845 0 0.021471583120888062 -0.027243593140282074 0 0.022187195296200925 -0.02715315543289493 0 0.021881764897701512 -0.027738111495754336 0 0.021471583120888062 -0.027243593140282074 0 0.022187195296200925 -0.02715315543289493 0 0.021689853634610338 -0.02615346496836439 0 0.022456606974515774 -0.025315290762632836 0 0.021689853634610338 -0.02615346496836439 0 0.022924258023942545 -0.02655417279968551 0 0.021499456255961225 -0.024524052799183089 0 0.022456606974515774 -0.025315290762632836 0 0.021689853634610338 -0.02615346496836439 0 0.023606263910244688 -0.025348584072842909 0 0.024667883788272619 -0.026697829041183493 0 0.022924258023942545 -0.02655417279968551 0 0.022456606974515774 -0.025315290762632836 0 0.023606263910244688 -0.025348584072842909 0 0.022924258023942545 -0.02655417279968551 0 0.021278646697105209 -0.021293160741579806 0 0.019694060630490229 -0.024117983380567993 0 0.019948132966069055 -0.016056562590799694 0 0.019407257117780283 -0.016030730177440455 0 0.019438180714249433 -0.015436832076060929 0 0.018083068451169672 -0.028258104351562622 0 0.018121485406256337 -0.028304923812414017 0 0.018184557398029929 -0.028009165007701342 0 0.018121485406256337 -0.028304923812414017 0 0.018526837097515042 -0.028020048442157365 0 0.018184557398029929 -0.028009165007701342 0 0.017893790214368946 -0.028280512570382874 0 0.018083068451169672 -0.028258104351562622 0 0.018124032593242304 -0.02830808983291035 0 0.019705208212908165 -0.024158708676317999 0 0.019694060630490229 -0.024117983380567993 0 0.018023233966778813 -0.028110280578918831 0 0.018083068451169672 -0.028258104351562622 0 0.018184557398029929 -0.028009165007701342 0 0.019694060630490229 -0.024117983380567993 0 0.021008633013715892 -0.026807642216607929 0 0.024667883788272619 -0.026697829041183493 0 0.022924258023942545 -0.02655417279968551 0 0.023032149478766605 -0.027827585058375692 0 0.022924258023942545 -0.02655417279968551 0 0.022740669219952429 -0.027476875419561685 0 0.023032149478766605 -0.027827585058375692 0 0.018526837097515042 -0.028020048442157365 0 0.018184557398029929 -0.028009165007701342 0 0.018232963168229886 -0.027697093632582291 0 0.022740669219952429 -0.027476875419561685 0 0.022686796645584126 -0.028068485529639944 0 0.023020834531437152 -0.027849646909932271 0 0.022930795671281794 -0.027916445780196548 0 0.022915249202987896 -0.028638373323004347 0 0.023678598849207554 -0.029139789562998931 0 0.021008633013715892 -0.026807642216607929 0 0.021091682454557323 -0.027923707355850196 0 0.021082966817063387 -0.026876976090163079 0 0.021008633013715892 -0.026807642216607929 0 0.021043754134683942 -0.026806780855375856 0 0.021008633013715892 -0.026807642216607929 0 0.022686796645584126 -0.028068485529639944 0 0.022915249202987896 -0.028638373323004347 0 0.022402382875058829 -0.028530739147736107 0 0.022686796645584126 -0.028068485529639944 0 0.022930795671281794 -0.027916445780196548 0 0.022915249202987896 -0.028638373323004347 0 0.018184557398029929 -0.028009165007701342 0 0.018061102630252606 -0.027829299394097087 0 0.018232963168229886 -0.027697093632582291 0 0.017995591469930801 -0.027971157808368671 0 0.018023233966778813 -0.028110280578918831 0 0.018184557398029929 -0.028009165007701342 0 0.017995591469930801 -0.027971157808368671 0 0.018184557398029929 -0.028009165007701342 0 0.018061102630252606 -0.027829299394097087 0 0.017998682463984526 -0.027497344054454941 0 0.01796943974957178 -0.027683503186572041 0 0.018232963168229886 -0.027697093632582291 0 0.01796943974957178 -0.027683503186572041 0 0.018061102630252606 -0.027829299394097087 0 0.018232963168229886 -0.027697093632582291 0 0.023075741788283696 -0.029652741138484356 0 0.023933840121788855 -0.029917017459411673 0 0.023678598849207554 -0.029139789562998931 0 0.020998003710019079 -0.028508407457094473 0 0.021091682454557323 -0.027923707355850196 0 0.022915249202987896 -0.028638373323004347 0 0.023135804343483966 -0.029134437889401388 0 0.022575615943116575 -0.029033141991444477 0 0.022915249202987896 -0.028638373323004347 0 0.022575615943116575 -0.029033141991444477 0 0.022402382875058829 -0.028530739147736107 0 0.022915249202987896 -0.028638373323004347 0 0.023678598849207554 -0.029139789562998931 0 0.023135804343483966 -0.029134437889401388 0 0.023075741788283696 -0.029652741138484356 0 0.023678598849207554 -0.029139789562998931 0 0.023135804343483966 -0.029134437889401388 0 0.023075741788283696 -0.029652741138484356 0 0.023135804343483966 -0.029134437889401388 0 0.022575615943116575 -0.029033141991444477 0 0.023075741788283696 -0.029652741138484356 0 0.022575615943116575 -0.029033141991444477 0 0.021755355365853424 -0.029352404520936026 0 0.024733952466293351 -0.028121778200067206 0 0.02590418938371979 -0.027269410921214786 0 0.022575615943116575 -0.029033141991444477 0 0.022034740368512079 -0.028849621939754683 0 0.022402382875058829 -0.028530739147736107 0 0.022575615943116575 -0.029033141991444477 0 0.022034740368512079 -0.028849621939754683 0 0.021755355365853424 -0.029352404520936026 0 0.021670496545705645 -0.028864691558255485 0 0.022034740368512079 -0.028849621939754683 0 0.02181352348731478 -0.028422378388190117 0 0.021670496545705645 -0.028864691558255485 0 0.022034740368512079 -0.028849621939754683 0 0.021755355365853424 -0.029352404520936026 0 0.02590418938371979 -0.027269410921214786 0 0.030431031106098998 -0.026057127684178619 0 0.025307470974594123 -0.030528100220324102 0 0.025604319453098007 -0.030451145838814597 0 0.026115541565239587 -0.030758963153712356 0 0.021755355365853424 -0.029352404520936026 0 0.021175205516397597 -0.028779943204151122 0 0.020289805412898751 -0.02894702757341722 0 0.026200140963382152 -0.030079508541243596 0 0.025604319453098007 -0.030451145838814597 0 0.026115541565239587 -0.030758963153712356 0 0.025386454374447174 -0.030124186019131846 0 0.025307470974594123 -0.030528100220324102 0 0.025604319453098007 -0.030451145838814597 0 0.021670496545705645 -0.028864691558255485 0 0.021175205516397597 -0.028779943204151122 0 0.02181352348731478 -0.028422378388190117 0 0.021670496545705645 -0.028864691558255485 0 0.021755355365853424 -0.029352404520936026 0 0.021175205516397597 -0.028779943204151122 0 0.021175205516397597 -0.028779943204151122 0 0.021167062201712744 -0.027985855802362077 0 0.02181352348731478 -0.028422378388190117 0 0.021167062201712744 -0.027985855802362077 0 0.020289805412898751 -0.02894702757341722 0 0.020459126036728233 -0.027192116943331009 0 0.021175205516397597 -0.028779943204151122 0 0.021167062201712744 -0.027985855802362077 0 0.020289805412898751 -0.02894702757341722 0 0.021471583120888062 -0.027243593140282074 0 0.021167062201712744 -0.027985855802362077 0 0.021881764897701512 -0.027738111495754336 0 0.021167062201712744 -0.027985855802362077 0 0.021881764897701512 -0.027738111495754336 0 0.02181352348731478 -0.028422378388190117 0 0.021881764897701512 -0.027738111495754336 0 0.022245247333598187 -0.028107754414272618 0 0.02181352348731478 -0.028422378388190117 0 0.021881764897701512 -0.027738111495754336 0 0.02234569247213479 -0.027710521503546845 0 0.022245247333598187 -0.028107754414272618 0 0.022740669219952429 -0.027476875419561685 0 0.022686796645584126 -0.028068485529639944 0 0.02234569247213479 -0.027710521503546845 0 0.022686796645584126 -0.028068485529639944 0 0.02234569247213479 -0.027710521503546845 0 0.022245247333598187 -0.028107754414272618 0 0.022245247333598187 -0.028107754414272618 0 0.022402382875058829 -0.028530739147736107 0 0.02181352348731478 -0.028422378388190117 0 0.022686796645584126 -0.028068485529639944 0 0.022245247333598187 -0.028107754414272618 0 0.022402382875058829 -0.028530739147736107 0 0.022034740368512079 -0.028849621939754683 0 0.022402382875058829 -0.028530739147736107 0 0.02181352348731478 -0.028422378388190117 0 0.035797223256944538 -0.025903012518169052 0 0.036839502361602668 -0.023632788395274485 0 0.038333754615845497 -0.021560621148432983 0 0.038297225066965063 -0.021561187509197128 0 0.038303716859867949 -0.021578396037151049 0 0.030431031106098998 -0.026057127684178619 0 0.0293466991007519 -0.024335158179722104 0 0.033037977413132538 -0.027407401431344274 0 0.032345254220998793 -0.027198582733859597 0 0.033196261000520463 -0.02614643135664288 0 0.032345254220998793 -0.027198582733859597 0 0.031818783427076475 -0.025732336489721258 0 0.033196261000520463 -0.02614643135664288 0 0.035797223256944538 -0.025903012518169052 0 0.030431031106098998 -0.026057127684178619 0 0.030493721706267671 -0.028321117302096421 0 0.030431031106098998 -0.026057127684178619 0 0.040500274605909985 -0.026952408156171552 0 0.041972850398638822 -0.027071126248357686 0 0.04144421696178531 -0.025639730223598216 0 0.034075629619727314 -0.027973460518203659 0 0.035797223256944538 -0.025903012518169052 0 0.040615479152543009 -0.026646181782143504 0 0.039065170409254502 -0.025912605785423266 0 0.040244602941278393 -0.02465241370317298 0 0.040500274605909985 -0.026952408156171552 0 0.04144421696178531 -0.025639730223598216 0 0.040146843066029399 -0.025250628697191808 0 0.03962265974011777 -0.026705589636578934 0 0.038612645191100449 -0.025204219343441515 0 0.039065170409254502 -0.025912605785423266 0 0.040244602941278393 -0.02465241370317298 0 0.038022380155643007 -0.0239894746253537 0 0.038612645191100449 -0.025204219343441515 0 0.038469683915295476 -0.024875575330284075 0 0.039443343108112601 -0.023725007917202508 0 0.038827033192146573 -0.023534307925336704 0 0.039205834177290566 -0.023046331013343333 0 0.035797223256944538 -0.025903012518169052 0 0.038612645191100449 -0.025204219343441515 0 0.038827033192146573 -0.023534307925336704 0 0.038701860878920712 -0.02284293056801397 0 0.039205834177290566 -0.023046331013343333 0 0.038612645191100449 -0.025204219343441515 0 0.038543411312446332 -0.023684004495396236 0 0.038701860878920712 -0.02284293056801397 0 0.038968273356671732 -0.022381002555147141 0 0.039205834177290566 -0.023046331013343333 0 0.039275388055343904 -0.024287572515636215 0 0.039062595144541391 -0.023271576149230738 0 0.038022380155643007 -0.0239894746253537 0 0.039062595144541391 -0.023271576149230738 0 0.038242713804979164 -0.022837312681438619 0 0.038022380155643007 -0.0239894746253537 0 0.039062595144541391 -0.023271576149230738 0 0.03860707941706594 -0.022183783424047678 0 0.038242713804979164 -0.022837312681438619 0 0.038543411312446332 -0.023684004495396236 0 0.038501471836076884 -0.023156132680101284 0 0.03860707941706594 -0.022183783424047678 0 0.038129113590074135 -0.022029702951672687 0 0.038242713804979164 -0.022837312681438619 0 0.038433407715102952 -0.021593178546203556 0 0.038371747061084711 -0.021590636102502836 0 0.038364118604154278 -0.021572128197090812 0 0.038701860878920712 -0.02284293056801397 0 0.038968273356671732 -0.022381002555147141 0 0.03860707941706594 -0.022183783424047678 0 0.037404623229494817 -0.022750288770525467 0 0.036839502361602668 -0.023632788395274485 0 0.038433407715102952 -0.021593178546203556 0 0.038371747061084711 -0.021590636102502836 0 0.038388405716141258 -0.02163104376696744 0 0.038340173748234729 -0.021605281462120568 0 0.038371747061084711 -0.021590636102502836 0 0.038388405716141258 -0.02163104376696744 0 0.038340173748234729 -0.021605281462120568 0 0.038371747061084711 -0.021590636102502836 0 0.038337452214911902 -0.021581894779488048 0 0.038333754615845497 -0.021560621148432983 0 0.038337452214911902 -0.021581894779488048 0 0.038364118604154278 -0.021572128197090812 0 0.038371747061084711 -0.021590636102502836 0 0.038337452214911902 -0.021581894779488048 0 0.038364118604154278 -0.021572128197090812 0 0.038333754615845497 -0.021560621148432983 0 0.038337452214911902 -0.021581894779488048 0 0.038303716859867949 -0.021578396037151049 0 0.038302359602247489 -0.02161338902510453 0 0.038337452214911902 -0.021581894779488048 0 0.038303716859867949 -0.021578396037151049 0 0.038302359602247489 -0.02161338902510453 0 0.038340173748234729 -0.021605281462120568 0 0.038337452214911902 -0.021581894779488048 0 0.038325492074351909 -0.021604397569018222 0 0.038302359602247489 -0.02161338902510453 0 0.038314901998596503 -0.021620303722343828 0 0.038302359602247489 -0.02161338902510453 0 0.038340173748234729 -0.021605281462120568 0 0.038314901998596503 -0.021620303722343828 0 0.038340173748234729 -0.021605281462120568 0 0.038314901998596503 -0.021620303722343828 0 0.038344021615339619 -0.021623122393305744 0 0.038314901998596503 -0.021620303722343828 0 0.038305913656590466 -0.021629531497007169 0 0.038344021615339619 -0.021623122393305744 0 0.038325492074351909 -0.021604397569018222 0 0.038314901998596503 -0.021620303722343828 0 0.038305913656590466 -0.021629531497007169 0 0.038340173748234729 -0.021605281462120568 0 0.038388405716141258 -0.02163104376696744 0 0.038344021615339619 -0.021623122393305744 0 0.038388405716141258 -0.02163104376696744 0 0.038344021615339619 -0.021623122393305744 0 0.038406114149923662 -0.021669535566438022 0 0.038305913656590466 -0.021629531497007169 0 0.038344021615339619 -0.021623122393305744 0 0.038406114149923662 -0.021669535566438022 0 0.038388405716141258 -0.02163104376696744 0 0.038406114149923662 -0.021669535566438022 0 0.038444853986761861 -0.021697596812573917 0 0.038406114149923662 -0.021669535566438022 0 0.038434498015481024 -0.021677104005457488 0 0.038415575547377158 -0.021661943158440746 0 0.038406114149923662 -0.021669535566438022 0 0.038434498015481024 -0.021677104005457488 0 0.038444853986761861 -0.021697596812573917 0 0.038406114149923662 -0.021669535566438022 0 0.038393433185571715 -0.021664923668412144 0 0.038415575547377158 -0.021661943158440746 0 0.038305913656590466 -0.021629531497007169 0 0.038406114149923662 -0.021669535566438022 0 0.038393433185571715 -0.021664923668412144 0 0.038393433185571715 -0.021664923668412144 0 0.038424005066608306 -0.021679333122353164 0 0.038415575547377158 -0.021661943158440746 0 0.038434498015481024 -0.021677104005457488 0 0.038415575547377158 -0.021661943158440746 0 0.03843871682585747 -0.021631484733298106 0 0.038305913656590466 -0.021629531497007169 0 0.038393433185571715 -0.021664923668412144 0 0.038424005066608306 -0.021679333122353164 0 0.038305913656590466 -0.021629531497007169 0 0.038152790176866055 -0.021453404417494486 0 0.0382805326775678 -0.021534704380964453 0 0.034705656783396537 -0.019859258737267339 0 0.034038431004621457 -0.018717228419709256 0 0.038325492074351909 -0.021604397569018222 0 0.038305913656590466 -0.021629531497007169 0 0.0382805326775678 -0.021534704380964453 0 0.038325492074351909 -0.021604397569018222 0 0.0382805326775678 -0.021534704380964453 0 0.038317350743826896 -0.021516149195199948 0 0.038152790176866055 -0.021453404417494486 0 0.038253567257523907 -0.021452135325229861 0 0.0382805326775678 -0.021534704380964453 0 0.038253567257523907 -0.021452135325229861 0 0.0382805326775678 -0.021534704380964453 0 0.038317350743826896 -0.021516149195199948 0 0.038253567257523907 -0.021452135325229861 0 0.038317350743826896 -0.021516149195199948 0 0.038323376616342331 -0.021442473216323234 0 0.026156520021612201 -0.01524444299719478 0 0.031628962378855582 -0.014131277542990553 0 0.038424485069051592 -0.021322900437235663 0 0.03827913251605361 -0.021389243316642825 0 0.038217581203768232 -0.021330191513598776 0 0.038424485069051592 -0.021322900437235663 0 0.038217581203768232 -0.021330191513598776 0 0.038087202849497355 -0.02124483924236293 0 0.023542462269908415 -0.003366198153631332 0 0.023755632907816751 -0.0036250059010963934 0 0.025417288375363244 -0.003649144155795819 0 0.038253567257523907 -0.021452135325229861 0 0.038323376616342331 -0.021442473216323234 0 0.03827913251605361 -0.021389243316642825 0 0.038217581203768232 -0.021330191513598776 0 0.038192088229126224 -0.021382489909994026 0 0.038087202849497355 -0.02124483924236293 0 0.038152790176866055 -0.021453404417494486 0 0.038253567257523907 -0.021452135325229861 0 0.038192088229126224 -0.021382489909994026 0 0.03827913251605361 -0.021389243316642825 0 0.038217581203768232 -0.021330191513598776 0 0.038192088229126224 -0.021382489909994026 0 0.038253567257523907 -0.021452135325229861 0 0.03827913251605361 -0.021389243316642825 0 0.038192088229126224 -0.021382489909994026 0 0.038152790176866055 -0.021453404417494486 0 0.038192088229126224 -0.021382489909994026 0 0.038087202849497355 -0.02124483924236293 0 0.038424005066608306 -0.021679333122353164 0 0.038403882739547576 -0.021616135455911983 0 0.038396677179275501 -0.021459248959144868 0 0.038424005066608306 -0.021679333122353164 0 0.038415575547377158 -0.021661943158440746 0 0.038403882739547576 -0.021616135455911983 0 0.034038431004621457 -0.018717228419709256 0 0.031628962378855582 -0.014131277542990553 0 0.038415575547377158 -0.021661943158440746 0 0.038403882739547576 -0.021616135455911983 0 0.038426340952445591 -0.021615736540308125 0 0.038415575547377158 -0.021661943158440746 0 0.038426340952445591 -0.021615736540308125 0 0.03843871682585747 -0.021631484733298106 0 0.038426340952445591 -0.021615736540308125 0 0.038449299317902176 -0.021559191654263881 0 0.03843871682585747 -0.021631484733298106 0 0.038403882739547576 -0.021616135455911983 0 0.038426340952445591 -0.021615736540308125 0 0.038449299317902176 -0.021559191654263881 0 0.038403882739547576 -0.021616135455911983 0 0.038396677179275501 -0.021459248959144868 0 0.038201322577716676 -0.021413443270413828 0 0.035302446556908423 -0.017234713832673106 0 0.033256026394450626 -0.014994839758444133 0 0.025417288375363244 -0.003649144155795819 0 0.02482185140169248 -0.0047966501945466483 0 0.025858529630217397 -0.0050371057422418965 0 0.025622284339187291 -0.0033099227419664621 0 0.02656247304452742 -0.004294494918518489 0 0.026030794552377366 -0.0048259527623221495 0 0.031628962378855582 -0.014131277542990553 0 0.028428381102219916 -0.0071679386674204605 0 0.031628962378855582 -0.014131277542990553 0 0.033256026394450626 -0.014994839758444133 0 0.025622284339187291 -0.0033099227419664621 0 0.02656247304452742 -0.004294494918518489 0 0.026420191261283456 -0.0034357817169627814 0 0.024086879060508 -0.0043829524785914155 0 0.025417288375363244 -0.003649144155795819 0 0.02482185140169248 -0.0047966501945466483 0 0.024086879060508 -0.0043829524785914155 0 0.023755632907816751 -0.0036250059010963934 0 0.025417288375363244 -0.003649144155795819 0 0.035404822450165879 -0.016000474461485805 0 0.036023112931503384 -0.016094906353375432 0 0.038356751188198798 -0.021456778640163727 0 0.038268153834261701 -0.021536029566039411 0 0.038150125985587473 -0.021366524900109252 0 0.034224064561738265 -0.015404182517892585 0 0.03477118133434981 -0.015496096319361493 0 0.034310683958905366 -0.015953638389905447 0 0.036023112931503384 -0.016094906353375432 0 0.033476540655225116 -0.013335990334263057 0 0.035404822450165879 -0.016000474461485805 0 0.033256026394450626 -0.014994839758444133 0 0.034224064561738265 -0.015404182517892585 0 0.033677123721702555 -0.015313336640212087 0 0.034310683958905366 -0.015953638389905447 0 0.033256026394450626 -0.014994839758444133 0 0.033476540655225116 -0.013335990334263057 0 0.02656247304452742 -0.004294494918518489 0 0.026420191261283456 -0.0034357817169627814 0 0.027958106783592011 -0.004892571768308574 0 0.038356751188198798 -0.021456778640163727 0 0.038449299317902176 -0.021559191654263881 0 0.038409858188532417 -0.021586606246541344 0 0.038449299317902176 -0.021559191654263881 0 0.03843871682585747 -0.021631484733298106 0 0.038409858188532417 -0.021586606246541344 0 0.03843871682585747 -0.021631484733298106 0 0.038409858188532417 -0.021586606246541344 0 0.038464173373318138 -0.021689938988262172 0 0.038409858188532417 -0.021586606246541344 0 0.038268153834261701 -0.021536029566039411 0 0.038380852152121621 -0.021656976371577361 0 0.038356751188198798 -0.021456778640163727 0 0.038409858188532417 -0.021586606246541344 0 0.038268153834261701 -0.021536029566039411 0 0.038268153834261701 -0.021536029566039411 0 0.038380852152121621 -0.021656976371577361 0 0.038204872785073826 -0.021674630343122021 0 0.038380852152121621 -0.021656976371577361 0 0.038300436678929559 -0.021804821986783803 0 0.038204872785073826 -0.021674630343122021 0 0.038380852152121621 -0.021656976371577361 0 0.038300436678929559 -0.021804821986783803 0 0.038545322099740688 -0.02176456964194905 0 0.038434498015481024 -0.021677104005457488 0 0.03843871682585747 -0.021631484733298106 0 0.038464173373318138 -0.021689938988262172 0 0.038409858188532417 -0.021586606246541344 0 0.038380852152121621 -0.021656976371577361 0 0.038464173373318138 -0.021689938988262172 0 0.038380852152121621 -0.021656976371577361 0 0.038464173373318138 -0.021689938988262172 0 0.038545322099740688 -0.02176456964194905 0 0.038464173373318138 -0.021689938988262172 0 0.038545322099740688 -0.02176456964194905 0 0.038444853986761861 -0.021697596812573917 0 0.038434498015481024 -0.021677104005457488 0 0.038464173373318138 -0.021689938988262172 0 0.038444853986761861 -0.021697596812573917 0 0.038433407715102952 -0.021593178546203556 0 0.038545322099740688 -0.02176456964194905 0 0.038444853986761861 -0.021697596812573917 0 0.038968273356671732 -0.022381002555147141 0 0.038545322099740688 -0.02176456964194905 0 0.03860707941706594 -0.022183783424047678 0 0.037404623229494817 -0.022750288770525467 0 0.037565653638939205 -0.022487863930974721 0 0.038433407715102952 -0.021593178546203556 0 0.038388405716141258 -0.02163104376696744 0 0.038444853986761861 -0.021697596812573917 0 0.038300436678929559 -0.021804821986783803 0 0.03860707941706594 -0.022183783424047678 0 0.038129113590074135 -0.022029702951672687 0 0.038300436678929559 -0.021804821986783803 0 0.038545322099740688 -0.02176456964194905 0 0.03860707941706594 -0.022183783424047678 0 0.038300436678929559 -0.021804821986783803 0 0.038129113590074135 -0.022029702951672687 0 0.037992900969897644 -0.021828908549364409 0 0.037490274487497567 -0.021721038411001738 0 0.037001647005274453 -0.021633640933397907 0 0.038129113590074135 -0.022029702951672687 0 0.037817680492908262 -0.021975501062951937 0 0.037992900969897644 -0.021828908549364409 0 0.038129113590074135 -0.022029702951672687 0 0.036869539631343561 -0.021829058135349948 0 0.037325635137407012 -0.022868670519468441 0 0.037817680492908262 -0.021975501062951937 0 0.037992900969897644 -0.021828908549364409 0 0.037698455270401145 -0.021746514645588466 0 0.037992900969897644 -0.021828908549364409 0 0.03792958983532118 -0.021537022030429932 0 0.037698455270401145 -0.021746514645588466 0 0.037992900969897644 -0.021828908549364409 0 0.038204872785073826 -0.021674630343122021 0 0.03792958983532118 -0.021537022030429932 0 0.038300436678929559 -0.021804821986783803 0 0.037992900969897644 -0.021828908549364409 0 0.038204872785073826 -0.021674630343122021 0 0.038268153834261701 -0.021536029566039411 0 0.038204872785073826 -0.021674630343122021 0 0.03792958983532118 -0.021537022030429932 0 0.038268153834261701 -0.021536029566039411 0 0.03792958983532118 -0.021537022030429932 0 0.038150125985587473 -0.021366524900109252 0 0.036342433949442761 -0.018544845823210053 0 0.036023112931503384 -0.016094906353375432 0 0.036342433949442761 -0.018544845823210053 0 0.036242789119441024 -0.020086314665387676 0 0.037871514281945434 -0.019109866178003032 0 0.037442643749627996 -0.017782624405555125 0 0.038927892648240266 -0.018033069336587094 0 0.037871514281945434 -0.019109866178003032 0 0.037442643749627996 -0.017782624405555125 0 0.036303895369462102 -0.018790290841783668 0 0.037050836961451214 -0.016508983485198962 0 0.036023112931503384 -0.016094906353375432 0 0.037442643749627996 -0.017782624405555125 0 0.038883152986879319 -0.018002314154345726 0 0.03855531736152662 -0.017024026148957414 0 0.034999970439778844 -0.017556081422348702 0 0.036303895369462102 -0.018790290841783668 0 0.036281219881823222 -0.017262978914231081 0 0.034999970439778844 -0.017556081422348702 0 0.036303895369462102 -0.018790290841783668 0 0.034999995206761517 -0.019394084000963069 0 0.037442643749627996 -0.017782624405555125 0 0.036303895369462102 -0.018790290841783668 0 0.036281219881823222 -0.017262978914231081 0 0.037871514281945434 -0.019109866178003032 0 0.036303895369462102 -0.018790290841783668 0 0.036819896090190471 -0.020188672233378228 0 0.036303895369462102 -0.018790290841783668 0 0.034999995206761517 -0.019394084000963069 0 0.035767354098178265 -0.020175481350694739 0 0.034999995206761517 -0.019394084000963069 0 0.035767354098178265 -0.020175481350694739 0 0.034999991133054915 -0.021232069521449532 0 0.036303895369462102 -0.018790290841783668 0 0.035767354098178265 -0.020175481350694739 0 0.036819896090190471 -0.020188672233378228 0 0.035767354098178265 -0.020175481350694739 0 0.036819896090190471 -0.020188672233378228 0 0.0357647049131763 -0.021265474305559307 0 0.036242789119441024 -0.020086314665387676 0 0.03564494709761714 -0.021372383116846774 0 0.037001647005274453 -0.021633640933397907 0 0.03564494709761714 -0.021372383116846774 0 0.036869539631343561 -0.021829058135349948 0 0.035586759145018021 -0.021650411350199506 0 0.035732854939393058 -0.022324662481511898 0 0.037817680492908262 -0.021975501062951937 0 0.037698455270401145 -0.021746514645588466 0 0.037481541111079465 -0.021957176169549168 0 0.035001462665310061 -0.021232642393333216 0 0.03564494709761714 -0.021372383116846774 0 0.035767354098178265 -0.020175481350694739 0 0.034999991133054915 -0.021232069521449532 0 0.0357647049131763 -0.021265474305559307 0 0.035586759145018021 -0.021650411350199506 0 0.034999803818183683 -0.022046729510310496 0 0.035732854939393058 -0.022324662481511898 0 0.034999998975343283 -0.02123209613559867 0 0.035768873022040383 -0.02127183564723038 0 0.034999999386621093 -0.022045978004089185 0 0.03564494709761714 -0.021372383116846774 0 0.035000986916760075 -0.022044921908107574 0 0.035732854939393058 -0.022324662481511898 0 0.035000047294212661 -0.023293050524546534 0 0.03619072091051307 -0.022944227839788719 0 0.034999803818183683 -0.022046729510310496 0 0.035732854939393058 -0.022324662481511898 0 0.035000047294212661 -0.023293050524546534 0 0.035000047294212661 -0.023293050524546534 0 0.035797254784797436 -0.023970189600608607 0 0.03619072091051307 -0.022944227839788719 0 0.035000047294212661 -0.023293050524546534 0 0.035797254784797436 -0.023970189600608607 0 0.034999099949667531 -0.024539987327759822 0 0.035797254784797436 -0.023970189600608607 0 0.03619072091051307 -0.022944227839788719 0 0.036691785477141248 -0.023577529785199614 0 0.035797254784797436 -0.023970189600608607 0 0.036691785477141248 -0.023577529785199614 0 0.036607688583684662 -0.024641485856812657 0 0.036869539631343561 -0.021829058135349948 0 0.035732854939393058 -0.022324662481511898 0 0.03619072091051307 -0.022944227839788719 0 0.036869539631343561 -0.021829058135349948 0 0.03619072091051307 -0.022944227839788719 0 0.037325635137407012 -0.022868670519468441 0 0.038129113590074135 -0.022029702951672687 0 0.037325635137407012 -0.022868670519468441 0 0.038242713804979164 -0.022837312681438619 0 0.037325635137407012 -0.022868670519468441 0 0.038242713804979164 -0.022837312681438619 0 0.038022380155643007 -0.0239894746253537 0 0.037325635137407012 -0.022868670519468441 0 0.038022380155643007 -0.0239894746253537 0 0.036691785477141248 -0.023577529785199614 0 0.03619072091051307 -0.022944227839788719 0 0.037325635137407012 -0.022868670519468441 0 0.036691785477141248 -0.023577529785199614 0 0.036607688583684662 -0.024641485856812657 0 0.037765677489101049 -0.02527325802132159 0 0.036876568693150313 -0.025662576929102437 0 0.038022380155643007 -0.0239894746253537 0 0.036607688583684662 -0.024641485856812657 0 0.037765677489101049 -0.02527325802132159 0 0.038022380155643007 -0.0239894746253537 0 0.036691785477141248 -0.023577529785199614 0 0.036607688583684662 -0.024641485856812657 0 0.039065170409254502 -0.025912605785423266 0 0.038022380155643007 -0.0239894746253537 0 0.037765677489101049 -0.02527325802132159 0 0.039065170409254502 -0.025912605785423266 0 0.037765677489101049 -0.02527325802132159 0 0.037558405233208851 -0.026334945057337796 0 0.03636489509911589 -0.026551186227595967 0 0.037558405233208851 -0.026334945057337796 0 0.036876568693150313 -0.025662576929102437 0 0.037765677489101049 -0.02527325802132159 0 0.037558405233208851 -0.026334945057337796 0 0.036876568693150313 -0.025662576929102437 0 0.035938126682670525 -0.025605533904894947 0 0.035016189960384976 -0.026035173090565189 0 0.035592261562631913 -0.024906274313896731 0 0.03636489509911589 -0.026551186227595967 0 0.036876568693150313 -0.025662576929102437 0 0.035938126682670525 -0.025605533904894947 0 0.035662252589561939 -0.026604604462150388 0 0.03636489509911589 -0.026551186227595967 0 0.035938126682670525 -0.025605533904894947 0 0.036607688583684662 -0.024641485856812657 0 0.036876568693150313 -0.025662576929102437 0 0.035938126682670525 -0.025605533904894947 0 0.035662252589561939 -0.026604604462150388 0 0.035938126682670525 -0.025605533904894947 0 0.035016189960384976 -0.026035173090565189 0 0.035016189960384976 -0.026035173090565189 0 0.034999099949667531 -0.024539987327759822 0 0.035592261562631913 -0.024906274313896731 0 0.034999800881120376 -0.026452791118562243 0 0.035655290650229959 -0.026076988396395811 0 0.035000078049346427 -0.024540049173363141 0 0.035363603982373433 -0.026150674041477195 0 0.035000100653648371 -0.024542061649104302 0 0.035797254784797436 -0.023970189600608607 0 0.034999099949667531 -0.024539987327759822 0 0.035592261562631913 -0.024906274313896731 0 0.035797254784797436 -0.023970189600608607 0 0.036607688583684662 -0.024641485856812657 0 0.035592261562631913 -0.024906274313896731 0 0.036607688583684662 -0.024641485856812657 0 0.035938126682670525 -0.025605533904894947 0 0.035592261562631913 -0.024906274313896731 0 0.036202333002136704 -0.0099155041926027865 0 0.036662359493616341 -0.010271071811214463 0 0.036844439760041897 -0.0096242840525391036 0 0.036202333002136704 -0.0099155041926027865 0 0.036662359493616341 -0.010271071811214463 0 0.035921546541155466 -0.010690492122100626 0 0.036662359493616341 -0.010271071811214463 0 0.036844439760041897 -0.0096242840525391036 0 0.037371451469256835 -0.010053064045803249 0 0.036662359493616341 -0.010271071811214463 0 0.037371451469256835 -0.010053064045803249 0 0.036800471518622764 -0.011011844161431725 0 0.036662359493616341 -0.010271071811214463 0 0.035921546541155466 -0.010690492122100626 0 0.036800471518622764 -0.011011844161431725 0 0.036202333002136704 -0.0099155041926027865 0 0.035921546541155466 -0.010690492122100626 0 0.034999974855599351 -0.0096626584049512802 0 0.035921546541155466 -0.010690492122100626 0 0.034999974855599351 -0.0096626584049512802 0 0.034999966263221632 -0.011641690443269159 0 0.036202333002136704 -0.0099155041926027865 0 0.034999974855599351 -0.0096626584049512802 0 0.036508785567741273 -0.009017246427706337 0 0.034999974855599351 -0.0096626584049512802 0 0.036508785567741273 -0.009017246427706337 0 0.036011795860498193 -0.0081236963313917401 0 0.036202333002136704 -0.0099155041926027865 0 0.036508785567741273 -0.009017246427706337 0 0.036844439760041897 -0.0096242840525391036 0 0.036508785567741273 -0.009017246427706337 0 0.036844439760041897 -0.0096242840525391036 0 0.037356954609367041 -0.0091346847229560411 0 0.036508785567741273 -0.009017246427706337 0 0.037356954609367041 -0.0091346847229560411 0 0.037087854226875147 -0.0082371236708162314 0 0.037356954609367041 -0.0091346847229560411 0 0.038093008479897106 -0.0094020086265684585 0 0.037961584606682558 -0.0084275441579712111 0 0.037356954609367041 -0.0091346847229560411 0 0.038093008479897106 -0.0094020086265684585 0 0.037371451469256835 -0.010053064045803249 0 0.036844439760041897 -0.0096242840525391036 0 0.037356954609367041 -0.0091346847229560411 0 0.037371451469256835 -0.010053064045803249 0 0.038093008479897106 -0.0094020086265684585 0 0.039161284691619287 -0.0096141520684924764 0 0.038924016013042601 -0.0086817701035317423 0 0.038093008479897106 -0.0094020086265684585 0 0.038924016013042601 -0.0086817701035317423 0 0.037961584606682558 -0.0084275441579712111 0 0.033513155838178363 -0.010958139494162198 0 0.03376266645492159 -0.010019392784008098 0 0.038093008479897106 -0.0094020086265684585 0 0.037792798524526224 -0.010381953433353177 0 0.039161284691619287 -0.0096141520684924764 0 0.031323496343379477 -0.010543775826502139 0 0.031216441393991986 -0.010593568996323573 0 0.031243640873159301 -0.010714377493197322 0 0.031427178767108141 -0.010625516628069868 0 0.031323496343379477 -0.010543775826502139 0 0.031243640873159301 -0.010714377493197322 0 0.033513155838178363 -0.010958139494162198 0 0.031502763029398965 -0.010715127050364691 0 0.033799033989189688 -0.011070042507571227 0 0.033513155838178363 -0.010958139494162198 0 0.038093008479897106 -0.0094020086265684585 0 0.037371451469256835 -0.010053064045803249 0 0.037792798524526224 -0.010381953433353177 0 0.037371451469256835 -0.010053064045803249 0 0.037838721780815078 -0.01043556360933127 0 0.036800471518622764 -0.011011844161431725 0 0.03097234596970027 -0.014797285778474535 0 0.031949323315705595 -0.013696263131891652 0 0.032973643040481643 -0.013763761695776953 0 0.033513155838178363 -0.010958139494162198 0 0.034194289624762939 -0.011487355645340376 0 0.031319801795786535 -0.013455266770788505 0 0.030085913174037044 -0.012812316265292502 0 0.032532948029819472 -0.012764920940647467 0 0.030085913174037044 -0.012812316265292502 0 0.031354647855290171 -0.011156489266327991 0 0.032431239075997251 -0.012774863218453567 0 0.032113173269215985 -0.0122432872376194 0 0.032973474079323391 -0.012150518923610736 0 0.031949323315705595 -0.013696263131891652 0 0.031319801795786535 -0.013455266770788505 0 0.032532948029819472 -0.012764920940647467 0 0.03097234596970027 -0.014797285778474535 0 0.031949323315705595 -0.013696263131891652 0 0.031319801795786535 -0.013455266770788505 0 0.03097234596970027 -0.014797285778474535 0 0.031319801795786535 -0.013455266770788505 0 0.029406507895752027 -0.013535043341841538 0 0.029406507895752027 -0.013535043341841538 0 0.030085913174037044 -0.012812316265292502 0 0.027845797216978878 -0.012268928992239813 0 0.031319801795786535 -0.013455266770788505 0 0.029406507895752027 -0.013535043341841538 0 0.030085913174037044 -0.012812316265292502 0 0.031502763029398965 -0.010715127050364691 0 0.029745231191656112 -0.010229979055024659 0 0.030085913174037044 -0.012812316265292502 0 0.030141736002011574 -0.0092899680584514529 0 0.027845797216978878 -0.012268928992239813 0 0.029681916974695539 -0.010183241304883961 0 0.029745231191656112 -0.010229979055024659 0 0.030141736002011574 -0.0092899680584514529 0 0.028666335648179431 -0.00962967179781179 0 0.028543950463297676 -0.011080607130055311 0 0.030085913174037044 -0.012812316265292502 0 0.031354647855290171 -0.011156489266327991 0 0.030141736002011574 -0.0092899680584514529 0 0.031354647855290171 -0.011156489266327991 0 0.032537923574026691 -0.011208777730812166 0 0.032431239075997251 -0.012774863218453567 0 0.031354647855290171 -0.011156489266327991 0 0.031745107914042649 -0.0097553791739919439 0 0.030141736002011574 -0.0092899680584514529 0 0.031354647855290171 -0.011156489266327991 0 0.032537923574026691 -0.011208777730812166 0 0.031745107914042649 -0.0097553791739919439 0 0.032537923574026691 -0.011208777730812166 0 0.033433523242252169 -0.0096571268542026047 0 0.031745107914042649 -0.0097553791739919439 0 0.03373248104771228 -0.011650847150190099 0 0.032537923574026691 -0.011208777730812166 0 0.033433523242252169 -0.0096571268542026047 0 0.03373248104771228 -0.011650847150190099 0 0.032537923574026691 -0.011208777730812166 0 0.032431239075997251 -0.012774863218453567 0 0.032973474079323391 -0.012150518923610736 0 0.034554776062303234 -0.01186601465204987 0 0.032532948029819472 -0.012764920940647467 0 0.032973643040481643 -0.013763761695776953 0 0.034976569785230567 -0.012726835918450819 0 0.03373248104771228 -0.011650847150190099 0 0.032431239075997251 -0.012774863218453567 0 0.034659784511756664 -0.012685583331434028 0 0.035921546541155466 -0.010690492122100626 0 0.036800471518622764 -0.011011844161431725 0 0.035768829089736456 -0.011597588197193084 0 0.034194289624762939 -0.011487355645340376 0 0.034554776062303234 -0.01186601465204987 0 0.031949323315705595 -0.013696263131891652 0 0.032532948029819472 -0.012764920940647467 0 0.032973643040481643 -0.013763761695776953 0 0.035921546541155466 -0.010690492122100626 0 0.035768829089736456 -0.011597588197193084 0 0.034999966263221632 -0.011641690443269159 0 0.034554776062303234 -0.01186601465204987 0 0.034998811507917199 -0.012041205819224953 0 0.035791200904044418 -0.01163004631783297 0 0.034999996578345488 -0.011641807387730482 0 0.035000001384042502 -0.012042108410206509 0 0.034554776062303234 -0.01186601465204987 0 0.034999209527614913 -0.011642744912880162 0 0.034659784511756664 -0.012685583331434028 0 0.035169380013971505 -0.012115259049111595 0 0.035000405578981368 -0.012041842521363942 0 0.035169380013971505 -0.012115259049111595 0 0.035000405578981368 -0.012041842521363942 0 0.034999723412794212 -0.01388007988320162 0 0.03373248104771228 -0.011650847150190099 0 0.035169380013971505 -0.012115259049111595 0 0.033433523242252169 -0.0096571268542026047 0 0.034756014063575889 -0.011873345207202401 0 0.034568843772562509 -0.01175855569035434 0 0.03373248104771228 -0.011650847150190099 0 0.034659784511756664 -0.012685583331434028 0 0.035169380013971505 -0.012115259049111595 0 0.035169380013971505 -0.012115259049111595 0 0.034999723412794212 -0.01388007988320162 0 0.036493831096223242 -0.013388272001083584 0 0.034999723412794212 -0.01388007988320162 0 0.036493831096223242 -0.013388272001083584 0 0.036357401332411381 -0.01485127652772387 0 0.034568843772562509 -0.01175855569035434 0 0.034147236691427031 -0.011681867260957575 0 0.036493831096223242 -0.013388272001083584 0 0.036357401332411381 -0.01485127652772387 0 0.0376533759234172 -0.014594763106611086 0 0.034999723412794212 -0.01388007988320162 0 0.036357401332411381 -0.01485127652772387 0 0.035000059631661841 -0.015718110160732358 0 0.035000059631661841 -0.015718110160732358 0 0.036604364524764163 -0.016017694211672963 0 0.036281219881823222 -0.017262978914231081 0 0.036357401332411381 -0.01485127652772387 0 0.035000059631661841 -0.015718110160732358 0 0.036604364524764163 -0.016017694211672963 0 0.036357401332411381 -0.01485127652772387 0 0.036604364524764163 -0.016017694211672963 0 0.03761561644005975 -0.015624604031745872 0 0.037442643749627996 -0.017782624405555125 0 0.036281219881823222 -0.017262978914231081 0 0.037736490296034889 -0.01659662601489104 0 0.036604364524764163 -0.016017694211672963 0 0.036281219881823222 -0.017262978914231081 0 0.037736490296034889 -0.01659662601489104 0 0.034999970439778844 -0.017556081422348702 0 0.035000059631661841 -0.015718110160732358 0 0.036281219881823222 -0.017262978914231081 0 0.03855531736152662 -0.017024026148957414 0 0.038789346208366805 -0.015786994538904992 0 0.039913221681576273 -0.016953635939660552 0 0.03855531736152662 -0.017024026148957414 0 0.037736490296034889 -0.01659662601489104 0 0.038789346208366805 -0.015786994538904992 0 0.038883152986879319 -0.018002314154345726 0 0.03855531736152662 -0.017024026148957414 0 0.039913221681576273 -0.016953635939660552 0 0.037442643749627996 -0.017782624405555125 0 0.03855531736152662 -0.017024026148957414 0 0.037736490296034889 -0.01659662601489104 0 0.036604364524764163 -0.016017694211672963 0 0.037736490296034889 -0.01659662601489104 0 0.03761561644005975 -0.015624604031745872 0 0.037736490296034889 -0.01659662601489104 0 0.03761561644005975 -0.015624604031745872 0 0.038789346208366805 -0.015786994538904992 0 0.03761561644005975 -0.015624604031745872 0 0.038789346208366805 -0.015786994538904992 0 0.0376533759234172 -0.014594763106611086 0 0.02950045374180325 -0.0061326228057629164 0 0.029582748653466034 -0.0077352241360053794 0 0.028723974317050167 -0.0071302518388988911 0 0.02950045374180325 -0.0061326228057629164 0 0.029582748653466034 -0.0077352241360053794 0 0.031279903806657516 -0.0076208062065816788 0 0.033681102196103249 -0.011998437532613206 0 0.034147236691427031 -0.011681867260957575 0 0.036357401332411381 -0.01485127652772387 0 0.03761561644005975 -0.015624604031745872 0 0.0376533759234172 -0.014594763106611086 0 0.033433523242252169 -0.0096571268542026047 0 0.031279903806657516 -0.0076208062065816788 0 0.031745107914042649 -0.0097553791739919439 0 0.031279903806657516 -0.0076208062065816788 0 0.031745107914042649 -0.0097553791739919439 0 0.030141736002011574 -0.0092899680584514529 0 0.029582748653466034 -0.0077352241360053794 0 0.030141736002011574 -0.0092899680584514529 0 0.028666335648179431 -0.00962967179781179 0 0.029582748653466034 -0.0077352241360053794 0 0.031279903806657516 -0.0076208062065816788 0 0.030141736002011574 -0.0092899680584514529 0 0.027773791898593542 -0.00909541123441681 0 0.028077039220222165 -0.0079809716711432624 0 0.028666335648179431 -0.00962967179781179 0 0.029582748653466034 -0.0077352241360053794 0 0.028077039220222165 -0.0079809716711432624 0 0.028666335648179431 -0.00962967179781179 0 0.027773791898593542 -0.00909541123441681 0 0.027107254561245089 -0.0085595333239800973 0 0.028077039220222165 -0.0079809716711432624 0 0.027107254561245089 -0.0085595333239800973 0 0.025871138090600172 -0.0085291420554788281 0 0.027196009752591975 -0.0099562790384740991 0 0.027402735385194148 -0.0089736865061164975 0 0.028032913097840766 -0.0093432771648907283 0 0.027773791898593542 -0.00909541123441681 0 0.027107254561245089 -0.0085595333239800973 0 0.027196009752591975 -0.0099562790384740991 0 0.027107254561245089 -0.0085595333239800973 0 0.027020847525240737 -0.007652512508823873 0 0.028077039220222165 -0.0079809716711432624 0 0.027107254561245089 -0.0085595333239800973 0 0.027020847525240737 -0.007652512508823873 0 0.025871138090600172 -0.0085291420554788281 0 0.027020847525240737 -0.007652512508823873 0 0.027764490282841017 -0.0066648103368462533 0 0.026369452922617786 -0.0065269319491956281 0 0.027020847525240737 -0.007652512508823873 0 0.026369452922617786 -0.0065269319491956281 0 0.025871138090600172 -0.0085291420554788281 0 0.029582748653466034 -0.0077352241360053794 0 0.028077039220222165 -0.0079809716711432624 0 0.028723974317050167 -0.0071302518388988911 0 0.027020847525240737 -0.007652512508823873 0 0.028077039220222165 -0.0079809716711432624 0 0.027764490282841017 -0.0066648103368462533 0 0.028077039220222165 -0.0079809716711432624 0 0.028723974317050167 -0.0071302518388988911 0 0.027764490282841017 -0.0066648103368462533 0 0.033681102196103249 -0.011998437532613206 0 0.033476540655225116 -0.013335990334263057 0 0.02950045374180325 -0.0061326228057629164 0 0.028019860730265047 -0.0057238563482668306 0 0.028009234385495255 -0.0048314514394450052 0 0.02950045374180325 -0.0061326228057629164 0 0.028723974317050167 -0.0071302518388988911 0 0.027764490282841017 -0.0066648103368462533 0 0.02950045374180325 -0.0061326228057629164 0 0.028019860730265047 -0.0057238563482668306 0 0.027764490282841017 -0.0066648103368462533 0 0.028019860730265047 -0.0057238563482668306 0 0.027764490282841017 -0.0066648103368462533 0 0.027179854389241496 -0.0058424533724206864 0 0.028019860730265047 -0.0057238563482668306 0 0.027179854389241496 -0.0058424533724206864 0 0.027692168000412867 -0.0051565956376007195 0 0.027764490282841017 -0.0066648103368462533 0 0.026369452922617786 -0.0065269319491956281 0 0.027179854389241496 -0.0058424533724206864 0 0.026369452922617786 -0.0065269319491956281 0 0.027179854389241496 -0.0058424533724206864 0 0.02684143807034943 -0.0050246596959667234 0 0.02656247304452742 -0.004294494918518489 0 0.02684143807034943 -0.0050246596959667234 0 0.027958106783592011 -0.004892571768308574 0 0.02684143807034943 -0.0050246596959667234 0 0.027958106783592011 -0.004892571768308574 0 0.027692168000412867 -0.0051565956376007195 0 0.026369452922617786 -0.0065269319491956281 0 0.02684143807034943 -0.0050246596959667234 0 0.026030794552377366 -0.0048259527623221495 0 0.027179854389241496 -0.0058424533724206864 0 0.02684143807034943 -0.0050246596959667234 0 0.027692168000412867 -0.0051565956376007195 0 0.02656247304452742 -0.004294494918518489 0 0.02684143807034943 -0.0050246596959667234 0 0.026030794552377366 -0.0048259527623221495 0 0.028019860730265047 -0.0057238563482668306 0 0.028009234385495255 -0.0048314514394450052 0 0.027692168000412867 -0.0051565956376007195 0 0.033476540655225116 -0.013335990334263057 0 0.03345523470963891 -0.013196769832206232 0 0.024086879060508 -0.0043829524785914155 0 0.02482185140169248 -0.0047966501945466483 0 0.02399080708955446 -0.0054580911750300868 0 0.024966492640252597 -0.0055132334265318205 0 0.02482185140169248 -0.0047966501945466483 0 0.02399080708955446 -0.0054580911750300868 0 0.024966492640252597 -0.0055132334265318205 0 0.02482185140169248 -0.0047966501945466483 0 0.025858529630217397 -0.0050371057422418965 0 0.027853390536588096 -0.0063826348928437268 0 0.028428381102219916 -0.0071679386674204605 0 0.026369452922617786 -0.0065269319491956281 0 0.024966492640252597 -0.0055132334265318205 0 0.024417493407022116 -0.0064337544570201768 0 0.026369452922617786 -0.0065269319491956281 0 0.024966492640252597 -0.0055132334265318205 0 0.025858529630217397 -0.0050371057422418965 0 0.024966492640252597 -0.0055132334265318205 0 0.024417493407022116 -0.0064337544570201768 0 0.02399080708955446 -0.0054580911750300868 0 0.024417493407022116 -0.0064337544570201768 0 0.024917852634653306 -0.0076822536460769853 0 0.023640457991507501 -0.0080445157428093248 0 0.026369452922617786 -0.0065269319491956281 0 0.024417493407022116 -0.0064337544570201768 0 0.024917852634653306 -0.0076822536460769853 0 0.026369452922617786 -0.0065269319491956281 0 0.024917852634653306 -0.0076822536460769853 0 0.025871138090600172 -0.0085291420554788281 0 0.024917852634653306 -0.0076822536460769853 0 0.025871138090600172 -0.0085291420554788281 0 0.024668373866740347 -0.008769490931068968 0 0.024917852634653306 -0.0076822536460769853 0 0.024668373866740347 -0.008769490931068968 0 0.023640457991507501 -0.0080445157428093248 0 0.024668373866740347 -0.008769490931068968 0 0.024766762330952818 -0.010079242280246389 0 0.025489792839547838 -0.0093751644890106376 0 0.024668373866740347 -0.008769490931068968 0 0.024766762330952818 -0.010079242280246389 0 0.02393770882775657 -0.0094314268238373036 0 0.024766762330952818 -0.010079242280246389 0 0.025808466549427617 -0.010057362429245152 0 0.025315604742533922 -0.011073437381854481 0 0.024766762330952818 -0.010079242280246389 0 0.025808466549427617 -0.010057362429245152 0 0.025489792839547838 -0.0093751644890106376 0 0.025871138090600172 -0.0085291420554788281 0 0.025489792839547838 -0.0093751644890106376 0 0.026057092502095893 -0.0093145691175237234 0 0.025871138090600172 -0.0085291420554788281 0 0.024668373866740347 -0.008769490931068968 0 0.025489792839547838 -0.0093751644890106376 0 0.025808466549427617 -0.010057362429245152 0 0.025489792839547838 -0.0093751644890106376 0 0.026057092502095893 -0.0093145691175237234 0 0.025871138090600172 -0.0085291420554788281 0 0.026558332613319368 -0.0091045345412312014 0 0.026057092502095893 -0.0093145691175237234 0 0.026558332613319368 -0.0091045345412312014 0 0.026567144468071551 -0.0095864688973007935 0 0.026057092502095893 -0.0093145691175237234 0 0.027773791898593542 -0.00909541123441681 0 0.027196009752591975 -0.0099562790384740991 0 0.028666335648179431 -0.00962967179781179 0 0.027196009752591975 -0.0099562790384740991 0 0.028666335648179431 -0.00962967179781179 0 0.028543950463297676 -0.011080607130055311 0 0.028032913097840766 -0.0093432771648907283 0 0.029745231191656112 -0.010229979055024659 0 0.026558332613319368 -0.0091045345412312014 0 0.026567144468071551 -0.0095864688973007935 0 0.027331382477108989 -0.0097182276430229607 0 0.031323496343379477 -0.010543775826502139 0 0.031222035396367784 -0.010463862813570363 0 0.031216441393991986 -0.010593568996323573 0 0.031222035396367784 -0.010463862813570363 0 0.031076877684692108 -0.010652068761812074 0 0.031216441393991986 -0.010593568996323573 0 0.029745231191656112 -0.010229979055024659 0 0.028781129567791545 -0.010733316872835724 0 0.026567144468071551 -0.0095864688973007935 0 0.027331382477108989 -0.0097182276430229607 0 0.026459160650955379 -0.010865135005372752 0 0.028284377292462626 -0.010376587712769569 0 0.028781129567791545 -0.010733316872835724 0 0.025808466549427617 -0.010057362429245152 0 0.026567144468071551 -0.0095864688973007935 0 0.02646673264912781 -0.010956516751708721 0 0.025808466549427617 -0.010057362429245152 0 0.026567144468071551 -0.0095864688973007935 0 0.026057092502095893 -0.0093145691175237234 0 0.031076877684692108 -0.010652068761812074 0 0.031216441393991986 -0.010593568996323573 0 0.031243640873159301 -0.010714377493197322 0 0.03376266645492159 -0.010019392784008098 0 0.030798792237989557 -0.010276721497227375 0 0.031076877684692108 -0.010652068761812074 0 0.031243640873159301 -0.010714377493197322 0 0.031062544632879312 -0.010802726426129164 0 0.039161284691619287 -0.0096141520684924764 0 0.040498055154900979 -0.0088788617690929057 0 0.038924016013042601 -0.0086817701035317423 0 0.026542383143096007 -0.010919049594563498 0 0.026434502460417036 -0.011998061408324021 0 0.025662171105522893 -0.012071709609775468 0 0.028781129567791545 -0.010733316872835724 0 0.027571284363204801 -0.011715961150119155 0 0.028781129567791545 -0.010733316872835724 0 0.030798792237989557 -0.010276721497227375 0 0.02646673264912781 -0.010956516751708721 0 0.025662171105522893 -0.012071709609775468 0 0.025315604742533922 -0.011073437381854481 0 0.025662171105522893 -0.012071709609775468 0 0.024850739133629323 -0.011974895369751989 0 0.025315604742533922 -0.011073437381854481 0 0.024266488105847792 -0.011305193128130685 0 0.024850739133629323 -0.011974895369751989 0 0.023920879708647338 -0.012472310169854587 0 0.024266488105847792 -0.011305193128130685 0 0.024850739133629323 -0.011974895369751989 0 0.025315604742533922 -0.011073437381854481 0 0.024766762330952818 -0.010079242280246389 0 0.024266488105847792 -0.011305193128130685 0 0.023517380188280736 -0.010309475868436092 0 0.024766762330952818 -0.010079242280246389 0 0.024266488105847792 -0.011305193128130685 0 0.025315604742533922 -0.011073437381854481 0 0.025808466549427617 -0.010057362429245152 0 0.02646673264912781 -0.010956516751708721 0 0.025315604742533922 -0.011073437381854481 0 0.023178128667944466 -0.011468541869807553 0 0.02197475090191171 -0.011627364281976334 0 0.021984039996433773 -0.010415772604724007 0 0.023178128667944466 -0.011468541869807553 0 0.021984039996433773 -0.010415772604724007 0 0.023517380188280736 -0.010309475868436092 0 0.024266488105847792 -0.011305193128130685 0 0.023178128667944466 -0.011468541869807553 0 0.023517380188280736 -0.010309475868436092 0 0.024266488105847792 -0.011305193128130685 0 0.023178128667944466 -0.011468541869807553 0 0.023920879708647338 -0.012472310169854587 0 0.023178128667944466 -0.011468541869807553 0 0.02197475090191171 -0.011627364281976334 0 0.022712393663978564 -0.012633284851985407 0 0.02197475090191171 -0.011627364281976334 0 0.020809924611721698 -0.012069606171717545 0 0.021699167315187739 -0.012615177860809861 0 0.02197475090191171 -0.011627364281976334 0 0.020809924611721698 -0.012069606171717545 0 0.02043933925715959 -0.010544103098299154 0 0.020809924611721698 -0.012069606171717545 0 0.02043933925715959 -0.010544103098299154 0 0.019782528606177539 -0.011708775279891179 0 0.02197475090191171 -0.011627364281976334 0 0.02043933925715959 -0.010544103098299154 0 0.021984039996433773 -0.010415772604724007 0 0.021984039996433773 -0.010415772604724007 0 0.020983495918561496 -0.0092440379485655439 0 0.022730588707076737 -0.008960110546174023 0 0.02043933925715959 -0.010544103098299154 0 0.020983495918561496 -0.0092440379485655439 0 0.019294433095977493 -0.0092956933458226386 0 0.02043933925715959 -0.010544103098299154 0 0.021984039996433773 -0.010415772604724007 0 0.020983495918561496 -0.0092440379485655439 0 0.020983495918561496 -0.0092440379485655439 0 0.021394160215377808 -0.0080035794987385039 0 0.019661800328301175 -0.0077260072898265118 0 0.020983495918561496 -0.0092440379485655439 0 0.022730588707076737 -0.008960110546174023 0 0.021394160215377808 -0.0080035794987385039 0 0.021984039996433773 -0.010415772604724007 0 0.022907383238450194 -0.0092620291871909222 0 0.023517380188280736 -0.010309475868436092 0 0.022458870959830846 -0.0096950607760320478 0 0.02286300053500856 -0.009027737700960695 0 0.022907383238450194 -0.0092620291871909222 0 0.023517380188280736 -0.010309475868436092 0 0.02393770882775657 -0.0094314268238373036 0 0.024766762330952818 -0.010079242280246389 0 0.023517380188280736 -0.010309475868436092 0 0.02393770882775657 -0.0094314268238373036 0 0.024668373866740347 -0.008769490931068968 0 0.02393770882775657 -0.0094314268238373036 0 0.023640457991507501 -0.0080445157428093248 0 0.022907383238450194 -0.0092620291871909222 0 0.02393770882775657 -0.0094314268238373036 0 0.023640457991507501 -0.0080445157428093248 0 0.02286300053500856 -0.009027737700960695 0 0.02353655485164757 -0.0079074655763357454 0 0.022730588707076737 -0.008960110546174023 0 0.022446333616123151 -0.0075288419272755329 0 0.021394160215377808 -0.0080035794987385039 0 0.022730588707076737 -0.008960110546174023 0 0.023526779009860801 -0.0076654385562189079 0 0.022446333616123151 -0.0075288419272755329 0 0.023526779009860801 -0.0076654385562189079 0 0.022446333616123151 -0.0075288419272755329 0 0.022837823511108878 -0.0061923345304713846 0 0.022446333616123151 -0.0075288419272755329 0 0.022837823511108878 -0.0061923345304713846 0 0.021731306918269543 -0.0068236738457445722 0 0.023948760617208069 -0.0072161537635124593 0 0.02353655485164757 -0.0079074655763357454 0 0.024417493407022116 -0.0064337544570201768 0 0.023526779009860801 -0.0076654385562189079 0 0.022837823511108878 -0.0061923345304713846 0 0.024417493407022116 -0.0064337544570201768 0 0.022837823511108878 -0.0061923345304713846 0 0.02399080708955446 -0.0054580911750300868 0 0.022187118906372479 -0.0044389885702052776 0 0.022837823511108878 -0.0061923345304713846 0 0.023292639187691633 -0.0047767954173806903 0 0.022837823511108878 -0.0061923345304713846 0 0.023292639187691633 -0.0047767954173806903 0 0.02399080708955446 -0.0054580911750300868 0 0.024086879060508 -0.0043829524785914155 0 0.023292639187691633 -0.0047767954173806903 0 0.02399080708955446 -0.0054580911750300868 0 0.020109082519547773 -0.0051245251694972726 0 0.02068969892486943 -0.0061041687985272835 0 0.019338641377263467 -0.0060132981099925388 0 0.022187118906372479 -0.0044389885702052776 0 0.022837823511108878 -0.0061923345304713846 0 0.021387617620271571 -0.0055607864525896106 0 0.023852944993050393 -0.0084194257809248971 0 0.02250536016236691 -0.0073076682064766203 0 0.020109082519547773 -0.0051245251694972726 0 0.021244979348713604 -0.0053068016642107904 0 0.02068969892486943 -0.0061041687985272835 0 0.021387617620271571 -0.0055607864525896106 0 0.020567629452551139 -0.0066234946757891509 0 0.021731306918269543 -0.0068236738457445722 0 0.022837823511108878 -0.0061923345304713846 0 0.021387617620271571 -0.0055607864525896106 0 0.021731306918269543 -0.0068236738457445722 0 0.02068969892486943 -0.0061041687985272835 0 0.020142381949090335 -0.0069147384052648166 0 0.019338641377263467 -0.0060132981099925388 0 0.02250536016236691 -0.0073076682064766203 0 0.02142951142234251 -0.007438449255252888 0 0.020567629452551139 -0.0066234946757891509 0 0.021731306918269543 -0.0068236738457445722 0 0.021394160215377808 -0.0080035794987385039 0 0.022446333616123151 -0.0075288419272755329 0 0.021731306918269543 -0.0068236738457445722 0 0.021394160215377808 -0.0080035794987385039 0 0.020567629452551139 -0.0066234946757891509 0 0.021394160215377808 -0.0080035794987385039 0 0.019661800328301175 -0.0077260072898265118 0 0.019661800328301175 -0.0077260072898265118 0 0.018144513495408403 -0.0074125749010006872 0 0.018574695205546186 -0.008299973611852144 0 0.019661800328301175 -0.0077260072898265118 0 0.019095634067703308 -0.0068929633775595698 0 0.018144513495408403 -0.0074125749010006872 0 0.020142381949090335 -0.0069147384052648166 0 0.019661800328301175 -0.0077260072898265118 0 0.019095634067703308 -0.0068929633775595698 0 0.02142951142234251 -0.007438449255252888 0 0.020958830861882279 -0.0077025625029619972 0 0.020142381949090335 -0.0069147384052648166 0 0.019095634067703308 -0.0068929633775595698 0 0.019338641377263467 -0.0060132981099925388 0 0.019095634067703308 -0.0068929633775595698 0 0.019338641377263467 -0.0060132981099925388 0 0.018114424269169385 -0.006614070825087629 0 0.018894289424668476 -0.0048763301601825884 0 0.019338641377263467 -0.0060132981099925388 0 0.018033148373282962 -0.0056472686640858605 0 0.019338641377263467 -0.0060132981099925388 0 0.018033148373282962 -0.0056472686640858605 0 0.018114424269169385 -0.006614070825087629 0 0.016969207865754066 -0.0057969909296121834 0 0.016987653538128054 -0.0061738731844645798 0 0.01746098344030347 -0.0061043642424989811 0 0.016987653538128054 -0.0061738731844645798 0 0.01746098344030347 -0.0061043642424989811 0 0.017109996722683367 -0.0065451727629785997 0 0.018593936994690849 -0.0068796523578549132 0 0.018154236840655168 -0.0069051181428794869 0 0.018033148373282962 -0.0056472686640858605 0 0.018114424269169385 -0.006614070825087629 0 0.017109996722683367 -0.0065451727629785997 0 0.018114424269169385 -0.006614070825087629 0 0.017109996722683367 -0.0065451727629785997 0 0.016962125709524906 -0.0071173510959138689 0 0.018144513495408403 -0.0074125749010006872 0 0.017354404163163851 -0.0078637304417843185 0 0.016981498804750771 -0.0070094462982707188 0 0.017440671042059638 -0.0072206934722153209 0 0.016935595862212199 -0.0070719235492069142 0 0.018114424269169385 -0.006614070825087629 0 0.018144513495408403 -0.0074125749010006872 0 0.016962125709524906 -0.0071173510959138689 0 0.019095634067703308 -0.0068929633775595698 0 0.018114424269169385 -0.006614070825087629 0 0.018144513495408403 -0.0074125749010006872 0 0.018144513495408403 -0.0074125749010006872 0 0.017354404163163851 -0.0078637304417843185 0 0.018574695205546186 -0.008299973611852144 0 0.017354404163163851 -0.0078637304417843185 0 0.017667830027352827 -0.0091065334517843044 0 0.016378401713937497 -0.0080225809175286707 0 0.017354404163163851 -0.0078637304417843185 0 0.017667830027352827 -0.0091065334517843044 0 0.018574695205546186 -0.008299973611852144 0 0.017667830027352827 -0.0091065334517843044 0 0.019294433095977493 -0.0092956933458226386 0 0.018506159410478347 -0.010104389600340394 0 0.017667830027352827 -0.0091065334517843044 0 0.018574695205546186 -0.008299973611852144 0 0.019294433095977493 -0.0092956933458226386 0 0.019661800328301175 -0.0077260072898265118 0 0.018574695205546186 -0.008299973611852144 0 0.019294433095977493 -0.0092956933458226386 0 0.020983495918561496 -0.0092440379485655439 0 0.019661800328301175 -0.0077260072898265118 0 0.019294433095977493 -0.0092956933458226386 0 0.019292768441939282 -0.0099414926032904589 0 0.019232663141313087 -0.010332111596330726 0 0.02043933925715959 -0.010544103098299154 0 0.019294433095977493 -0.0092956933458226386 0 0.018446824791051371 -0.01107823943671021 0 0.02043933925715959 -0.010544103098299154 0 0.018446824791051371 -0.01107823943671021 0 0.019782528606177539 -0.011708775279891179 0 0.020809924611721698 -0.012069606171717545 0 0.019782528606177539 -0.011708775279891179 0 0.020040044965733028 -0.012622621600390849 0 0.018446824791051371 -0.01107823943671021 0 0.019782528606177539 -0.011708775279891179 0 0.019092638831132044 -0.012431749915393338 0 0.018446824791051371 -0.01107823943671021 0 0.018365726532304925 -0.012465421672003761 0 0.019092638831132044 -0.012431749915393338 0 0.018446824791051371 -0.01107823943671021 0 0.017607387420950756 -0.012724338942773476 0 0.018365726532304925 -0.012465421672003761 0 0.019232663141313087 -0.010332111596330726 0 0.020770082220255892 -0.0086175335663604274 0 0.017341053150748326 -0.010466953151991832 0 0.017738998058172334 -0.010032217581252497 0 0.017844201328690943 -0.011039212852390849 0 0.018506159410478347 -0.010104389600340394 0 0.017738998058172334 -0.010032217581252497 0 0.017844201328690943 -0.011039212852390849 0 0.017341053150748326 -0.010466953151991832 0 0.017070268943433775 -0.0098734355824538298 0 0.017738998058172334 -0.010032217581252497 0 0.017341053150748326 -0.010466953151991832 0 0.017070268943433775 -0.0098734355824538298 0 0.01682911346055745 -0.010505075831446978 0 0.017667830027352827 -0.0091065334517843044 0 0.017070268943433775 -0.0098734355824538298 0 0.017738998058172334 -0.010032217581252497 0 0.017667830027352827 -0.0091065334517843044 0 0.018506159410478347 -0.010104389600340394 0 0.017738998058172334 -0.010032217581252497 0 0.0180321638662433 -0.010057291824601909 0 0.017890203670646414 -0.010196755663140399 0 0.018021227494617549 -0.010679014351013583 0 0.0177699913853538 -0.010386869658020196 0 0.017853932998012686 -0.010000397659502721 0 0.017314206388408224 -0.010670369975194943 0 0.017799151060316789 -0.0097779800406898251 0 0.017853932998012686 -0.010000397659502721 0 0.017314206388408224 -0.010670369975194943 0 0.0177699913853538 -0.010386869658020196 0 0.018021227494617549 -0.010679014351013583 0 0.017314206388408224 -0.010670369975194943 0 0.017890203670646414 -0.010196755663140399 0 0.0177699913853538 -0.010386869658020196 0 0.017853932998012686 -0.010000397659502721 0 0.022855733566912787 -0.0065565610502687473 0 0.022705934865977762 -0.0065594360078303788 0 0.0180321638662433 -0.010057291824601909 0 0.017890203670646414 -0.010196755663140399 0 0.017853932998012686 -0.010000397659502721 0 0.017890203670646414 -0.010196755663140399 0 0.0177699913853538 -0.010386869658020196 0 0.018021227494617549 -0.010679014351013583 0 0.020770082220255892 -0.0086175335663604274 0 0.018355449156001666 -0.010964957823073745 0 0.017021250686932665 -0.010859571100194653 0 0.01753996259212184 -0.010743965350505622 0 0.017174759290471985 -0.011355217199858554 0 0.017021250686932665 -0.010859571100194653 0 0.017203240489550249 -0.010652038861643242 0 0.01753996259212184 -0.010743965350505622 0 0.017341053150748326 -0.010466953151991832 0 0.017203240489550249 -0.010652038861643242 0 0.01682911346055745 -0.010505075831446978 0 0.017021250686932665 -0.010859571100194653 0 0.017203240489550249 -0.010652038861643242 0 0.01682911346055745 -0.010505075831446978 0 0.017341053150748326 -0.010466953151991832 0 0.017203240489550249 -0.010652038861643242 0 0.01753996259212184 -0.010743965350505622 0 0.020288102170147281 -0.0087106668165684888 0 0.020770082220255892 -0.0086175335663604274 0 0.017999850627675184 -0.01318246430439092 0 0.017607387420950756 -0.012724338942773476 0 0.018365726532304925 -0.012465421672003761 0 0.018041118838387882 -0.010054151553378222 0 0.017799151060316789 -0.0097779800406898251 0 0.017853932998012686 -0.010000397659502721 0 0.022855733566912787 -0.0065565610502687473 0 0.020770082220255892 -0.0086175335663604274 0 0.017999850627675184 -0.01318246430439092 0 0.019092638831132044 -0.012431749915393338 0 0.01971361060448161 -0.013701122776060838 0 0.017999850627675184 -0.01318246430439092 0 0.018365726532304925 -0.012465421672003761 0 0.019092638831132044 -0.012431749915393338 0 0.019092638831132044 -0.012431749915393338 0 0.020040044965733028 -0.012622621600390849 0 0.01971361060448161 -0.013701122776060838 0 0.019782528606177539 -0.011708775279891179 0 0.019092638831132044 -0.012431749915393338 0 0.020040044965733028 -0.012622621600390849 0 0.020040044965733028 -0.012622621600390849 0 0.01971361060448161 -0.013701122776060838 0 0.020793714863305449 -0.013200880951935851 0 0.0180321638662433 -0.010057291824601909 0 0.018667703658489618 -0.010818344632120638 0 0.018021227494617549 -0.010679014351013583 0 0.033195313611473994 0.0021237759416819877 0 0.033625622884627254 0.0020319460232538808 0 0.033497364226764213 0.0018653885482084629 0 0.022855733566912787 -0.0065565610502687473 0 0.026128268868171899 -0.0062531564992568634 0 0.022855733566912787 -0.0065565610502687473 0 0.025905532335393309 -0.0047506801175181898 0 0.018667703658489618 -0.010818344632120638 0 0.018302599060838576 -0.011158526126426736 0 0.018021227494617549 -0.010679014351013583 0 0.018667703658489618 -0.010818344632120638 0 0.018826834851495344 -0.011405684742669269 0 0.018621105690276689 -0.011217674384046635 0 0.018667703658489618 -0.010818344632120638 0 0.018302599060838576 -0.011158526126426736 0 0.018621105690276689 -0.011217674384046635 0 0.033497364226764213 0.0018653885482084629 0 0.033743701226839076 0.0018825048889526182 0 0.033722591190734987 0.0018129893153703168 0 0.025905532335393309 -0.0047506801175181898 0 0.029089605443343765 -0.0033994763653829385 0 0.033625622884627254 0.0020319460232538808 0 0.033497364226764213 0.0018653885482084629 0 0.033743701226839076 0.0018825048889526182 0 0.033497364226764213 0.0018653885482084629 0 0.033722591190734987 0.0018129893153703168 0 0.033771137165538444 0.0017029001442803509 0 0.033497364226764213 0.0018653885482084629 0 0.033772114608171803 0.0016864318724384452 0 0.033771137165538444 0.0017029001442803509 0 0.018667703658489618 -0.010818344632120638 0 0.018826834851495344 -0.011405684742669269 0 0.019293538798494506 -0.011552363438786732 0 0.018826834851495344 -0.011405684742669269 0 0.018755937688482268 -0.011712437869378955 0 0.018987826448953162 -0.011716136761367924 0 0.018826834851495344 -0.011405684742669269 0 0.018987826448953162 -0.011716136761367924 0 0.019293538798494506 -0.011552363438786732 0 0.029089605443343765 -0.0033994763653829385 0 0.029094988214982239 -0.0033795386539164354 0 0.018302599060838576 -0.011158526126426736 0 0.018563728865649179 -0.011483203848612428 0 0.018144897468691083 -0.011606446965519303 0 0.018302599060838576 -0.011158526126426736 0 0.018621105690276689 -0.011217674384046635 0 0.018563728865649179 -0.011483203848612428 0 0.018826834851495344 -0.011405684742669269 0 0.018621105690276689 -0.011217674384046635 0 0.018563728865649179 -0.011483203848612428 0 0.018755937688482268 -0.011712437869378955 0 0.018563728865649179 -0.011483203848612428 0 0.018497693426430425 -0.011879190831890917 0 0.018826834851495344 -0.011405684742669269 0 0.018755937688482268 -0.011712437869378955 0 0.018563728865649179 -0.011483203848612428 0 0.018563728865649179 -0.011483203848612428 0 0.018144897468691083 -0.011606446965519303 0 0.018497693426430425 -0.011879190831890917 0 0.018302599060838576 -0.011158526126426736 0 0.017712648682732948 -0.011253894282054831 0 0.018144897468691083 -0.011606446965519303 0 0.017712648682732948 -0.011253894282054831 0 0.018144897468691083 -0.011606446965519303 0 0.017619792690972472 -0.011897016757982572 0 0.018302599060838576 -0.011158526126426736 0 0.017712648682732948 -0.011253894282054831 0 0.018021227494617549 -0.010679014351013583 0 0.017712648682732948 -0.011253894282054831 0 0.018021227494617549 -0.010679014351013583 0 0.017314206388408224 -0.010670369975194943 0 0.018355449156001666 -0.010964957823073745 0 0.017387708502372624 -0.011843793298956563 0 0.017712648682732948 -0.011253894282054831 0 0.017314206388408224 -0.010670369975194943 0 0.016841516320933662 -0.011577691654720324 0 0.017712648682732948 -0.011253894282054831 0 0.017619792690972472 -0.011897016757982572 0 0.016841516320933662 -0.011577691654720324 0 0.017152862240551965 -0.012390451554213413 0 0.017619792690972472 -0.011897016757982572 0 0.016841516320933662 -0.011577691654720324 0 0.017152862240551965 -0.012390451554213413 0 0.017619792690972472 -0.011897016757982572 0 0.017775339673619422 -0.012553554002550763 0 0.018088746041385221 -0.012052726990836758 0 0.017619792690972472 -0.011897016757982572 0 0.017775339673619422 -0.012553554002550763 0 0.018088746041385221 -0.012052726990836758 0 0.017775339673619422 -0.012553554002550763 0 0.018474581459599453 -0.012439573169451101 0 0.018144897468691083 -0.011606446965519303 0 0.018088746041385221 -0.012052726990836758 0 0.017619792690972472 -0.011897016757982572 0 0.017775339673619422 -0.012553554002550763 0 0.017237199257756394 -0.013016412530192206 0 0.01776934448364945 -0.013122705892994914 0 0.017775339673619422 -0.012553554002550763 0 0.01776934448364945 -0.013122705892994914 0 0.018179912003077503 -0.012922847372536584 0 0.017152862240551965 -0.012390451554213413 0 0.017775339673619422 -0.012553554002550763 0 0.017237199257756394 -0.013016412530192206 0 0.017152862240551965 -0.012390451554213413 0 0.017237199257756394 -0.013016412530192206 0 0.016783141976981598 -0.012892996721877409 0 0.017237199257756394 -0.013016412530192206 0 0.017346924879225886 -0.013304283410323577 0 0.016789626211622707 -0.013175160371612262 0 0.018438312876144725 -0.0072866761991770982 0 0.017940417348867626 -0.0082129676021759218 0 0.017237199257756394 -0.013016412530192206 0 0.01776934448364945 -0.013122705892994914 0 0.017442346043800818 -0.013513723008997698 0 0.018683295720241549 -0.0085847125570856168 0 0.018438312876144725 -0.0072866761991770982 0 0.01776934448364945 -0.013122705892994914 0 0.018299619317177173 -0.013605919627403118 0 0.018179912003077503 -0.012922847372536584 0 0.01776934448364945 -0.013122705892994914 0 0.017442346043800818 -0.013513723008997698 0 0.018299619317177173 -0.013605919627403118 0 0.014775913572455519 0.0023857761372700604 0 0.012663765795806447 0.0044323639676624206 0 0.016031771126912578 0.0040348378155827839 0 0.018438312876144725 -0.0072866761991770982 0 0.019080274952667758 -0.0049915757066861062 0 0.016642709540030984 -0.012234920124681891 0 0.0165150068134737 -0.012946969719682313 0 0.016229100586914406 -0.011498239601914538 0 0.014775913572455519 0.0023857761372700604 0 0.012663765795806447 0.0044323639676624206 0 0.014040863966109105 0.00056199463752125661 0 0.018438312876144725 -0.0072866761991770982 0 0.016640026805119095 -0.0059872336614457808 0 0.016770308435045622 -0.01279489888195455 0 0.0165150068134737 -0.012946969719682313 0 0.016789626211622707 -0.013175160371612262 0 0.016642709540030984 -0.012234920124681891 0 0.016770308435045622 -0.01279489888195455 0 0.016856749151205115 -0.012085855475773247 0 0.016642709540030984 -0.012234920124681891 0 0.016770308435045622 -0.01279489888195455 0 0.0165150068134737 -0.012946969719682313 0 0.019521051131542837 0.0035895609944492581 0 0.016031771126912578 0.0040348378155827839 0 0.017777208433357578 0.0015811630487501801 0 0.023989540791953149 -0.0032292202567558272 0 0.019080274952667758 -0.0049915757066861062 0 0.016031771126912578 0.0040348378155827839 0 0.016083749879673044 0.001813758669113765 0 0.017777208433357578 0.0015811630487501801 0 0.014775913572455519 0.0023857761372700604 0 0.016031771126912578 0.0040348378155827839 0 0.016083749879673044 0.001813758669113765 0 0.01913302311588163 -0.013690276034142171 0 0.018299619317177173 -0.013605919627403118 0 0.01865937393909689 -0.013056877658636425 0 0.018299619317177173 -0.013605919627403118 0 0.018179912003077503 -0.012922847372536584 0 0.01865937393909689 -0.013056877658636425 0 0.01913302311588163 -0.013690276034142171 0 0.01865937393909689 -0.013056877658636425 0 0.019205310985073713 -0.012627292174334529 0 0.023989540791953149 -0.0032292202567558272 0 0.026357529731548736 -0.004927796644950821 0 0.01865937393909689 -0.013056877658636425 0 0.019205310985073713 -0.012627292174334529 0 0.018474581459599453 -0.012439573169451101 0 0.019205310985073713 -0.012627292174334529 0 0.018474581459599453 -0.012439573169451101 0 0.018902740863421461 -0.012074628733560806 0 0.018179912003077503 -0.012922847372536584 0 0.01865937393909689 -0.013056877658636425 0 0.018474581459599453 -0.012439573169451101 0 0.017775339673619422 -0.012553554002550763 0 0.018179912003077503 -0.012922847372536584 0 0.018474581459599453 -0.012439573169451101 0 0.018088746041385221 -0.012052726990836758 0 0.018474581459599453 -0.012439573169451101 0 0.018497693426430425 -0.011879190831890917 0 0.018474581459599453 -0.012439573169451101 0 0.018497693426430425 -0.011879190831890917 0 0.018902740863421461 -0.012074628733560806 0 0.018755937688482268 -0.011712437869378955 0 0.018497693426430425 -0.011879190831890917 0 0.018902740863421461 -0.012074628733560806 0 0.018144897468691083 -0.011606446965519303 0 0.018088746041385221 -0.012052726990836758 0 0.018497693426430425 -0.011879190831890917 0 0.029089605443343765 -0.0033994763653829385 0 0.026357529731548736 -0.004927796644950821 0 0.019293538798494506 -0.011552363438786732 0 0.019205310985073713 -0.012627292174334529 0 0.018902740863421461 -0.012074628733560806 0 0.018755937688482268 -0.011712437869378955 0 0.018987826448953162 -0.011716136761367924 0 0.018902740863421461 -0.012074628733560806 0 0.018987826448953162 -0.011716136761367924 0 0.019293538798494506 -0.011552363438786732 0 0.018902740863421461 -0.012074628733560806 0 0.033112394680876921 0.002539720496842189 0 0.033045338098090876 0.0015679452784576047 0 0.033532392504866879 0.0020755155841910918 0 0.029089605443343765 -0.0033994763653829385 0 0.030313572134987681 -0.0015751647236000145 0 0.034058181095397592 0.0016802850548841594 0 0.034131093985021517 0.0016896338981667995 0 0.034112209686891007 0.0017173023509589743 0 0.033934629278555228 0.0016318112332224745 0 0.034058181095397592 0.0016802850548841594 0 0.033930079694149885 0.0017160747216271742 0 0.033934629278555228 0.0016318112332224745 0 0.034058181095397592 0.0016802850548841594 0 0.034069528694232513 0.0016511285329913546 0 0.033934629278555228 0.0016318112332224745 0 0.034069528694232513 0.0016511285329913546 0 0.034006420561376975 0.0015824821776308532 0 0.034058181095397592 0.0016802850548841594 0 0.034069528694232513 0.0016511285329913546 0 0.034164710656184302 0.001672489367675954 0 0.034069528694232513 0.0016511285329913546 0 0.034006420561376975 0.0015824821776308532 0 0.034227975602242007 0.0016629514873720286 0 0.033532392504866879 0.0020755155841910918 0 0.034006420561376975 0.0015824821776308532 0 0.033533582281106769 0.00158913223252805 0 0.030313572134987681 -0.0015751647236000145 0 0.030772149973624551 -0.0011225117461958832 0 0.034006420561376975 0.0015824821776308532 0 0.033533582281106769 0.00158913223252805 0 0.034007629006176758 0.0011928376954574058 0 0.034006420561376975 0.0015824821776308532 0 0.034007629006176758 0.0011928376954574058 0 0.034270867538410112 0.0014622133637843399 0 0.033045338098090876 0.0015679452784576047 0 0.033532392504866879 0.0020755155841910918 0 0.033533582281106769 0.00158913223252805 0 0.033045338098090876 0.0015679452784576047 0 0.033533582281106769 0.00158913223252805 0 0.033448537438410156 0.0010974054148448764 0 0.032946207713723724 0.00059995928832545775 0 0.033045338098090876 0.0015679452784576047 0 0.033448537438410156 0.0010974054148448764 0 0.033448537438410156 0.0010974054148448764 0 0.034007629006176758 0.0011928376954574058 0 0.033790196468896909 0.00045135692718211167 0 0.033533582281106769 0.00158913223252805 0 0.033448537438410156 0.0010974054148448764 0 0.034007629006176758 0.0011928376954574058 0 0.033790196468896909 0.00045135692718211167 0 0.034540647913082895 0.00055635091999902786 0 0.034360317485002033 -0.00060768381419889291 0 0.034007629006176758 0.0011928376954574058 0 0.033790196468896909 0.00045135692718211167 0 0.034540647913082895 0.00055635091999902786 0 0.031377450635270879 0.00078033852641447624 0 0.033790196468896909 0.00045135692718211167 0 0.032717139052048323 -0.00080185729696618429 0 0.023989540791953149 -0.0032292202567558272 0 0.029860014010095713 -0.0027621433055296067 0 0.032946207713723724 0.00059995928832545775 0 0.033448537438410156 0.0010974054148448764 0 0.033790196468896909 0.00045135692718211167 0 0.036531110497756231 0.0008734186163523531 0 0.037700253708997412 0.0012931156049275753 0 0.036382943171173389 -0.0003424080854033092 0 0.036531110497756231 0.0008734186163523531 0 0.03550532470516856 0.0024279408846464806 0 0.037700253708997412 0.0012931156049275753 0 0.037953746550788654 0.00047452820998146277 0 0.037528421373318098 0.00011804081801579796 0 0.034540647913082895 0.00055635091999902786 0 0.03473781665924864 0.0010648645288954331 0 0.035445598132432504 -6.3290627611948047e-05 0 0.035382444630085594 0.0014098975118306855 0 0.035385820078629879 0.0008094447001054661 0 0.036531110497756231 0.0008734186163523531 0 0.03550532470516856 0.0024279408846464806 0 0.035445598132432504 -6.3290627611948047e-05 0 0.034007629006176758 0.0011928376954574058 0 0.03473781665924864 0.0010648645288954331 0 0.034270867538410112 0.0014622133637843399 0 0.034007629006176758 0.0011928376954574058 0 0.034540647913082895 0.00055635091999902786 0 0.03473781665924864 0.0010648645288954331 0 0.03550532470516856 0.0024279408846464806 0 0.037271759574933574 0.00386811750028516 0 0.037700253708997412 0.0012931156049275753 0 0.03550532470516856 0.0024279408846464806 0 0.037271759574933574 0.00386811750028516 0 0.035449647749461272 0.0047586357032300972 0 0.034842421545312051 0.0002350413253535275 0 0.034654752408702659 0.0007270935156310891 0 0.035189733616396553 0.0010004082065584413 0 0.036348453316411886 0.0012640151222200089 0 0.035498081060854211 0.0016833775068061754 0 0.034842421545312051 0.0002350413253535275 0 0.034153460566955451 0.00057956290103096267 0 0.034654752408702659 0.0007270935156310891 0 0.035382444630085594 0.0014098975118306855 0 0.035498081060854211 0.0016833775068061754 0 0.03473781665924864 0.0010648645288954331 0 0.034270867538410112 0.0014622133637843399 0 0.03440192725248014 0.0016429442352029376 0 0.035498081060854211 0.0016833775068061754 0 0.035441235505130397 0.0017019798019407772 0 0.034006420561376975 0.0015824821776308532 0 0.034270867538410112 0.0014622133637843399 0 0.034227975602242007 0.0016629514873720286 0 0.034270867538410112 0.0014622133637843399 0 0.03440192725248014 0.0016429442352029376 0 0.034227975602242007 0.0016629514873720286 0 0.034235228600984019 0.0016512010724993855 0 0.034164710656184302 0.001672489367675954 0 0.034168492477220577 0.0016883319068062964 0 0.034153460566955451 0.00057956290103096267 0 0.034151501630894344 0.0012097099500780479 0 0.034363247964631194 0.00090873386178892191 0 0.035498081060854211 0.0016833775068061754 0 0.035162112486935328 0.0015715629305800964 0 0.034235228600984019 0.0016512010724993855 0 0.034227975602242007 0.0016629514873720286 0 0.034164710656184302 0.001672489367675954 0 0.034069528694232513 0.0016511285329913546 0 0.034227975602242007 0.0016629514873720286 0 0.034164710656184302 0.001672489367675954 0 0.034151501630894344 0.0012097099500780479 0 0.034363247964631194 0.00090873386178892191 0 0.03435111741780239 0.001165809013245945 0 0.034058181095397592 0.0016802850548841594 0 0.034164710656184302 0.001672489367675954 0 0.034131093985021517 0.0016896338981667995 0 0.034164710656184302 0.001672489367675954 0 0.034168492477220577 0.0016883319068062964 0 0.034131093985021517 0.0016896338981667995 0 0.034654752408702659 0.0007270935156310891 0 0.034552729118456485 0.000991073703224817 0 0.034795355570148394 0.0011381129452929927 0 0.034654752408702659 0.0007270935156310891 0 0.034795355570148394 0.0011381129452929927 0 0.035189733616396553 0.0010004082065584413 0 0.034153460566955451 0.00057956290103096267 0 0.034654752408702659 0.0007270935156310891 0 0.034363247964631194 0.00090873386178892191 0 0.034654752408702659 0.0007270935156310891 0 0.034363247964631194 0.00090873386178892191 0 0.034552729118456485 0.000991073703224817 0 0.034552729118456485 0.000991073703224817 0 0.03435111741780239 0.001165809013245945 0 0.034795355570148394 0.0011381129452929927 0 0.034363247964631194 0.00090873386178892191 0 0.034552729118456485 0.000991073703224817 0 0.03435111741780239 0.001165809013245945 0 0.03435111741780239 0.001165809013245945 0 0.034795355570148394 0.0011381129452929927 0 0.035226635548295374 0.001801865025718789 0 0.03435111741780239 0.001165809013245945 0 0.034378244198536946 0.0015500504178611616 0 0.034963952275201798 0.0016817954437445325 0 0.034378244198536946 0.0015500504178611616 0 0.034230468029673715 0.0018729224572230179 0 0.034963952275201798 0.0016817954437445325 0 0.035109906544208556 -0.0015376434814953815 0 0.0331006612228648 -0.0043243686704668933 0 0.023080294492786323 -0.014651211158275071 0 0.024354715800735106 -0.014331466165412242 0 0.024729080217462025 -0.015138906370646287 0 0.029474677968712011 -0.0052647788443847335 0 0.0331006612228648 -0.0043243686704668933 0 0.02359421798925387 -0.014084169474160571 0 0.023080294492786323 -0.014651211158275071 0 0.024354715800735106 -0.014331466165412242 0 0.034230468029673715 0.0018729224572230179 0 0.034176730686076746 0.0017356074127593288 0 0.034047288432614932 0.001814500486447726 0 0.023080294492786323 -0.014651211158275071 0 0.021421018075444234 -0.014186755723691923 0 0.022709628715138191 -0.013992485877005923 0 0.02359421798925387 -0.014084169474160571 0 0.023080294492786323 -0.014651211158275071 0 0.022709628715138191 -0.013992485877005923 0 0.034151501630894344 0.0012097099500780479 0 0.034378244198536946 0.0015500504178611616 0 0.034176730686076746 0.0017356074127593288 0 0.034176730686076746 0.0017356074127593288 0 0.034112209686891007 0.0017173023509589743 0 0.034047288432614932 0.001814500486447726 0 0.034168492477220577 0.0016883319068062964 0 0.034176730686076746 0.0017356074127593288 0 0.034112209686891007 0.0017173023509589743 0 0.035162112486935328 0.0015715629305800964 0 0.035057178871734269 0.0015981335556752921 0 0.034378244198536946 0.0015500504178611616 0 0.034230468029673715 0.0018729224572230179 0 0.034176730686076746 0.0017356074127593288 0 0.034151501630894344 0.0012097099500780479 0 0.03435111741780239 0.001165809013245945 0 0.034378244198536946 0.0015500504178611616 0 0.034168492477220577 0.0016883319068062964 0 0.034131093985021517 0.0016896338981667995 0 0.034112209686891007 0.0017173023509589743 0 0.033930079694149885 0.0017160747216271742 0 0.033861976230500482 0.0018004811181974159 0 0.034047288432614932 0.001814500486447726 0 0.034112209686891007 0.0017173023509589743 0 0.033930079694149885 0.0017160747216271742 0 0.034047288432614932 0.001814500486447726 0 0.034058181095397592 0.0016802850548841594 0 0.034112209686891007 0.0017173023509589743 0 0.033930079694149885 0.0017160747216271742 0 0.033774303965643279 0.0016921889314006899 0 0.033771137165538444 0.0017029001442803509 0 0.033930079694149885 0.0017160747216271742 0 0.033774303965643279 0.0016921889314006899 0 0.033934629278555228 0.0016318112332224745 0 0.033930079694149885 0.0017160747216271742 0 0.033722591190734987 0.0018129893153703168 0 0.033771137165538444 0.0017029001442803509 0 0.033861976230500482 0.0018004811181974159 0 0.033771137165538444 0.0017029001442803509 0 0.033930079694149885 0.0017160747216271742 0 0.033861976230500482 0.0018004811181974159 0 0.033743701226839076 0.0018825048889526182 0 0.033861976230500482 0.0018004811181974159 0 0.033946790854836081 0.0019302154946448206 0 0.033625622884627254 0.0020319460232538808 0 0.033743701226839076 0.0018825048889526182 0 0.033946790854836081 0.0019302154946448206 0 0.033743701226839076 0.0018825048889526182 0 0.033722591190734987 0.0018129893153703168 0 0.033861976230500482 0.0018004811181974159 0 0.029474677968712011 -0.0052647788443847335 0 0.027761032232885643 -0.0058487341727203081 0 0.033861976230500482 0.0018004811181974159 0 0.033946790854836081 0.0019302154946448206 0 0.034047288432614932 0.001814500486447726 0 0.034230468029673715 0.0018729224572230179 0 0.033946790854836081 0.0019302154946448206 0 0.034047288432614932 0.001814500486447726 0 0.021421018075444234 -0.014186755723691923 0 0.022127913698666617 -0.013409850020221558 0 0.022709628715138191 -0.013992485877005923 0 0.021421018075444234 -0.014186755723691923 0 0.022127913698666617 -0.013409850020221558 0 0.020793714863305449 -0.013200880951935851 0 0.026128268868171899 -0.0062531564992568634 0 0.027761032232885643 -0.0058487341727203081 0 0.01971361060448161 -0.013701122776060838 0 0.021421018075444234 -0.014186755723691923 0 0.020793714863305449 -0.013200880951935851 0 0.020809924611721698 -0.012069606171717545 0 0.020040044965733028 -0.012622621600390849 0 0.020793714863305449 -0.013200880951935851 0 0.020809924611721698 -0.012069606171717545 0 0.020793714863305449 -0.013200880951935851 0 0.021699167315187739 -0.012615177860809861 0 0.02197475090191171 -0.011627364281976334 0 0.021699167315187739 -0.012615177860809861 0 0.022712393663978564 -0.012633284851985407 0 0.022127913698666617 -0.013409850020221558 0 0.020793714863305449 -0.013200880951935851 0 0.021699167315187739 -0.012615177860809861 0 0.022127913698666617 -0.013409850020221558 0 0.021699167315187739 -0.012615177860809861 0 0.022712393663978564 -0.012633284851985407 0 0.022712393663978564 -0.012633284851985407 0 0.023920879708647338 -0.012472310169854587 0 0.023254908087762184 -0.013500719247683469 0 0.023178128667944466 -0.011468541869807553 0 0.022712393663978564 -0.012633284851985407 0 0.023920879708647338 -0.012472310169854587 0 0.023920879708647338 -0.012472310169854587 0 0.023254908087762184 -0.013500719247683469 0 0.024170740512168814 -0.013660667238226398 0 0.02359421798925387 -0.014084169474160571 0 0.024170740512168814 -0.013660667238226398 0 0.024354715800735106 -0.014331466165412242 0 0.02359421798925387 -0.014084169474160571 0 0.023254908087762184 -0.013500719247683469 0 0.024170740512168814 -0.013660667238226398 0 0.022127913698666617 -0.013409850020221558 0 0.023254908087762184 -0.013500719247683469 0 0.022709628715138191 -0.013992485877005923 0 0.02359421798925387 -0.014084169474160571 0 0.023254908087762184 -0.013500719247683469 0 0.022709628715138191 -0.013992485877005923 0 0.022127913698666617 -0.013409850020221558 0 0.022712393663978564 -0.012633284851985407 0 0.023254908087762184 -0.013500719247683469 0 0.025628465668326314 -0.013603875501189192 0 0.024940207385251743 -0.012807713396172196 0 0.026043373593927395 -0.012861907505331173 0 0.025628465668326314 -0.013603875501189192 0 0.024965124509644113 -0.013972478110327561 0 0.024940207385251743 -0.012807713396172196 0 0.025628465668326314 -0.013603875501189192 0 0.026043373593927395 -0.012861907505331173 0 0.026522102332709248 -0.013818468734325755 0 0.025628465668326314 -0.013603875501189192 0 0.026522102332709248 -0.013818468734325755 0 0.02560704155786141 -0.014484458863511369 0 0.025628465668326314 -0.013603875501189192 0 0.024965124509644113 -0.013972478110327561 0 0.02560704155786141 -0.014484458863511369 0 0.024170740512168814 -0.013660667238226398 0 0.024965124509644113 -0.013972478110327561 0 0.024940207385251743 -0.012807713396172196 0 0.024170740512168814 -0.013660667238226398 0 0.024965124509644113 -0.013972478110327561 0 0.024354715800735106 -0.014331466165412242 0 0.023920879708647338 -0.012472310169854587 0 0.024170740512168814 -0.013660667238226398 0 0.024940207385251743 -0.012807713396172196 0 0.024850739133629323 -0.011974895369751989 0 0.023920879708647338 -0.012472310169854587 0 0.024940207385251743 -0.012807713396172196 0 0.025662171105522893 -0.012071709609775468 0 0.024850739133629323 -0.011974895369751989 0 0.024940207385251743 -0.012807713396172196 0 0.030798792237989557 -0.010276721497227375 0 0.026974500247450666 -0.012107253452219472 0 0.026434502460417036 -0.011998061408324021 0 0.025662171105522893 -0.012071709609775468 0 0.024940207385251743 -0.012807713396172196 0 0.026720476197973627 -0.011867789455102695 0 0.024940207385251743 -0.012807713396172196 0 0.026043373593927395 -0.012861907505331173 0 0.026720476197973627 -0.011867789455102695 0 0.026043373593927395 -0.012861907505331173 0 0.026522102332709248 -0.013818468734325755 0 0.040498055154900979 -0.0088788617690929057 0 0.039482859723738654 -0.0079422923486564823 0 0.040639593597908981 -0.0070524430842567702 0 0.030798792237989557 -0.010276721497227375 0 0.034470392057412251 -0.0089540682250577267 0 0.040498055154900979 -0.0088788617690929057 0 0.039482859723738654 -0.0079422923486564823 0 0.038924016013042601 -0.0086817701035317423 0 0.039482859723738654 -0.0079422923486564823 0 0.039995119523276321 -0.0068555614903671033 0 0.039172800065439842 -0.0069040702367133356 0 0.039482859723738654 -0.0079422923486564823 0 0.039172800065439842 -0.0069040702367133356 0 0.038836493155615021 -0.0073208541475593206 0 0.037112693795861747 -0.0075115517624845234 0 0.034470392057412251 -0.0089540682250577267 0 0.039482859723738654 -0.0079422923486564823 0 0.039995119523276321 -0.0068555614903671033 0 0.040779194889837118 -0.0069316677562024139 0 0.039995119523276321 -0.0068555614903671033 0 0.040779194889837118 -0.0069316677562024139 0 0.040823429901868734 -0.0064273879167605439 0 0.034470392057412251 -0.0089540682250577267 0 0.034616122831318479 -0.0087357913263691155 0 0.039995119523276321 -0.0068555614903671033 0 0.040823429901868734 -0.0064273879167605439 0 0.03974091141646284 -0.0060631997323789006 0 0.040823429901868734 -0.0064273879167605439 0 0.040920208917670911 -0.0059828782215232282 0 0.03974091141646284 -0.0060631997323789006 0 0.039694892329037793 -0.0060422798559539494 0 0.040451030089247435 -0.0057212093774004344 0 0.040920208917670911 -0.0059828782215232282 0 0.03974091141646284 -0.0060631997323789006 0 0.041378978299855339 -0.0052959813638801152 0 0.040774625118860312 -0.0069332954517266759 0 0.040823429901868734 -0.0064273879167605439 0 0.041743025101543769 -0.0061504636319255042 0 0.039995119523276321 -0.0068555614903671033 0 0.039172800065439842 -0.0069040702367133356 0 0.03974091141646284 -0.0060631997323789006 0 0.039936740575174559 -0.0058569433152939861 0 0.039234209840999061 -0.0054040197676360514 0 0.039714515725947329 -0.0051493502234899319 0 0.039936740575174559 -0.0058569433152939861 0 0.039234209840999061 -0.0054040197676360514 0 0.038974011816499371 -0.0059436040698161718 0 0.039234209840999061 -0.0054040197676360514 0 0.039714515725947329 -0.0051493502234899319 0 0.039269935114317256 -0.0048383138072649384 0 0.039936740575174559 -0.0058569433152939861 0 0.039714515725947329 -0.0051493502234899319 0 0.040119561928450148 -0.0052403536976966657 0 0.039936740575174559 -0.0058569433152939861 0 0.040119561928450148 -0.0052403536976966657 0 0.040594307848424174 -0.0052123510101877131 0 0.039714515725947329 -0.0051493502234899319 0 0.040032030521289647 -0.0050019770692356063 0 0.039939627851056911 -0.0047086996581475749 0 0.039714515725947329 -0.0051493502234899319 0 0.040119561928450148 -0.0052403536976966657 0 0.040032030521289647 -0.0050019770692356063 0 0.040119561928450148 -0.0052403536976966657 0 0.040032030521289647 -0.0050019770692356063 0 0.040323962861811793 -0.0049255283075593801 0 0.040097594168935942 -0.0047917583489890218 0 0.040091924675893689 -0.0045417073181967284 0 0.040323962861811793 -0.0049255283075593801 0 0.040032030521289647 -0.0050019770692356063 0 0.040097594168935942 -0.0047917583489890218 0 0.039939627851056911 -0.0047086996581475749 0 0.040032030521289647 -0.0050019770692356063 0 0.040097594168935942 -0.0047917583489890218 0 0.040323962861811793 -0.0049255283075593801 0 0.040097594168935942 -0.0047917583489890218 0 0.040091924675893689 -0.0045417073181967284 0 0.039939627851056911 -0.0047086996581475749 0 0.038011059484451735 -0.0017575300563471585 0 0.038012736990499202 -0.0017910945125293525 0 0.039939627851056911 -0.0047086996581475749 0 0.039601383483883507 -0.0046560269047367184 0 0.039798401744498259 -0.0043505606769727815 0 0.040146323070903288 -0.0044705412744955571 0 0.039939627851056911 -0.0047086996581475749 0 0.039798401744498259 -0.0043505606769727815 0 0.038011059484451735 -0.0017575300563471585 0 0.038108146175568354 -0.0018089540527775078 0 0.039714515725947329 -0.0051493502234899319 0 0.039939627851056911 -0.0047086996581475749 0 0.039601383483883507 -0.0046560269047367184 0 0.039714515725947329 -0.0051493502234899319 0 0.039601383483883507 -0.0046560269047367184 0 0.039269935114317256 -0.0048383138072649384 0 0.039601383483883507 -0.0046560269047367184 0 0.039352317410127804 -0.00437017028824155 0 0.039798401744498259 -0.0043505606769727815 0 0.039601383483883507 -0.0046560269047367184 0 0.039352317410127804 -0.00437017028824155 0 0.039269935114317256 -0.0048383138072649384 0 0.040091924675893689 -0.0045417073181967284 0 0.040323962861811793 -0.0049255283075593801 0 0.041316028859284766 -0.0049768921082812695 0 0.040594307848424174 -0.0052123510101877131 0 0.040323962861811793 -0.0049255283075593801 0 0.041316028859284766 -0.0049768921082812695 0 0.036762378510335543 0.0013301072612751784 0 0.035996334455695632 0.0015661169047727322 0 0.036156553229110808 0.0011499991832678153 0 0.038011059484451735 -0.0017575300563471585 0 0.036872787812220711 -0.0030684365422683495 0 0.039936740575174559 -0.0058569433152939861 0 0.040594307848424174 -0.0052123510101877131 0 0.041378978299855339 -0.0052959813638801152 0 0.040594307848424174 -0.0052123510101877131 0 0.041316028859284766 -0.0049768921082812695 0 0.041378978299855339 -0.0052959813638801152 0 0.040119561928450148 -0.0052403536976966657 0 0.040594307848424174 -0.0052123510101877131 0 0.040323962861811793 -0.0049255283075593801 0 0.035996334455695632 0.0015661169047727322 0 0.035533815855950689 0.0013638127593830576 0 0.035226635548295374 0.001801865025718789 0 0.041316028859284766 -0.0049768921082812695 0 0.041378978299855339 -0.0052959813638801152 0 0.042673321429015469 -0.0053957085069632968 0 0.036872787812220711 -0.0030684365422683495 0 0.0331006612228648 -0.0043243686704668933 0 0.035996334455695632 0.0015661169047727322 0 0.035533815855950689 0.0013638127593830576 0 0.035723075549151155 0.0010869138829839235 0 0.041378978299855339 -0.0052959813638801152 0 0.041743025101543769 -0.0061504636319255042 0 0.042673321429015469 -0.0053957085069632968 0 0.040920208917670911 -0.0059828782215232282 0 0.041378978299855339 -0.0052959813638801152 0 0.041743025101543769 -0.0061504636319255042 0 0.034470392057412251 -0.0089540682250577267 0 0.033290596861195204 -0.0074344915667516756 0 0.040823429901868734 -0.0064273879167605439 0 0.040920208917670911 -0.0059828782215232282 0 0.041743025101543769 -0.0061504636319255042 0 0.02560704155786141 -0.014484458863511369 0 0.024354715800735106 -0.014331466165412242 0 0.024729080217462025 -0.015138906370646287 0 0.024965124509644113 -0.013972478110327561 0 0.02560704155786141 -0.014484458863511369 0 0.024354715800735106 -0.014331466165412242 0 0.033290596861195204 -0.0074344915667516756 0 0.0331006612228648 -0.0043243686704668933 0 0.035533815855950689 0.0013638127593830576 0 0.035226635548295374 0.001801865025718789 0 0.035189733616396553 0.0010004082065584413 0 0.034795355570148394 0.0011381129452929927 0 0.035226635548295374 0.001801865025718789 0 0.035189733616396553 0.0010004082065584413 0 0.035533815855950689 0.0013638127593830576 0 0.035189733616396553 0.0010004082065584413 0 0.035723075549151155 0.0010869138829839235 0 0.035189733616396553 0.0010004082065584413 0 0.035723075549151155 0.0010869138829839235 0 0.035518378826263131 0.0005414324461982447 0 0.035723075549151155 0.0010869138829839235 0 0.035518378826263131 0.0005414324461982447 0 0.036144156290344169 0.00061663324937209134 0 0.035996334455695632 0.0015661169047727322 0 0.035723075549151155 0.0010869138829839235 0 0.036156553229110808 0.0011499991832678153 0 0.035723075549151155 0.0010869138829839235 0 0.036144156290344169 0.00061663324937209134 0 0.036156553229110808 0.0011499991832678153 0 0.038026801019702253 0.00021305684083051124 0 0.038231404318022542 -0.00081530244698278592 0 0.035518378826263131 0.0005414324461982447 0 0.035528500492546917 -0.00010211590115490472 0 0.036144156290344169 0.00061663324937209134 0 0.034842421545312051 0.0002350413253535275 0 0.035189733616396553 0.0010004082065584413 0 0.035518378826263131 0.0005414324461982447 0 0.034842421545312051 0.0002350413253535275 0 0.035518378826263131 0.0005414324461982447 0 0.035528500492546917 -0.00010211590115490472 0 0.036348453316411886 0.0012640151222200089 0 0.038026801019702253 0.00021305684083051124 0 0.037271759574933574 0.00386811750028516 0 0.039116472212980147 0.0029547396565549962 0 0.037700253708997412 0.0012931156049275753 0 0.038026801019702253 0.00021305684083051124 0 0.037953746550788654 0.00047452820998146277 0 0.038026801019702253 0.00021305684083051124 0 0.03950294058606113 -0.00016407840348838513 0 0.042672960112159486 -0.0015387848615998727 0 0.041090229084715033 -0.00075111119319939198 0 0.04141548445772484 -0.0030211610508982969 0 0.039849337196831355 0.00079891633675061935 0 0.040003298377788044 0.00062789339856593549 0 0.039990410519373694 0.00055530200288788777 0 0.039670741629533712 0.0014560566890088997 0 0.039849337196831355 0.00079891633675061935 0 0.040003298377788044 0.00062789339856593549 0 0.039670741629533712 0.0014560566890088997 0 0.039849337196831355 0.00079891633675061935 0 0.038584910203795307 0.0011129675716720052 0 0.039849337196831355 0.00079891633675061935 0 0.038584910203795307 0.0011129675716720052 0 0.038353488077590092 2.142619851042557e-05 0 0.039500855452724588 -9.7932457928921166e-05 0 0.03950294058606113 -0.00016407840348838513 0 0.039380114025742409 9.9400996529651133e-05 0 0.041090229084715033 -0.00075111119319939198 0 0.040128775025758498 -0.0016352929206198525 0 0.039380114025742409 9.9400996529651133e-05 0 0.040003298377788044 0.00062789339856593549 0 0.039990410519373694 0.00055530200288788777 0 0.041090229084715033 -0.00075111119319939198 0 0.040128775025758498 -0.0016352929206198525 0 0.04141548445772484 -0.0030211610508982969 0 0.039380114025742409 9.9400996529651133e-05 0 0.040128775025758498 -0.0016352929206198525 0 0.038906414649982839 -0.0016597878827274667 0 0.040128775025758498 -0.0016352929206198525 0 0.039810108858227833 -0.002728215290388207 0 0.038906414649982839 -0.0016597878827274667 0 0.039810108858227833 -0.002728215290388207 0 0.039128046657184161 -0.0033063430453961215 0 0.038771801154389218 -0.0026259884455532593 0 0.040128775025758498 -0.0016352929206198525 0 0.039810108858227833 -0.002728215290388207 0 0.04141548445772484 -0.0030211610508982969 0 0.039810108858227833 -0.002728215290388207 0 0.04141548445772484 -0.0030211610508982969 0 0.040231169496938772 -0.0035713700009686448 0 0.036762378510335543 0.0013301072612751784 0 0.036144156290344169 0.00061663324937209134 0 0.036156553229110808 0.0011499991832678153 0 0.040171244076734045 -0.0044630136500070023 0 0.04141548445772484 -0.0030211610508982969 0 0.040231169496938772 -0.0035713700009686448 0 0.038011059484451735 -0.0017575300563471585 0 0.038231404318022542 -0.00081530244698278592 0 0.039634932849859819 -0.003723914378748615 0 0.038979362683489581 -0.0039910235485725283 0 0.039128046657184161 -0.0033063430453961215 0 0.039810108858227833 -0.002728215290388207 0 0.039634932849859819 -0.003723914378748615 0 0.039128046657184161 -0.0033063430453961215 0 0.039810108858227833 -0.002728215290388207 0 0.039634932849859819 -0.003723914378748615 0 0.040231169496938772 -0.0035713700009686448 0 0.039634932849859819 -0.003723914378748615 0 0.040231169496938772 -0.0035713700009686448 0 0.039798401744498259 -0.0043505606769727815 0 0.040171244076734045 -0.0044630136500070023 0 0.040231169496938772 -0.0035713700009686448 0 0.039798401744498259 -0.0043505606769727815 0 0.039352317410127804 -0.00437017028824155 0 0.039634932849859819 -0.003723914378748615 0 0.039798401744498259 -0.0043505606769727815 0 0.039352317410127804 -0.00437017028824155 0 0.039634932849859819 -0.003723914378748615 0 0.038979362683489581 -0.0039910235485725283 0 0.039352317410127804 -0.00437017028824155 0 0.038979362683489581 -0.0039910235485725283 0 0.038907117627794634 -0.0045545550661770951 0 0.038979362683489581 -0.0039910235485725283 0 0.038356214928406546 -0.0043260071760219442 0 0.038907117627794634 -0.0045545550661770951 0 0.038979362683489581 -0.0039910235485725283 0 0.038356214928406546 -0.0043260071760219442 0 0.038459478237649322 -0.0034496737736086015 0 0.038979362683489581 -0.0039910235485725283 0 0.038459478237649322 -0.0034496737736086015 0 0.039128046657184161 -0.0033063430453961215 0 0.038356214928406546 -0.0043260071760219442 0 0.0374813791687513 -0.0034558103357278354 0 0.037302808046203867 -0.0044722269482378556 0 0.038356214928406546 -0.0043260071760219442 0 0.038459478237649322 -0.0034496737736086015 0 0.0374813791687513 -0.0034558103357278354 0 0.0374813791687513 -0.0034558103357278354 0 0.037733715245651493 -0.0023998682076107072 0 0.03642220550580956 -0.0031774686762328394 0 0.038459478237649322 -0.0034496737736086015 0 0.0374813791687513 -0.0034558103357278354 0 0.037733715245651493 -0.0023998682076107072 0 0.037733715245651493 -0.0023998682076107072 0 0.038771801154389218 -0.0026259884455532593 0 0.038906414649982839 -0.0016597878827274667 0 0.038459478237649322 -0.0034496737736086015 0 0.039128046657184161 -0.0033063430453961215 0 0.038771801154389218 -0.0026259884455532593 0 0.038459478237649322 -0.0034496737736086015 0 0.037733715245651493 -0.0023998682076107072 0 0.038771801154389218 -0.0026259884455532593 0 0.039810108858227833 -0.002728215290388207 0 0.038771801154389218 -0.0026259884455532593 0 0.038906414649982839 -0.0016597878827274667 0 0.037733715245651493 -0.0023998682076107072 0 0.038906414649982839 -0.0016597878827274667 0 0.037910609263617952 -0.0010377190251271093 0 0.039380114025742409 9.9400996529651133e-05 0 0.038906414649982839 -0.0016597878827274667 0 0.037910609263617952 -0.0010377190251271093 0 0.037733715245651493 -0.0023998682076107072 0 0.037910609263617952 -0.0010377190251271093 0 0.036472821470897213 -0.0015220295792324815 0 0.037910609263617952 -0.0010377190251271093 0 0.037277918658654215 -0.000321100670992677 0 0.038169988815378982 0.00059413886296606495 0 0.037910609263617952 -0.0010377190251271093 0 0.037277918658654215 -0.000321100670992677 0 0.036472821470897213 -0.0015220295792324815 0 0.039380114025742409 9.9400996529651133e-05 0 0.037910609263617952 -0.0010377190251271093 0 0.038169988815378982 0.00059413886296606495 0 0.037277918658654215 -0.000321100670992677 0 0.036472821470897213 -0.0015220295792324815 0 0.036453869485536888 0.00071179153420871549 0 0.036472821470897213 -0.0015220295792324815 0 0.034999935656489692 -0.0014998489795067754 0 0.036453869485536888 0.00071179153420871549 0 0.034999935656489692 -0.0014998489795067754 0 0.036453869485536888 0.00071179153420871549 0 0.034999940415987717 0.00060238629321137456 0 0.036472821470897213 -0.0015220295792324815 0 0.034999935656489692 -0.0014998489795067754 0 0.03642220550580956 -0.0031774686762328394 0 0.034999935656489692 -0.0014998489795067754 0 0.03642220550580956 -0.0031774686762328394 0 0.034999935517614468 -0.003602193630901254 0 0.037733715245651493 -0.0023998682076107072 0 0.036472821470897213 -0.0015220295792324815 0 0.03642220550580956 -0.0031774686762328394 0 0.03642220550580956 -0.0031774686762328394 0 0.036132997832794285 -0.0047303142240898276 0 0.037302808046203867 -0.0044722269482378556 0 0.0374813791687513 -0.0034558103357278354 0 0.03642220550580956 -0.0031774686762328394 0 0.037302808046203867 -0.0044722269482378556 0 0.03642220550580956 -0.0031774686762328394 0 0.034999935517614468 -0.003602193630901254 0 0.036132997832794285 -0.0047303142240898276 0 0.034999935517614468 -0.003602193630901254 0 0.034999951652560736 -0.0057043272574315686 0 0.036132997832794285 -0.0047303142240898276 0 0.034999951652560736 -0.0057043272574315686 0 0.036539773013771669 -0.0059528386200663292 0 0.036132997832794285 -0.0047303142240898276 0 0.034999974281887725 -0.0057045494248227418 0 0.036571533672586608 -0.0060349399857976532 0 0.035848459992113391 -0.0069668679429814757 0 0.035001453895007327 -0.005704744782729242 0 0.036326439752947512 -0.0059523628939862029 0 0.036539773013771669 -0.0059528386200663292 0 0.037043164507147661 -0.0052374463268600804 0 0.036132997832794285 -0.0047303142240898276 0 0.037043164507147661 -0.0052374463268600804 0 0.036132997832794285 -0.0047303142240898276 0 0.037302808046203867 -0.0044722269482378556 0 0.037302808046203867 -0.0044722269482378556 0 0.037740810009069398 -0.0052229562567725858 0 0.038132224471145983 -0.0048826723126351316 0 0.038356214928406546 -0.0043260071760219442 0 0.037302808046203867 -0.0044722269482378556 0 0.038132224471145983 -0.0048826723126351316 0 0.037740810009069398 -0.0052229562567725858 0 0.038132224471145983 -0.0048826723126351316 0 0.038387033294031869 -0.0056595280538931777 0 0.037043164507147661 -0.0052374463268600804 0 0.037302808046203867 -0.0044722269482378556 0 0.037740810009069398 -0.0052229562567725858 0 0.037043164507147661 -0.0052374463268600804 0 0.037740810009069398 -0.0052229562567725858 0 0.037680861263505595 -0.0057324206772660022 0 0.039269935114317256 -0.0048383138072649384 0 0.038907117627794634 -0.0045545550661770951 0 0.038700730608697942 -0.0050799791253132911 0 0.039352317410127804 -0.00437017028824155 0 0.039269935114317256 -0.0048383138072649384 0 0.038907117627794634 -0.0045545550661770951 0 0.038356214928406546 -0.0043260071760219442 0 0.038907117627794634 -0.0045545550661770951 0 0.038700730608697942 -0.0050799791253132911 0 0.038356214928406546 -0.0043260071760219442 0 0.038132224471145983 -0.0048826723126351316 0 0.038700730608697942 -0.0050799791253132911 0 0.038132224471145983 -0.0048826723126351316 0 0.038700730608697942 -0.0050799791253132911 0 0.038387033294031869 -0.0056595280538931777 0 0.038700730608697942 -0.0050799791253132911 0 0.038817328347075464 -0.0055203803447759761 0 0.038387033294031869 -0.0056595280538931777 0 0.039234209840999061 -0.0054040197676360514 0 0.039269935114317256 -0.0048383138072649384 0 0.038700730608697942 -0.0050799791253132911 0 0.039234209840999061 -0.0054040197676360514 0 0.038700730608697942 -0.0050799791253132911 0 0.038817328347075464 -0.0055203803447759761 0 0.039172800065439842 -0.0069040702367133356 0 0.03974091141646284 -0.0060631997323789006 0 0.038214955563979101 -0.0067623137470498003 0 0.039694892329037793 -0.0060422798559539494 0 0.038408681646562713 -0.0065913256635416941 0 0.039936740575174559 -0.0058569433152939861 0 0.038974011816499371 -0.0059436040698161718 0 0.038329661305182318 -0.0065847739465171038 0 0.038974011816499371 -0.0059436040698161718 0 0.038817328347075464 -0.0055203803447759761 0 0.038387033294031869 -0.0056595280538931777 0 0.039234209840999061 -0.0054040197676360514 0 0.038974011816499371 -0.0059436040698161718 0 0.038817328347075464 -0.0055203803447759761 0 0.038974011816499371 -0.0059436040698161718 0 0.038387033294031869 -0.0056595280538931777 0 0.038476289323552751 -0.0061232568848240531 0 0.038387033294031869 -0.0056595280538931777 0 0.038284132599763918 -0.0059833633742465697 0 0.038476289323552751 -0.0061232568848240531 0 0.038974011816499371 -0.0059436040698161718 0 0.038476289323552751 -0.0061232568848240531 0 0.038329661305182318 -0.0065847739465171038 0 0.038284132599763918 -0.0059833633742465697 0 0.038476289323552751 -0.0061232568848240531 0 0.038137364963934016 -0.0062847422297618678 0 0.038476289323552751 -0.0061232568848240531 0 0.038137364963934016 -0.0062847422297618678 0 0.038329661305182318 -0.0065847739465171038 0 0.036539773013771669 -0.0059528386200663292 0 0.037043164507147661 -0.0052374463268600804 0 0.037680861263505595 -0.0057324206772660022 0 0.036326439752947512 -0.0059523628939862029 0 0.037056428943264746 -0.0060888048452993025 0 0.036571533672586608 -0.0060349399857976532 0 0.038137364963934016 -0.0062847422297618678 0 0.037389231602216945 -0.0065692425639474888 0 0.036539773013771669 -0.0059528386200663292 0 0.037680861263505595 -0.0057324206772660022 0 0.038137364963934016 -0.0062847422297618678 0 0.038387033294031869 -0.0056595280538931777 0 0.038284132599763918 -0.0059833633742465697 0 0.037680861263505595 -0.0057324206772660022 0 0.037740810009069398 -0.0052229562567725858 0 0.038387033294031869 -0.0056595280538931777 0 0.037680861263505595 -0.0057324206772660022 0 0.038137364963934016 -0.0062847422297618678 0 0.037389231602216945 -0.0065692425639474888 0 0.038329661305182318 -0.0065847739465171038 0 0.038284132599763918 -0.0059833633742465697 0 0.037680861263505595 -0.0057324206772660022 0 0.038137364963934016 -0.0062847422297618678 0 0.037389231602216945 -0.0065692425639474888 0 0.038329661305182318 -0.0065847739465171038 0 0.036701182977291053 -0.0073401770408403942 0 0.038408681646562713 -0.0065913256635416941 0 0.03764425209749666 -0.0069149687295685658 0 0.037716156914810763 -0.0076556649121473598 0 0.038214955563979101 -0.0067623137470498003 0 0.036701182977291053 -0.0073401770408403942 0 0.039482859723738654 -0.0079422923486564823 0 0.038483142089045061 -0.0076895336125581189 0 0.038836493155615021 -0.0073208541475593206 0 0.039172800065439842 -0.0069040702367133356 0 0.038214955563979101 -0.0067623137470498003 0 0.038836493155615021 -0.0073208541475593206 0 0.037716156914810763 -0.0076556649121473598 0 0.038214955563979101 -0.0067623137470498003 0 0.038483142089045061 -0.0076895336125581189 0 0.038214955563979101 -0.0067623137470498003 0 0.038483142089045061 -0.0076895336125581189 0 0.038836493155615021 -0.0073208541475593206 0 0.039482859723738654 -0.0079422923486564823 0 0.038483142089045061 -0.0076895336125581189 0 0.038924016013042601 -0.0086817701035317423 0 0.038483142089045061 -0.0076895336125581189 0 0.038924016013042601 -0.0086817701035317423 0 0.037961584606682558 -0.0084275441579712111 0 0.037716156914810763 -0.0076556649121473598 0 0.037087854226875147 -0.0082371236708162314 0 0.036701182977291053 -0.0073401770408403942 0 0.037716156914810763 -0.0076556649121473598 0 0.037961584606682558 -0.0084275441579712111 0 0.037087854226875147 -0.0082371236708162314 0 0.037716156914810763 -0.0076556649121473598 0 0.038483142089045061 -0.0076895336125581189 0 0.037961584606682558 -0.0084275441579712111 0 0.037356954609367041 -0.0091346847229560411 0 0.037961584606682558 -0.0084275441579712111 0 0.037087854226875147 -0.0082371236708162314 0 0.036508785567741273 -0.009017246427706337 0 0.037087854226875147 -0.0082371236708162314 0 0.036011795860498193 -0.0081236963313917401 0 0.037087854226875147 -0.0082371236708162314 0 0.036011795860498193 -0.0081236963313917401 0 0.036701182977291053 -0.0073401770408403942 0 0.034999974855599351 -0.0096626584049512802 0 0.03499996613948806 -0.0076835920313837397 0 0.036011795860498193 -0.0081236963313917401 0 0.03499996613948806 -0.0076835920313837397 0 0.036011795860498193 -0.0081236963313917401 0 0.035848459992113391 -0.0069668679429814757 0 0.034999974281887725 -0.0057045494248227418 0 0.03499996613948806 -0.0076835920313837397 0 0.035848459992113391 -0.0069668679429814757 0 0.036571533672586608 -0.0060349399857976532 0 0.037389231602216945 -0.0065692425639474888 0 0.036701182977291053 -0.0073401770408403942 0 0.036571533672586608 -0.0060349399857976532 0 0.035848459992113391 -0.0069668679429814757 0 0.036701182977291053 -0.0073401770408403942 0 0.036011795860498193 -0.0081236963313917401 0 0.035848459992113391 -0.0069668679429814757 0 0.036701182977291053 -0.0073401770408403942 0 0.0015198620389870738 -0.0091434483007361688 0 0.0014726835104708666 -0.0083136182089890449 0 0.0022932651845266748 -0.0092861988533753138 0 0.0023916908183686187 -0.0092918133769377288 0 0.0017040931926423368 -0.0089401724798466586 0 0.0023756502238650563 -0.010009899612651394 0 0.0018563905232984409 -0.0088546320307169545 0 0.0023514417178945287 -0.0097135977705867012 0 0.0015198620389870738 -0.0091434483007361688 0 0.0012039580593315841 -0.0086184414926059865 0 0.0014726835104708666 -0.0083136182089890449 0 0.0015198620389870738 -0.0091434483007361688 0 0.00071960116718935757 -0.0092002871097399894 0 0.0012039580593315841 -0.0086184414926059865 0 0.0012039580593315841 -0.0086184414926059865 0 0.0011561594631261337 -0.0083415896194507476 0 0.0014726835104708666 -0.0083136182089890449 0 0.0012039580593315841 -0.0086184414926059865 0 0.0011561594631261337 -0.0083415896194507476 0 0.00077977929427474062 -0.0083928987964646141 0 0.0011561594631261337 -0.0083415896194507476 0 0.0014726835104708666 -0.0083136182089890449 0 0.0011609072453286184 -0.008055084779895921 0 0.0011561594631261337 -0.0083415896194507476 0 0.00077977929427474062 -0.0083928987964646141 0 0.00097304544582315603 -0.0082576656736338249 0 0.0023916908183686187 -0.0092918133769377288 0 0.0016948428420523669 -0.0086737679967890929 0 0.0031378097462889994 -0.0090778354292015487 0 0.0023916908183686187 -0.0092918133769377288 0 0.0016948428420523669 -0.0086737679967890929 0 0.0017040931926423368 -0.0089401724798466586 0 0.0016948428420523669 -0.0086737679967890929 0 0.0031378097462889994 -0.0090778354292015487 0 0.0031577842286199006 -0.0080301009048444737 0 0.0031378097462889994 -0.0090778354292015487 0 0.0039666812817880457 -0.0096189617745145312 0 0.0041349707184490121 -0.0089431443680968187 0 0.0031378097462889994 -0.0090778354292015487 0 0.0031577842286199006 -0.0080301009048444737 0 0.0041349707184490121 -0.0089431443680968187 0 0.0039666812817880457 -0.0096189617745145312 0 0.0030226338012423861 -0.009750052974347034 0 0.0036191334801824945 -0.010095650996610049 0 0.0031378097462889994 -0.0090778354292015487 0 0.0039666812817880457 -0.0096189617745145312 0 0.0030226338012423861 -0.009750052974347034 0 0.0023916908183686187 -0.0092918133769377288 0 0.0031378097462889994 -0.0090778354292015487 0 0.0030226338012423861 -0.009750052974347034 0 0.0023916908183686187 -0.0092918133769377288 0 0.0030226338012423861 -0.009750052974347034 0 0.0023756502238650563 -0.010009899612651394 0 0.0030226338012423861 -0.009750052974347034 0 0.0030025107386363768 -0.01096298275812739 0 0.0023756502238650563 -0.010009899612651394 0 0.0030226338012423861 -0.009750052974347034 0 0.0036191334801824945 -0.010095650996610049 0 0.0030025107386363768 -0.01096298275812739 0 0.0028761886675736539 -0.010638043269913853 0 0.0023514417178945287 -0.0097135977705867012 0 0.0036191334801824945 -0.010095650996610049 0 0.0036700850057577281 -0.010684656125707457 0 0.0046355105030806013 -0.010033202364353512 0 0.0036191334801824945 -0.010095650996610049 0 0.0036700850057577281 -0.010684656125707457 0 0.0030025107386363768 -0.01096298275812739 0 0.0036700850057577281 -0.010684656125707457 0 0.003736540086373545 -0.011256768680796402 0 0.0041026198971144219 -0.011079651355679549 0 0.0036700850057577281 -0.010684656125707457 0 0.003736540086373545 -0.011256768680796402 0 0.0030025107386363768 -0.01096298275812739 0 0.0030874012923168348 -0.010640748578406852 0 0.0024054729151974739 -0.011039069280570881 0 0.0019837626302990643 -0.010224582942567922 0 0.0024054729151974739 -0.011039069280570881 0 0.0019837626302990643 -0.010224582942567922 0 0.0017065314973428031 -0.011154543269013781 0 0.0015198620389870738 -0.0091434483007361688 0 0.0019837626302990643 -0.010224582942567922 0 0.0022932651845266748 -0.0092861988533753138 0 0.0030874012923168348 -0.010640748578406852 0 0.0019837626302990643 -0.010224582942567922 0 0.0022932651845266748 -0.0092861988533753138 0 0.0015198620389870738 -0.0091434483007361688 0 0.0019837626302990643 -0.010224582942567922 0 0.0012040095521733609 -0.0098179579293368874 0 0.00071960116718935757 -0.0092002871097399894 0 0.0012040095521733609 -0.0098179579293368874 0 0.00031666873564423963 -0.009862478576064676 0 0.0015198620389870738 -0.0091434483007361688 0 0.00071960116718935757 -0.0092002871097399894 0 0.0012040095521733609 -0.0098179579293368874 0 0.0019837626302990643 -0.010224582942567922 0 0.0012040095521733609 -0.0098179579293368874 0 0.0010958534273924395 -0.010553504704581433 0 0.0012040095521733609 -0.0098179579293368874 0 0.0010958534273924395 -0.010553504704581433 0 0.00031666873564423963 -0.009862478576064676 0 0.0019837626302990643 -0.010224582942567922 0 0.0010958534273924395 -0.010553504704581433 0 0.0017065314973428031 -0.011154543269013781 0 0.0010958534273924395 -0.010553504704581433 0 0.0017065314973428031 -0.011154543269013781 0 0.00078036095727556385 -0.011466753126793024 0 0.0010958534273924395 -0.010553504704581433 0 0.00078036095727556385 -0.011466753126793024 0 0.00012939537749458453 -0.010959072377919011 0 0.00012939537749458453 -0.010959072377919011 0 0.00011859865720512675 -0.011983664287493324 0 -0.00048123505159739839 -0.011633671711632413 0 0.00078036095727556385 -0.011466753126793024 0 0.00012939537749458453 -0.010959072377919011 0 0.00011859865720512675 -0.011983664287493324 0 0.0010958534273924395 -0.010553504704581433 0 0.00012939537749458453 -0.010959072377919011 0 0.00031666873564423963 -0.009862478576064676 0 0.00012939537749458453 -0.010959072377919011 0 -0.0010570304614293169 -0.011123214378444539 0 -0.00066016556040387271 -0.010147672664087523 0 0.00012939537749458453 -0.010959072377919011 0 -0.0010570304614293169 -0.011123214378444539 0 -0.00048123505159739839 -0.011633671711632413 0 -0.0010570304614293169 -0.011123214378444539 0 -0.0017211338574592509 -0.0102892637117137 0 -0.0024314483288940094 -0.011765235857343336 0 -0.0010570304614293169 -0.011123214378444539 0 -0.0024314483288940094 -0.011765235857343336 0 -0.0012497521714478221 -0.011978971958637841 0 -0.0010570304614293169 -0.011123214378444539 0 -0.0012497521714478221 -0.011978971958637841 0 -0.00048123505159739839 -0.011633671711632413 0 -0.0010570304614293169 -0.011123214378444539 0 -0.0017211338574592509 -0.0102892637117137 0 -0.00066016556040387271 -0.010147672664087523 0 -0.0017211338574592509 -0.0102892637117137 0 -0.0026206148452859956 -0.0095202980471279161 0 -0.00080008322941896878 -0.0085637365852126723 0 -0.0017211338574592509 -0.0102892637117137 0 -0.00066016556040387271 -0.010147672664087523 0 -0.00080008322941896878 -0.0085637365852126723 0 0.00071960116718935757 -0.0092002871097399894 0 0.00031666873564423963 -0.009862478576064676 0 -0.00080008322941896878 -0.0085637365852126723 0 0.00031666873564423963 -0.009862478576064676 0 -0.00066016556040387271 -0.010147672664087523 0 -0.00080008322941896878 -0.0085637365852126723 0 0.00012939537749458453 -0.010959072377919011 0 0.00031666873564423963 -0.009862478576064676 0 -0.00066016556040387271 -0.010147672664087523 0 -0.0049475550984509897 -0.011888682451992975 0 -0.0033737168485925093 -0.01123790209259912 0 -0.0024314483288940094 -0.011765235857343336 0 -0.0049475550984509897 -0.011888682451992975 0 -0.0042450428080252813 -0.011104164493752285 0 -0.0033737168485925093 -0.01123790209259912 0 -0.0049369255745273146 -0.010679359273340017 0 -0.0042450428080252813 -0.011104164493752285 0 -0.0037358052554569794 -0.010614690270689498 0 -0.0049475550984509897 -0.011888682451992975 0 -0.0049369255745273146 -0.010679359273340017 0 -0.0042450428080252813 -0.011104164493752285 0 -0.0042450428080252813 -0.011104164493752285 0 -0.0037358052554569794 -0.010614690270689498 0 -0.0033737168485925093 -0.01123790209259912 0 -0.0017211338574592509 -0.0102892637117137 0 -0.002769470949361248 -0.010512632033331549 0 -0.0024314483288940094 -0.011765235857343336 0 -0.0037358052554569794 -0.010614690270689498 0 -0.002769470949361248 -0.010512632033331549 0 -0.0033737168485925093 -0.01123790209259912 0 -0.002769470949361248 -0.010512632033331549 0 -0.0033737168485925093 -0.01123790209259912 0 -0.0024314483288940094 -0.011765235857343336 0 -0.0017211338574592509 -0.0102892637117137 0 -0.002769470949361248 -0.010512632033331549 0 -0.0026206148452859956 -0.0095202980471279161 0 -0.0026206148452859956 -0.0095202980471279161 0 -0.0032686304967415331 -0.0094661340712197447 0 -0.0033726775099201709 -0.0099312155302808576 0 -0.0026206148452859956 -0.0095202980471279161 0 -0.0032343400001882553 -0.0088738827192752952 0 -0.0032658350786853281 -0.0090160060597146742 0 -0.0026206148452859956 -0.0095202980471279161 0 -0.0032686304967415331 -0.0094661340712197447 0 -0.0032658350786853281 -0.0090160060597146742 0 -0.0034733831338051614 -0.0092487269650254628 0 -0.0032686304967415331 -0.0094661340712197447 0 -0.0032658350786853281 -0.0090160060597146742 0 -0.0037358052554569794 -0.010614690270689498 0 -0.002769470949361248 -0.010512632033331549 0 -0.0033726775099201709 -0.0099312155302808576 0 -0.002769470949361248 -0.010512632033331549 0 -0.0026206148452859956 -0.0095202980471279161 0 -0.0033726775099201709 -0.0099312155302808576 0 -0.0053845945713725234 -0.0094330850626933894 0 -0.0049369255745273146 -0.010679359273340017 0 -0.0042385912292277157 -0.010006996770351283 0 -0.0047475591398713803 -0.0099125999459275561 0 -0.0026003229823889475 -0.0095869285688798007 0 -0.0053845945713725234 -0.0094330850626933894 0 -0.0038342168169151199 -0.009490468821191889 0 -0.0032459411851344789 -0.0088584401596099819 0 -0.0053845945713725234 -0.0094330850626933894 0 -0.0038342168169151199 -0.009490468821191889 0 -0.0042385912292277157 -0.010006996770351283 0 -0.0037358052554569794 -0.010614690270689498 0 -0.0033726775099201709 -0.0099312155302808576 0 -0.0042385912292277157 -0.010006996770351283 0 -0.0033726775099201709 -0.0099312155302808576 0 -0.0038342168169151199 -0.009490468821191889 0 -0.0042385912292277157 -0.010006996770351283 0 -0.0032686304967415331 -0.0094661340712197447 0 -0.0033726775099201709 -0.0099312155302808576 0 -0.0038342168169151199 -0.009490468821191889 0 -0.0034733831338051614 -0.0092487269650254628 0 -0.0038342168169151199 -0.009490468821191889 0 -0.0032459411851344789 -0.0088584401596099819 0 -0.0034733831338051614 -0.0092487269650254628 0 -0.0032686304967415331 -0.0094661340712197447 0 -0.0038342168169151199 -0.009490468821191889 0 -0.0049369255745273146 -0.010679359273340017 0 -0.0037358052554569794 -0.010614690270689498 0 -0.0042385912292277157 -0.010006996770351283 0 -0.0056170157183498826 -0.010421386036883728 0 -0.004721855868561756 -0.009533627594902375 0 -0.003933545368146006 -0.01019873379921684 0 -0.004721855868561756 -0.009533627594902375 0 -0.003933545368146006 -0.01019873379921684 0 -0.0039818877027869648 -0.0092994070726083611 0 -0.000214550432786235 -0.0090058730983089887 0 9.5236563404022106e-05 -0.0086930788784771382 0 -9.1997634141647214e-05 -0.0083715760639553553 0 -0.000214550432786235 -0.0090058730983089887 0 9.5236563404022106e-05 -0.0086930788784771382 0 0.00047358955401754067 -0.0088667361845701457 0 -0.0026206148452859956 -0.0095202980471279161 0 -0.0032343400001882553 -0.0088738827192752952 0 -0.00080008322941896878 -0.0085637365852126723 0 -0.0026003229823889475 -0.0095869285688798007 0 -0.0020896983214015829 -0.0086181788505336563 0 -0.0034733831338051614 -0.0092487269650254628 0 -0.0032459411851344789 -0.0088584401596099819 0 -0.0032658350786853281 -0.0090160060597146742 0 -0.0026003229823889475 -0.0095869285688798007 0 -0.0026007777283571874 -0.0095849775283582597 0 -0.003933545368146006 -0.01019873379921684 0 -0.0036521667267223131 -0.0086539029411188458 0 -0.0039818877027869648 -0.0092994070726083611 0 9.5236563404022106e-05 -0.0086930788784771382 0 -9.1997634141647214e-05 -0.0083715760639553553 0 0.00027400360969681326 -0.008430200722567326 0 -0.0036521667267223131 -0.0086539029411188458 0 -0.0038908773773395325 -0.0089439662569902253 0 -0.0038871763635684505 -0.0086268625922697479 0 -0.0036521667267223131 -0.0086539029411188458 0 -0.0039818877027869648 -0.0092994070726083611 0 -0.0038908773773395325 -0.0089439662569902253 0 -0.0057269505603552897 -0.0089420343451536433 0 -0.004721855868561756 -0.009533627594902375 0 -0.0053308874832456834 -0.0081049582295455898 0 -0.0050473231452634899 -0.0089970085177248412 0 -0.005179533108195745 -0.0086723808290938252 0 -0.004721855868561756 -0.009533627594902375 0 -0.0038871763635684505 -0.0086268625922697479 0 -0.004834695651336751 -0.0081246571467548188 0 -0.004721855868561756 -0.009533627594902375 0 -0.0038908773773395325 -0.0089439662569902253 0 -0.0038871763635684505 -0.0086268625922697479 0 -0.004721855868561756 -0.009533627594902375 0 -0.0039818877027869648 -0.0092994070726083611 0 -0.0038908773773395325 -0.0089439662569902253 0 0.0012039580593315841 -0.0086184414926059865 0 0.00047358955401754067 -0.0088667361845701457 0 0.00077977929427474062 -0.0083928987964646141 0 0.00071960116718935757 -0.0092002871097399894 0 0.0012039580593315841 -0.0086184414926059865 0 -0.00080008322941896878 -0.0085637365852126723 0 0.00024381015440738885 -0.0088299277358158765 0 -0.00055291713049423043 -0.0090147289863930363 0 -0.0026003229823889475 -0.0095869285688798007 0 -0.00055291713049423043 -0.0090147289863930363 0 9.5236563404022106e-05 -0.0086930788784771382 0 0.00047358955401754067 -0.0088667361845701457 0 0.00027400360969681326 -0.008430200722567326 0 0.00027400360969681326 -0.008430200722567326 0 0.00077977929427474062 -0.0083928987964646141 0 0.00047012792500613677 -0.008131599039673575 0 0.00047358955401754067 -0.0088667361845701457 0 0.00027400360969681326 -0.008430200722567326 0 0.00077977929427474062 -0.0083928987964646141 0 -9.1997634141647214e-05 -0.0083715760639553553 0 0.00027400360969681326 -0.008430200722567326 0 0.00017860784866202646 -0.0081219229144668878 0 0.00082981536700434751 -0.0081111443021323528 0 0.00068736817866632777 -0.0078364006275264565 0 0.0011609072453286184 -0.008055084779895921 0 0.00077977929427474062 -0.0083928987964646141 0 0.00082981536700434751 -0.0081111443021323528 0 0.00097304544582315603 -0.0082576656736338249 0 0.00082981536700434751 -0.0081111443021323528 0 0.00047012792500613677 -0.008131599039673575 0 0.00068736817866632777 -0.0078364006275264565 0 0.00077977929427474062 -0.0083928987964646141 0 0.00082981536700434751 -0.0081111443021323528 0 0.00047012792500613677 -0.008131599039673575 0 0.00027400360969681326 -0.008430200722567326 0 0.00047012792500613677 -0.008131599039673575 0 0.00017860784866202646 -0.0081219229144668878 0 0.00047012792500613677 -0.008131599039673575 0 0.00017860784866202646 -0.0081219229144668878 0 0.00030275196570367905 -0.0078766135649912857 0 0.00030275196570367905 -0.0078766135649912857 0 -5.1570628702513752e-05 -0.0077984903307401496 0 0.00030330992230038638 -0.007541298444001563 0 0.00017860784866202646 -0.0081219229144668878 0 0.00030275196570367905 -0.0078766135649912857 0 -5.1570628702513752e-05 -0.0077984903307401496 0 0.00030275196570367905 -0.0078766135649912857 0 0.00068736817866632777 -0.0078364006275264565 0 0.00030330992230038638 -0.007541298444001563 0 0.00068736817866632777 -0.0078364006275264565 0 0.00075920053963226695 -0.007395107338909461 0 0.0011915468715171975 -0.0076178172328033537 0 0.00047012792500613677 -0.008131599039673575 0 0.00030275196570367905 -0.0078766135649912857 0 0.00068736817866632777 -0.0078364006275264565 0 -0.0038981771695023111 -0.0083519980366999029 0 -0.0036591513780790878 -0.0084893231825252657 0 -0.0038492394835771219 -0.0085729165328148373 0 -0.0038871763635684505 -0.0086268625922697479 0 -0.0036591513780790878 -0.0084893231825252657 0 -0.0038492394835771219 -0.0085729165328148373 0 -0.0048522584848426581 -0.0087685181077504313 0 -0.005179533108195745 -0.0086723808290938252 0 -0.0020896983214015829 -0.0086181788505336563 0 -0.0017544186711946055 -0.00788862764594319 0 -0.0036521667267223131 -0.0086539029411188458 0 -0.0038871763635684505 -0.0086268625922697479 0 -0.0036591513780790878 -0.0084893231825252657 0 -0.0036521667267223131 -0.0086539029411188458 0 -0.0036591513780790878 -0.0084893231825252657 0 -0.0032738928551311521 -0.0084033357179586973 0 -9.1997634141647214e-05 -0.0083715760639553553 0 0.00017860784866202646 -0.0081219229144668878 0 -5.1570628702513752e-05 -0.0077984903307401496 0 -0.0036591513780790878 -0.0084893231825252657 0 -0.0032738928551311521 -0.0084033357179586973 0 -0.0036842212046608661 -0.0082528582820389964 0 -0.0038981771695023111 -0.0083519980366999029 0 -0.0036591513780790878 -0.0084893231825252657 0 -0.0036842212046608661 -0.0082528582820389964 0 -0.0039943299059165991 -0.0080211390930121952 0 -0.0036842212046608661 -0.0082528582820389964 0 -0.0035651649977575459 -0.0079235736183955775 0 -0.0051908664169163111 -0.0078623822833036976 0 -0.0046315743644232427 -0.0078014957600127241 0 -0.0032738928551311521 -0.0084033357179586973 0 -0.0036842212046608661 -0.0082528582820389964 0 -0.0035651649977575459 -0.0079235736183955775 0 -0.0017544186711946055 -0.00788862764594319 0 -0.0014823011199215374 -0.0070798068730569689 0 -0.0032738928551311521 -0.0084033357179586973 0 -0.0035651649977575459 -0.0079235736183955775 0 -0.0026685426306455968 -0.007709072195890539 0 -0.0035651649977575459 -0.0079235736183955775 0 -0.0030279348634585216 -0.0071001754596092936 0 -0.0026685426306455968 -0.007709072195890539 0 -0.0019152137381169916 -0.0064288240831578934 0 -0.0030279348634585216 -0.0071001754596092936 0 -0.0026685426306455968 -0.007709072195890539 0 -0.0035651649977575459 -0.0079235736183955775 0 -0.0030279348634585216 -0.0071001754596092936 0 -0.0039534950062333372 -0.007200838794969998 0 -0.0045730554537059829 -0.0081962813084051934 0 -0.0035651649977575459 -0.0079235736183955775 0 -0.0039534950062333372 -0.007200838794969998 0 0.00068736817866632777 -0.0078364006275264565 0 0.00075920053963226695 -0.007395107338909461 0 0.00030330992230038638 -0.007541298444001563 0 0.00075920053963226695 -0.007395107338909461 0 0.00030330992230038638 -0.007541298444001563 0 0.00030009017035182556 -0.007041402737259614 0 0.00030330992230038638 -0.007541298444001563 0 -0.00016347754747710172 -0.0071472442051974065 0 0.00030009017035182556 -0.007041402737259614 0 -5.1570628702513752e-05 -0.0077984903307401496 0 0.00030330992230038638 -0.007541298444001563 0 -0.00016347754747710172 -0.0071472442051974065 0 -0.001237877320096071 -0.0060411771686989715 0 -0.0014823011199215374 -0.0070798068730569689 0 -0.00044963318326874757 -0.0062299438586420368 0 -0.00016347754747710172 -0.0071472442051974065 0 0.00030009017035182556 -0.007041402737259614 0 0.00045353821633486064 -0.0066314310065320008 0 0.00030009017035182556 -0.007041402737259614 0 0.00079332301442274497 -0.0070160924426524171 0 0.00075920053963226695 -0.007395107338909461 0 0.00030009017035182556 -0.007041402737259614 0 0.00079332301442274497 -0.0070160924426524171 0 0.00045353821633486064 -0.0066314310065320008 0 0.00079332301442274497 -0.0070160924426524171 0 0.00096923635447055258 -0.0067814157833628527 0 0.00075920053963226695 -0.007395107338909461 0 0.00079332301442274497 -0.0070160924426524171 0 0.0013292136651377956 -0.0070864255641478477 0 0.00079332301442274497 -0.0070160924426524171 0 0.00096923635447055258 -0.0067814157833628527 0 0.0013292136651377956 -0.0070864255641478477 0 0.001363545246295609 -0.0067543893923951541 0 0.0013292136651377956 -0.0070864255641478477 0 0.0015589131634063133 -0.0068356713840158475 0 0.001363545246295609 -0.0067543893923951541 0 0.00096923635447055258 -0.0067814157833628527 0 0.0013292136651377956 -0.0070864255641478477 0 0.0013292136651377956 -0.0070864255641478477 0 0.00176338932327065 -0.0069533148353286955 0 0.0016006505638203993 -0.0073580577310910413 0 0.0017215348755997464 -0.0067986669363415764 0 0.00176338932327065 -0.0069533148353286955 0 0.0015589131634063133 -0.0068356713840158475 0 0.0013292136651377956 -0.0070864255641478477 0 0.00176338932327065 -0.0069533148353286955 0 0.0015589131634063133 -0.0068356713840158475 0 0.00075920053963226695 -0.007395107338909461 0 0.0013292136651377956 -0.0070864255641478477 0 0.0011915468715171975 -0.0076178172328033537 0 0.0013292136651377956 -0.0070864255641478477 0 0.0016006505638203993 -0.0073580577310910413 0 0.0011915468715171975 -0.0076178172328033537 0 0.00068736817866632777 -0.0078364006275264565 0 0.0011915468715171975 -0.0076178172328033537 0 0.0011609072453286184 -0.008055084779895921 0 0.0011915468715171975 -0.0076178172328033537 0 0.0016768591216067992 -0.0079850987688949455 0 0.0011609072453286184 -0.008055084779895921 0 0.0016006505638203993 -0.0073580577310910413 0 0.0011915468715171975 -0.0076178172328033537 0 0.0016768591216067992 -0.0079850987688949455 0 0.0016006505638203993 -0.0073580577310910413 0 0.0016768591216067992 -0.0079850987688949455 0 0.0020213152304526588 -0.0076601785816662387 0 0.0016948428420523669 -0.0086737679967890929 0 0.0016768591216067992 -0.0079850987688949455 0 0.0011609072453286184 -0.008055084779895921 0 0.0016948428420523669 -0.0086737679967890929 0 0.0016768591216067992 -0.0079850987688949455 0 0.0022920918284682853 -0.0082496463662012371 0 0.0018563905232984409 -0.0088546320307169545 0 0.001634352217772579 -0.0084669320454864236 0 0.0016948428420523669 -0.0086737679967890929 0 0.0017040931926423368 -0.0089401724798466586 0 0.0011609072453286184 -0.008055084779895921 0 0.0011561594631261337 -0.0083415896194507476 0 0.00097304544582315603 -0.0082576656736338249 0 0.0011609072453286184 -0.008055084779895921 0 0.00082981536700434751 -0.0081111443021323528 0 0.00097304544582315603 -0.0082576656736338249 0 0.0011609072453286184 -0.008055084779895921 0 0.0022920918284682853 -0.0082496463662012371 0 0.0020213152304526588 -0.0076601785816662387 0 0.0034233860904358268 -0.007842913511772364 0 0.0031577842286199006 -0.0080301009048444737 0 0.0040254836811896609 -0.0081944581702651734 0 0.0041349707184490121 -0.0089431443680968187 0 0.0022311412146444735 -0.0084599312559938897 0 0.0028129214062297767 -0.0081574973649984894 0 0.0016768591216067992 -0.0079850987688949455 0 0.0022920918284682853 -0.0082496463662012371 0 0.0020213152304526588 -0.0076601785816662387 0 0.0028129214062297767 -0.0081574973649984894 0 0.0038054295523204974 -0.0076558449918704913 0 0.0031577842286199006 -0.0080301009048444737 0 0.0040254836811896609 -0.0081944581702651734 0 0.0042504066813959648 -0.0075664371038625224 0 0.0020213152304526588 -0.0076601785816662387 0 0.0021957811783769174 -0.0070533260817788029 0 0.0034233860904358268 -0.007842913511772364 0 0.00176338932327065 -0.0069533148353286955 0 0.0016006505638203993 -0.0073580577310910413 0 0.0021957811783769174 -0.0070533260817788029 0 0.0016006505638203993 -0.0073580577310910413 0 0.0020213152304526588 -0.0076601785816662387 0 0.0021957811783769174 -0.0070533260817788029 0 0.001943581500708268 -0.0068411582453253988 0 0.00176338932327065 -0.0069533148353286955 0 0.0021957811783769174 -0.0070533260817788029 0 0.001943581500708268 -0.0068411582453253988 0 0.0021957811783769174 -0.0070533260817788029 0 0.0021325277221424556 -0.0069598898107228521 0 0.0021957811783769174 -0.0070533260817788029 0 0.0021325277221424556 -0.0069598898107228521 0 0.0021033606516066214 -0.0068091009685560802 0 0.0029320214220690892 -0.008102384466133046 0 0.003646151736739457 -0.0084374082460790725 0 0.0021277619575430251 -0.0070810202669574331 0 0.0021325277221424556 -0.0069598898107228521 0 0.0021033606516066214 -0.0068091009685560802 0 0.0021957811783769174 -0.0070533260817788029 0 0.0037073817254716854 -0.0065341907268435528 0 0.0034233860904358268 -0.007842913511772364 0 0.0037073817254716854 -0.0065341907268435528 0 0.0050997621157722797 -0.0070413831043458176 0 0.0034233860904358268 -0.007842913511772364 0 0.004450430654999598 -0.0073176330180836566 0 0.0038054295523204974 -0.0076558449918704913 0 0.0016469756120016028 -0.0071529849047873018 0 0.0021033606516066214 -0.0068091009685560802 0 0.0011018600829130875 -0.0068054683241946749 0 0.0037073817254716854 -0.0065341907268435528 0 0.0054455988956803201 -0.0061862115515167824 0 0.0050997621157722797 -0.0070413831043458176 0 0.0016469756120016028 -0.0071529849047873018 0 0.0021277619575430251 -0.0070810202669574331 0 0.0021033606516066214 -0.0068091009685560802 0 0.003646151736739457 -0.0084374082460790725 0 0.006811997227619911 -0.0096930833612384332 0 0.0095612613768705466 -0.0090898412661999696 0 0.0095692316256512019 -0.0090910046640323896 0 0.0095670408809109455 -0.0090904044718655673 0 0.0095612613768705466 -0.0090898412661999696 0 0.0095727473696432114 -0.0090876222251678861 0 0.0095692316256512019 -0.0090910046640323896 0 0.006811997227619911 -0.0096930833612384332 0 0.0089091897961588503 -0.010312134141042196 0 0.0095692316256512019 -0.0090910046640323896 0 0.0095689172341922642 -0.0090898640494923959 0 0.0095670408809109455 -0.0090904044718655673 0 0.0054455988956803201 -0.0061862115515167824 0 0.005590854829212768 -0.0072745553332793349 0 0.0050997621157722797 -0.0070413831043458176 0 0.005590854829212768 -0.0072745553332793349 0 0.0050997621157722797 -0.0070413831043458176 0 0.0050730789784263061 -0.0077606970809290486 0 0.006811997227619911 -0.0096930833612384332 0 0.0078714172186544491 -0.0084932053335217816 0 0.005590854829212768 -0.0072745553332793349 0 0.005776944324430152 -0.008028972030137204 0 0.0050730789784263061 -0.0077606970809290486 0 0.005776944324430152 -0.008028972030137204 0 0.0050730789784263061 -0.0077606970809290486 0 0.0052150825232207751 -0.0089721009761039808 0 0.0078714172186544491 -0.0084932053335217816 0 0.0091751297491569801 -0.0080358363001563904 0 0.0095689172341922642 -0.0090898640494923959 0 0.0095670408809109455 -0.0090904044718655673 0 0.0095669215422506341 -0.0090835545960881378 0 0.010893196577949304 -0.007802002959719832 0 0.0091751297491569801 -0.0080358363001563904 0 0.014849971439475607 -0.0068524757729972767 0 0.014537527602394171 -0.0073177287236599392 0 0.015031283385239633 -0.0072512873241219328 0 0.0091751297491569801 -0.0080358363001563904 0 0.011791640922823062 -0.0081163958364809038 0 0.014537527602394171 -0.0073177287236599392 0 0.015100874567330055 -0.0076648552554026278 0 0.014700392576362476 -0.0080560986570592241 0 0.014537527602394171 -0.0073177287236599392 0 0.015031283385239633 -0.0072512873241219328 0 0.015100874567330055 -0.0076648552554026278 0 0.0091751297491569801 -0.0080358363001563904 0 0.00658611380228959 -0.0092232148667986888 0 0.0045356141056171221 -0.0082731984673298144 0 0.0050730789784263061 -0.0077606970809290486 0 0.0052150825232207751 -0.0089721009761039808 0 0.0040254836811896609 -0.0081944581702651734 0 0.0045356141056171221 -0.0082731984673298144 0 0.0041349707184490121 -0.0089431443680968187 0 0.0040254836811896609 -0.0081944581702651734 0 0.0045356141056171221 -0.0082731984673298144 0 0.0042504066813959648 -0.0075664371038625224 0 0.0050997621157722797 -0.0070413831043458176 0 0.0042504066813959648 -0.0075664371038625224 0 0.0050730789784263061 -0.0077606970809290486 0 0.0045356141056171221 -0.0082731984673298144 0 0.0042504066813959648 -0.0075664371038625224 0 0.0050730789784263061 -0.0077606970809290486 0 0.01660731897905247 -0.0064171944278497376 0 0.016133990290616282 -0.0068677354781058195 0 0.016962125709524906 -0.0071173510959138689 0 0.017109996722683367 -0.0065451727629785997 0 0.01660731897905247 -0.0064171944278497376 0 0.016962125709524906 -0.0071173510959138689 0 0.016987653538128054 -0.0061738731844645798 0 0.017109996722683367 -0.0065451727629785997 0 0.01660731897905247 -0.0064171944278497376 0 0.016987653538128054 -0.0061738731844645798 0 0.01660731897905247 -0.0064171944278497376 0 0.016686636026214154 -0.0060365094754156008 0 0.016969207865754066 -0.0057969909296121834 0 0.016987653538128054 -0.0061738731844645798 0 0.016686636026214154 -0.0060365094754156008 0 0.016447980768488749 -0.0059284137513123886 0 0.016686636026214154 -0.0060365094754156008 0 0.016427450007205975 -0.0061085512620412995 0 0.01660731897905247 -0.0064171944278497376 0 0.016686636026214154 -0.0060365094754156008 0 0.016427450007205975 -0.0061085512620412995 0 0.01660731897905247 -0.0064171944278497376 0 0.016427450007205975 -0.0061085512620412995 0 0.016153117965027323 -0.0062371861086246601 0 0.016427450007205975 -0.0061085512620412995 0 0.016246249791258906 -0.0059528732309499007 0 0.016153117965027323 -0.0062371861086246601 0 0.016447980768488749 -0.0059284137513123886 0 0.016427450007205975 -0.0061085512620412995 0 0.016246249791258906 -0.0059528732309499007 0 0.016246249791258906 -0.0059528732309499007 0 0.016040844362590703 -0.0059671367708352433 0 0.016153117965027323 -0.0062371861086246601 0 0.016040844362590703 -0.0059671367708352433 0 0.016153117965027323 -0.0062371861086246601 0 0.015752870667444022 -0.0061352478469930034 0 0.016153117965027323 -0.0062371861086246601 0 0.016133990290616282 -0.0068677354781058195 0 0.015769180112837913 -0.0064507139483381071 0 0.01660731897905247 -0.0064171944278497376 0 0.016153117965027323 -0.0062371861086246601 0 0.016133990290616282 -0.0068677354781058195 0 0.015961452922526504 -0.0067790516113128653 0 0.015251506434408138 -0.006624530022149939 0 0.015388464592664314 -0.0071075883119177726 0 0.016133990290616282 -0.0068677354781058195 0 0.015769180112837913 -0.0064507139483381071 0 0.015251506434408138 -0.006624530022149939 0 0.016179350665080125 -0.0068547485835053351 0 0.015764523560590684 -0.0067366516691140773 0 0.015769180112837913 -0.0064507139483381071 0 0.015486607100066212 -0.0064030053511682939 0 0.015251506434408138 -0.006624530022149939 0 0.011412188213591801 -0.0098410247609558837 0 0.011636258208804437 -0.0082271242974321368 0 0.016153117965027323 -0.0062371861086246601 0 0.015769180112837913 -0.0064507139483381071 0 0.015752870667444022 -0.0061352478469930034 0 0.015685366020256226 -0.0057951800960201506 0 0.015752870667444022 -0.0061352478469930034 0 0.015229938399691778 -0.0063265677972472404 0 0.015918207568542776 -0.0057719960830449083 0 0.016040844362590703 -0.0059671367708352433 0 0.015752870667444022 -0.0061352478469930034 0 0.015752870667444022 -0.0061352478469930034 0 0.015486607100066212 -0.0064030053511682939 0 0.015229938399691778 -0.0063265677972472404 0 0.015769180112837913 -0.0064507139483381071 0 0.015752870667444022 -0.0061352478469930034 0 0.015486607100066212 -0.0064030053511682939 0 0.009592858018516193 -0.0090873723915735252 0 0.0095727473696432114 -0.0090876222251678861 0 0.0095794142157376323 -0.0090922489342265909 0 0.0095727473696432114 -0.0090876222251678861 0 0.0095692316256512019 -0.0090910046640323896 0 0.0095794142157376323 -0.0090922489342265909 0 0.010893196577949304 -0.007802002959719832 0 0.011636258208804437 -0.0082271242974321368 0 0.014849971439475607 -0.0068524757729972767 0 0.015229938399691778 -0.0063265677972472404 0 0.015251506434408138 -0.006624530022149939 0 0.0095692316256512019 -0.0090910046640323896 0 0.0095689172341922642 -0.0090898640494923959 0 0.0095794142157376323 -0.0090922489342265909 0 0.015486607100066212 -0.0064030053511682939 0 0.015229938399691778 -0.0063265677972472404 0 0.015251506434408138 -0.006624530022149939 0 0.014849971439475607 -0.0068524757729972767 0 0.015251506434408138 -0.006624530022149939 0 0.015132527981657469 -0.0069612213395874945 0 0.015251506434408138 -0.006624530022149939 0 0.015132527981657469 -0.0069612213395874945 0 0.015388464592664314 -0.0071075883119177726 0 0.014849971439475607 -0.0068524757729972767 0 0.015132527981657469 -0.0069612213395874945 0 0.015031283385239633 -0.0072512873241219328 0 0.015132527981657469 -0.0069612213395874945 0 0.015031283385239633 -0.0072512873241219328 0 0.015388464592664314 -0.0071075883119177726 0 0.015031283385239633 -0.0072512873241219328 0 0.015277274865924985 -0.0074739311459714386 0 0.015388464592664314 -0.0071075883119177726 0 0.015031283385239633 -0.0072512873241219328 0 0.015100874567330055 -0.0076648552554026278 0 0.015277274865924985 -0.0074739311459714386 0 0.015100874567330055 -0.0076648552554026278 0 0.015277274865924985 -0.0074739311459714386 0 0.015227908146806347 -0.0077609113768716438 0 0.015277274865924985 -0.0074739311459714386 0 0.015752530371483102 -0.0074990284572189828 0 0.015388464592664314 -0.0071075883119177726 0 0.015277274865924985 -0.0074739311459714386 0 0.015752530371483102 -0.0074990284572189828 0 0.015227908146806347 -0.0077609113768716438 0 0.015752530371483102 -0.0074990284572189828 0 0.015809551222830013 -0.008046721065577531 0 0.015227908146806347 -0.0077609113768716438 0 0.015961452922526504 -0.0067790516113128653 0 0.015752530371483102 -0.0074990284572189828 0 0.015388464592664314 -0.0071075883119177726 0 0.015961452922526504 -0.0067790516113128653 0 0.015752530371483102 -0.0074990284572189828 0 0.016400285500395139 -0.0073665485281231274 0 0.015752530371483102 -0.0074990284572189828 0 0.016378401713937497 -0.0080225809175286707 0 0.015809551222830013 -0.008046721065577531 0 0.015752530371483102 -0.0074990284572189828 0 0.016400285500395139 -0.0073665485281231274 0 0.016378401713937497 -0.0080225809175286707 0 0.017354404163163851 -0.0078637304417843185 0 0.016400285500395139 -0.0073665485281231274 0 0.016378401713937497 -0.0080225809175286707 0 0.017354404163163851 -0.0078637304417843185 0 0.016400285500395139 -0.0073665485281231274 0 0.016981498804750771 -0.0070094462982707188 0 0.016179350665080125 -0.0068547485835053351 0 0.016935595862212199 -0.0070719235492069142 0 0.015961452922526504 -0.0067790516113128653 0 0.016400285500395139 -0.0073665485281231274 0 0.016981498804750771 -0.0070094462982707188 0 0.017667830027352827 -0.0091065334517843044 0 0.016378401713937497 -0.0080225809175286707 0 0.016329818325971673 -0.0092564474045614652 0 0.017667830027352827 -0.0091065334517843044 0 0.017070268943433775 -0.0098734355824538298 0 0.016329818325971673 -0.0092564474045614652 0 0.016374114971857472 -0.0086464215591702323 0 0.016347415656500226 -0.0091161920250236901 0 0.016378401713937497 -0.0080225809175286707 0 0.015809551222830013 -0.008046721065577531 0 0.01633533221186903 -0.0088438941789991156 0 0.01633533221186903 -0.0088438941789991156 0 0.015652621994298507 -0.0086042932781887765 0 0.015631296762296017 -0.0094275942831284921 0 0.015809551222830013 -0.008046721065577531 0 0.01633533221186903 -0.0088438941789991156 0 0.015652621994298507 -0.0086042932781887765 0 0.015652621994298507 -0.0086042932781887765 0 0.015048610316077937 -0.0089922909918937043 0 0.015631296762296017 -0.0094275942831284921 0 0.015652621994298507 -0.0086042932781887765 0 0.015227908146806347 -0.0077609113768716438 0 0.015048610316077937 -0.0089922909918937043 0 0.015809551222830013 -0.008046721065577531 0 0.015652621994298507 -0.0086042932781887765 0 0.015227908146806347 -0.0077609113768716438 0 0.015227908146806347 -0.0077609113768716438 0 0.015101640396265825 -0.0075046647860476578 0 0.015123363198031606 -0.0072859623831480766 0 0.015100874567330055 -0.0076648552554026278 0 0.015227908146806347 -0.0077609113768716438 0 0.015101640396265825 -0.0075046647860476578 0 0.015100874567330055 -0.0076648552554026278 0 0.015101640396265825 -0.0075046647860476578 0 0.015172033067294945 -0.0074704267932081906 0 0.015101640396265825 -0.0075046647860476578 0 0.015004694422479915 -0.0073397359315520924 0 0.015172033067294945 -0.0074704267932081906 0 0.015185612000579983 -0.0079813797932283045 0 0.015098376048296534 -0.0083989102414285376 0 0.015101640396265825 -0.0075046647860476578 0 0.015004694422479915 -0.0073397359315520924 0 0.015123363198031606 -0.0072859623831480766 0 0.015004694422479915 -0.0073397359315520924 0 0.015123363198031606 -0.0072859623831480766 0 0.014740556793224533 -0.0072310468942027081 0 0.015123363198031606 -0.0072859623831480766 0 0.015077864269532504 -0.0086793368395167922 0 0.014740556793224533 -0.0072310468942027081 0 0.015048610316077937 -0.0089922909918937043 0 0.014855273819915278 -0.010052821376319864 0 0.015631296762296017 -0.0094275942831284921 0 0.015098376048296534 -0.0083989102414285376 0 0.014885838596545036 -0.0094742799390920545 0 0.014855273819915278 -0.010052821376319864 0 0.015631296762296017 -0.0094275942831284921 0 0.015703746368578769 -0.010213688938342376 0 0.01633533221186903 -0.0088438941789991156 0 0.015631296762296017 -0.0094275942831284921 0 0.016296596853235628 -0.0098057934245431091 0 0.016347415656500226 -0.0091161920250236901 0 0.016306338395365137 -0.0098785493579019602 0 0.015631296762296017 -0.0094275942831284921 0 0.016296596853235628 -0.0098057934245431091 0 0.015703746368578769 -0.010213688938342376 0 0.017070268943433775 -0.0098734355824538298 0 0.01635925307079035 -0.010198570922320295 0 0.01682911346055745 -0.010505075831446978 0 0.017070268943433775 -0.0098734355824538298 0 0.016329818325971673 -0.0092564474045614652 0 0.01635925307079035 -0.010198570922320295 0 0.0059131359213352563 -0.0084383539664279403 0 0.0060689275433180815 -0.0097040951580619188 0 0.0049491435217954502 -0.0098387902192059225 0 0.0041349707184490121 -0.0089431443680968187 0 0.0052150825232207751 -0.0089721009761039808 0 0.0046355105030806013 -0.010033202364353512 0 0.00658611380228959 -0.0092232148667986888 0 0.0052938214673042298 -0.010129454772847123 0 0.0039666812817880457 -0.0096189617745145312 0 0.0036191334801824945 -0.010095650996610049 0 0.0046355105030806013 -0.010033202364353512 0 0.0039666812817880457 -0.0096189617745145312 0 0.0041349707184490121 -0.0089431443680968187 0 0.0046355105030806013 -0.010033202364353512 0 0.0045356141056171221 -0.0082731984673298144 0 0.0041349707184490121 -0.0089431443680968187 0 0.0052150825232207751 -0.0089721009761039808 0 0.006893914336598481 -0.0070250315870484109 0 0.0059131359213352563 -0.0084383539664279403 0 0.0072254606978860254 -0.0085880279507802096 0 0.012812322765424197 -0.0075096990576876271 0 0.011791640922823062 -0.0081163958364809038 0 0.015004694422479915 -0.0073397359315520924 0 0.015172033067294945 -0.0074704267932081906 0 0.014740556793224533 -0.0072310468942027081 0 0.011791640922823062 -0.0081163958364809038 0 0.012200722903220915 -0.0078924042815330057 0 0.01445404241861536 -0.0059040126107290708 0 0.014740556793224533 -0.0072310468942027081 0 0.01313026184173257 -0.0070159070266547991 0 0.0059131359213352563 -0.0084383539664279403 0 0.0072254606978860254 -0.0085880279507802096 0 0.0060689275433180815 -0.0097040951580619188 0 0.011791640922823062 -0.0081163958364809038 0 0.0098740971297434869 -0.0087405339889473146 0 0.01313026184173257 -0.0070159070266547991 0 0.013903104861898316 -0.0079378617827735466 0 0.012927788804948276 -0.0080622732288327149 0 0.014740556793224533 -0.0072310468942027081 0 0.01313026184173257 -0.0070159070266547991 0 0.013903104861898316 -0.0079378617827735466 0 0.015077864269532504 -0.0086793368395167922 0 0.014740556793224533 -0.0072310468942027081 0 0.013903104861898316 -0.0079378617827735466 0 0.015077864269532504 -0.0086793368395167922 0 0.013903104861898316 -0.0079378617827735466 0 0.013627282547078921 -0.0089493088833331024 0 0.013903104861898316 -0.0079378617827735466 0 0.012927788804948276 -0.0080622732288327149 0 0.013627282547078921 -0.0089493088833331024 0 0.012927788804948276 -0.0080622732288327149 0 0.012563783892127794 -0.0089476396469549205 0 0.013627282547078921 -0.0089493088833331024 0 0.012927788804948276 -0.0080622732288327149 0 0.011512340608518645 -0.007802052094273656 0 0.012563783892127794 -0.0089476396469549205 0 0.0098740971297434869 -0.0087405339889473146 0 0.0081747267785115679 -0.00963835965090349 0 0.0060689275433180815 -0.0097040951580619188 0 0.0049322976980037151 -0.010735184073457542 0 0.0049491435217954502 -0.0098387902192059225 0 0.01313026184173257 -0.0070159070266547991 0 0.012927788804948276 -0.0080622732288327149 0 0.011512340608518645 -0.007802052094273656 0 0.0047518415993901214 -0.010681304030444858 0 0.0052938214673042298 -0.010129454772847123 0 0.0036700850057577281 -0.010684656125707457 0 0.0041026198971144219 -0.011079651355679549 0 0.0046355105030806013 -0.010033202364353512 0 0.0081747267785115679 -0.00963835965090349 0 0.0064523944672748423 -0.010825973676770231 0 0.0041026198971144219 -0.011079651355679549 0 0.0049322976980037151 -0.010735184073457542 0 0.00396796891754641 -0.011556128788396123 0 0.0041026198971144219 -0.011079651355679549 0 0.0049322976980037151 -0.010735184073457542 0 0.0049491435217954502 -0.0098387902192059225 0 0.011512340608518645 -0.007802052094273656 0 0.010210587870693273 -0.0095227495447406298 0 0.011614345877828655 -0.0097707593127006418 0 0.011512340608518645 -0.007802052094273656 0 0.010210587870693273 -0.0095227495447406298 0 0.0087286397596424616 -0.0090102553392083264 0 0.010210587870693273 -0.0095227495447406298 0 0.010000029355117047 -0.010870810673224514 0 0.011614345877828655 -0.0097707593127006418 0 0.010210587870693273 -0.0095227495447406298 0 0.010000029355117047 -0.010870810673224514 0 0.0086679513346846621 -0.010748093928113366 0 0.010000029355117047 -0.010870810673224514 0 0.011917267753875334 -0.011667156663275759 0 0.0076766125444766419 -0.013019223944544186 0 0.010000029355117047 -0.010870810673224514 0 0.011614345877828655 -0.0097707593127006418 0 0.011917267753875334 -0.011667156663275759 0 0.012977440336769978 -0.010226948040662268 0 0.013201515016820372 -0.011384168469459395 0 0.011917267753875334 -0.011667156663275759 0 0.011614345877828655 -0.0097707593127006418 0 0.012977440336769978 -0.010226948040662268 0 0.011917267753875334 -0.011667156663275759 0 0.011512340608518645 -0.007802052094273656 0 0.011614345877828655 -0.0097707593127006418 0 0.012563783892127794 -0.0089476396469549205 0 0.011614345877828655 -0.0097707593127006418 0 0.012563783892127794 -0.0089476396469549205 0 0.012977440336769978 -0.010226948040662268 0 0.013627282547078921 -0.0089493088833331024 0 0.014631334033332236 -0.010739219131054628 0 0.012977440336769978 -0.010226948040662268 0 0.012563783892127794 -0.0089476396469549205 0 0.013627282547078921 -0.0089493088833331024 0 0.012977440336769978 -0.010226948040662268 0 0.015077864269532504 -0.0086793368395167922 0 0.013627282547078921 -0.0089493088833331024 0 0.014631334033332236 -0.010739219131054628 0 0.014631334033332236 -0.010739219131054628 0 0.012977440336769978 -0.010226948040662268 0 0.013201515016820372 -0.011384168469459395 0 0.013201515016820372 -0.011384168469459395 0 0.014215306524879965 -0.01211539155547128 0 0.013038663172264818 -0.01201269638451577 0 0.014631334033332236 -0.010739219131054628 0 0.013201515016820372 -0.011384168469459395 0 0.014215306524879965 -0.01211539155547128 0 0.014603588598616834 -0.010745231174105791 0 0.014428002163323548 -0.011459092082428289 0 0.014215306524879965 -0.01211539155547128 0 0.013038663172264818 -0.01201269638451577 0 0.013441119037909732 -0.012602723902201431 0 0.013038663172264818 -0.01201269638451577 0 0.012694466583820608 -0.012304045608404302 0 0.013441119037909732 -0.012602723902201431 0 0.013038663172264818 -0.01201269638451577 0 0.012694466583820608 -0.012304045608404302 0 0.012469836398935312 -0.012021241541571304 0 0.013038663172264818 -0.01201269638451577 0 0.012469836398935312 -0.012021241541571304 0 0.012502702878427849 -0.011789193677645289 0 0.012469836398935312 -0.012021241541571304 0 0.012128805451280153 -0.012239809466165695 0 0.012128137413886131 -0.011827534033858427 0 0.012694466583820608 -0.012304045608404302 0 0.012469836398935312 -0.012021241541571304 0 0.012128805451280153 -0.012239809466165695 0 0.012694466583820608 -0.012304045608404302 0 0.012128805451280153 -0.012239809466165695 0 0.01292747140027678 -0.012752710735714774 0 0.015813468157352472 -0.0079888891017111108 0 0.015287503468741396 -0.0092524308861663129 0 0.011608419824842495 -0.011260306460777688 0 0.011849619289828037 -0.011628367393822597 0 0.011825529562562161 -0.011413410941764417 0 0.011608419824842495 -0.011260306460777688 0 0.011784197388167232 -0.011144643518682712 0 0.011825529562562161 -0.011413410941764417 0 0.011849619289828037 -0.011628367393822597 0 0.011917267753875334 -0.011667156663275759 0 0.011859711246466368 -0.011606556027747508 0 0.012128805451280153 -0.012239809466165695 0 0.012128137413886131 -0.011827534033858427 0 0.011849619289828037 -0.011628367393822597 0 0.0098431521367546605 -0.0097916050986786192 0 0.0083879118548777012 -0.0092148626600457636 0 0.012128137413886131 -0.011827534033858427 0 0.011849619289828037 -0.011628367393822597 0 0.011917267753875334 -0.011667156663275759 0 0.013201515016820372 -0.011384168469459395 0 0.011917267753875334 -0.011667156663275759 0 0.012502702878427849 -0.011789193677645289 0 0.013201515016820372 -0.011384168469459395 0 0.013038663172264818 -0.01201269638451577 0 0.012502702878427849 -0.011789193677645289 0 0.012469836398935312 -0.012021241541571304 0 0.012128137413886131 -0.011827534033858427 0 0.012502702878427849 -0.011789193677645289 0 0.012128137413886131 -0.011827534033858427 0 0.011917267753875334 -0.011667156663275759 0 0.012502702878427849 -0.011789193677645289 0 0.017021250686932665 -0.010859571100194653 0 0.016262238701987085 -0.010813486060273235 0 0.016456947441063064 -0.011373355022241448 0 0.017021250686932665 -0.010859571100194653 0 0.017174759290471985 -0.011355217199858554 0 0.016456947441063064 -0.011373355022241448 0 0.01635925307079035 -0.010198570922320295 0 0.01682911346055745 -0.010505075831446978 0 0.016262238701987085 -0.010813486060273235 0 0.017021250686932665 -0.010859571100194653 0 0.01682911346055745 -0.010505075831446978 0 0.016262238701987085 -0.010813486060273235 0 0.016306338395365137 -0.0098785493579019602 0 0.01628001780220302 -0.01030486858320436 0 0.016296596853235628 -0.0098057934245431091 0 0.016262238701987085 -0.010813486060273235 0 0.015703746368578769 -0.010213688938342376 0 0.016262238701987085 -0.010813486060273235 0 0.015525846161220304 -0.010958679171459491 0 0.016456947441063064 -0.011373355022241448 0 0.016262238701987085 -0.010813486060273235 0 0.015525846161220304 -0.010958679171459491 0 0.015703746368578769 -0.010213688938342376 0 0.014855273819915278 -0.010052821376319864 0 0.015525846161220304 -0.010958679171459491 0 0.015703746368578769 -0.010213688938342376 0 0.014885838596545036 -0.0094742799390920545 0 0.014603588598616834 -0.010745231174105791 0 0.014855273819915278 -0.010052821376319864 0 0.014609560342244454 -0.011051380930633393 0 0.015525846161220304 -0.010958679171459491 0 0.014609560342244454 -0.011051380930633393 0 0.014215306524879965 -0.01211539155547128 0 0.015595361828216445 -0.011763667372754092 0 0.014215306524879965 -0.01211539155547128 0 0.015595361828216445 -0.011763667372754092 0 0.014873723449029423 -0.012494172445525802 0 0.014609560342244454 -0.011051380930633393 0 0.015525846161220304 -0.010958679171459491 0 0.015595361828216445 -0.011763667372754092 0 0.015595361828216445 -0.011763667372754092 0 0.015864817276086508 -0.012407343952330839 0 0.014873723449029423 -0.012494172445525802 0 0.015525846161220304 -0.010958679171459491 0 0.015595361828216445 -0.011763667372754092 0 0.016456947441063064 -0.011373355022241448 0 0.015595361828216445 -0.011763667372754092 0 0.016775574816109497 -0.012028748480216941 0 0.016456947441063064 -0.011373355022241448 0 0.015595361828216445 -0.011763667372754092 0 0.016775574816109497 -0.012028748480216941 0 0.015864817276086508 -0.012407343952330839 0 0.017174759290471985 -0.011355217199858554 0 0.016775574816109497 -0.012028748480216941 0 0.016456947441063064 -0.011373355022241448 0 0.016783141976981598 -0.012892996721877409 0 0.01642010885550492 -0.012587054169328786 0 0.016392799378065367 -0.013132985313877637 0 0.017152862240551965 -0.012390451554213413 0 0.016783141976981598 -0.012892996721877409 0 0.01642010885550492 -0.012587054169328786 0 0.017152862240551965 -0.012390451554213413 0 0.016841516320933662 -0.011577691654720324 0 0.01642010885550492 -0.012587054169328786 0 0.017387708502372624 -0.011843793298956563 0 0.017046903038489488 -0.012227216709466322 0 0.016775574816109497 -0.012028748480216941 0 0.01642010885550492 -0.012587054169328786 0 0.015864817276086508 -0.012407343952330839 0 0.01642010885550492 -0.012587054169328786 0 0.015826187655937018 -0.012958255977174657 0 0.016392799378065367 -0.013132985313877637 0 0.01642010885550492 -0.012587054169328786 0 0.015826187655937018 -0.012958255977174657 0 0.015864817276086508 -0.012407343952330839 0 0.015826187655937018 -0.012958255977174657 0 0.015864817276086508 -0.012407343952330839 0 0.015292926421565657 -0.012840249502136684 0 0.015826187655937018 -0.012958255977174657 0 0.015292926421565657 -0.012840249502136684 0 0.015193562841079684 -0.013238600526377856 0 0.015864817276086508 -0.012407343952330839 0 0.014873723449029423 -0.012494172445525802 0 0.015292926421565657 -0.012840249502136684 0 0.014873723449029423 -0.012494172445525802 0 0.014695118893359768 -0.013064909679738935 0 0.015292926421565657 -0.012840249502136684 0 0.014695118893359768 -0.013064909679738935 0 0.015193562841079684 -0.013238600526377856 0 0.014480496503806563 -0.013611156736157412 0 0.014695118893359768 -0.013064909679738935 0 0.015292926421565657 -0.012840249502136684 0 0.015193562841079684 -0.013238600526377856 0 0.018193864435938192 -0.010874952194265352 0 0.018902226908686624 -0.0085606492249524057 0 0.015193562841079684 -0.013238600526377856 0 0.015639739507955913 -0.013606856255860467 0 0.014480496503806563 -0.013611156736157412 0 0.020380125918748646 -0.01247687797987742 0 0.019696001631768836 -0.012662575990697788 0 0.020836555423008225 -0.012918128902997006 0 0.020380125918748646 -0.01247687797987742 0 0.020370885631688981 -0.011932707269280226 0 0.021003272704294137 -0.012671815866133139 0 0.020380125918748646 -0.01247687797987742 0 0.020370885631688981 -0.011932707269280226 0 0.019828167293487752 -0.012148889575741239 0 0.020370885631688981 -0.011932707269280226 0 0.019828167293487752 -0.012148889575741239 0 0.01963322665205958 -0.011446330700754907 0 0.020380125918748646 -0.01247687797987742 0 0.019828167293487752 -0.012148889575741239 0 0.019696001631768836 -0.012662575990697788 0 0.019231258571500754 -0.01202931488435521 0 0.019696001631768836 -0.012662575990697788 0 0.018286483818135139 -0.012245289501169539 0 0.019828167293487752 -0.012148889575741239 0 0.019231258571500754 -0.01202931488435521 0 0.019696001631768836 -0.012662575990697788 0 0.019828167293487752 -0.012148889575741239 0 0.019231258571500754 -0.01202931488435521 0 0.01963322665205958 -0.011446330700754907 0 0.015826187655937018 -0.012958255977174657 0 0.015639739507955913 -0.013606856255860467 0 0.016392799378065367 -0.013132985313877637 0 0.015826187655937018 -0.012958255977174657 0 0.015193562841079684 -0.013238600526377856 0 0.015639739507955913 -0.013606856255860467 0 0.015639739507955913 -0.013606856255860467 0 0.016392799378065367 -0.013132985313877637 0 0.016689425944678593 -0.013346489004539476 0 0.018193864435938192 -0.010874952194265352 0 0.01754810391497429 -0.011613737709547255 0 0.019231258571500754 -0.01202931488435521 0 0.018286483818135139 -0.012245289501169539 0 0.01876170954434531 -0.011617023663237762 0 0.018286483818135139 -0.012245289501169539 0 0.017478139839887743 -0.011975551881142849 0 0.016856749151205115 -0.012085855475773247 0 0.01754810391497429 -0.011613737709547255 0 0.017128005617293756 -0.011671612589258267 0 0.016770308435045622 -0.01279489888195455 0 0.016689425944678593 -0.013346489004539476 0 0.016789626211622707 -0.013175160371612262 0 0.016770308435045622 -0.01279489888195455 0 0.016689425944678593 -0.013346489004539476 0 0.016856749151205115 -0.012085855475773247 0 0.016392799378065367 -0.013132985313877637 0 0.016689425944678593 -0.013346489004539476 0 0.016789626211622707 -0.013175160371612262 0 0.017237199257756394 -0.013016412530192206 0 0.016783141976981598 -0.012892996721877409 0 0.016789626211622707 -0.013175160371612262 0 0.016783141976981598 -0.012892996721877409 0 0.016392799378065367 -0.013132985313877637 0 0.016789626211622707 -0.013175160371612262 0 0.028731873659265477 0.014641239872900133 0 0.028706919532599337 0.015824085014871991 0 0.029499285977371566 0.016550005207865044 0 0.028731873659265477 0.014641239872900133 0 0.028706919532599337 0.015824085014871991 0 0.028049626467909174 0.016073118342816467 0 0.028939231127309045 0.014240676128338953 0 0.028386729286274934 0.014912515685499185 0 0.028175671155147287 0.016015166214097609 0 0.0041618615712942135 0.00025895824377377655 0 0.0045220224866865388 0.00039589230554471758 0 0.0046185941796723891 0.0013251097789663477 0 0.016675083141571363 -0.00069491828173573044 0 0.018457874198504889 0.0075540936218641379 0 0.016675083141571363 -0.00069491828173573044 0 0.011826300089271363 0.0081161543064964623 0 0.016675083141571363 -0.00069491828173573044 0 0.019352605462389774 -0.002751763290532823 0 0.0128317197716567 -0.013092882059815835 0 0.013257286346573626 -0.012993173528853747 0 0.013254048771776923 -0.013399763598841501 0 0.028939231127309045 0.014240676128338953 0 0.028386729286274934 0.014912515685499185 0 0.027986496970177303 0.015074125173688821 0 0.028386729286274934 0.014912515685499185 0 0.02799888906227441 0.01509359508641179 0 0.028175671155147287 0.016015166214097609 0 0.019453428763606461 -0.0026405046923167401 0 0.019352605462389774 -0.002751763290532823 0 0.0049134399345180883 0.00058091881379193568 0 0.0045220224866865388 0.00039589230554471758 0 0.0046185941796723891 0.0013251097789663477 0 0.0049134399345180883 0.00058091881379193568 0 0.0050345748915433079 0.00099256368393561378 0 0.005225716075650917 0.0007154579924257906 0 0.0049134399345180883 0.00058091881379193568 0 0.0048335587631754377 0.00010776025741857139 0 0.0053997331340260458 0.00013818358481453629 0 0.0049134399345180883 0.00058091881379193568 0 0.0045220224866865388 0.00039589230554471758 0 0.0048335587631754377 0.00010776025741857139 0 0.0041618615712942135 0.00025895824377377655 0 0.0045220224866865388 0.00039589230554471758 0 0.0048335587631754377 0.00010776025741857139 0 0.011608419824842495 -0.011260306460777688 0 0.011368553346098416 -0.010634882702172561 0 0.011784197388167232 -0.011144643518682712 0 0.016675083141571363 -0.00069491828173573044 0 0.011063793910530121 -0.0036014211452107597 0 0.0041618615712942135 0.00025895824377377655 0 0.0048335587631754377 0.00010776025741857139 0 0.0049934873283178048 -0.00056819178773576291 0 0.0048335587631754377 0.00010776025741857139 0 0.0049934873283178048 -0.00056819178773576291 0 0.0053997331340260458 0.00013818358481453629 0 0.012128805451280153 -0.012239809466165695 0 0.012742643285528063 -0.013187196662652445 0 0.01292747140027678 -0.012752710735714774 0 0.015813468157352472 -0.0079888891017111108 0 0.016675083141571363 -0.00069491828173573044 0 0.016675083141571363 -0.00069491828173573044 0 0.015886366686686821 -0.002662408318055619 0 0.0128317197716567 -0.013092882059815835 0 0.01292747140027678 -0.012752710735714774 0 0.013257286346573626 -0.012993173528853747 0 0.012694466583820608 -0.012304045608404302 0 0.01292747140027678 -0.012752710735714774 0 0.013441119037909732 -0.012602723902201431 0 0.013441119037909732 -0.012602723902201431 0 0.014211302472272657 -0.012787836632895712 0 0.013676619347560353 -0.013010281568434237 0 0.01292747140027678 -0.012752710735714774 0 0.013441119037909732 -0.012602723902201431 0 0.013257286346573626 -0.012993173528853747 0 0.013441119037909732 -0.012602723902201431 0 0.013257286346573626 -0.012993173528853747 0 0.013676619347560353 -0.013010281568434237 0 0.014215306524879965 -0.01211539155547128 0 0.014873723449029423 -0.012494172445525802 0 0.014211302472272657 -0.012787836632895712 0 0.014215306524879965 -0.01211539155547128 0 0.013441119037909732 -0.012602723902201431 0 0.014211302472272657 -0.012787836632895712 0 0.014873723449029423 -0.012494172445525802 0 0.014695118893359768 -0.013064909679738935 0 0.014211302472272657 -0.012787836632895712 0 0.014695118893359768 -0.013064909679738935 0 0.014211302472272657 -0.012787836632895712 0 0.014065086946156383 -0.013172927753088478 0 0.014211302472272657 -0.012787836632895712 0 0.014065086946156383 -0.013172927753088478 0 0.013676619347560353 -0.013010281568434237 0 0.014695118893359768 -0.013064909679738935 0 0.014065086946156383 -0.013172927753088478 0 0.014480496503806563 -0.013611156736157412 0 0.014065086946156383 -0.013172927753088478 0 0.013254048771776923 -0.013399763598841501 0 0.014480496503806563 -0.013611156736157412 0 0.019352605462389774 -0.002751763290532823 0 0.018902226908686624 -0.0085606492249524057 0 0.014065086946156383 -0.013172927753088478 0 0.013676619347560353 -0.013010281568434237 0 0.013254048771776923 -0.013399763598841501 0 0.013257286346573626 -0.012993173528853747 0 0.013676619347560353 -0.013010281568434237 0 0.013254048771776923 -0.013399763598841501 0 0.026209929083101671 0.016959663752594053 0 0.027422941064936524 0.017699575889562339 0 0.028175671155147287 0.016015166214097609 0 0.019061930957458097 0.0099409118532607053 0 0.018457874198504889 0.0075540936218641379 0 0.019352605462389774 -0.002751763290532823 0 0.021441976698606341 0.00020882053415339981 0 0.02799888906227441 0.01509359508641179 0 0.026209929083101671 0.016959663752594053 0 0.028175671155147287 0.016015166214097609 0 0.020380125918748646 -0.01247687797987742 0 0.021003272704294137 -0.012671815866133139 0 0.020836555423008225 -0.012918128902997006 0 0.021496116639716411 -0.013094298416589331 0 0.021003272704294137 -0.012671815866133139 0 0.020836555423008225 -0.012918128902997006 0 0.026209929083101671 0.016959663752594053 0 0.027422941064936524 0.017699575889562339 0 0.026183919907426245 0.018826772162791799 0 0.024598570314990881 0.0187222093875321 0 0.026209929083101671 0.016959663752594053 0 0.026183919907426245 0.018826772162791799 0 0.021463767173418923 0.0026425885850459275 0 0.021441976698606341 0.00020882053415339981 0 0.027422941064936524 0.017699575889562339 0 0.028092656822239707 0.018855484051677581 0 0.026183919907426245 0.018826772162791799 0 0.028607978696123956 0.017238640517150516 0 0.029910050639971802 0.017179066749070052 0 0.028092656822239707 0.018855484051677581 0 0.0022897748343906742 0.011731936340611019 0 0.0034107555767276905 0.010799886269948341 0 0.0026145598412503656 0.010240752288139053 0 0.027422941064936524 0.017699575889562339 0 0.028607978696123956 0.017238640517150516 0 0.028092656822239707 0.018855484051677581 0 0.0095105703316468743 0.0076346172569686016 0 0.012951005646892387 0.011694843529705611 0 0.028607978696123956 0.017238640517150516 0 0.028683236245875859 0.016499999858206459 0 0.028049626467909174 0.016073118342816467 0 0.027422941064936524 0.017699575889562339 0 0.028607978696123956 0.017238640517150516 0 0.028049626467909174 0.016073118342816467 0 0.028607978696123956 0.017238640517150516 0 0.028683236245875859 0.016499999858206459 0 0.029692529234686592 0.01666609122005103 0 0.028607978696123956 0.017238640517150516 0 0.029692529234686592 0.01666609122005103 0 0.029910050639971802 0.017179066749070052 0 0.015483105840753703 0.010795146228731629 0 0.011826300089271363 0.0081161543064964623 0 0.028683236245875859 0.016499999858206459 0 0.028706919532599337 0.015824085014871991 0 0.029692529234686592 0.01666609122005103 0 0.028683236245875859 0.016499999858206459 0 0.028706919532599337 0.015824085014871991 0 0.028049626467909174 0.016073118342816467 0 0.0050345748915433079 0.00099256368393561378 0 0.0048218915785719916 0.001500274231937631 0 0.005590857015503466 0.0008390968461650805 0 0.0049134399345180883 0.00058091881379193568 0 0.0050345748915433079 0.00099256368393561378 0 0.0046185941796723891 0.0013251097789663477 0 0.010447280191744155 0.0051717359309601278 0 0.011277112717970857 0.0070798888384033289 0 0.011971777144408485 0.0064932810101414624 0 0.011826300089271363 0.0081161543064964623 0 0.0095105703316468743 0.0076346172569686016 0 0.011826300089271363 0.0081161543064964623 0 0.0092692921981095463 0.007130654621448268 0 0.0095105703316468743 0.0076346172569686016 0 0.0092692921981095463 0.007130654621448268 0 0.0050345748915433079 0.00099256368393561378 0 0.0046185941796723891 0.0013251097789663477 0 0.0048218915785719916 0.001500274231937631 0 0.0062387597524731862 0.0053807675617273034 0 0.0061838930563806347 0.0054269285280776538 0 0.0057898264252363857 0.005093086166160732 0 0.0062387597524731862 0.0053807675617273034 0 0.0057898264252363857 0.005093086166160732 0 0.0059408074597725753 0.0047349192733446592 0 0.0092692921981095463 0.007130654621448268 0 0.0022425193795821926 0.0034976208988718258 0 0.0095105703316468743 0.0076346172569686016 0 0.0038863379294307495 0.0069453365939942798 0 -0.013932531456094884 -0.0025974359726632047 0 -0.013628529163893325 -0.0025736167894359154 0 -0.013673478902197431 -0.0030944669479692662 0 0.0045761307330449688 0.0016775384188606999 0 0.0053920784704560038 0.0023835148737674427 0 0.0053416374332010902 0.0015652394948501259 0 -0.013628529163893325 -0.0025736167894359154 0 -0.013465857344119458 -0.0028726713335746343 0 -0.012934597197945402 -0.0023040882265746919 0 -0.013932531456094884 -0.0025974359726632047 0 -0.013628529163893325 -0.0025736167894359154 0 -0.013543097226877941 -0.0021943743455958052 0 -0.013628529163893325 -0.0025736167894359154 0 -0.013465857344119458 -0.0028726713335746343 0 -0.013673478902197431 -0.0030944669479692662 0 -0.013465857344119458 -0.0028726713335746343 0 -0.013472790878863376 -0.0030840630793006803 0 -0.013673478902197431 -0.0030944669479692662 0 0.0053920784704560038 0.0023835148737674427 0 0.0059236469574712501 0.0010772886981096456 0 0.0053416374332010902 0.0015652394948501259 0 0.0045761307330449688 0.0016775384188606999 0 0.0053416374332010902 0.0015652394948501259 0 0.005590857015503466 0.0008390968461650805 0 0.0059236469574712501 0.0010772886981096456 0 0.0053416374332010902 0.0015652394948501259 0 0.005590857015503466 0.0008390968461650805 0 0.0022425193795821926 0.0034976208988718258 0 -0.00062516493590510601 0.00065899174216988408 0 0.0092692921981095463 0.007130654621448268 0 0.0087773234628573255 0.0058443450624102557 0 -0.01319146100324977 -0.0027083366378974371 0 -0.013351125412499543 -0.002844211079783296 0 -0.013209694347076582 -0.0029444257120420287 0 -0.01319146100324977 -0.0027083366378974371 0 -0.013351125412499543 -0.002844211079783296 0 -0.013349845111233201 -0.0026491317685280024 0 -0.013465857344119458 -0.0028726713335746343 0 -0.013351125412499543 -0.002844211079783296 0 -0.013336230080798123 -0.0027186113840291983 0 -0.012049426034734969 -0.0021043975127253032 0 -0.010400282762803362 -0.00039389515623469424 0 -0.010733761178649484 -0.0012265193588885293 0 -0.010400282762803362 -0.00039389515623469424 0 -0.013472790878863376 -0.0030840630793006803 0 -0.013351125412499543 -0.002844211079783296 0 -0.013366596996798324 -0.0031670797351069191 0 -0.013465857344119458 -0.0028726713335746343 0 -0.013472790878863376 -0.0030840630793006803 0 -0.013351125412499543 -0.002844211079783296 0 -0.013209694347076582 -0.0029444257120420287 0 -0.01324018922054432 -0.003154205073984259 0 -0.013039209352165433 -0.0030654537746689749 0 -0.013209694347076582 -0.0029444257120420287 0 -0.01324018922054432 -0.003154205073984259 0 -0.013366596996798324 -0.0031670797351069191 0 -0.013351125412499543 -0.002844211079783296 0 -0.013209694347076582 -0.0029444257120420287 0 -0.013366596996798324 -0.0031670797351069191 0 -0.013237019031460693 -0.0034284682696915478 0 -0.013366596996798324 -0.0031670797351069191 0 -0.013328926957580072 -0.003416917214009428 0 -0.013237019031460693 -0.0034284682696915478 0 -0.01324018922054432 -0.003154205073984259 0 -0.013039209352165433 -0.0030654537746689749 0 -0.013237019031460693 -0.0034284682696915478 0 -0.01324018922054432 -0.003154205073984259 0 -0.013366596996798324 -0.0031670797351069191 0 -0.013472790878863376 -0.0030840630793006803 0 -0.013366596996798324 -0.0031670797351069191 0 -0.013477915720840035 -0.0033624346860531757 0 -0.013366596996798324 -0.0031670797351069191 0 -0.013328926957580072 -0.003416917214009428 0 -0.013477915720840035 -0.0033624346860531757 0 -0.013328926957580072 -0.003416917214009428 0 -0.013477915720840035 -0.0033624346860531757 0 -0.013329321503489967 -0.0034575937467954121 0 -0.013237019031460693 -0.0034284682696915478 0 -0.013328926957580072 -0.003416917214009428 0 -0.013283929340901085 -0.0034207303867436812 0 0.005590857015503466 0.0008390968461650805 0 0.0063431654553305203 -2.0394351221466927e-05 0 0.0053997331340260458 0.00013818358481453629 0 0.0049134399345180883 0.00058091881379193568 0 0.005225716075650917 0.0007154579924257906 0 0.0053997331340260458 0.00013818358481453629 0 0.0050345748915433079 0.00099256368393561378 0 0.005225716075650917 0.0007154579924257906 0 0.005590857015503466 0.0008390968461650805 0 0.005225716075650917 0.0007154579924257906 0 0.005590857015503466 0.0008390968461650805 0 0.0053997331340260458 0.00013818358481453629 0 -0.013472790878863376 -0.0030840630793006803 0 -0.013673478902197431 -0.0030944669479692662 0 -0.013477915720840035 -0.0033624346860531757 0 -0.00062516493590510601 0.00065899174216988408 0 -0.0019573876086608532 -0.00098242485954878975 0 0.0059236469574712501 0.0010772886981096456 0 0.005590857015503466 0.0008390968461650805 0 0.0063431654553305203 -2.0394351221466927e-05 0 -0.0019573876086608532 -0.00098242485954878975 0 -0.0024114562262714449 -0.0023666023991880587 0 0.0063431654553305203 -2.0394351221466927e-05 0 0.0058463690661828653 -0.00058252130472630291 0 0.0067598502237888707 -0.0010688794580504804 0 0.0049934873283178048 -0.00056819178773576291 0 0.0058463690661828653 -0.00058252130472630291 0 0.0053997331340260458 0.00013818358481453629 0 0.0063431654553305203 -2.0394351221466927e-05 0 0.0058463690661828653 -0.00058252130472630291 0 0.0053997331340260458 0.00013818358481453629 0 0.0049934873283178048 -0.00056819178773576291 0 0.0058463690661828653 -0.00058252130472630291 0 0.0058022118970709339 -0.0013347159899384287 0 0.011063793910530121 -0.0036014211452107597 0 0.0081317507670368803 -0.0059929459228650001 0 0.011784197388167232 -0.011144643518682712 0 0.011825529562562161 -0.011413410941764417 0 0.011953205735788765 -0.011482097308820069 0 0.011849619289828037 -0.011628367393822597 0 0.011825529562562161 -0.011413410941764417 0 0.011879195954875592 -0.011539336083054651 0 0.011879195954875592 -0.011539336083054651 0 0.011953205735788765 -0.011482097308820069 0 0.011859711246466368 -0.011606556027747508 0 0.011825529562562161 -0.011413410941764417 0 0.011879195954875592 -0.011539336083054651 0 0.011953205735788765 -0.011482097308820069 0 0.011849619289828037 -0.011628367393822597 0 0.011879195954875592 -0.011539336083054651 0 0.011859711246466368 -0.011606556027747508 0 0.0058022118970709339 -0.0013347159899384287 0 0.0067598502237888707 -0.0010688794580504804 0 0.0065990704845633949 -0.002089716841840714 0 0.011953205735788765 -0.011482097308820069 0 0.012029989178227373 -0.011589888054445437 0 0.011859711246466368 -0.011606556027747508 0 0.0081317507670368803 -0.0059929459228650001 0 0.0035166292163309769 -0.0070007052770993949 0 0.0058463690661828653 -0.00058252130472630291 0 0.0058022118970709339 -0.0013347159899384287 0 0.0067598502237888707 -0.0010688794580504804 0 -0.013328926957580072 -0.003416917214009428 0 -0.013329321503489967 -0.0034575937467954121 0 -0.013283929340901085 -0.0034207303867436812 0 -0.013329321503489967 -0.0034575937467954121 0 -0.013283929340901085 -0.0034207303867436812 0 -0.013297540104037692 -0.0034348857509048595 0 -0.013283929340901085 -0.0034207303867436812 0 -0.013297540104037692 -0.0034348857509048595 0 -0.013337828577151697 -0.0034034863038917428 0 -0.013297540104037692 -0.0034348857509048595 0 -0.01329010774642175 -0.0034503917150425769 0 -0.013286227078166775 -0.0034420117306070094 0 -0.013329321503489967 -0.0034575937467954121 0 -0.013297540104037692 -0.0034348857509048595 0 -0.01329010774642175 -0.0034503917150425769 0 0.0067598502237888707 -0.0010688794580504804 0 0.0065990704845633949 -0.002089716841840714 0 0.0071776852235577292 -0.0021068358896375594 0 -0.0024114562262714449 -0.0023666023991880587 0 -0.001970716675963166 -0.0048220231197369815 0 -0.0010062692765306115 -0.0057912368646509827 0 -0.0016933417601549909 -0.0053301859699542388 0 -0.0018276937077084993 -0.0050736930265332771 0 -0.0010062692765306115 -0.0057912368646509827 0 -0.0014881333569924363 -0.0057824793655094171 0 -0.0016933417601549909 -0.0053301859699542388 0 0.0035166292163309769 -0.0070007052770993949 0 -0.001970716675963166 -0.0048220231197369815 0 0.0026907417411295579 -0.012970675056742131 0 0.0014713264784832457 -0.011690222869258835 0 0.0027859490740575316 -0.011800069728692646 0 0.0035166292163309769 -0.0070007052770993949 0 -0.0016390945733570225 -0.0083205957514508357 0 -0.001970716675963166 -0.0048220231197369815 0 -0.0058989789891846466 -0.0064322947674516533 0 -0.001503003714570233 -0.0057753689777322887 0 -0.0021208565829047635 -0.0057655641704895816 0 -0.0016933417601549909 -0.0053301859699542388 0 0.00053334056363701964 -0.014051629676954435 0 0.0012382389752312343 -0.012426914339963667 0 0.00029508554310989007 -0.012981113029648654 0 -0.0021208565829047635 -0.0057655641704895816 0 -0.0016933417601549909 -0.0053301859699542388 0 -0.0018276937077084993 -0.0050736930265332771 0 -0.0058989789891846466 -0.0064322947674516533 0 -0.0016390945733570225 -0.0083205957514508357 0 -0.001970716675963166 -0.0048220231197369815 0 -0.0018951404657285501 -0.0049870890025797317 0 0.00054072726686022127 -0.01253157728434073 0 0.0010494701541590796 -0.012247586317476201 0 0.0012382389752312343 -0.012426914339963667 0 0.00054072726686022127 -0.01253157728434073 0 0.0012382389752312343 -0.012426914339963667 0 0.00029508554310989007 -0.012981113029648654 0 0.00054072726686022127 -0.01253157728434073 0 0.0010494701541590796 -0.012247586317476201 0 0.00062030465206912614 -0.012059811674657552 0 -0.0015917642712939652 -0.0083687931377548867 0 -0.0016390945733570225 -0.0083205957514508357 0 -0.0015257447480751521 -0.0088268675348480655 0 -0.0016390945733570225 -0.0083205957514508357 0 0.0017065314973428031 -0.011154543269013781 0 0.0014713264784832457 -0.011690222869258835 0 0.0021002263658001273 -0.01141280944192808 0 0.0017065314973428031 -0.011154543269013781 0 0.0010494701541590796 -0.012247586317476201 0 0.0012680567041391448 -0.012444438518361975 0 0.0017065314973428031 -0.011154543269013781 0 0.00078036095727556385 -0.011466753126793024 0 0.0010494701541590796 -0.012247586317476201 0 0.00078036095727556385 -0.011466753126793024 0 0.0010494701541590796 -0.012247586317476201 0 0.00062030465206912614 -0.012059811674657552 0 0.0030874012923168348 -0.010640748578406852 0 0.0024054729151974739 -0.011039069280570881 0 0.0027859490740575316 -0.011800069728692646 0 0.0014713264784832457 -0.011690222869258835 0 0.0027859490740575316 -0.011800069728692646 0 0.0021002263658001273 -0.01141280944192808 0 0.0024054729151974739 -0.011039069280570881 0 0.0027859490740575316 -0.011800069728692646 0 0.0021002263658001273 -0.01141280944192808 0 0.0024054729151974739 -0.011039069280570881 0 0.0017065314973428031 -0.011154543269013781 0 0.0021002263658001273 -0.01141280944192808 0 0.003736540086373545 -0.011256768680796402 0 0.0030025107386363768 -0.01096298275812739 0 0.0038668312557562099 -0.011814085143294049 0 0.0030874012923168348 -0.010640748578406852 0 0.0027859490740575316 -0.011800069728692646 0 0.0038668312557562099 -0.011814085143294049 0 0.0028761886675736539 -0.010638043269913853 0 0.0031609486082371523 -0.011143312226665167 0 0.0027859490740575316 -0.011800069728692646 0 0.0038668312557562099 -0.011814085143294049 0 0.0035335167872874674 -0.012014042976882041 0 0.003736540086373545 -0.011256768680796402 0 0.0038668312557562099 -0.011814085143294049 0 0.00396796891754641 -0.011556128788396123 0 0.003736540086373545 -0.011256768680796402 0 0.0041026198971144219 -0.011079651355679549 0 0.00396796891754641 -0.011556128788396123 0 0.010210587870693273 -0.0095227495447406298 0 0.0087286397596424616 -0.0090102553392083264 0 0.0086679513346846621 -0.010748093928113366 0 0.0073059968007987792 -0.011278426944150002 0 0.0076766125444766419 -0.013019223944544186 0 0.0041541164191350221 -0.012456345241075879 0 0.0038668312557562099 -0.011814085143294049 0 0.00396796891754641 -0.011556128788396123 0 0.0041541164191350221 -0.012456345241075879 0 0.0087286397596424616 -0.0090102553392083264 0 0.0073059968007987792 -0.011278426944150002 0 0.0041541164191350221 -0.012456345241075879 0 0.0064523944672748423 -0.010825973676770231 0 0.0053584252484267843 -0.011741800917682562 0 0.0087286397596424616 -0.0090102553392083264 0 0.0073059968007987792 -0.011278426944150002 0 0.0086679513346846621 -0.010748093928113366 0 0.010000029355117047 -0.010870810673224514 0 0.0086679513346846621 -0.010748093928113366 0 0.0076766125444766419 -0.013019223944544186 0 0.0073059968007987792 -0.011278426944150002 0 0.0086679513346846621 -0.010748093928113366 0 0.0076766125444766419 -0.013019223944544186 0 0.0026907417411295579 -0.012970675056742131 0 0.0027859490740575316 -0.011800069728692646 0 0.0035335167872874674 -0.012014042976882041 0 0.0035166292163309769 -0.0070007052770993949 0 0.0083879118548777012 -0.0092148626600457636 0 0.0026907417411295579 -0.012970675056742131 0 0.0076766125444766419 -0.013019223944544186 0 0.0041541164191350221 -0.012456345241075879 0 0.0026907417411295579 -0.012970675056742131 0 0.0041541164191350221 -0.012456345241075879 0 0.0035335167872874674 -0.012014042976882041 0 0.0038668312557562099 -0.011814085143294049 0 0.0041541164191350221 -0.012456345241075879 0 0.0035335167872874674 -0.012014042976882041 0 -0.013605738814552196 -0.0066377993919549535 0 -0.01319355362403256 -0.0063364791228442737 0 -0.013513626871969726 -0.0074764669509157769 0 -0.013605738814552196 -0.0066377993919549535 0 -0.013513626871969726 -0.0074764669509157769 0 -0.013974686645838001 -0.0066092651029254924 0 -0.0032826511407927084 -0.012650879077359789 0 -0.0017767188719213615 -0.012544692399546246 0 -0.0019325821050518951 -0.013556716470120732 0 -0.0073451517126593242 -0.0095184291280303469 0 -0.0073139600893244675 -0.0085475540527229204 0 -0.013605738814552196 -0.0066377993919549535 0 -0.013974686645838001 -0.0066092651029254924 0 -0.013667184519171033 -0.0062154199135555218 0 -0.013605738814552196 -0.0066377993919549535 0 -0.01319355362403256 -0.0063364791228442737 0 -0.013667184519171033 -0.0062154199135555218 0 -0.012474639758488363 -0.0067128433295330107 0 -0.01319355362403256 -0.0063364791228442737 0 -0.012671339231977273 -0.0059049483608919007 0 -0.012474639758488363 -0.0067128433295330107 0 -0.01319355362403256 -0.0063364791228442737 0 -0.013513626871969726 -0.0074764669509157769 0 -0.0067494016354135771 -0.010470844466533756 0 -0.0044072755032279034 -0.010810506141290494 0 -0.0046196860794968765 -0.011728978583496205 0 -0.0032826511407927084 -0.012650879077359789 0 -0.0024314483288940094 -0.011765235857343336 0 -0.0067494016354135771 -0.010470844466533756 0 -0.0073451517126593242 -0.0095184291280303469 0 -0.012128558057064691 -0.0091662301889016556 0 -0.012474639758488363 -0.0067128433295330107 0 -0.013513626871969726 -0.0074764669509157769 0 -0.0032826511407927084 -0.012650879077359789 0 -0.0024314483288940094 -0.011765235857343336 0 -0.0017767188719213615 -0.012544692399546246 0 -0.0024314483288940094 -0.011765235857343336 0 -0.0012497521714478221 -0.011978971958637841 0 -0.0017767188719213615 -0.012544692399546246 0 -0.0012497521714478221 -0.011978971958637841 0 -0.00048123505159739839 -0.011633671711632413 0 -0.00067832225637020445 -0.012405132778398074 0 -0.0017767188719213615 -0.012544692399546246 0 -0.00067832225637020445 -0.012405132778398074 0 -0.0012652167980891453 -0.013139210111029843 0 -0.0012497521714478221 -0.011978971958637841 0 -0.0017767188719213615 -0.012544692399546246 0 -0.00067832225637020445 -0.012405132778398074 0 0.00078036095727556385 -0.011466753126793024 0 0.00062030465206912614 -0.012059811674657552 0 0.00011859865720512675 -0.011983664287493324 0 0.00011859865720512675 -0.011983664287493324 0 -0.00048123505159739839 -0.011633671711632413 0 -0.00067832225637020445 -0.012405132778398074 0 -0.00067832225637020445 -0.012405132778398074 0 -0.00011941096112234333 -0.012604552124163062 0 -0.00050052150277714476 -0.013222995013321951 0 0.00011859865720512675 -0.011983664287493324 0 -0.00067832225637020445 -0.012405132778398074 0 -0.00011941096112234333 -0.012604552124163062 0 0.00054072726686022127 -0.01253157728434073 0 0.00011859865720512675 -0.011983664287493324 0 -0.00011941096112234333 -0.012604552124163062 0 0.00054072726686022127 -0.01253157728434073 0 -0.00011941096112234333 -0.012604552124163062 0 0.00029508554310989007 -0.012981113029648654 0 0.00054072726686022127 -0.01253157728434073 0 0.00062030465206912614 -0.012059811674657552 0 0.00011859865720512675 -0.011983664287493324 0 0.00053334056363701964 -0.014051629676954435 0 -0.00050052150277714476 -0.013222995013321951 0 -0.0012413457287391088 -0.014036338231663038 0 -0.0058989789891846466 -0.0064322947674516533 0 -0.0073252204108871727 -0.0077934516711844152 0 -0.00011941096112234333 -0.012604552124163062 0 0.00029508554310989007 -0.012981113029648654 0 -0.00050052150277714476 -0.013222995013321951 0 0.00053334056363701964 -0.014051629676954435 0 0.00029508554310989007 -0.012981113029648654 0 -0.00050052150277714476 -0.013222995013321951 0 -0.0017767188719213615 -0.012544692399546246 0 -0.0012652167980891453 -0.013139210111029843 0 -0.0019325821050518951 -0.013556716470120732 0 -0.00050052150277714476 -0.013222995013321951 0 -0.0012652167980891453 -0.013139210111029843 0 -0.0012413457287391088 -0.014036338231663038 0 -0.00067832225637020445 -0.012405132778398074 0 -0.00050052150277714476 -0.013222995013321951 0 -0.0012652167980891453 -0.013139210111029843 0 -0.014166924630549351 -0.0063560650638692338 0 -0.013974686645838001 -0.0066092651029254924 0 -0.014011536560672295 -0.0061258640510133983 0 -0.0012652167980891453 -0.013139210111029843 0 -0.0012413457287391088 -0.014036338231663038 0 -0.0019325821050518951 -0.013556716470120732 0 -0.0073252204108871727 -0.0077934516711844152 0 -0.0073139600893244675 -0.0085475540527229204 0 -0.013974686645838001 -0.0066092651029254924 0 -0.014011536560672295 -0.0061258640510133983 0 -0.013667184519171033 -0.0062154199135555218 0 -0.014011536560672295 -0.0061258640510133983 0 -0.013822541295840596 -0.0058581877082006491 0 -0.013667184519171033 -0.0062154199135555218 0 -0.014011536560672295 -0.0061258640510133983 0 -0.014184346947271465 -0.0058221536677999439 0 -0.014387376419605389 -0.0061559213118717072 0 -0.014166924630549351 -0.0063560650638692338 0 -0.014011536560672295 -0.0061258640510133983 0 -0.014387376419605389 -0.0061559213118717072 0 -0.0073252204108871727 -0.0077934516711844152 0 -0.0081731265772383207 -0.0073335149024277976 0 -0.014011536560672295 -0.0061258640510133983 0 -0.014184346947271465 -0.0058221536677999439 0 -0.013822541295840596 -0.0058581877082006491 0 -0.014814977346626873 -0.0063403186750583401 0 -0.014387376419605389 -0.0061559213118717072 0 -0.014499992556797663 -0.00557314858015686 0 -0.014814977346626873 -0.0063403186750583401 0 -0.014104276737012538 -0.006351889735895116 0 -0.014387376419605389 -0.0061559213118717072 0 -0.0058989789891846466 -0.0064322947674516533 0 -0.0099654023398684441 -0.0058177149558898003 0 -0.013297540104037692 -0.0034348857509048595 0 -0.013286227078166775 -0.0034420117306070094 0 -0.013337828577151697 -0.0034034863038917428 0 -0.014184346947271465 -0.0058221536677999439 0 -0.014387376419605389 -0.0061559213118717072 0 -0.014499992556797663 -0.00557314858015686 0 -0.014184346947271465 -0.0058221536677999439 0 -0.014499992556797663 -0.00557314858015686 0 -0.013934581993839755 -0.0053396401765816188 0 -0.014499992556797663 -0.00557314858015686 0 -0.013934581993839755 -0.0053396401765816188 0 -0.014117639567722325 -0.0048053926296128084 0 -0.014184346947271465 -0.0058221536677999439 0 -0.013822541295840596 -0.0058581877082006491 0 -0.013934581993839755 -0.0053396401765816188 0 -0.013822541295840596 -0.0058581877082006491 0 -0.013934581993839755 -0.0053396401765816188 0 -0.013575641033771358 -0.005448913951764279 0 -0.013575641033771358 -0.005448913951764279 0 -0.013197774141730101 -0.0056303606155103068 0 -0.013357156876584621 -0.0049958124792201623 0 -0.013934581993839755 -0.0053396401765816188 0 -0.013575641033771358 -0.005448913951764279 0 -0.013357156876584621 -0.0049958124792201623 0 -0.013822541295840596 -0.0058581877082006491 0 -0.013575641033771358 -0.005448913951764279 0 -0.013197774141730101 -0.0056303606155103068 0 -0.013822541295840596 -0.0058581877082006491 0 -0.013667184519171033 -0.0062154199135555218 0 -0.013197774141730101 -0.0056303606155103068 0 -0.01319355362403256 -0.0063364791228442737 0 -0.013667184519171033 -0.0062154199135555218 0 -0.013197774141730101 -0.0056303606155103068 0 -0.01319355362403256 -0.0063364791228442737 0 -0.012671339231977273 -0.0059049483608919007 0 -0.013197774141730101 -0.0056303606155103068 0 -0.013197774141730101 -0.0056303606155103068 0 -0.012736475300280447 -0.0053006488425871518 0 -0.013357156876584621 -0.0049958124792201623 0 -0.012671339231977273 -0.0059049483608919007 0 -0.013197774141730101 -0.0056303606155103068 0 -0.012736475300280447 -0.0053006488425871518 0 -0.012735552734279039 -0.0047378757789388985 0 -0.012736475300280447 -0.0053006488425871518 0 -0.013357156876584621 -0.0049958124792201623 0 -0.013357156876584621 -0.0049958124792201623 0 -0.013561793845438846 -0.0045318401628555308 0 -0.014117639567722325 -0.0048053926296128084 0 -0.013357156876584621 -0.0049958124792201623 0 -0.013194793546482278 -0.0043313501451339729 0 -0.013561793845438846 -0.0045318401628555308 0 -0.013194793546482278 -0.0043313501451339729 0 -0.013561793845438846 -0.0045318401628555308 0 -0.013652642321942346 -0.0040174016783804216 0 -0.012735552734279039 -0.0047378757789388985 0 -0.013357156876584621 -0.0049958124792201623 0 -0.013194793546482278 -0.0043313501451339729 0 -0.012735552734279039 -0.0047378757789388985 0 -0.012574515277948431 -0.0042798873368858443 0 -0.013194793546482278 -0.0043313501451339729 0 -0.013283929340901085 -0.0034207303867436812 0 -0.013337828577151697 -0.0034034863038917428 0 -0.01350662839602019 -0.0035105197977504899 0 -0.013237019031460693 -0.0034284682696915478 0 -0.013283929340901085 -0.0034207303867436812 0 -0.01350662839602019 -0.0035105197977504899 0 -0.0099654023398684441 -0.0058177149558898003 0 -0.01159528625013166 -0.0051230783549457296 0 -0.013934581993839755 -0.0053396401765816188 0 -0.013357156876584621 -0.0049958124792201623 0 -0.014117639567722325 -0.0048053926296128084 0 -0.01159528625013166 -0.0051230783549457296 0 -0.012019377981366534 -0.0048538940456457685 0 -0.013561793845438846 -0.0045318401628555308 0 -0.014117639567722325 -0.0048053926296128084 0 -0.013652642321942346 -0.0040174016783804216 0 -0.01350662839602019 -0.0035105197977504899 0 -0.013438938480992363 -0.0038952947184901958 0 -0.013652642321942346 -0.0040174016783804216 0 -0.013342340409704475 -0.0033754082872188215 0 -0.013330033946514198 -0.0033141329418577051 0 -0.013237019031460693 -0.0034284682696915478 0 -0.01350662839602019 -0.0035105197977504899 0 -0.013438938480992363 -0.0038952947184901958 0 -0.013039209352165433 -0.0030654537746689749 0 -0.012962042978415574 -0.0028494999175715263 0 -0.013089070229182893 -0.0028178675173054198 0 -0.013209694347076582 -0.0029444257120420287 0 -0.013039209352165433 -0.0030654537746689749 0 -0.013089070229182893 -0.0028178675173054198 0 -0.013330033946514198 -0.0033141329418577051 0 -0.013261200398398277 -0.0030738176088149966 0 -0.013652642321942346 -0.0040174016783804216 0 -0.01366068228786895 -0.0038847960329666414 0 -0.013379511419748989 -0.0040040115934688661 0 -0.013438938480992363 -0.0038952947184901958 0 -0.013652642321942346 -0.0040174016783804216 0 -0.01366068228786895 -0.0038847960329666414 0 -0.013261200398398277 -0.0030738176088149966 0 -0.013054751306404192 -0.0025431371938756096 0 -0.012962042978415574 -0.0028494999175715263 0 -0.013033137562749453 -0.0027070392270676798 0 -0.012950805017470776 -0.0024927105209673248 0 -0.012962042978415574 -0.0028494999175715263 0 -0.013033137562749453 -0.0027070392270676798 0 -0.013089070229182893 -0.0028178675173054198 0 -0.01319146100324977 -0.0027083366378974371 0 -0.013209694347076582 -0.0029444257120420287 0 -0.013089070229182893 -0.0028178675173054198 0 -0.013033137562749453 -0.0027070392270676798 0 -0.013089070229182893 -0.0028178675173054198 0 -0.013095508683728939 -0.0026430889064204383 0 -0.01319146100324977 -0.0027083366378974371 0 -0.013089070229182893 -0.0028178675173054198 0 -0.013095508683728939 -0.0026430889064204383 0 -0.012574515277948431 -0.0042798873368858443 0 -0.013194793546482278 -0.0043313501451339729 0 -0.013065196294931089 -0.0039359899804760085 0 -0.013194793546482278 -0.0043313501451339729 0 -0.013652642321942346 -0.0040174016783804216 0 -0.013379511419748989 -0.0040040115934688661 0 -0.013194793546482278 -0.0043313501451339729 0 -0.013065196294931089 -0.0039359899804760085 0 -0.013379511419748989 -0.0040040115934688661 0 -0.01366068228786895 -0.0038847960329666414 0 -0.013379511419748989 -0.0040040115934688661 0 -0.013356135593955921 -0.0037712373341991412 0 -0.013065196294931089 -0.0039359899804760085 0 -0.013379511419748989 -0.0040040115934688661 0 -0.013356135593955921 -0.0037712373341991412 0 -0.01366068228786895 -0.0038847960329666414 0 -0.013356135593955921 -0.0037712373341991412 0 -0.013391880366974467 -0.0034031550341408626 0 -0.012710187201838401 -0.0038008963921021635 0 -0.013065196294931089 -0.0039359899804760085 0 -0.013040378144279765 -0.0035514044291675927 0 -0.012710187201838401 -0.0038008963921021635 0 -0.013040378144279765 -0.0035514044291675927 0 -0.012660031844078774 -0.003399376762158581 0 -0.013065196294931089 -0.0039359899804760085 0 -0.013356135593955921 -0.0037712373341991412 0 -0.013040378144279765 -0.0035514044291675927 0 -0.013040378144279765 -0.0035514044291675927 0 -0.013391880366974467 -0.0034031550341408626 0 -0.013035803132228435 -0.0029460817542969753 0 -0.013040378144279765 -0.0035514044291675927 0 -0.013035803132228435 -0.0029460817542969753 0 -0.012660031844078774 -0.003399376762158581 0 -0.013356135593955921 -0.0037712373341991412 0 -0.013040378144279765 -0.0035514044291675927 0 -0.013391880366974467 -0.0034031550341408626 0 -0.012487209693810591 -0.0023633534997762333 0 -0.01258542473865943 -0.0013887625382113607 0 -0.012982722168482987 -0.0018859794733631474 0 -0.01258542473865943 -0.0013887625382113607 0 -0.011632886903319775 -0.0013265158107464937 0 -0.012233712542553557 -0.00058944448337494636 0 -0.012487209693810591 -0.0023633534997762333 0 -0.01258542473865943 -0.0013887625382113607 0 -0.011632886903319775 -0.0013265158107464937 0 -0.013054751306404192 -0.0025431371938756096 0 -0.012793271614409279 -0.0017197227148231843 0 -0.012793271614409279 -0.0017197227148231843 0 -0.012477682401118708 -0.0027475441224668381 0 -0.010571728559749522 0.00077237453878988482 0 -0.01175687975848997 0.00018041791512249484 0 -0.01319146100324977 -0.0027083366378974371 0 -0.01318546529337879 -0.002546857963438078 0 -0.013095508683728939 -0.0026430889064204383 0 -0.01318546529337879 -0.002546857963438078 0 -0.013095508683728939 -0.0026430889064204383 0 -0.012950805017470776 -0.0024927105209673248 0 -0.01456088371348733 -0.0019497395542638738 0 -0.012950805017470776 -0.0024927105209673248 0 -0.013579584799859072 -0.0018242558312814045 0 -0.012962042978415574 -0.0028494999175715263 0 -0.012487209693810591 -0.0023633534997762333 0 -0.012950805017470776 -0.0024927105209673248 0 -0.013033137562749453 -0.0027070392270676798 0 -0.013095508683728939 -0.0026430889064204383 0 -0.012950805017470776 -0.0024927105209673248 0 -0.012950805017470776 -0.0024927105209673248 0 -0.012982722168482987 -0.0018859794733631474 0 -0.013579584799859072 -0.0018242558312814045 0 -0.012487209693810591 -0.0023633534997762333 0 -0.012950805017470776 -0.0024927105209673248 0 -0.012982722168482987 -0.0018859794733631474 0 -0.01258542473865943 -0.0013887625382113607 0 -0.012982722168482987 -0.0018859794733631474 0 -0.01328335359787859 -0.0012944345971812926 0 -0.01258542473865943 -0.0013887625382113607 0 -0.01328335359787859 -0.0012944345971812926 0 -0.013114074365076259 -0.00058311872962751908 0 -0.012982722168482987 -0.0018859794733631474 0 -0.01328335359787859 -0.0012944345971812926 0 -0.013579584799859072 -0.0018242558312814045 0 -0.01328335359787859 -0.0012944345971812926 0 -0.013579584799859072 -0.0018242558312814045 0 -0.014121994218214367 -0.0015228947869320717 0 -0.01456088371348733 -0.0019497395542638738 0 -0.013579584799859072 -0.0018242558312814045 0 -0.014121994218214367 -0.0015228947869320717 0 -0.01456088371348733 -0.0019497395542638738 0 -0.014121994218214367 -0.0015228947869320717 0 -0.014419203830773511 -0.0010147322022685181 0 -0.010571728559749522 0.00077237453878988482 0 -0.010101623203344245 0.001889876625214104 0 -0.014121994218214367 -0.0015228947869320717 0 -0.014419203830773511 -0.0010147322022685181 0 -0.013712361013043619 -0.00089382426360835778 0 -0.01328335359787859 -0.0012944345971812926 0 -0.014121994218214367 -0.0015228947869320717 0 -0.013712361013043619 -0.00089382426360835778 0 -0.014419203830773511 -0.0010147322022685181 0 -0.013712361013043619 -0.00089382426360835778 0 -0.013657273634614284 -8.3132149911814058e-05 0 -0.010101623203344245 0.001889876625214104 0 -0.0088730235448216122 0.0042668675679789587 0 -0.0092886145370342423 0.0034598751771694595 0 -0.0092942931219513001 0.0034350565255849338 0 -0.0092716930128536636 0.0034640556201169627 0 -0.0083900297253239834 0.0060428828825992518 0 -0.0096343652130637704 0.0045651245425947567 0 -0.0085938475704804371 0.0044931175643923987 0 -0.010101623203344245 0.001889876625214104 0 -0.01099515863288617 0.0017503719274777497 0 -0.013114074365076259 -0.00058311872962751908 0 -0.013657273634614284 -8.3132149911814058e-05 0 -0.012943520845459222 0.00013203919349241328 0 -0.013712361013043619 -0.00089382426360835778 0 -0.013114074365076259 -0.00058311872962751908 0 -0.013657273634614284 -8.3132149911814058e-05 0 -0.01328335359787859 -0.0012944345971812926 0 -0.013712361013043619 -0.00089382426360835778 0 -0.013114074365076259 -0.00058311872962751908 0 -0.010110442694498546 0.0031727566261165662 0 -0.0096343652130637704 0.0045651245425947567 0 -0.010960192409417199 0.0030090384154680761 0 -0.01099515863288617 0.0017503719274777497 0 -0.011538852395722998 0.0015198805154851933 0 -0.013657273634614284 -8.3132149911814058e-05 0 -0.012943520845459222 0.00013203919349241328 0 -0.013066120330589468 0.00062726561475692679 0 -0.01032055763981838 0.002962078608458504 0 -0.0090430497264791521 0.00406722463806535 0 -0.0093000491018588646 0.0021738369240607812 0 -0.0088730235448216122 0.0042668675679789587 0 -0.008933997856346668 0.0034335899308172643 0 -0.01000666584124389 0.0032539637486798012 0 -0.0088730235448216122 0.0042668675679789587 0 -0.010110442694498546 0.0031727566261165662 0 -0.0096343652130637704 0.0045651245425947567 0 -0.0085938475704804371 0.0044931175643923987 0 -0.007823746144018328 0.0086596944203237956 0 -0.0083771811381394817 0.0050864107626864595 0 -0.0065356196254601727 0.0067757459104657216 0 -0.012717163493400798 -0.00012355436456883503 0 -0.012812113994051822 -0.00011051806617250613 0 -0.012747147762481547 0.00020138378939004025 0 -0.012717163493400798 -0.00012355436456883503 0 -0.01263752400999991 -1.1249592704068485e-05 0 -0.012715832785763543 -0.00027836472483571783 0 -0.012793271614409279 -0.0017197227148231843 0 -0.012640689084859963 -0.0013528578446535225 0 -0.012724761324741679 -0.00018972728007586416 0 -0.012717163493400798 -0.00012355436456883503 0 -0.012715832785763543 -0.00027836472483571783 0 -0.012724761324741679 -0.00018972728007586416 0 -0.012717163493400798 -0.00012355436456883503 0 -0.012812113994051822 -0.00011051806617250613 0 -0.012793271614409279 -0.0017197227148231843 0 -0.012943568768562159 -0.0011239956054384585 0 -0.01258542473865943 -0.0013887625382113607 0 -0.013114074365076259 -0.00058311872962751908 0 -0.012233712542553557 -0.00058944448337494636 0 -0.012943568768562159 -0.0011239956054384585 0 -0.013028514990095205 -0.00089293182043097621 0 -0.013114074365076259 -0.00058311872962751908 0 -0.012233712542553557 -0.00058944448337494636 0 -0.012943520845459222 0.00013203919349241328 0 -0.012812113994051822 -0.00011051806617250613 0 -0.012747147762481547 0.00020138378939004025 0 -0.012943520845459222 0.00013203919349241328 0 -0.012943520845459222 0.00013203919349241328 0 -0.012772628038040241 0.00054645741563161851 0 -0.013066120330589468 0.00062726561475692679 0 -0.012747147762481547 0.00020138378939004025 0 -0.012772628038040241 0.00054645741563161851 0 -0.012606061932708319 0.00065835104235571046 0 -0.012747147762481547 0.00020138378939004025 0 -0.012943520845459222 0.00013203919349241328 0 -0.012772628038040241 0.00054645741563161851 0 -0.012614698689311435 0.00031681115450280184 0 -0.012483663742273212 0.0010553331738316837 0 -0.012409518892533375 9.5416984485032419e-05 0 -0.012747147762481547 0.00020138378939004025 0 -0.012614698689311435 0.00031681115450280184 0 -0.012606061932708319 0.00065835104235571046 0 -0.012717163493400798 -0.00012355436456883503 0 -0.012747147762481547 0.00020138378939004025 0 -0.012614698689311435 0.00031681115450280184 0 -0.01263752400999991 -1.1249592704068485e-05 0 -0.012614698689311435 0.00031681115450280184 0 -0.012409518892533375 9.5416984485032419e-05 0 -0.012717163493400798 -0.00012355436456883503 0 -0.01263752400999991 -1.1249592704068485e-05 0 -0.012614698689311435 0.00031681115450280184 0 -0.012483663742273212 0.0010553331738316837 0 -0.012606061932708319 0.00065835104235571046 0 -0.012276761148136079 0.0011213862835532681 0 -0.012614698689311435 0.00031681115450280184 0 -0.012483663742273212 0.0010553331738316837 0 -0.012606061932708319 0.00065835104235571046 0 -0.011707534961486259 0.0016474566888582873 0 -0.010839149885666571 0.0025204351370710855 0 -0.013095846917044997 0.0015640516434289331 0 -0.013741822025390125 0.0030346988457675013 0 -0.012506373362944792 0.0028612059682062208 0 -0.012483663742273212 0.0010553331738316837 0 -0.012276761148136079 0.0011213862835532681 0 -0.012339653737309494 0.00010534578146876076 0 -0.011475643243617351 0.0008675667964062534 0 -0.012276761148136079 0.0011213862835532681 0 -0.012339653737309494 0.00010534578146876076 0 -0.011475643243617351 0.0008675667964062534 0 -0.012276761148136079 0.0011213862835532681 0 -0.011709430950350671 0.0016220709519721222 0 -0.011475643243617351 0.0008675667964062534 0 -0.011709430950350671 0.0016220709519721222 0 -0.010996893438968229 0.0013614225794197866 0 -0.012276761148136079 0.0011213862835532681 0 -0.011709430950350671 0.0016220709519721222 0 -0.010960192409417199 0.0030090384154680761 0 -0.012772628038040241 0.00054645741563161851 0 -0.012606061932708319 0.00065835104235571046 0 -0.012276761148136079 0.0011213862835532681 0 -0.011773101043258186 0.0013399642198213631 0 -0.011538852395722998 0.0015198805154851933 0 -0.012772628038040241 0.00054645741563161851 0 -0.012276761148136079 0.0011213862835532681 0 -0.013066120330589468 0.00062726561475692679 0 -0.01000666584124389 0.0032539637486798012 0 -0.010641065157686435 0.0026861428457522936 0 -0.01032055763981838 0.002962078608458504 0 -0.011709430950350671 0.0016220709519721222 0 -0.010497788040870284 0.0018304543315721777 0 -0.010110442694498546 0.0031727566261165662 0 -0.011709430950350671 0.0016220709519721222 0 -0.010960192409417199 0.0030090384154680761 0 -0.01032055763981838 0.002962078608458504 0 -0.010497788040870284 0.0018304543315721777 0 -0.0093000491018588646 0.0021738369240607812 0 -0.0093000491018588646 0.0021738369240607812 0 -0.01029741829890066 0.0010984653411401967 0 -0.0092528121194173849 0.00070966441094867281 0 -0.008933997856346668 0.0034335899308172643 0 -0.0090690549635618328 0.0023256336757015699 0 -0.0083771811381394817 0.0050864107626864595 0 -0.0092528121194173849 0.00070966441094867281 0 -0.0061377147880386012 0.0023571488700851744 0 -0.010497788040870284 0.0018304543315721777 0 -0.0093000491018588646 0.0021738369240607812 0 -0.01029741829890066 0.0010984653411401967 0 -0.010497788040870284 0.0018304543315721777 0 -0.010996893438968229 0.0013614225794197866 0 -0.01029741829890066 0.0010984653411401967 0 -0.011709430950350671 0.0016220709519721222 0 -0.010497788040870284 0.0018304543315721777 0 -0.010996893438968229 0.0013614225794197866 0 -0.011475643243617351 0.0008675667964062534 0 -0.01029741829890066 0.0010984653411401967 0 -0.011031297384938285 0.00021927975765026963 0 -0.011475643243617351 0.0008675667964062534 0 -0.010996893438968229 0.0013614225794197866 0 -0.01029741829890066 0.0010984653411401967 0 -0.011031297384938285 0.00021927975765026963 0 -0.010161562417327179 0.000288885680000871 0 -0.010448467930883169 -0.00049956362559117951 0 -0.01029741829890066 0.0010984653411401967 0 -0.011031297384938285 0.00021927975765026963 0 -0.010161562417327179 0.000288885680000871 0 -0.01029741829890066 0.0010984653411401967 0 -0.010161562417327179 0.000288885680000871 0 -0.0092528121194173849 0.00070966441094867281 0 -0.010161562417327179 0.000288885680000871 0 -0.0096690028811363023 -0.00022175380497670684 0 -0.0092528121194173849 0.00070966441094867281 0 -0.0096690028811363023 -0.00022175380497670684 0 -0.0097684122708395198 -0.0008260405150432768 0 -0.010448467930883169 -0.00049956362559117951 0 -0.010161562417327179 0.000288885680000871 0 -0.0096690028811363023 -0.00022175380497670684 0 -0.010448467930883169 -0.00049956362559117951 0 -0.011031297384938285 0.00021927975765026963 0 -0.010448467930883169 -0.00049956362559117951 0 -0.01125968029436035 -0.00061130028978993701 0 -0.010448467930883169 -0.00049956362559117951 0 -0.010614822437641195 -0.0011723822182843199 0 -0.01125968029436035 -0.00061130028978993701 0 -0.0082358826605099991 0.00012104204133431093 0 -0.007789494658752001 -0.0009836287794513887 0 -0.0061377147880386012 0.0023571488700851744 0 -0.0082358826605099991 0.00012104204133431093 0 -0.0092528121194173849 0.00070966441094867281 0 -0.0061377147880386012 0.0023571488700851744 0 -0.0082358826605099991 0.00012104204133431093 0 -0.0092528121194173849 0.00070966441094867281 0 -0.0089800311078125535 -0.00027581132963069057 0 -0.0096690028811363023 -0.00022175380497670684 0 -0.0092528121194173849 0.00070966441094867281 0 -0.0089800311078125535 -0.00027581132963069057 0 -0.0096690028811363023 -0.00022175380497670684 0 -0.0093323585791465179 -0.00079079430365476392 0 -0.0089800311078125535 -0.00027581132963069057 0 -0.0096690028811363023 -0.00022175380497670684 0 -0.0097684122708395198 -0.0008260405150432768 0 -0.0093323585791465179 -0.00079079430365476392 0 -0.0093323585791465179 -0.00079079430365476392 0 -0.0089800311078125535 -0.00027581132963069057 0 -0.0085508172014095562 -0.00098376023831208597 0 -0.0082358826605099991 0.00012104204133431093 0 -0.0089800311078125535 -0.00027581132963069057 0 -0.0085508172014095562 -0.00098376023831208597 0 -0.0082358826605099991 0.00012104204133431093 0 -0.0085508172014095562 -0.00098376023831208597 0 -0.007789494658752001 -0.0009836287794513887 0 -0.0067552968657906996 0.0013273716902781629 0 -0.0060736607809875835 0.0032612938187102651 0 -0.0085508172014095562 -0.00098376023831208597 0 -0.007789494658752001 -0.0009836287794513887 0 -0.0089804556545103973 -0.0036790259806151757 0 -0.0064734727758805248 0.00058696466569912759 0 -0.006018545437148322 -0.00063360582345403486 0 -0.0070211375973263457 -0.0011379970435385276 0 -0.0085508172014095562 -0.00098376023831208597 0 -0.010059549832858544 -0.0019937544834390886 0 -0.0089804556545103973 -0.0036790259806151757 0 -0.0078534478806213601 0.0019176104893372091 0 -0.0073623649812038809 0.0023935430968795818 0 -0.0093323585791465179 -0.00079079430365476392 0 -0.0085508172014095562 -0.00098376023831208597 0 -0.0098758131676638262 -0.0014605669795921784 0 -0.0073623649812038809 0.0023935430968795818 0 -0.0060736607809875835 0.0032612938187102651 0 -0.0046084105477280967 0.0071453836364501417 0 -0.0043988613691522968 0.0072932971633127277 0 -0.0045509451432712341 0.0073405034367002185 0 -0.010614822437641195 -0.0011723822182843199 0 -0.0098738404109571173 -0.001368690035813162 0 -0.011390744382115741 -0.0023106615715047063 0 -0.010614822437641195 -0.0011723822182843199 0 -0.01125968029436035 -0.00061130028978993701 0 -0.011390744382115741 -0.0023106615715047063 0 -0.0073623649812038809 0.0023935430968795818 0 -0.0086710593647895459 0.0046228910506709679 0 -0.0097684122708395198 -0.0008260405150432768 0 -0.010448467930883169 -0.00049956362559117951 0 -0.01000821562289103 -0.0011928126601186127 0 -0.010614822437641195 -0.0011723822182843199 0 -0.01000821562289103 -0.0011928126601186127 0 -0.0098738404109571173 -0.001368690035813162 0 -0.010448467930883169 -0.00049956362559117951 0 -0.010614822437641195 -0.0011723822182843199 0 -0.01000821562289103 -0.0011928126601186127 0 -0.0097684122708395198 -0.0008260405150432768 0 -0.0093323585791465179 -0.00079079430365476392 0 -0.0098758131676638262 -0.0014605669795921784 0 -0.0097684122708395198 -0.0008260405150432768 0 -0.01000821562289103 -0.0011928126601186127 0 -0.0098758131676638262 -0.0014605669795921784 0 -0.0073613533926331839 0.0023692392192127057 0 -0.0073623649812038809 0.0023935430968795818 0 -0.0046084105477280967 0.0071453836364501417 0 -0.0045509451432712341 0.0073405034367002185 0 -0.0046962620975574253 0.0072941827468875151 0 -0.013182134811666402 0.0040530688410839837 0 -0.013741822025390125 0.0030346988457675013 0 -0.014399565345287252 0.0044951411618707471 0 -0.010839149885666571 0.0025204351370710855 0 -0.0086710593647895459 0.0046228910506709679 0 -0.012339653737309494 0.00010534578146876076 0 -0.01125968029436035 -0.00061130028978993701 0 -0.011390744382115741 -0.0023106615715047063 0 -0.013182134811666402 0.0040530688410839837 0 -0.013741822025390125 0.0030346988457675013 0 -0.012506373362944792 0.0028612059682062208 0 -0.011475643243617351 0.0008675667964062534 0 -0.011031297384938285 0.00021927975765026963 0 -0.012339653737309494 0.00010534578146876076 0 -0.011031297384938285 0.00021927975765026963 0 -0.012339653737309494 0.00010534578146876076 0 -0.01125968029436035 -0.00061130028978993701 0 -0.0012773664775133857 0.0014081328903099658 0 -0.0026733612708258777 -0.00032894291613159147 0 -0.0028813802227084136 0.0018412022055012489 0 -0.0012789353553823012 0.0025633925975957731 0 0.00032088668776817948 0.003551058815382699 0 0.0013034698742131847 0.0010147400209230251 0 -0.00011146581164363589 -0.00066548929114435267 0 0.0013034698742131847 0.0010147400209230251 0 0.00077956444311045388 -0.0027209849735809928 0 -0.0012789353553823012 0.0025633925975957731 0 -0.00011146581164363589 -0.00066548929114435267 0 0.0013034698742131847 0.0010147400209230251 0 -0.0012940669659578037 0.0023375325483793279 0 -0.0007913134444558123 0.0011331279626494556 0 -0.0012773664775133857 0.0014081328903099658 0 -0.00011146581164363589 -0.00066548929114435267 0 -0.0026733612708258777 -0.00032894291613159147 0 -0.0026733612708258777 -0.00032894291613159147 0 -0.0042666933217478456 0.00070970556468434641 0 -0.0050045176158669581 -0.0011916794543893267 0 -0.0055514024321194917 0.00017322226772289114 0 -0.0042666933217478456 0.00070970556468434641 0 -0.0050045176158669581 -0.0011916794543893267 0 -0.006018545437148322 -0.00063360582345403486 0 -0.0055514024321194917 0.00017322226772289114 0 -0.0050045176158669581 -0.0011916794543893267 0 -0.0064734727758805248 0.00058696466569912759 0 -0.006018545437148322 -0.00063360582345403486 0 -0.0055514024321194917 0.00017322226772289114 0 -0.0067552968657906996 0.0013273716902781629 0 -0.0066481764296812025 0.0015111767688470083 0 -0.0055651999624228791 0.0012482636503967071 0 -0.0042666933217478456 0.00070970556468434641 0 -0.0042583031640975834 0.0025679748552651354 0 -0.0064734727758805248 0.00058696466569912759 0 -0.0055651999624228791 0.0012482636503967071 0 -0.0061377147880386012 0.0023571488700851744 0 -0.0064734727758805248 0.00058696466569912759 0 -0.0055514024321194917 0.00017322226772289114 0 -0.0055651999624228791 0.0012482636503967071 0 -0.0055514024321194917 0.00017322226772289114 0 -0.0055651999624228791 0.0012482636503967071 0 -0.0042666933217478456 0.00070970556468434641 0 -0.0026733612708258777 -0.00032894291613159147 0 -0.0028813802227084136 0.0018412022055012489 0 -0.0042666933217478456 0.00070970556468434641 0 -0.0028813802227084136 0.0018412022055012489 0 -0.0042666933217478456 0.00070970556468434641 0 -0.0042583031640975834 0.0025679748552651354 0 -0.0028813802227084136 0.0018412022055012489 0 -0.0042583031640975834 0.0025679748552651354 0 -0.0021592445504710757 0.0037917122924114423 0 -0.0042583031640975834 0.0025679748552651354 0 -0.0050331434708398804 0.0050358311310453891 0 -0.0021592445504710757 0.0037917122924114423 0 -0.0042583031640975834 0.0025679748552651354 0 -0.0061377147880386012 0.0023571488700851744 0 -0.0050331434708398804 0.0050358311310453891 0 -0.0055651999624228791 0.0012482636503967071 0 -0.0042583031640975834 0.0025679748552651354 0 -0.0061377147880386012 0.0023571488700851744 0 -0.0083771811381394817 0.0050864107626864595 0 -0.0061377147880386012 0.0023571488700851744 0 -0.0050331434708398804 0.0050358311310453891 0 -0.0083771811381394817 0.0050864107626864595 0 -0.0050331434708398804 0.0050358311310453891 0 -0.0065356196254601727 0.0067757459104657216 0 -0.0050331434708398804 0.0050358311310453891 0 -0.0021592445504710757 0.0037917122924114423 0 -0.0032228928110327949 0.0066793283269432572 0 -0.0011983866857425004 0.0065293627739298173 0 -0.0016253811978139824 0.007601452603261151 0 -0.0030527091461755138 0.0075387079380578818 0 -0.0021904046508042655 0.0045402106940544678 0 -0.0030920865073232585 0.0067283631115385495 0 -0.0011983866857425004 0.0065293627739298173 0 -0.0021522889489703021 0.0053362703495793183 0 -0.00020000958255148065 0.0052782500586672663 0 -0.0011983866857425004 0.0065293627739298173 0 -0.0021522889489703021 0.0053362703495793183 0 -0.0030527091461755138 0.0075387079380578818 0 -0.0011983866857425004 0.0065293627739298173 0 -0.00080299062714646731 0.0071270974186601879 0 -0.0016253811978139824 0.007601452603261151 0 -0.0012789353553823012 0.0025633925975957731 0 -0.0021522889489703021 0.0053362703495793183 0 -0.00020000958255148065 0.0052782500586672663 0 -0.0012940669659578037 0.0023375325483793279 0 -0.0021904046508042655 0.0045402106940544678 0 -0.0012773664775133857 0.0014081328903099658 0 -0.0028813802227084136 0.0018412022055012489 0 -0.0021592445504710757 0.0037917122924114423 0 -0.0012789353553823012 0.0025633925975957731 0 0.00032088668776817948 0.003551058815382699 0 -0.00020000958255148065 0.0052782500586672663 0 0.00032088668776817948 0.003551058815382699 0 -0.00020000958255148065 0.0052782500586672663 0 0.0015891416676057655 0.0052024056472771687 0 -0.00020000958255148065 0.0052782500586672663 0 0.00077089630804410246 0.0063601350962136241 0 0.0015891416676057655 0.0052024056472771687 0 -0.00020000958255148065 0.0052782500586672663 0 0.00077089630804410246 0.0063601350962136241 0 -0.00021586632297499513 0.0066930566405618008 0 -0.0011983866857425004 0.0065293627739298173 0 -0.00020000958255148065 0.0052782500586672663 0 -0.00021586632297499513 0.0066930566405618008 0 -0.00021586632297499513 0.0066930566405618008 0 -0.00080299062714646731 0.0071270974186601879 0 -0.00015426925194150356 0.0076729285047211718 0 -0.0011983866857425004 0.0065293627739298173 0 -0.00021586632297499513 0.0066930566405618008 0 -0.00080299062714646731 0.0071270974186601879 0 0.00077089630804410246 0.0063601350962136241 0 -0.00021586632297499513 0.0066930566405618008 0 -0.00015426925194150356 0.0076729285047211718 0 0.0004984090353020227 0.0076771804837477272 0 -0.0015242079593421904 0.0087381754420750978 0 -0.00035632392143838888 0.0089181633918182478 0 7.3211461538643117e-06 0.0079647349987870836 0 -0.00058968321329212867 0.0076754034490803692 0 -0.0025060381857540015 0.0087509414060947272 0 0.0004984090353020227 0.0076771804837477272 0 0.00055448975524992501 0.0085783459993069282 0 -0.00035632392143838888 0.0089181633918182478 0 0.00035717848787983569 0.0078373892488477672 0 -0.00096852372447812311 0.0082791028356517214 0 0.0004984090353020227 0.0076771804837477272 0 -0.0025060381857540015 0.0087509414060947272 0 -0.0015242079593421904 0.0087381754420750978 0 -0.00015426925194150356 0.0076729285047211718 0 -0.0016253811978139824 0.007601452603261151 0 -0.0027169799162376999 0.0086512917666401318 0 -0.00080299062714646731 0.0071270974186601879 0 -0.00015426925194150356 0.0076729285047211718 0 -0.0016253811978139824 0.007601452603261151 0 -0.00058968321329212867 0.0076754034490803692 0 -0.0025060381857540015 0.0087509414060947272 0 -0.0027169799162376999 0.0086512917666401318 0 -0.0001473074639766907 0.0075388122042730522 0 -0.0011877399435365067 0.0080362717616590477 0 -0.0016253811978139824 0.007601452603261151 0 -0.0030527091461755138 0.0075387079380578818 0 -0.0027169799162376999 0.0086512917666401318 0 -0.0015242079593421904 0.0087381754420750978 0 -0.001214457870644098 0.010366072055686402 0 -0.00035632392143838888 0.0089181633918182478 0 -0.0015242079593421904 0.0087381754420750978 0 -0.0020536818777198624 0.0095470416332028053 0 -0.001214457870644098 0.010366072055686402 0 -0.0025060381857540015 0.0087509414060947272 0 -0.0015242079593421904 0.0087381754420750978 0 -0.0021465392258717951 0.009045709397733746 0 -0.0024970513216576798 0.0091509722788100083 0 -0.0020536818777198624 0.0095470416332028053 0 -0.0029565240008240694 0.0094975680993059884 0 -0.0025060381857540015 0.0087509414060947272 0 -0.0024970513216576798 0.0091509722788100083 0 -0.0029478613948697176 0.0091407010076976613 0 -0.0025060381857540015 0.0087509414060947272 0 -0.0024970513216576798 0.0091509722788100083 0 -0.0021465392258717951 0.009045709397733746 0 -0.0015242079593421904 0.0087381754420750978 0 -0.0021465392258717951 0.009045709397733746 0 -0.0020536818777198624 0.0095470416332028053 0 -0.0024970513216576798 0.0091509722788100083 0 -0.0021465392258717951 0.009045709397733746 0 -0.0020536818777198624 0.0095470416332028053 0 -0.0020536818777198624 0.0095470416332028053 0 -0.0029565240008240694 0.0094975680993059884 0 -0.0027943960696417938 0.010173737798413183 0 -0.0020536818777198624 0.0095470416332028053 0 -0.001214457870644098 0.010366072055686402 0 -0.0027943960696417938 0.010173737798413183 0 -0.001214457870644098 0.010366072055686402 0 -0.00035632392143838888 0.0089181633918182478 0 0.0010644355813651213 0.0093305882969945304 0 0.00091812343321497167 0.0091069541666257622 0 0.001513427617109931 0.0093289774783741498 0 0.0019043031210150378 0.0087320754391730596 0 -0.0023216822272507059 0.0060717364428428573 0 5.2613230966320294e-05 0.0068533766316210979 0 0.00055448975524992501 0.0085783459993069282 0 -0.00035632392143838888 0.0089181633918182478 0 0.0010644355813651213 0.0093305882969945304 0 -0.0050331434708398804 0.0050358311310453891 0 -0.0048775326223599686 0.0082737539320312265 0 -0.0065356196254601727 0.0067757459104657216 0 -0.0061072066246018264 0.0064629838746527273 0 -0.0063077968419476107 0.0068341428842194265 0 -0.007823746144018328 0.0086596944203237956 0 -0.0048775326223599686 0.0082737539320312265 0 -0.0065356196254601727 0.0067757459104657216 0 -0.0030527091461755138 0.0075387079380578818 0 -0.0027169799162376999 0.0086512917666401318 0 -0.0042787798420886348 0.0095922180677277223 0 -0.0047472505539601249 0.0079051313961248908 0 -0.0032228928110327949 0.0066793283269432572 0 -0.0042787798420886348 0.0095922180677277223 0 -0.0030920865073232585 0.0067283631115385495 0 -0.0035892532506511627 0.0078989325008868728 0 -0.0050331434708398804 0.0050358311310453891 0 -0.0047472505539601249 0.0079051313961248908 0 -0.0032228928110327949 0.0066793283269432572 0 -0.0047472505539601249 0.0079051313961248908 0 -0.0042787798420886348 0.0095922180677277223 0 -0.004392105818852212 0.010773759356762331 0 -0.0029478613948697176 0.0091407010076976613 0 -0.0029565240008240694 0.0094975680993059884 0 -0.0042787798420886348 0.0095922180677277223 0 -0.0027169799162376999 0.0086512917666401318 0 -0.0029478613948697176 0.0091407010076976613 0 -0.0042787798420886348 0.0095922180677277223 0 -0.0025060381857540015 0.0087509414060947272 0 -0.0027169799162376999 0.0086512917666401318 0 -0.0029478613948697176 0.0091407010076976613 0 -0.0024970513216576798 0.0091509722788100083 0 -0.0029478613948697176 0.0091407010076976613 0 -0.0029565240008240694 0.0094975680993059884 0 -0.0029565240008240694 0.0094975680993059884 0 -0.0027943960696417938 0.010173737798413183 0 -0.003541756531169846 0.010032204018544719 0 -0.0027943960696417938 0.010173737798413183 0 -0.003541756531169846 0.010032204018544719 0 -0.0035813975047093768 0.010587217061247373 0 -0.0029565240008240694 0.0094975680993059884 0 -0.003541756531169846 0.010032204018544719 0 -0.0042787798420886348 0.0095922180677277223 0 -0.003541756531169846 0.010032204018544719 0 -0.0042787798420886348 0.0095922180677277223 0 -0.004392105818852212 0.010773759356762331 0 -0.003541756531169846 0.010032204018544719 0 -0.004392105818852212 0.010773759356762331 0 -0.0035813975047093768 0.010587217061247373 0 -0.0092942931219513001 0.0034350565255849338 0 -0.0092716930128536636 0.0034640556201169627 0 -0.0092539919490879155 0.0034615084891816156 0 -0.007823746144018328 0.0086596944203237956 0 -0.0048775326223599686 0.0082737539320312265 0 -0.0046600324300375114 0.01137259979941284 0 -0.0063077968419476107 0.0068341428842194265 0 -0.0072325098693767831 0.0047549170091038435 0 -0.0088730235448216122 0.0042668675679789587 0 -0.0072325098693767831 0.0047549170091038435 0 -0.010626995909312402 0.001319584865639084 0 -0.010589620763589627 0.0016068020632648786 0 -0.010776700674265375 0.0013780046201754242 0 -0.010571728559749522 0.00077237453878988482 0 -0.0098790158231601855 0.0016035277892816051 0 -0.010101623203344245 0.001889876625214104 0 -0.0098790158231601855 0.0016035277892816051 0 -0.0092886145370342423 0.0034598751771694595 0 -0.0092698429688592501 0.0034782296617951909 0 -0.0092716930128536636 0.0034640556201169627 0 -0.0092716930128536636 0.0034640556201169627 0 -0.0092528497398735813 0.0034731157640457027 0 -0.0092539919490879155 0.0034615084891816156 0 -0.0092698429688592501 0.0034782296617951909 0 -0.0092716930128536636 0.0034640556201169627 0 -0.0092528497398735813 0.0034731157640457027 0 -0.0098790158231601855 0.0016035277892816051 0 -0.0080814164610289504 0.0030953391362968934 0 -0.006807759258241548 0.0040880779290637988 0 -0.0037691498778102393 0.003153363543250535 0 -0.012880334790701158 -0.001815176397143337 0 -0.013059332708588445 -0.0017448231430368993 0 -0.013076976363614807 -0.0020507805165654591 0 -0.0080814164610289504 0.0030953391362968934 0 -0.006807759258241548 0.0040880779290637988 0 -0.0087155905848050625 0.0037730257991851952 0 -0.0087339394391457263 0.0035181180891802914 0 -0.0085228089598415324 0.0036988226444941543 0 -0.0080814164610289504 0.0030953391362968934 0 -0.0072325098693767831 0.0047549170091038435 0 -0.004392105818852212 0.010773759356762331 0 -0.0035813975047093768 0.010587217061247373 0 -0.0036199767653902833 0.011368021722054871 0 -0.0072325098693767831 0.0047549170091038435 0 -0.006807759258241548 0.0040880779290637988 0 -0.0027943960696417938 0.010173737798413183 0 -0.0035813975047093768 0.010587217061247373 0 -0.0036199767653902833 0.011368021722054871 0 -0.013059332708588445 -0.0017448231430368993 0 -0.013076976363614807 -0.0020507805165654591 0 -0.013543097226877941 -0.0021943743455958052 0 -0.012934597197945402 -0.0023040882265746919 0 -0.013076976363614807 -0.0020507805165654591 0 -0.013543097226877941 -0.0021943743455958052 0 -0.0080814164610289504 0.0030953391362968934 0 -0.010400282762803362 -0.00039389515623469424 0 -0.012880334790701158 -0.001815176397143337 0 -0.012934597197945402 -0.0023040882265746919 0 -0.013076976363614807 -0.0020507805165654591 0 -0.010929879303387655 -0.00038500905342812538 0 -0.010571728559749522 0.00077237453878988482 0 -0.01319146100324977 -0.0027083366378974371 0 -0.013157541182359426 -0.0025428400030341365 0 -0.01323814709488633 -0.0026134676272423899 0 -0.0083021707687502364 0.0019493304971453214 0 -0.0086966950427390371 0.0021031218052136639 0 -0.0087486342489232361 0.0014035772381060479 0 -0.01319146100324977 -0.0027083366378974371 0 -0.013349845111233201 -0.0026491317685280024 0 -0.01323814709488633 -0.0026134676272423899 0 -0.013244440162447161 -0.0025088799924525454 0 -0.013349845111233201 -0.0026491317685280024 0 -0.01323814709488633 -0.0026134676272423899 0 -0.0098790158231601855 0.0016035277892816051 0 -0.010400282762803362 -0.00039389515623469424 0 -0.013157541182359426 -0.0025428400030341365 0 -0.013244440162447161 -0.0025088799924525454 0 -0.01323814709488633 -0.0026134676272423899 0 0.0011120423452070486 0.0096749752257695321 0 0.001557212055354012 0.0097783483226263884 0 0.001513427617109931 0.0093289774783741498 0 0.001557212055354012 0.0097783483226263884 0 0.001513427617109931 0.0093289774783741498 0 0.0021562152822898525 0.0093292559478919349 0 0.00091812343321497167 0.0091069541666257622 0 0.0011120423452070486 0.0096749752257695321 0 0.001513427617109931 0.0093289774783741498 0 -0.001214457870644098 0.010366072055686402 0 -0.0027943960696417938 0.010173737798413183 0 -0.0036199767653902833 0.011368021722054871 0 -6.3177696491478663e-05 0.0094668892184001808 0 0.00065492987209670936 0.0095953219085607496 0 0.00071655714001282115 0.010125150225890871 0 -0.0023216822272507059 0.0060717364428428573 0 -0.006807759258241548 0.0040880779290637988 0 0.00091812343321497167 0.0091069541666257622 0 -6.3177696491478663e-05 0.0094668892184001808 0 0.00065492987209670936 0.0095953219085607496 0 0.00091812343321497167 0.0091069541666257622 0 0.0011120423452070486 0.0096749752257695321 0 0.00065492987209670936 0.0095953219085607496 0 0.0011120423452070486 0.0096749752257695321 0 0.00065492987209670936 0.0095953219085607496 0 0.00071655714001282115 0.010125150225890871 0 -0.013628529163893325 -0.0025736167894359154 0 -0.012934597197945402 -0.0023040882265746919 0 -0.013543097226877941 -0.0021943743455958052 0 0.0011120423452070486 0.0096749752257695321 0 0.00071655714001282115 0.010125150225890871 0 0.0013061722143822676 0.010101541900962036 0 0.0022425193795821926 0.0034976208988718258 0 -0.0037691498778102393 0.003153363543250535 0 0.0014743793333657812 0.010747236740314921 0 0.00071655714001282115 0.010125150225890871 0 0.0013061722143822676 0.010101541900962036 0 0.0011120423452070486 0.0096749752257695321 0 0.001557212055354012 0.0097783483226263884 0 0.0013061722143822676 0.010101541900962036 0 0.003873880373630395 0.0072386457571827611 0 0.0038863379294307495 0.0069453365939942798 0 0.001557212055354012 0.0097783483226263884 0 0.0013061722143822676 0.010101541900962036 0 0.0017242511442313807 0.010170321990903191 0 0.0014743793333657812 0.010747236740314921 0 0.0013061722143822676 0.010101541900962036 0 0.0017242511442313807 0.010170321990903191 0 0.0022425193795821926 0.0034976208988718258 0 0.0038863379294307495 0.0069453365939942798 0 0.0022897748343906742 0.011731936340611019 0 0.0017037650670515593 0.010436825066343244 0 0.0026145598412503656 0.010240752288139053 0 0.001557212055354012 0.0097783483226263884 0 0.0017345187971860721 0.010182174933486323 0 0.0021562152822898525 0.0093292559478919349 0 0.0038863379294307495 0.0069453365939942798 0 0.0031432457246034738 0.0083884966622914236 0 0.0017037650670515593 0.010436825066343244 0 0.0021562152822898525 0.0093292559478919349 0 0.0026145598412503656 0.010240752288139053 0 0.0021562152822898525 0.0093292559478919349 0 0.003214669285084256 0.0094402090226449378 0 0.0025499678122336009 0.0089439899048022846 0 0.0021562152822898525 0.0093292559478919349 0 0.003214669285084256 0.0094402090226449378 0 0.0026145598412503656 0.010240752288139053 0 0.003214669285084256 0.0094402090226449378 0 0.0034107555767276905 0.010799886269948341 0 0.0026145598412503656 0.010240752288139053 0 0.028092656822239707 0.018855484051677581 0 0.026183919907426245 0.018826772162791799 0 0.026322934128569068 0.020563006187402394 0 0.012951005646892387 0.011694843529705611 0 0.014305219849281013 0.013889243033984923 0 0.026183919907426245 0.018826772162791799 0 0.026322934128569068 0.020563006187402394 0 0.024625470520339192 0.020510777684065729 0 0.014305219849281013 0.013889243033984923 0 0.014900681497846084 0.015208319099895768 0 0.003214669285084256 0.0094402090226449378 0 0.0034107555767276905 0.010799886269948341 0 0.004587487369634562 0.009874633281472759 0 0.003214669285084256 0.0094402090226449378 0 0.004587487369634562 0.009874633281472759 0 0.0042989319587590415 0.0087933157759319848 0 0.003214669285084256 0.0094402090226449378 0 0.0042989319587590415 0.0087933157759319848 0 0.0029579310953127551 0.0082980146213139216 0 0.004587487369634562 0.009874633281472759 0 0.0042989319587590415 0.0087933157759319848 0 0.0058353402189266238 0.0088720064964155354 0 0.0042989319587590415 0.0087933157759319848 0 0.0049132706017731313 0.0078584950661575916 0 0.0058353402189266238 0.0088720064964155354 0 0.0049132706017731313 0.0078584950661575916 0 0.0039816940228043522 0.0077266885365356239 0 0.0045662289304150378 0.0065817359158056457 0 0.0042989319587590415 0.0087933157759319848 0 0.0049132706017731313 0.0078584950661575916 0 0.0039816940228043522 0.0077266885365356239 0 0.0042989319587590415 0.0087933157759319848 0 0.0039816940228043522 0.0077266885365356239 0 0.0029579310953127551 0.0082980146213139216 0 0.0029579310953127551 0.0082980146213139216 0 0.0019147551479803432 0.00785333274597955 0 0.0029149213327068486 0.0070570927915414028 0 0.0039816940228043522 0.0077266885365356239 0 0.0029579310953127551 0.0082980146213139216 0 0.0029149213327068486 0.0070570927915414028 0 0.0029579310953127551 0.0082980146213139216 0 0.0019147551479803432 0.00785333274597955 0 0.0012795785917492947 0.0083501440077411431 0 7.3211461538643117e-06 0.0079647349987870836 0 -0.00058968321329212867 0.0076754034490803692 0 0.0014022926360524512 0.0067684517559418976 0 0.0004984090353020227 0.0076771804837477272 0 0.0019147551479803432 0.00785333274597955 0 0.0029149213327068486 0.0070570927915414028 0 0.00035717848787983569 0.0078373892488477672 0 0.0024520503875266851 0.0071549907382963606 0 0.0004984090353020227 0.0076771804837477272 0 0.00055448975524992501 0.0085783459993069282 0 0.0012795785917492947 0.0083501440077411431 0 0.0004984090353020227 0.0076771804837477272 0 0.0019147551479803432 0.00785333274597955 0 0.0012795785917492947 0.0083501440077411431 0 0.0010008943979458605 0.0069671469446831004 0 5.2613230966320294e-05 0.0068533766316210979 0 0.0029579310953127551 0.0082980146213139216 0 0.0019043031210150378 0.0087320754391730596 0 0.0025499678122336009 0.0089439899048022846 0 0.0029579310953127551 0.0082980146213139216 0 0.0012795785917492947 0.0083501440077411431 0 0.0010644355813651213 0.0093305882969945304 0 0.00055448975524992501 0.0085783459993069282 0 0.0012795785917492947 0.0083501440077411431 0 0.0010644355813651213 0.0093305882969945304 0 0.001513427617109931 0.0093289774783741498 0 0.0021562152822898525 0.0093292559478919349 0 0.0019043031210150378 0.0087320754391730596 0 0.0021562152822898525 0.0093292559478919349 0 0.0019043031210150378 0.0087320754391730596 0 0.0025499678122336009 0.0089439899048022846 0 0.003214669285084256 0.0094402090226449378 0 0.0029579310953127551 0.0082980146213139216 0 0.0025499678122336009 0.0089439899048022846 0 0.017714132702391316 -0.0096758917443731229 0 0.017138891408410163 -0.0080763908880908588 0 0.015309843089359124 -0.00773044480639405 0 0.017654233350904623 -0.010920305628232639 0 0.018516281932800562 -0.010842429432560889 0 0.017231981527767531 -0.010410344570213158 0 0.018516281932800562 -0.010842429432560889 0 0.017231981527767531 -0.010410344570213158 0 0.017208373577056488 -0.009828783501617493 0 0.018446424452258154 -0.0094525361415615551 0 0.017370071569204313 -0.0076711045222676282 0 0.017654233350904623 -0.010920305628232639 0 0.018127919681636219 -0.011490001312501873 0 0.018516281932800562 -0.010842429432560889 0 0.017654233350904623 -0.010920305628232639 0 0.01753513866354306 -0.011266856243116928 0 0.018127919681636219 -0.011490001312501873 0 0.01753513866354306 -0.011266856243116928 0 0.017478139839887743 -0.011975551881142849 0 0.018127919681636219 -0.011490001312501873 0 0.018286483818135139 -0.012245289501169539 0 0.017478139839887743 -0.011975551881142849 0 0.018127919681636219 -0.011490001312501873 0 0.018127919681636219 -0.011490001312501873 0 0.01876170954434531 -0.011617023663237762 0 0.018516281932800562 -0.010842429432560889 0 0.01876170954434531 -0.011617023663237762 0 0.018516281932800562 -0.010842429432560889 0 0.01963322665205958 -0.011446330700754907 0 0.018286483818135139 -0.012245289501169539 0 0.018127919681636219 -0.011490001312501873 0 0.01876170954434531 -0.011617023663237762 0 0.02303530963053179 0.020471327707261584 0 0.023057975242537446 0.022213316771316844 0 0.021561375991082266 0.022227475129585905 0 0.017714132702391316 -0.0096758917443731229 0 0.018940857839043656 -0.0101707559193674 0 0.017138891408410163 -0.0080763908880908588 0 0.020572507254827455 0.0048590418926809835 0 0.019315894724489316 0.0069930872823543129 0 0.024625470520339192 0.020510777684065729 0 0.024608440648788213 0.02225811990112261 0 0.023057975242537446 0.022213316771316844 0 0.02303530963053179 0.020471327707261584 0 0.024625470520339192 0.020510777684065729 0 0.023057975242537446 0.022213316771316844 0 0.018446424452258154 -0.0094525361415615551 0 0.019190938835934132 -0.010274306306932185 0 0.019231258571500754 -0.01202931488435521 0 0.01876170954434531 -0.011617023663237762 0 0.01963322665205958 -0.011446330700754907 0 0.021463767173418923 0.0026425885850459275 0 0.020572507254827455 0.0048590418926809835 0 0.020370885631688981 -0.011932707269280226 0 0.018940857839043656 -0.0101707559193674 0 0.01963322665205958 -0.011446330700754907 0 0.017714132702391316 -0.0096758917443731229 0 0.018940857839043656 -0.0101707559193674 0 0.01963322665205958 -0.011446330700754907 0 0.024598570314990881 0.0187222093875321 0 0.02303530963053179 0.020471327707261584 0 0.024625470520339192 0.020510777684065729 0 0.024598570314990881 0.0187222093875321 0 0.026183919907426245 0.018826772162791799 0 0.024625470520339192 0.020510777684065729 0 0.026322934128569068 0.020563006187402394 0 0.024625470520339192 0.020510777684065729 0 0.024608440648788213 0.02225811990112261 0 0.0049132706017731313 0.0078584950661575916 0 0.0058353402189266238 0.0088720064964155354 0 0.0058883077972853503 0.0073199486000496737 0 0.0058353402189266238 0.0088720064964155354 0 0.0070693844080978833 0.0078170998628817965 0 0.0058883077972853503 0.0073199486000496737 0 0.014900681497846084 0.015208319099895768 0 0.015345356505112834 0.016244439212720046 0 0.024608440648788213 0.02225811990112261 0 0.0229516346725951 0.023908804940319037 0 0.023057975242537446 0.022213316771316844 0 0.0229516346725951 0.023908804940319037 0 0.023057975242537446 0.022213316771316844 0 0.021561375991082266 0.022227475129585905 0 0.0229516346725951 0.023908804940319037 0 0.021330939400736614 0.024076863811709294 0 0.021561375991082266 0.022227475129585905 0 0.0229516346725951 0.023908804940319037 0 0.021330939400736614 0.024076863811709294 0 0.021375160253621451 0.025417054394948905 0 0.021330939400736614 0.024076863811709294 0 0.021561375991082266 0.022227475129585905 0 0.020300498353458363 0.0239289722242082 0 0.021330939400736614 0.024076863811709294 0 0.020300498353458363 0.0239289722242082 0 0.020585666022360411 0.024814475885162411 0 0.017138891408410163 -0.0080763908880908588 0 0.015309843089359124 -0.00773044480639405 0 0.014994645725118381 -0.0058754486767615497 0 0.019315894724489316 0.0069930872823543129 0 0.018073866301311931 0.0090478054137655053 0 0.0082924524514255884 0.0067586611492874565 0 0.0077091248745254195 0.0054208127624984235 0 0.0095125947328488607 0.0057117175960312442 0 0.016123289585062889 0.017441383308446634 0 0.01793564275105439 0.019388215430300532 0 0.021330939400736614 0.024076863811709294 0 0.021375160253621451 0.025417054394948905 0 0.020585666022360411 0.024814475885162411 0 0.021375160253621451 0.025417054394948905 0 0.020585666022360411 0.024814475885162411 0 0.020497445809653639 0.025574983234782939 0 0.015345356505112834 0.016244439212720046 0 0.016123289585062889 0.017441383308446634 0 0.0070693844080978833 0.0078170998628817965 0 0.0082924524514255884 0.0067586611492874565 0 0.0071797373062481755 0.0064657527355046936 0 0.0082924524514255884 0.0067586611492874565 0 0.0071797373062481755 0.0064657527355046936 0 0.0077091248745254195 0.0054208127624984235 0 0.006124900035345532 0.0058594306371801321 0 0.0068722710423361087 0.0049329224126645321 0 0.0077091248745254195 0.0054208127624984235 0 0.0059657467768253038 0.0059894331353272465 0 0.0068314641406894876 0.0056960587690369231 0 0.0071797373062481755 0.0064657527355046936 0 0.0061361689510570127 0.0060267314357352461 0 0.0077091248745254195 0.0054208127624984235 0 0.0071797373062481755 0.0064657527355046936 0 0.0058883077972853503 0.0073199486000496737 0 0.0061361689510570127 0.0060267314357352461 0 0.0070693844080978833 0.0078170998628817965 0 0.0071797373062481755 0.0064657527355046936 0 0.0058883077972853503 0.0073199486000496737 0 0.0058883077972853503 0.0073199486000496737 0 0.0061361689510570127 0.0060267314357352461 0 0.0045662289304150378 0.0065817359158056457 0 0.0059657467768253038 0.0059894331353272465 0 0.0043528278914759392 0.0065311541622687765 0 0.006124900035345532 0.0058594306371801321 0 0.0054730541804169338 0.0047855098691353846 0 0.004869595649532126 0.005228105863281006 0 0.006124900035345532 0.0058594306371801321 0 0.0054730541804169338 0.0047855098691353846 0 0.0061780522202476863 0.0047991157513094995 0 0.0054730541804169338 0.0047855098691353846 0 0.0059202909625697122 0.0043249822154454521 0 0.0061780522202476863 0.0047991157513094995 0 0.0054730541804169338 0.0047855098691353846 0 0.0053367199832274389 0.0041331475284495959 0 0.0059202909625697122 0.0043249822154454521 0 0.0054730541804169338 0.0047855098691353846 0 0.0053367199832274389 0.0041331475284495959 0 0.0047208930747459684 0.0045222000232123735 0 0.011991328600893771 0.0082793202325322172 0 0.012181197181976081 0.0084721394810324206 0 0.0053367199832274389 0.0041331475284495959 0 0.005571105165389327 0.0036489155849060953 0 0.0048526990487260616 0.0037214455257695666 0 0.0056469879349296936 0.0037514001864627543 0 0.0061137296920401388 0.0038483289244423502 0 0.0060468672218895406 0.0031772094130304487 0 0.0053367199832274389 0.0041331475284495959 0 0.0056469879349296936 0.0037514001864627543 0 0.0061137296920401388 0.0038483289244423502 0 0.0053367199832274389 0.0041331475284495959 0 0.0061137296920401388 0.0038483289244423502 0 0.0059202909625697122 0.0043249822154454521 0 0.0061137296920401388 0.0038483289244423502 0 0.0059202909625697122 0.0043249822154454521 0 0.0065650379217005537 0.0041405694528055511 0 0.0061137296920401388 0.0038483289244423502 0 0.0065650379217005537 0.0041405694528055511 0 0.0066608347770272316 0.0034685681487370531 0 0.0065650379217005537 0.0041405694528055511 0 0.0074004792100045508 0.0034017751389757984 0 0.0066608347770272316 0.0034685681487370531 0 0.0065650379217005537 0.0041405694528055511 0 0.0068722710423361087 0.0049329224126645321 0 0.0075929579963065668 0.0043546712912107327 0 0.006124900035345532 0.0058594306371801321 0 0.0061780522202476863 0.0047991157513094995 0 0.0068722710423361087 0.0049329224126645321 0 0.0059202909625697122 0.0043249822154454521 0 0.0065650379217005537 0.0041405694528055511 0 0.0061780522202476863 0.0047991157513094995 0 0.0065650379217005537 0.0041405694528055511 0 0.0061780522202476863 0.0047991157513094995 0 0.0068722710423361087 0.0049329224126645321 0 0.0068722710423361087 0.0049329224126645321 0 0.0077091248745254195 0.0054208127624984235 0 0.0075929579963065668 0.0043546712912107327 0 0.0065650379217005537 0.0041405694528055511 0 0.0075929579963065668 0.0043546712912107327 0 0.0074004792100045508 0.0034017751389757984 0 0.0075929579963065668 0.0043546712912107327 0 0.0074004792100045508 0.0034017751389757984 0 0.0089758596759455193 0.0041398799542358127 0 0.0077091248745254195 0.0054208127624984235 0 0.0095125947328488607 0.0057117175960312442 0 0.0089758596759455193 0.0041398799542358127 0 0.0077091248745254195 0.0054208127624984235 0 0.0075929579963065668 0.0043546712912107327 0 0.0089758596759455193 0.0041398799542358127 0 0.0026698173720920474 0.0053354112765631708 0 0.0022917766179089303 0.006378732214264775 0 0.0036176930988234637 0.0056276481911836434 0 0.0026698173720920474 0.0053354112765631708 0 0.0036176930988234637 0.0056276481911836434 0 0.0031333874744397315 0.0047396341832494247 0 0.0026698173720920474 0.0053354112765631708 0 0.0015891416676057655 0.0052024056472771687 0 0.0024436164135789949 0.004656919100687126 0 0.0026698173720920474 0.0053354112765631708 0 0.0015891416676057655 0.0052024056472771687 0 0.0022917766179089303 0.006378732214264775 0 0.00077089630804410246 0.0063601350962136241 0 -0.00015426925194150356 0.0076729285047211718 0 0.0022917766179089303 0.006378732214264775 0 -0.0001473074639766907 0.0075388122042730522 0 0.0016230006130429284 0.0066803930831888306 0 7.3211461538643117e-06 0.0079647349987870836 0 0.0014022926360524512 0.0067684517559418976 0 0.0023096163352025823 0.007192930476752026 0 0.00077089630804410246 0.0063601350962136241 0 0.0015891416676057655 0.0052024056472771687 0 0.0022917766179089303 0.006378732214264775 0 0.0016230006130429284 0.0066803930831888306 0 0.0031429191630438589 0.0059450208091978117 0 0.0014022926360524512 0.0067684517559418976 0 0.0023096163352025823 0.007192930476752026 0 0.0032263899104391495 0.00594956352822016 0 0.0039816940228043522 0.0077266885365356239 0 0.0029149213327068486 0.0070570927915414028 0 0.0045662289304150378 0.0065817359158056457 0 0.0023096163352025823 0.007192930476752026 0 0.0043578950486725639 0.0064695052660265224 0 0.0032263899104391495 0.00594956352822016 0 0.0024520503875266851 0.0071549907382963606 0 0.0043528278914759392 0.0065311541622687765 0 0.0049132706017731313 0.0078584950661575916 0 0.0058883077972853503 0.0073199486000496737 0 0.0045662289304150378 0.0065817359158056457 0 0.0043578950486725639 0.0064695052660265224 0 0.004869595649532126 0.005228105863281006 0 0.0032263899104391495 0.00594956352822016 0 0.006124900035345532 0.0058594306371801321 0 0.0043578950486725639 0.0064695052660265224 0 0.004869595649532126 0.005228105863281006 0 0.004869595649532126 0.005228105863281006 0 0.0036176930988234637 0.0056276481911836434 0 0.0040026406801524196 0.0046528558206881867 0 0.0038973308506011013 0.0055874013183547424 0 0.0031429191630438589 0.0059450208091978117 0 0.0036176930988234637 0.0056276481911836434 0 0.0040026406801524196 0.0046528558206881867 0 0.0031333874744397315 0.0047396341832494247 0 0.0040026406801524196 0.0046528558206881867 0 0.0033856329847875501 0.0041897800920846443 0 0.0031333874744397315 0.0047396341832494247 0 0.0054730541804169338 0.0047855098691353846 0 0.004869595649532126 0.005228105863281006 0 0.0047208930747459684 0.0045222000232123735 0 0.004869595649532126 0.005228105863281006 0 0.0040026406801524196 0.0046528558206881867 0 0.0047208930747459684 0.0045222000232123735 0 0.0040026406801524196 0.0046528558206881867 0 0.0047208930747459684 0.0045222000232123735 0 0.004398847643424921 0.0040025291439844341 0 0.0053367199832274389 0.0041331475284495959 0 0.0048256358637440988 0.0040861993852246816 0 0.0048526990487260616 0.0037214455257695666 0 0.0053367199832274389 0.0041331475284495959 0 0.0047208930747459684 0.0045222000232123735 0 0.0048256358637440988 0.0040861993852246816 0 0.0047208930747459684 0.0045222000232123735 0 0.0048256358637440988 0.0040861993852246816 0 0.004398847643424921 0.0040025291439844341 0 0.0048256358637440988 0.0040861993852246816 0 0.004398847643424921 0.0040025291439844341 0 0.0048526990487260616 0.0037214455257695666 0 0.004398847643424921 0.0040025291439844341 0 0.0043365251462977724 0.0035210984990004363 0 0.0048526990487260616 0.0037214455257695666 0 0.0043365251462977724 0.0035210984990004363 0 0.0048526990487260616 0.0037214455257695666 0 0.0046463993330508506 0.003054833945271842 0 0.005571105165389327 0.0036489155849060953 0 0.0048526990487260616 0.0037214455257695666 0 0.0046463993330508506 0.003054833945271842 0 0.0040026406801524196 0.0046528558206881867 0 0.004398847643424921 0.0040025291439844341 0 0.0037826797571949857 0.0037512005805471369 0 0.0040026406801524196 0.0046528558206881867 0 0.0033856329847875501 0.0041897800920846443 0 0.0037826797571949857 0.0037512005805471369 0 0.0033856329847875501 0.0041897800920846443 0 0.0037826797571949857 0.0037512005805471369 0 0.0032794053601492997 0.0035815288324511497 0 0.004398847643424921 0.0040025291439844341 0 0.0043365251462977724 0.0035210984990004363 0 0.0037826797571949857 0.0037512005805471369 0 0.0043365251462977724 0.0035210984990004363 0 0.0037826797571949857 0.0037512005805471369 0 0.0038931434565576527 0.0032069648196687028 0 0.0037826797571949857 0.0037512005805471369 0 0.0032794053601492997 0.0035815288324511497 0 0.0038931434565576527 0.0032069648196687028 0 0.0032794053601492997 0.0035815288324511497 0 0.0026608315772342693 0.0034513440433097493 0 0.0027590097844375837 0.0040820576156021388 0 0.0033856329847875501 0.0041897800920846443 0 0.0032794053601492997 0.0035815288324511497 0 0.0027590097844375837 0.0040820576156021388 0 0.0033856329847875501 0.0041897800920846443 0 0.0027590097844375837 0.0040820576156021388 0 0.0031333874744397315 0.0047396341832494247 0 0.0027590097844375837 0.0040820576156021388 0 0.0024436164135789949 0.004656919100687126 0 0.0031333874744397315 0.0047396341832494247 0 0.0026698173720920474 0.0053354112765631708 0 0.0024436164135789949 0.004656919100687126 0 0.0031333874744397315 0.0047396341832494247 0 0.0025567465626177709 0.0037696153588831017 0 0.002819265541306949 0.0026429873849717019 0 0.00032088668776817948 0.003551058815382699 0 0.0015891416676057655 0.0052024056472771687 0 0.0013034698742131847 0.0010147400209230251 0 0.0015891416676057655 0.0052024056472771687 0 0.0024436164135789949 0.004656919100687126 0 0.0018273673499395893 0.0040161221290179565 0 0.0027590097844375837 0.0040820576156021388 0 0.0024436164135789949 0.004656919100687126 0 0.0018273673499395893 0.0040161221290179565 0 0.0026608315772342693 0.0034513440433097493 0 0.0027590097844375837 0.0040820576156021388 0 0.0018273673499395893 0.0040161221290179565 0 0.0026608315772342693 0.0034513440433097493 0 0.0018273673499395893 0.0040161221290179565 0 0.0023792497714363167 0.0029389062657853779 0 0.0018273673499395893 0.0040161221290179565 0 0.0023792497714363167 0.0029389062657853779 0 0.0017810120875297582 0.0026609527237590686 0 0.002819265541306949 0.0026429873849717019 0 0.0040113418636531688 0.002034824378920364 0 0.0023792497714363167 0.0029389062657853779 0 0.0025592210162642191 0.0022475126557475618 0 0.0017810120875297582 0.0026609527237590686 0 0.0025592210162642191 0.0022475126557475618 0 0.0017810120875297582 0.0026609527237590686 0 0.0016960419744644431 0.0013021355702909105 0 0.0025592210162642191 0.0022475126557475618 0 0.0033693531568937279 0.0021630302546638467 0 0.0028879218250243816 0.0014824717406518694 0 0.0025592210162642191 0.0022475126557475618 0 0.0033693531568937279 0.0021630302546638467 0 0.0032201666227501058 0.0028116849831360479 0 0.0026608315772342693 0.0034513440433097493 0 0.0023792497714363167 0.0029389062657853779 0 0.0032201666227501058 0.0028116849831360479 0 0.0023792497714363167 0.0029389062657853779 0 0.0025592210162642191 0.0022475126557475618 0 0.0032201666227501058 0.0028116849831360479 0 0.0032794053601492997 0.0035815288324511497 0 0.0026608315772342693 0.0034513440433097493 0 0.0032201666227501058 0.0028116849831360479 0 0.0032794053601492997 0.0035815288324511497 0 0.0032201666227501058 0.0028116849831360479 0 0.0038931434565576527 0.0032069648196687028 0 0.0032201666227501058 0.0028116849831360479 0 0.0038931434565576527 0.0032069648196687028 0 0.0040667785743485202 0.0026126739659360931 0 0.0038931434565576527 0.0032069648196687028 0 0.0040667785743485202 0.0026126739659360931 0 0.0046463993330508506 0.003054833945271842 0 0.005571105165389327 0.0036489155849060953 0 0.0046463993330508506 0.003054833945271842 0 0.0047518530458945177 0.0024659196882403926 0 0.0043365251462977724 0.0035210984990004363 0 0.0038931434565576527 0.0032069648196687028 0 0.0046463993330508506 0.003054833945271842 0 0.0040667785743485202 0.0026126739659360931 0 0.0046463993330508506 0.003054833945271842 0 0.0047162664387856313 0.0025411884118131988 0 0.012233373127065321 0.0098972902680423674 0 0.012429960435381408 0.010968033029325815 0 0.0136418551160829 0.014823349468041846 0 0.01349233714993265 0.014597415406142122 0 0.013676805408304685 0.014627150478177217 0 0.012429960435381408 0.010968033029325815 0 0.013231781617547875 0.014727039339817387 0 0.0040667785743485202 0.0026126739659360931 0 0.0047162664387856313 0.0025411884118131988 0 0.0041323887215034228 0.0016698797231366116 0 0.01337673716472655 0.013087972997891486 0 0.01333513028144831 0.013331745891733422 0 0.013214866682971955 0.013180839797317283 0 0.012429960435381408 0.010968033029325815 0 0.014321786644835691 0.015923095769609822 0 0.0033693531568937279 0.0021630302546638467 0 0.0040667785743485202 0.0026126739659360931 0 0.0041323887215034228 0.0016698797231366116 0 0.0033693531568937279 0.0021630302546638467 0 0.0032201666227501058 0.0028116849831360479 0 0.0040667785743485202 0.0026126739659360931 0 0.0033693531568937279 0.0021630302546638467 0 0.0041323887215034228 0.0016698797231366116 0 0.0028879218250243816 0.0014824717406518694 0 0.017432705501853555 0.020628982168599052 0 0.01858792523169045 0.022422004688516555 0 0.019178186870952234 0.020958346488285661 0 0.013231781617547875 0.014727039339817387 0 0.010693752785284763 0.012323601797347683 0 0.013231781617547875 0.014727039339817387 0 0.017994508357590071 0.021791569197157416 0 0.018866186756265977 0.022626175760119809 0 0.01842772991257266 0.022545933401311065 0 0.01875663984970834 0.023114128827012775 0 0.014321786644835691 0.015923095769609822 0 0.015705614904601692 0.02134274863780547 0 0.01842772991257266 0.022545933401311065 0 0.01875663984970834 0.023114128827012775 0 0.018324112948889019 0.02325829450583047 0 0.013231781617547875 0.014727039339817387 0 0.014321786644835691 0.015923095769609822 0 0.01875663984970834 0.023114128827012775 0 0.018324112948889019 0.02325829450583047 0 0.018798465232594555 0.023698446787310166 0 0.018866186756265977 0.022626175760119809 0 0.01875663984970834 0.023114128827012775 0 0.019355016902360859 0.02343044651707913 0 0.01875663984970834 0.023114128827012775 0 0.019355016902360859 0.02343044651707913 0 0.018798465232594555 0.023698446787310166 0 0.01858792523169045 0.022422004688516555 0 0.019960310616942818 0.022315038914195701 0 0.019178186870952234 0.020958346488285661 0 0.019960310616942818 0.022315038914195701 0 0.020945506152930799 0.023181767362064516 0 0.020851979938408455 0.021284441762048044 0 0.010693752785284763 0.012323601797347683 0 0.0076720939791946052 0.010425870913595224 0 0.0025592210162642191 0.0022475126557475618 0 0.0028879218250243816 0.0014824717406518694 0 0.0016960419744644431 0.0013021355702909105 0 0.019960310616942818 0.022315038914195701 0 0.019178186870952234 0.020958346488285661 0 0.020851979938408455 0.021284441762048044 0 0.013021128312720147 0.0157204294983741 0 0.012146324415384602 0.018866461524056244 0 0.013021128312720147 0.0157204294983741 0 0.014761192591364075 0.016282312838729589 0 0.0084426699574773421 0.0026847257102022419 0 0.0074004792100045508 0.0034017751389757984 0 0.0089758596759455193 0.0041398799542358127 0 0.0084426699574773421 0.0026847257102022419 0 0.0074004792100045508 0.0034017751389757984 0 0.0073033023549095829 0.0026900298761242812 0 0.0074004792100045508 0.0034017751389757984 0 0.0073033023549095829 0.0026900298761242812 0 0.0066827978625140739 0.0028444768203330631 0 0.0084426699574773421 0.0026847257102022419 0 0.0073033023549095829 0.0026900298761242812 0 0.0079808467148056346 0.0013179458164325412 0 0.0073033023549095829 0.0026900298761242812 0 0.0068609862136222808 0.0022141916751839846 0 0.0079808467148056346 0.0013179458164325412 0 0.013897810256988174 0.01527238902859248 0 0.012630564749929126 0.010282379615355219 0 0.0066747690560788808 0.0021851690843925154 0 0.0066827978625140739 0.0028444768203330631 0 0.0060468672218895406 0.0031772094130304487 0 0.0068609862136222808 0.0022141916751839846 0 0.0066747690560788808 0.0021851690843925154 0 0.0069056761926011507 0.0025275050408249695 0 0.013734301969610273 0.015189076219902098 0 0.013897810256988174 0.01527238902859248 0 0.0066747690560788808 0.0021851690843925154 0 0.0069056761926011507 0.0025275050408249695 0 0.0066827978625140739 0.0028444768203330631 0 0.0073033023549095829 0.0026900298761242812 0 0.0068609862136222808 0.0022141916751839846 0 0.0069056761926011507 0.0025275050408249695 0 0.0073033023549095829 0.0026900298761242812 0 0.0069056761926011507 0.0025275050408249695 0 0.0066827978625140739 0.0028444768203330631 0 0.0074004792100045508 0.0034017751389757984 0 0.0066827978625140739 0.0028444768203330631 0 0.0066608347770272316 0.0034685681487370531 0 0.0061137296920401388 0.0038483289244423502 0 0.0066608347770272316 0.0034685681487370531 0 0.0060468672218895406 0.0031772094130304487 0 0.0066827978625140739 0.0028444768203330631 0 0.0066608347770272316 0.0034685681487370531 0 0.0060468672218895406 0.0031772094130304487 0 0.013160634273642589 0.0127407883298414 0 0.013060664288221009 0.012933221806672432 0 0.013205335036141451 0.013027824565807688 0 0.013160634273642589 0.0127407883298414 0 0.01337673716472655 0.013087972997891486 0 0.013205335036141451 0.013027824565807688 0 0.012181197181976081 0.0084721394810324206 0 0.012429960435381408 0.010968033029325815 0 0.012181197181976081 0.0084721394810324206 0 0.012630564749929126 0.010282379615355219 0 0.01333513028144831 0.013331745891733422 0 0.012894580264603078 0.013257969466958478 0 0.013214866682971955 0.013180839797317283 0 0.01337673716472655 0.013087972997891486 0 0.013205335036141451 0.013027824565807688 0 0.013214866682971955 0.013180839797317283 0 0.012894580264603078 0.013257969466958478 0 0.013205335036141451 0.013027824565807688 0 0.013214866682971955 0.013180839797317283 0 0.014321786644835691 0.015923095769609822 0 0.013897810256988174 0.01527238902859248 0 0.012895027504761172 0.01326333412761033 0 0.013060664288221009 0.012933221806672432 0 0.013205335036141451 0.013027824565807688 0 0.013897810256988174 0.01527238902859248 0 0.013922629768059152 0.014719091925329148 0 0.018412360692344979 0.02336254268834256 0 0.018345032478937782 0.02379852860919494 0 0.018002596768846173 0.023659731367805484 0 0.018412360692344979 0.02336254268834256 0 0.017873066707489772 0.023271638552358635 0 0.018002596768846173 0.023659731367805484 0 0.018345032478937782 0.02379852860919494 0 0.017982652979899157 0.023984284100468434 0 0.018002596768846173 0.023659731367805484 0 0.017982652979899157 0.023984284100468434 0 0.017784688699792144 0.023887612573664847 0 0.018002596768846173 0.023659731367805484 0 0.017784688699792144 0.023887612573664847 0 0.018002596768846173 0.023659731367805484 0 0.017692498298561964 0.023643819626278467 0 0.013897810256988174 0.01527238902859248 0 0.014410124643728005 0.020649129641672676 0 0.017873066707489772 0.023271638552358635 0 0.018002596768846173 0.023659731367805484 0 0.017692498298561964 0.023643819626278467 0 0.013897810256988174 0.01527238902859248 0 0.012146324415384602 0.018866461524056244 0 0.016809559988555812 0.025601152718591109 0 0.017035244713584023 0.025250645325540246 0 0.017373134528668187 0.025280542492215521 0 0.0068609862136222808 0.0022141916751839846 0 0.006677160961832922 0.0021873163877324793 0 0.0079808467148056346 0.0013179458164325412 0 0.017035244713584023 0.025250645325540246 0 0.017352864428914771 0.025191618671458565 0 0.017373134528668187 0.025280542492215521 0 0.017784688699792144 0.023887612573664847 0 0.017692498298561964 0.023643819626278467 0 0.017545094717817004 0.024031904046633433 0 0.017035244713584023 0.025250645325540246 0 0.017268552266052138 0.024794065508041335 0 0.017352864428914771 0.025191618671458565 0 0.014410124643728005 0.020649129641672676 0 0.015112216286496631 0.022433954609773415 0 0.012146324415384602 0.018866461524056244 0 0.014173533212046277 0.02026678083737354 0 0.017606607846366598 0.024944810639020494 0 0.017379050196275302 0.02532619194634526 0 0.018252551803814604 0.024890598793777301 0 0.017352864428914771 0.025191618671458565 0 0.017606607846366598 0.024944810639020494 0 0.017379050196275302 0.02532619194634526 0 0.017268552266052138 0.024794065508041335 0 0.017352864428914771 0.025191618671458565 0 0.017606607846366598 0.024944810639020494 0 0.01782314067600067 0.026878047481021315 0 0.017313745733746985 0.025684882250935091 0 0.01826620040968378 0.025954195919477133 0 0.012237663281615468 0.019079635290638875 0 0.012146324415384602 0.018866461524056244 0 0.01754620537753766 0.024298055113814221 0 0.017422052074352601 0.024603956716943074 0 0.017708194559765716 0.024195159466714689 0 0.01754620537753766 0.024298055113814221 0 0.017791613689659966 0.024276189877999163 0 0.017708194559765716 0.024195159466714689 0 0.01754620537753766 0.024298055113814221 0 0.017791613689659966 0.024276189877999163 0 0.017804690220478224 0.024538897262192473 0 0.017268552266052138 0.024794065508041335 0 0.017606607846366598 0.024944810639020494 0 0.017804690220478224 0.024538897262192473 0 0.015112216286496631 0.022433954609773415 0 0.015392278231693231 0.022845619161553577 0 0.017606607846366598 0.024944810639020494 0 0.017804690220478224 0.024538897262192473 0 0.018252551803814604 0.024890598793777301 0 0.017268552266052138 0.024794065508041335 0 0.01754620537753766 0.024298055113814221 0 0.017804690220478224 0.024538897262192473 0 0.017545094717817004 0.024031904046633433 0 0.01754620537753766 0.024298055113814221 0 0.017610788352598179 0.024247525627867288 0 0.017784688699792144 0.023887612573664847 0 0.017545094717817004 0.024031904046633433 0 0.017773955648455228 0.024129835308821776 0 0.017545094717817004 0.024031904046633433 0 0.017610788352598179 0.024247525627867288 0 0.017773955648455228 0.024129835308821776 0 0.017610788352598179 0.024247525627867288 0 0.017753278746338242 0.024381740005039301 0 0.017773955648455228 0.024129835308821776 0 0.01754620537753766 0.024298055113814221 0 0.017574073715590319 0.024408903251035698 0 0.017422052074352601 0.024603956716943074 0 0.017610788352598179 0.024247525627867288 0 0.017574073715590319 0.024408903251035698 0 0.017753278746338242 0.024381740005039301 0 0.01754620537753766 0.024298055113814221 0 0.017610788352598179 0.024247525627867288 0 0.017574073715590319 0.024408903251035698 0 0.017574073715590319 0.024408903251035698 0 0.017753278746338242 0.024381740005039301 0 0.017613109233279595 0.024616303872247371 0 0.018010271043809988 0.024467175014593272 0 0.017753278746338242 0.024381740005039301 0 0.017847703633072868 0.024737068599575203 0 0.017753278746338242 0.024381740005039301 0 0.017847703633072868 0.024737068599575203 0 0.017613109233279595 0.024616303872247371 0 0.018010271043809988 0.024467175014593272 0 0.017753278746338242 0.024381740005039301 0 0.017988364363467256 0.024233615651526548 0 0.017753278746338242 0.024381740005039301 0 0.017773955648455228 0.024129835308821776 0 0.017988364363467256 0.024233615651526548 0 0.017982652979899157 0.023984284100468434 0 0.017784688699792144 0.023887612573664847 0 0.017773955648455228 0.024129835308821776 0 0.017982652979899157 0.023984284100468434 0 0.017773955648455228 0.024129835308821776 0 0.017988364363467256 0.024233615651526548 0 0.017982652979899157 0.023984284100468434 0 0.017988364363467256 0.024233615651526548 0 0.018279832650464092 0.024221805232567801 0 0.015705614904601692 0.02134274863780547 0 0.016494349643661008 0.023181275979843773 0 0.018345032478937782 0.02379852860919494 0 0.017982652979899157 0.023984284100468434 0 0.018279832650464092 0.024221805232567801 0 0.018010271043809988 0.024467175014593272 0 0.018279832650464092 0.024221805232567801 0 0.018213502248053605 0.024683187416120075 0 0.016494349643661008 0.023181275979843773 0 0.016730570454502457 0.023716922518311936 0 0.018010271043809988 0.024467175014593272 0 0.017988364363467256 0.024233615651526548 0 0.018279832650464092 0.024221805232567801 0 0.018213502248053605 0.024683187416120075 0 0.018302104498293375 0.025248018922987756 0 0.018033735540437072 0.025000219327939222 0 0.018213502248053605 0.024683187416120075 0 0.018302104498293375 0.025248018922987756 0 0.018629724330023616 0.024950339910084076 0 0.018407775298440499 0.025517655553152219 0 0.018027619457266386 0.025488603111760023 0 0.018475143224369748 0.025763501387657602 0 0.017710368161687893 0.025376887707334757 0 0.018250592767937789 0.026089024116122187 0 0.018302104498293375 0.025248018922987756 0 0.017710368161687893 0.025376887707334757 0 0.018033735540437072 0.025000219327939222 0 0.017710368161687893 0.025376887707334757 0 0.017732970008551976 0.025954707529439926 0 0.018250592767937789 0.026089024116122187 0 0.017710368161687893 0.025376887707334757 0 0.017847703633072868 0.024737068599575203 0 0.017622671826209045 0.024927134943012803 0 0.018010271043809988 0.024467175014593272 0 0.018213502248053605 0.024683187416120075 0 0.017847703633072868 0.024737068599575203 0 0.018213502248053605 0.024683187416120075 0 0.018033735540437072 0.025000219327939222 0 0.017847703633072868 0.024737068599575203 0 0.017710368161687893 0.025376887707334757 0 0.018033735540437072 0.025000219327939222 0 0.017847703633072868 0.024737068599575203 0 0.017847703633072868 0.024737068599575203 0 0.017613109233279595 0.024616303872247371 0 0.017622671826209045 0.024927134943012803 0 0.017613109233279595 0.024616303872247371 0 0.017422052074352601 0.024603956716943074 0 0.017444657875703654 0.024872431887927263 0 0.017574073715590319 0.024408903251035698 0 0.017613109233279595 0.024616303872247371 0 0.017422052074352601 0.024603956716943074 0 0.017444657875703654 0.024872431887927263 0 0.017268559160121395 0.025024412257779367 0 0.017557344756580422 0.025219811216702585 0 0.017444657875703654 0.024872431887927263 0 0.017268559160121395 0.025024412257779367 0 0.01719108654906434 0.024667260619477882 0 0.017422052074352601 0.024603956716943074 0 0.017444657875703654 0.024872431887927263 0 0.01719108654906434 0.024667260619477882 0 0.017444657875703654 0.024872431887927263 0 0.017622671826209045 0.024927134943012803 0 0.017557344756580422 0.025219811216702585 0 0.017613109233279595 0.024616303872247371 0 0.017444657875703654 0.024872431887927263 0 0.017622671826209045 0.024927134943012803 0 0.017710368161687893 0.025376887707334757 0 0.017622671826209045 0.024927134943012803 0 0.017557344756580422 0.025219811216702585 0 0.017710368161687893 0.025376887707334757 0 0.017557344756580422 0.025219811216702585 0 0.017732970008551976 0.025954707529439926 0 0.018878011487288272 0.025149264155295652 0 0.018767398934202737 0.025606872525189409 0 0.018783602679419732 0.0259534905841706 0 0.017268559160121395 0.025024412257779367 0 0.017557344756580422 0.025219811216702585 0 0.017732970008551976 0.025954707529439926 0 0.01809399942771938 0.025107965101589715 0 0.018269104994082724 0.025654800937353017 0 0.018767398934202737 0.025606872525189409 0 0.018827703763263169 0.025271329039930828 0 0.018774390797205335 0.025475823986810545 0 0.018878011487288272 0.025149264155295652 0 0.018767398934202737 0.025606872525189409 0 0.018827703763263169 0.025271329039930828 0 0.018878011487288272 0.025149264155295652 0 0.018851073282479074 0.025177976870982628 0 0.01886049147029243 0.025146287437781776 0 0.018851073282479074 0.025177976870982628 0 0.018855479203640502 0.025130801619623541 0 0.01886049147029243 0.025146287437781776 0 0.018855479203640502 0.025130801619623541 0 0.018827703763263169 0.025271329039930828 0 0.018791003631093352 0.025319642506262775 0 0.018851073282479074 0.025177976870982628 0 0.018855479203640502 0.025130801619623541 0 0.018827703763263169 0.025271329039930828 0 0.018878011487288272 0.025149264155295652 0 0.018851073282479074 0.025177976870982628 0 0.018827703763263169 0.025271329039930828 0 0.018791003631093352 0.025319642506262775 0 0.018774390797205335 0.025475823986810545 0 0.01871572698543579 0.025656890317956149 0 0.018827703763263169 0.025271329039930828 0 0.018791003631093352 0.025319642506262775 0 0.018774390797205335 0.025475823986810545 0 0.018791003631093352 0.025319642506262775 0 0.018860843546051512 0.025055617039632161 0 0.018756105005303246 0.025339127880350396 0 0.018855479203640502 0.025130801619623541 0 0.018791003631093352 0.025319642506262775 0 0.018860843546051512 0.025055617039632161 0 0.018855479203640502 0.025130801619623541 0 0.018942124936166593 0.024880906570605626 0 0.018860843546051512 0.025055617039632161 0 0.01886049147029243 0.025146287437781776 0 0.018723979749333132 0.02502987830171725 0 0.018772753011016396 0.025018013173377686 0 0.018878011487288272 0.025149264155295652 0 0.01886049147029243 0.025146287437781776 0 0.018772753011016396 0.025018013173377686 0 0.01809399942771938 0.025107965101589715 0 0.018040199711619315 0.024638681220357211 0 0.017773185574874222 0.024533544856750217 0 0.018040199711619315 0.024638681220357211 0 0.017268559160121395 0.025024412257779367 0 0.01719108654906434 0.024667260619477882 0 0.016586654560503976 0.024179769028632319 0 0.01886049147029243 0.025146287437781776 0 0.019054697366492838 0.024688666294293837 0 0.018942124936166593 0.024880906570605626 0 0.018855479203640502 0.025130801619623541 0 0.01886049147029243 0.025146287437781776 0 0.018942124936166593 0.024880906570605626 0 0.018887456075359299 0.024849419291528573 0 0.018925929999241982 0.024793152694607853 0 0.017422052074352601 0.024603956716943074 0 0.01719108654906434 0.024667260619477882 0 0.016586654560503976 0.024179769028632319 0 0.019825103808296742 0.024100909952574658 0 0.019271684518206336 0.024050730995681589 0 0.019420367615849598 0.024937513211494074 0 0.019825103808296742 0.024100909952574658 0 0.020213813194130351 0.02500428004771894 0 0.020914294754865725 0.024674904271071951 0 0.019825103808296742 0.024100909952574658 0 0.020914294754865725 0.024674904271071951 0 0.020945506152930799 0.023181767362064516 0 0.019960310616942818 0.022315038914195701 0 0.019825103808296742 0.024100909952574658 0 0.020945506152930799 0.023181767362064516 0 0.017994508357590071 0.021791569197157416 0 0.018967285767066602 0.023187582730275689 0 0.01858792523169045 0.022422004688516555 0 0.019960310616942818 0.022315038914195701 0 0.019825103808296742 0.024100909952574658 0 0.019355016902360859 0.02343044651707913 0 0.019825103808296742 0.024100909952574658 0 0.019271684518206336 0.024050730995681589 0 0.019355016902360859 0.02343044651707913 0 0.018798465232594555 0.023698446787310166 0 0.019271684518206336 0.024050730995681589 0 0.018798465232594555 0.023698446787310166 0 0.018855669110453107 0.024408842458253803 0 0.019271684518206336 0.024050730995681589 0 0.018242749346716675 0.023975719785466088 0 0.018798465232594555 0.023698446787310166 0 0.018855669110453107 0.024408842458253803 0 0.018324112948889019 0.02325829450583047 0 0.018242749346716675 0.023975719785466088 0 0.018798465232594555 0.023698446787310166 0 0.018242749346716675 0.023975719785466088 0 0.018213502248053605 0.024683187416120075 0 0.018855669110453107 0.024408842458253803 0 0.018855669110453107 0.024408842458253803 0 0.019271684518206336 0.024050730995681589 0 0.019420367615849598 0.024937513211494074 0 0.018629724330023616 0.024950339910084076 0 0.018983183856704826 0.025378747224258744 0 0.019420367615849598 0.024937513211494074 0 0.018855669110453107 0.024408842458253803 0 0.018629724330023616 0.024950339910084076 0 0.019420367615849598 0.024937513211494074 0 0.018213502248053605 0.024683187416120075 0 0.018855669110453107 0.024408842458253803 0 0.018629724330023616 0.024950339910084076 0 0.018407775298440499 0.025517655553152219 0 0.019065338751798212 0.025563507309694249 0 0.018475143224369748 0.025763501387657602 0 0.0190730158229033 0.025819934935097766 0 0.018656111270549506 0.026359667030038812 0 0.018302104498293375 0.025248018922987756 0 0.018629724330023616 0.024950339910084076 0 0.018983183856704826 0.025378747224258744 0 0.019065338751798212 0.025563507309694249 0 0.019488930947956444 0.025586486566191786 0 0.0190730158229033 0.025819934935097766 0 0.019918962941741107 0.025650325226308057 0 0.019467834102576589 0.02617058980658073 0 0.019420367615849598 0.024937513211494074 0 0.020118843323729457 0.025360450183693557 0 0.019918962941741107 0.025650325226308057 0 0.018983183856704826 0.025378747224258744 0 0.019420367615849598 0.024937513211494074 0 0.019918962941741107 0.025650325226308057 0 0.019825103808296742 0.024100909952574658 0 0.019420367615849598 0.024937513211494074 0 0.020213813194130351 0.02500428004771894 0 0.020213813194130351 0.02500428004771894 0 0.020343025465489224 0.025700357577637827 0 0.020914294754865725 0.024674904271071951 0 0.019420367615849598 0.024937513211494074 0 0.020213813194130351 0.02500428004771894 0 0.020118843323729457 0.025360450183693557 0 0.020213813194130351 0.02500428004771894 0 0.020118843323729457 0.025360450183693557 0 0.020343025465489224 0.025700357577637827 0 0.020118843323729457 0.025360450183693557 0 0.019918962941741107 0.025650325226308057 0 0.020343025465489224 0.025700357577637827 0 0.010914702901327443 0.023498730523665353 0 0.010357960742278958 0.022668052154980283 0 0.010490694006738233 0.024325760906995592 0 0.020118509151831554 0.025933918780743123 0 0.020475907248174795 0.025732067085683607 0 0.020522014185848814 0.026258321418649873 0 0.013936552030926917 0.023473750167035894 0 0.014426744540202973 0.024751476768909431 0 0.010357960742278958 0.022668052154980283 0 0.011040119528152068 0.02293853280793819 0 0.011285052048870777 0.022448731879179212 0 0.010914702901327443 0.023498730523665353 0 0.010357960742278958 0.022668052154980283 0 0.011040119528152068 0.02293853280793819 0 0.0093835388088529519 0.024268373828412737 0 0.0096062774233332034 0.023700130566076633 0 0.0099270215971086189 0.024503839516074301 0 0.008268708186064325 0.02114586371236463 0 0.0086300737202226648 0.025289910541961488 0 0.0093835388088529519 0.024268373828412737 0 0.0099270215971086189 0.024503839516074301 0 0.0096852021432411919 0.024805246426189989 0 0.010607818970009945 0.024065690051465992 0 0.010967195342211506 0.026229866231098131 0 0.010914702901327443 0.023498730523665353 0 0.01162791464809566 0.023051856116178059 0 0.01107276610896508 0.024455231055554277 0 0.010607818970009945 0.024065690051465992 0 0.013370119479997531 0.025258799687932102 0 0.010914702901327443 0.023498730523665353 0 0.011040119528152068 0.02293853280793819 0 0.01162791464809566 0.023051856116178059 0 0.011285052048870777 0.022448731879179212 0 0.011616970909547476 0.023044194906830181 0 0.012125260489734892 0.021768388789855143 0 0.011040119528152068 0.02293853280793819 0 0.011285052048870777 0.022448731879179212 0 0.01162791464809566 0.023051856116178059 0 0.010599824013867514 0.023992208056550245 0 0.010607818970009945 0.024065690051465992 0 0.010607818970009945 0.024065690051465992 0 0.008268708186064325 0.02114586371236463 0 0.011285052048870777 0.022448731879179212 0 0.012125260489734892 0.021768388789855143 0 0.011015297016310604 0.021410245242694595 0 0.013936552030926917 0.023473750167035894 0 0.013006184863099181 0.021234729298266284 0 0.010357960742278958 0.022668052154980283 0 0.010226115726033902 0.02102015985850883 0 0.011015297016310604 0.021410245242694595 0 0.020118509151831554 0.025933918780743123 0 0.020475907248174795 0.025732067085683607 0 0.020410572909555488 0.025191438755267987 0 0.016142110724014697 0.023744865535681579 0 0.013006184863099181 0.021234729298266284 0 0.010357960742278958 0.022668052154980283 0 0.011285052048870777 0.022448731879179212 0 0.011015297016310604 0.021410245242694595 0 0.010443242319854131 0.020110691570617678 0 0.011847912881243421 0.017049915828138203 0 0.010119473457665628 0.016029404644169406 0 0.013006184863099181 0.021234729298266284 0 0.0084347633997922458 0.016030809664681341 0 0.013006184863099181 0.021234729298266284 0 0.011703118718866617 0.018382175756818549 0 0.010226115726033902 0.02102015985850883 0 0.011015297016310604 0.021410245242694595 0 0.011081225212959444 0.01914517163754836 0 0.012125260489734892 0.021768388789855143 0 0.011015297016310604 0.021410245242694595 0 0.011081225212959444 0.01914517163754836 0 0.004642429079032907 0.017737295488708206 0 0.0035873911141663102 0.015095012011238376 0 0.005630509108579573 0.01521393369067638 0 0.008268708186064325 0.02114586371236463 0 0.0084347633997922458 0.016030809664681341 0 0.0065721970581829802 0.011710252770754362 0 0.0061904029334901422 0.010741003003832506 0 0.0069606069438324951 0.010849590451727396 0 0.0035873911141663102 0.015095012011238376 0 0.005630509108579573 0.01521393369067638 0 0.0042037138504363051 0.013741305537673958 0 0.0084347633997922458 0.016030809664681341 0 0.00556029481377003 0.011995556137123985 0 0.011847912881243421 0.017049915828138203 0 0.010119473457665628 0.016029404644169406 0 0.010862956246124645 0.014565142153941094 0 0.0084347633997922458 0.016030809664681341 0 0.0080801077773933125 0.013134625465296219 0 0.0040857938313599469 0.018814331114319606 0 0.0037295035709707961 0.01901105773306094 0 0.0040402059457953377 0.019514656569543355 0 0.0040857938313599469 0.018814331114319606 0 0.0040402059457953377 0.019514656569543355 0 0.004379417193014665 0.019050735933590718 0 0.0040857938313599469 0.018814331114319606 0 0.0037295035709707961 0.01901105773306094 0 0.003935346722966809 0.018457624831305603 0 0.0046272444777390358 0.016801485724832161 0 0.0013436731050524464 0.011237922299660514 0 0.005630509108579573 0.01521393369067638 0 0.0042037138504363051 0.013741305537673958 0 0.0057443781391531695 0.013125776047429913 0 0.0035224525121478677 0.019575451421809019 0 0.0037295035709707961 0.01901105773306094 0 0.0040402059457953377 0.019514656569543355 0 0.008268708186064325 0.02114586371236463 0 0.0046272444777390358 0.016801485724832161 0 0.0048831701453220236 0.023024480476364788 0 0.0026011946729565293 0.020581570648029852 0 0.0035224525121478677 0.019575451421809019 0 0.0040402059457953377 0.019514656569543355 0 0.003689906995111372 0.019987826583623299 0 0.0048831701453220236 0.023024480476364788 0 0.0086300737202226648 0.025289910541961488 0 0.0031673095807016631 0.025080623100997099 0 0.0026776861565512224 0.025717879890184828 0 0.0032018399136696102 0.025757822262738345 0 0.0031673095807016631 0.025080623100997099 0 0.0032018399136696102 0.025757822262738345 0 0.0037388077141895428 0.025687471578659637 0 0.0035278170067297361 0.029270638320834954 0 0.0021402833038368031 0.027730965079959615 0 0.0013092219154700378 0.032204377758811076 0 0.0016044969135038537 0.03228960557942543 0 0.0015084863615476814 0.031612307890939786 0 0.0024171047477330415 0.032755021795312332 0 0.0023761619488117777 0.032315665089213033 0 0.0016044969135038537 0.03228960557942543 0 0.0015084863615476814 0.031612307890939786 0 0.0020668379986232967 0.031798661727629185 0 0.0015084863615476814 0.031612307890939786 0 0.0020668379986232967 0.031798661727629185 0 0.0018894696034773169 0.031354318539514481 0 0.0031673095807016631 0.025080623100997099 0 0.0037388077141895428 0.025687471578659637 0 0.0039726049845693785 0.025074166315697106 0 0.0028941254149407892 0.032921215891026173 0 0.0032732636573846305 0.03392533485870184 0 0.0042415893372342991 0.033484369682691563 0 0.0028941254149407892 0.032921215891026173 0 0.0024309781317211209 0.034002946564482182 0 0.0032732636573846305 0.03392533485870184 0 0.00081033606891778157 0.033669466451584334 0 0.0017772814278629444 0.03359591192394118 0 0.0018167214951883743 0.032440722667694669 0 0.0028941254149407892 0.032921215891026173 0 0.0017772814278629444 0.03359591192394118 0 0.0024309781317211209 0.034002946564482182 0 0.0028941254149407892 0.032921215891026173 0 0.0017772814278629444 0.03359591192394118 0 0.0018167214951883743 0.032440722667694669 0 0.0020668379986232967 0.031798661727629185 0 0.0022205069124160842 0.03111312070770202 0 0.0018894696034773169 0.031354318539514481 0 0.0023761619488117777 0.032315665089213033 0 0.0026259119051925284 0.031895020340060531 0 0.0018167214951883743 0.032440722667694669 0 0.0030164919929085618 0.032076013366491969 0 0.0028829119822365713 0.03116136835158911 0 0.0028941254149407892 0.032921215891026173 0 0.0030164919929085618 0.032076013366491969 0 0.0039243645022849537 0.032411017843730981 0 0.0028941254149407892 0.032921215891026173 0 0.0018167214951883743 0.032440722667694669 0 0.0030164919929085618 0.032076013366491969 0 0.0028829119822365713 0.03116136835158911 0 0.0022205069124160842 0.03111312070770202 0 0.0038131706037241018 0.030871504698657036 0 0.0022205069124160842 0.03111312070770202 0 0.0024646182597312001 0.030769479482467367 0 0.0028202919466609948 0.030862426767583499 0 0.0022011490701176637 0.029096871568562239 0 0.0022050675989660875 0.028354282699989086 0 0.0030164919929085618 0.032076013366491969 0 0.0028829119822365713 0.03116136835158911 0 0.0036976370253542605 0.031654512843706302 0 0.0020668379986232967 0.031798661727629185 0 0.0028829119822365713 0.03116136835158911 0 0.0022205069124160842 0.03111312070770202 0 0.0022205069124160842 0.03111312070770202 0 0.002134692207254615 0.030774603908866851 0 0.0024646182597312001 0.030769479482467367 0 0.0022205069124160842 0.03111312070770202 0 0.0018894696034773169 0.031354318539514481 0 0.00178073858275694 0.03090009654352208 0 0.0022205069124160842 0.03111312070770202 0 0.002134692207254615 0.030774603908866851 0 0.00178073858275694 0.03090009654352208 0 0.002134692207254615 0.030774603908866851 0 0.00178073858275694 0.03090009654352208 0 0.0020502902617600674 0.030339357378408413 0 0.002134692207254615 0.030774603908866851 0 0.0024646182597312001 0.030769479482467367 0 0.0020502902617600674 0.030339357378408413 0 0.0024646182597312001 0.030769479482467367 0 0.0028202919466609948 0.030862426767583499 0 0.0027345167662846987 0.03051074498708908 0 0.0024646182597312001 0.030769479482467367 0 0.0020502902617600674 0.030339357378408413 0 0.0027345167662846987 0.03051074498708908 0 0.0031673095807016631 0.025080623100997099 0 0.0039726049845693785 0.025074166315697106 0 0.0036561997944557106 0.024433359983223893 0 0.0021402833038368031 0.027730965079959615 0 0.00070848453463655909 0.025390399751903023 0 0.0015084863615476814 0.031612307890939786 0 0.0018894696034773169 0.031354318539514481 0 0.00178073858275694 0.03090009654352208 0 0.0039726049845693785 0.025074166315697106 0 0.0036561997944557106 0.024433359983223893 0 0.0042043411802389847 0.024453644805366916 0 0.0042043411802389847 0.024453644805366916 0 0.0041473226194410507 0.023784178709819342 0 0.0044369773938131825 0.023833409127423207 0 0.0036561997944557106 0.024433359983223893 0 0.0042043411802389847 0.024453644805366916 0 0.0041473226194410507 0.023784178709819342 0 0.0026011946729565293 0.020581570648029852 0 -0.00065968992075318797 0.017291685071962309 0 0.00070848453463655909 0.025390399751903023 0 -0.00085316425259526502 0.019928418840979619 0 0.004379417193014665 0.019050735933590718 0 0.004329161434569709 0.018535458085246464 0 0.0047121646108029486 0.018604819991176063 0 0.0040857938313599469 0.018814331114319606 0 0.004379417193014665 0.019050735933590718 0 0.004329161434569709 0.018535458085246464 0 0.00010905361347196211 0.014068011412769778 0 -0.00065968992075318797 0.017291685071962309 0 -0.0044435125576581976 0.0076996839999789457 0 -0.0044403615375167181 0.0077258574460355679 0 -0.0044514299357454106 0.0076776727042844953 0 -0.00065968992075318797 0.017291685071962309 0 -0.00085316425259526502 0.019928418840979619 0 -0.0044403615375167181 0.0077258574460355679 0 -0.0044514299357454106 0.0076776727042844953 0 -0.0043719191682992063 0.0076680696104867059 0 -0.0044435125576581976 0.0076996839999789457 0 -0.0044514299357454106 0.0076776727042844953 0 -0.0044436492711172173 0.0076839008624647442 0 -0.0044435125576581976 0.0076996839999789457 0 -0.0044436492711172173 0.0076839008624647442 0 -0.0044387728563954048 0.0076912076302582391 0 -0.0044436492711172173 0.0076839008624647442 0 -0.0044455393985114436 0.0076813860873136781 0 -0.0044387728563954048 0.0076912076302582391 0 -0.0066970037242788417 0.014681650382841764 0 -0.0066951478407516699 0.014683971572011107 0 -0.0067037205365385625 0.01470993565708268 0 -0.00085316425259526502 0.019928418840979619 0 -0.001705940017291338 0.022283961198593469 0 -0.0066867660384419556 0.014690730756155993 0 -0.0066970037242788417 0.014681650382841764 0 -0.0067037205365385625 0.01470993565708268 0 -0.0066710321255206012 0.014694976294821022 0 -0.0066897217494622267 0.014684000203682141 0 -0.006698842010854379 0.014672242160160939 0 -0.00065968992075318797 0.017291685071962309 0 -0.0043652578910120636 0.012691730061957516 0 -0.0066897217494622267 0.014684000203682141 0 -0.0066867660384419556 0.014690730756155993 0 -0.0066970037242788417 0.014681650382841764 0 -0.0010153148922267237 0.019340928656623832 0 -0.00085316425259526502 0.019928418840979619 0 -0.0066710321255206012 0.014694976294821022 0 -0.0066897217494622267 0.014684000203682141 0 -0.006677271978137644 0.014691269079675827 0 -0.0044514299357454106 0.0076776727042844953 0 -0.0043719191682992063 0.0076680696104867059 0 -0.0044401545250645292 0.0075680423355075632 0 -0.0066897217494622267 0.014684000203682141 0 -0.006698842010854379 0.014672242160160939 0 -0.0066970037242788417 0.014681650382841764 0 -0.006698842010854379 0.014672242160160939 0 -0.0066970037242788417 0.014681650382841764 0 -0.0066969390046847706 0.014660668670895317 0 -0.0066970037242788417 0.014681650382841764 0 -0.0066969390046847706 0.014660668670895317 0 -0.0066933330331480226 0.014661425300377489 0 -0.0066969390046847706 0.014660668670895317 0 -0.0066933330331480226 0.014661425300377489 0 -0.006694301856628654 0.014649622582371534 0 -0.0066970037242788417 0.014681650382841764 0 -0.0066933330331480226 0.014661425300377489 0 -0.0066951478407516699 0.014683971572011107 0 -0.0043652578910120636 0.012691730061957516 0 -0.008185900466266563 0.0099336362038720417 0 -0.0066969390046847706 0.014660668670895317 0 -0.0066987082991677707 0.014633655163307648 0 -0.006694301856628654 0.014649622582371534 0 -0.0066987082991677707 0.014633655163307648 0 -0.006694301856628654 0.014649622582371534 0 -0.006684816825863491 0.014647783079124045 0 -0.006698842010854379 0.014672242160160939 0 -0.0066969390046847706 0.014660668670895317 0 -0.0066987082991677707 0.014633655163307648 0 -0.0043719191682992063 0.0076680696104867059 0 -0.00423294145651152 0.0074974751742095738 0 -0.0043761380959540241 0.0075013885734660623 0 -0.0043719191682992063 0.0076680696104867059 0 -0.0043761380959540241 0.0075013885734660623 0 -0.0044401545250645292 0.0075680423355075632 0 -0.0043761380959540241 0.0075013885734660623 0 -0.0044401545250645292 0.0075680423355075632 0 -0.0044602842979595001 0.0074297793093961433 0 -0.0043761380959540241 0.0075013885734660623 0 -0.0044279519749163493 0.0073494014498988033 0 -0.0044602842979595001 0.0074297793093961433 0 -0.00423294145651152 0.0074974751742095738 0 -0.0043761380959540241 0.0075013885734660623 0 -0.0044279519749163493 0.0073494014498988033 0 -0.0130522904201151 0.0054109418725240208 0 -0.014399565345287252 0.0044951411618707471 0 -0.013635525676737268 0.0048331705785852859 0 -0.008185900466266563 0.0099336362038720417 0 -0.0086710593647895459 0.0046228910506709679 0 -0.013182134811666402 0.0040530688410839837 0 -0.014399565345287252 0.0044951411618707471 0 -0.013635525676737268 0.0048331705785852859 0 -0.0086710593647895459 0.0046228910506709679 0 -0.0085093722170570991 0.0048388098304726259 0 -0.013182134811666402 0.0040530688410839837 0 -0.013635525676737268 0.0048331705785852859 0 -0.012858774014967423 0.0051102409567363701 0 -0.010577592767579693 0.0088716631903648265 0 -0.0091917554373533925 0.0096348932960763321 0 -0.0130522904201151 0.0054109418725240208 0 -0.013635525676737268 0.0048331705785852859 0 -0.012821287104574898 0.005131931821178045 0 -0.008185900466266563 0.0099336362038720417 0 -0.0091917554373533925 0.0096348932960763321 0 -0.0044436492711172173 0.0076839008624647442 0 -0.0044424611764360238 0.0076747435558314741 0 -0.0044455393985114436 0.0076813860873136781 0 -0.0044424611764360238 0.0076747435558314741 0 -0.0044496616012154842 0.0076517272245085035 0 -0.0044455393985114436 0.0076813860873136781 0 -0.0044514299357454106 0.0076776727042844953 0 -0.0044401545250645292 0.0075680423355075632 0 -0.0045796742151898934 0.0075195531855045527 0 -0.0044514299357454106 0.0076776727042844953 0 -0.0044436492711172173 0.0076839008624647442 0 -0.0044424611764360238 0.0076747435558314741 0 -0.0047061480503866717 0.0067933111796902807 0 -0.0049538550668732978 0.0061453229515506351 0 -0.0044401545250645292 0.0075680423355075632 0 -0.0045796742151898934 0.0075195531855045527 0 -0.0044602842979595001 0.0074297793093961433 0 -0.0045796742151898934 0.0075195531855045527 0 -0.0045509451432712341 0.0073405034367002185 0 -0.0046962620975574253 0.0072941827468875151 0 -0.0045796742151898934 0.0075195531855045527 0 -0.0044602842979595001 0.0074297793093961433 0 -0.0045509451432712341 0.0073405034367002185 0 -0.0043988613691522968 0.0072932971633127277 0 -0.0044602842979595001 0.0074297793093961433 0 -0.0045509451432712341 0.0073405034367002185 0 -0.0070211375973263457 -0.0011379970435385276 0 -0.0059220043921368749 -0.0015057771329077228 0 -0.0056376602302459587 -0.0029910796392309627 0 -0.0049538550668732978 0.0061453229515506351 0 -0.0060736607809875835 0.0032612938187102651 0 -0.0060736607809875835 0.0032612938187102651 0 -0.002766603419428507 0.0046038095643735604 0 -0.006018545437148322 -0.00063360582345403486 0 -0.0070211375973263457 -0.0011379970435385276 0 -0.0059220043921368749 -0.0015057771329077228 0 -0.0059220043921368749 -0.0015057771329077228 0 -0.0050045176158669581 -0.0011916794543893267 0 -0.0056376602302459587 -0.0029910796392309627 0 -0.006018545437148322 -0.00063360582345403486 0 -0.0059220043921368749 -0.0015057771329077228 0 -0.0050045176158669581 -0.0011916794543893267 0 -0.0050045176158669581 -0.0011916794543893267 0 -0.0056376602302459587 -0.0029910796392309627 0 -0.0042721674861349373 -0.0028802941062973301 0 -0.0026733612708258777 -0.00032894291613159147 0 -0.0050045176158669581 -0.0011916794543893267 0 -0.0032776458244417181 -0.0019635512675320122 0 -0.0037827896066815929 -0.0037902446365347358 0 -0.0032776458244417181 -0.0019635512675320122 0 -0.0016702168036278556 -0.0025675626037347846 0 -0.00029348181573429224 0.00023948148450992696 0 0.00083181963585025615 0.00091158034184754089 0 -0.0050045176158669581 -0.0011916794543893267 0 -0.0037827896066815929 -0.0037902446365347358 0 -0.0032776458244417181 -0.0019635512675320122 0 -0.00011146581164363589 -0.00066548929114435267 0 -0.0026733612708258777 -0.00032894291613159147 0 -0.0016702168036278556 -0.0025675626037347846 0 -0.0026733612708258777 -0.00032894291613159147 0 -0.0032776458244417181 -0.0019635512675320122 0 -0.0016702168036278556 -0.0025675626037347846 0 -0.00011146581164363589 -0.00066548929114435267 0 -0.0016702168036278556 -0.0025675626037347846 0 0.00077956444311045388 -0.0027209849735809928 0 0.00077956444311045388 -0.0027209849735809928 0 -0.00059124527126903188 -0.0039213592512501987 0 0.00048309799612687135 -0.0058239934191932023 0 0.0040113418636531688 0.002034824378920364 0 0.0076720939791946052 0.010425870913595224 0 -0.0016702168036278556 -0.0025675626037347846 0 0.00077956444311045388 -0.0027209849735809928 0 -0.00059124527126903188 -0.0039213592512501987 0 -0.0037827896066815929 -0.0037902446365347358 0 -0.0016702168036278556 -0.0025675626037347846 0 -0.0019791500254030181 -0.0045320861514082534 0 -0.0016702168036278556 -0.0025675626037347846 0 -0.00059124527126903188 -0.0039213592512501987 0 -0.0019791500254030181 -0.0045320861514082534 0 -0.0019791500254030181 -0.0045320861514082534 0 -0.0025648974660859806 -0.0063472618358064127 0 0.00048309799612687135 -0.0058239934191932023 0 0.002759678492941607 0.007729127860768085 0 0.0076720939791946052 0.010425870913595224 0 -0.0037827896066815929 -0.0037902446365347358 0 -0.0019791500254030181 -0.0045320861514082534 0 -0.0025648974660859806 -0.0063472618358064127 0 -0.00059124527126903188 -0.0039213592512501987 0 -0.0019791500254030181 -0.0045320861514082534 0 0.00048309799612687135 -0.0058239934191932023 0 0.0076720939791946052 0.010425870913595224 0 0.0080801077773933125 0.013134625465296219 0 0.0073466958124556387 0.0099952131834507591 0 0.0057832925207159068 0.0097263266252590897 0 0.0061904029334901422 0.010741003003832506 0 0.011703118718866617 0.018382175756818549 0 0.0076720939791946052 0.010425870913595224 0 0.010119473457665628 0.016029404644169406 0 0.0097967041779692954 0.011930149068114407 0 0.010862956246124645 0.014565142153941094 0 0.0073466958124556387 0.0099952131834507591 0 0.0061904029334901422 0.010741003003832506 0 0.0069606069438324951 0.010849590451727396 0 0.0048171289076447184 0.012391255342238224 0 0.0042037138504363051 0.013741305537673958 0 0.0057443781391531695 0.013125776047429913 0 0.002759678492941607 0.007729127860768085 0 0.00556029481377003 0.011995556137123985 0 0.005630509108579573 0.01521393369067638 0 0.0057443781391531695 0.013125776047429913 0 0.0066084226959828166 0.012701700387387363 0 0.002759678492941607 0.007729127860768085 0 0.00093519458209366741 0.009426874709970905 0 0.0048171289076447184 0.012391255342238224 0 0.0057443781391531695 0.013125776047429913 0 0.0060729466255424087 0.012608428017653517 0 0.0057443781391531695 0.013125776047429913 0 0.0060706628515231238 0.012610341550373109 0 0.0066084226959828166 0.012701700387387363 0 0.00093519458209366741 0.009426874709970905 0 0.0013436731050524464 0.011237922299660514 0 0.0010096909038923324 0.0094980945948766743 0 0.00093519458209366741 0.009426874709970905 0 0.00010905361347196211 0.014068011412769778 0 0.0013436731050524464 0.011237922299660514 0 0.0040857938313599469 0.018814331114319606 0 0.004329161434569709 0.018535458085246464 0 0.003935346722966809 0.018457624831305603 0 -0.0044435125576581976 0.0076996839999789457 0 -0.0044260522528076678 0.0076923700167315723 0 -0.0044387728563954048 0.0076912076302582391 0 -0.0044186259433116369 0.0076971517893239189 0 -0.0044220537729796582 0.0076949264744248262 0 -0.0044293675114613056 0.0076926621836356122 0 -0.0044455393985114436 0.0076813860873136781 0 -0.0044293675114613056 0.0076926621836356122 0 -0.0044387728563954048 0.0076912076302582391 0 -0.0044260522528076678 0.0076923700167315723 0 -0.0044293675114613056 0.0076926621836356122 0 -0.0044387728563954048 0.0076912076302582391 0 -0.0044455393985114436 0.0076813860873136781 0 -0.0044186259433116369 0.0076971517893239189 0 -0.0044293675114613056 0.0076926621836356122 0 0.0013436731050524464 0.011237922299660514 0 0.0012525314413199783 0.011106872178309227 0 -0.002766603419428507 0.0046038095643735604 0 0.00093519458209366741 0.009426874709970905 0 0.00083181963585025615 0.00091158034184754089 0 0.002759678492941607 0.007729127860768085 0 -0.0042721674861349373 -0.0028802941062973301 0 -0.0035241631520896719 -0.0044501276837202175 0 -0.0044807743246511322 -0.0046257831773925378 0 -0.0056376602302459587 -0.0029910796392309627 0 -0.0042721674861349373 -0.0028802941062973301 0 -0.0044807743246511322 -0.0046257831773925378 0 0.036796520467682975 0.0064717261891667531 0 0.034999904211905755 0.0069089132759649636 0 0.036652524920788417 0.0086098606550693603 0 0.034999904211905755 0.0069089132759649636 0 0.036652524920788417 0.0086098606550693603 0 0.034999958491690887 0.0090111252581872529 0 0.035835409248309219 0.0085606237451297355 0 0.03585645960100995 0.0070075258775001105 0 0.036796520467682975 0.0064717261891667531 0 0.036652524920788417 0.0086098606550693603 0 0.038085419402751182 0.007884032897549513 0 0.035835409248309219 0.0085606237451297355 0 0.035593398922020486 0.0095344781418854972 0 0.035826062422630686 0.006937098247966721 0 0.034729194814728741 0.0074006826633426556 0 0.034395305878244568 0.0071410376060202863 0 0.03585645960100995 0.0070075258775001105 0 0.035171752881089209 0.0053454039065046902 0 0.034729194814728741 0.0074006826633426556 0 0.034395305878244568 0.0071410376060202863 0 0.033630639062828885 0.007861971453781284 0 0.038085419402751182 0.007884032897549513 0 0.038385743134500591 0.0065188521185789872 0 0.039601816818578772 0.0071751840922965665 0 0.036796520467682975 0.0064717261891667531 0 0.038085419402751182 0.007884032897549513 0 0.038385743134500591 0.0065188521185789872 0 0.036796520467682975 0.0064717261891667531 0 0.038216142823201703 0.0050094116527738359 0 0.036924907533910617 0.0044997912603416757 0 0.036796520467682975 0.0064717261891667531 0 0.038385743134500591 0.0065188521185789872 0 0.038216142823201703 0.0050094116527738359 0 0.038385743134500591 0.0065188521185789872 0 0.038216142823201703 0.0050094116527738359 0 0.040031501246320135 0.0056513120033659285 0 0.038866229240989633 0.0035960960761254723 0 0.038655644937608383 0.003082109622520379 0 0.038216142823201703 0.0050094116527738359 0 0.038733029010584112 0.0035451797533919047 0 0.039460443459805726 0.0040266756196767773 0 0.038216142823201703 0.0050094116527738359 0 0.036924907533910617 0.0044997912603416757 0 0.037841697995814771 0.0033878698307452208 0 0.036796520467682975 0.0064717261891667531 0 0.036924907533910617 0.0044997912603416757 0 0.034999932007591369 0.0048065985762834494 0 0.036796520467682975 0.0064717261891667531 0 0.034999904211905755 0.0069089132759649636 0 0.034999932007591369 0.0048065985762834494 0 0.034999932007591369 0.0048065985762834494 0 0.036618661361361105 0.002972405913618878 0 0.034999978504511066 0.0027044566223975619 0 0.036924907533910617 0.0044997912603416757 0 0.034999932007591369 0.0048065985762834494 0 0.036618661361361105 0.002972405913618878 0 0.034999978504511066 0.0027044566223975619 0 0.036453869485536888 0.00071179153420871549 0 0.034999940415987717 0.00060238629321137456 0 0.036618661361361105 0.002972405913618878 0 0.034999978504511066 0.0027044566223975619 0 0.036453869485536888 0.00071179153420871549 0 0.036618661361361105 0.002972405913618878 0 0.036453869485536888 0.00071179153420871549 0 0.037851391908298192 0.0019867812709853916 0 0.039380114025742409 9.9400996529651133e-05 0 0.038169988815378982 0.00059413886296606495 0 0.039301797850913277 0.00087614313819561653 0 0.038169988815378982 0.00059413886296606495 0 0.038760334610547675 0.0016528356606767595 0 0.039301797850913277 0.00087614313819561653 0 0.037277918658654215 -0.000321100670992677 0 0.036453869485536888 0.00071179153420871549 0 0.038169988815378982 0.00059413886296606495 0 0.036453869485536888 0.00071179153420871549 0 0.038169988815378982 0.00059413886296606495 0 0.037851391908298192 0.0019867812709853916 0 0.037851391908298192 0.0019867812709853916 0 0.038760334610547675 0.0016528356606767595 0 0.038672817840071469 0.0025398083936531133 0 0.038169988815378982 0.00059413886296606495 0 0.037851391908298192 0.0019867812709853916 0 0.038760334610547675 0.0016528356606767595 0 0.037851391908298192 0.0019867812709853916 0 0.038672817840071469 0.0025398083936531133 0 0.037841697995814771 0.0033878698307452208 0 0.036618661361361105 0.002972405913618878 0 0.037851391908298192 0.0019867812709853916 0 0.037841697995814771 0.0033878698307452208 0 0.036924907533910617 0.0044997912603416757 0 0.036618661361361105 0.002972405913618878 0 0.037841697995814771 0.0033878698307452208 0 0.038672817840071469 0.0025398083936531133 0 0.037841697995814771 0.0033878698307452208 0 0.038733029010584112 0.0035451797533919047 0 0.038216142823201703 0.0050094116527738359 0 0.037841697995814771 0.0033878698307452208 0 0.038733029010584112 0.0035451797533919047 0 0.038733029010584112 0.0035451797533919047 0 0.039430988700026974 0.0027479869977579145 0 0.039460443459805726 0.0040266756196767773 0 0.040003811532695319 0.0032887325901853237 0 0.040341761396134559 0.0039393363464264534 0 0.039460443459805726 0.0040266756196767773 0 0.040003811532695319 0.0032887325901853237 0 0.039430988700026974 0.0027479869977579145 0 0.04028009376920396 0.0025590064396984295 0 0.040003811532695319 0.0032887325901853237 0 0.039430988700026974 0.0027479869977579145 0 0.039460443459805726 0.0040266756196767773 0 0.040003811532695319 0.0032887325901853237 0 0.040503789031791554 0.0031666863576150198 0 0.040341761396134559 0.0039393363464264534 0 0.040003811532695319 0.0032887325901853237 0 0.04028009376920396 0.0025590064396984295 0 0.040503789031791554 0.0031666863576150198 0 0.039930012860891373 0.0018847071578462389 0 0.039430988700026974 0.0027479869977579145 0 0.04028009376920396 0.0025590064396984295 0 0.039930012860891373 0.0018847071578462389 0 0.039430988700026974 0.0027479869977579145 0 0.039354399698588623 0.0018490102118344713 0 0.038672817840071469 0.0025398083936531133 0 0.038733029010584112 0.0035451797533919047 0 0.039430988700026974 0.0027479869977579145 0 0.038672817840071469 0.0025398083936531133 0 0.039430988700026974 0.0027479869977579145 0 0.039354399698588623 0.0018490102118344713 0 0.038760334610547675 0.0016528356606767595 0 0.038672817840071469 0.0025398083936531133 0 0.039354399698588623 0.0018490102118344713 0 0.038760334610547675 0.0016528356606767595 0 0.039354399698588623 0.0018490102118344713 0 0.039301797850913277 0.00087614313819561653 0 0.039354399698588623 0.0018490102118344713 0 0.039776962339272262 0.0012328257269086846 0 0.039301797850913277 0.00087614313819561653 0 0.039930012860891373 0.0018847071578462389 0 0.039354399698588623 0.0018490102118344713 0 0.039776962339272262 0.0012328257269086846 0 0.039930012860891373 0.0018847071578462389 0 0.039776962339272262 0.0012328257269086846 0 0.040203392406570455 0.0012131907436077455 0 0.039776962339272262 0.0012328257269086846 0 0.039990410519373694 0.00055530200288788777 0 0.040203392406570455 0.0012131907436077455 0 0.039776962339272262 0.0012328257269086846 0 0.039990410519373694 0.00055530200288788777 0 0.039301797850913277 0.00087614313819561653 0 0.039380114025742409 9.9400996529651133e-05 0 0.039990410519373694 0.00055530200288788777 0 0.039301797850913277 0.00087614313819561653 0 0.039849337196831355 0.00079891633675061935 0 0.038353488077590092 2.142619851042557e-05 0 0.040156439750573321 0.00023540024133785446 0 0.038353488077590092 2.142619851042557e-05 0 0.040156439750573321 0.00023540024133785446 0 0.03842746873696546 -0.0012258497081259997 0 0.038353488077590092 2.142619851042557e-05 0 0.03842746873696546 -0.0012258497081259997 0 0.037309590467675235 -0.0011006659481457171 0 0.039849337196831355 0.00079891633675061935 0 0.039990410519373694 0.00055530200288788777 0 0.040156439750573321 0.00023540024133785446 0 0.039990410519373694 0.00055530200288788777 0 0.040156439750573321 0.00023540024133785446 0 0.040203392406570455 0.0012131907436077455 0 0.040156439750573321 0.00023540024133785446 0 0.040203392406570455 0.0012131907436077455 0 0.040797916826266004 0.0015478450390488776 0 0.039930012860891373 0.0018847071578462389 0 0.040203392406570455 0.0012131907436077455 0 0.040642527759651804 0.0020595562555161574 0 0.040203392406570455 0.0012131907436077455 0 0.040797916826266004 0.0015478450390488776 0 0.040642527759651804 0.0020595562555161574 0 0.040156439750573321 0.00023540024133785446 0 0.040797916826266004 0.0015478450390488776 0 0.041604079895302737 0.0019613810205838444 0 0.03842746873696546 -0.0012258497081259997 0 0.039351504118900996 -0.0035217159902431842 0 0.037332960856388542 -0.0021701995174799576 0 0.040156439750573321 0.00023540024133785446 0 0.03842746873696546 -0.0012258497081259997 0 0.039351504118900996 -0.0035217159902431842 0 0.037260025179922385 0.0005810731086013795 0 0.035869899263065323 -3.1892940580449626e-05 0 0.040797916826266004 0.0015478450390488776 0 0.041379911560547433 0.0019354035341537193 0 0.041604079895302737 0.0019613810205838444 0 0.040797916826266004 0.0015478450390488776 0 0.041379911560547433 0.0019354035341537193 0 0.040968374169096163 0.0019296940340713929 0 0.041539518238645351 0.0019810427352176347 0 0.041221641636314386 0.0024277433051171607 0 0.042063206369121191 0.0033008473354031237 0 0.035869899263065323 -3.1892940580449626e-05 0 0.034287129625306209 -0.00056074186459781176 0 0.035931942102485438 -1.6265735997153455e-05 0 0.035869899263065323 -3.1892940580449626e-05 0 0.041379911560547433 0.0019354035341537193 0 0.041221641636314386 0.0024277433051171607 0 0.040968374169096163 0.0019296940340713929 0 0.041379911560547433 0.0019354035341537193 0 0.041539518238645351 0.0019810427352176347 0 0.041221641636314386 0.0024277433051171607 0 0.039930012860891373 0.0018847071578462389 0 0.040642527759651804 0.0020595562555161574 0 0.04028009376920396 0.0025590064396984295 0 0.041221641636314386 0.0024277433051171607 0 0.040642527759651804 0.0020595562555161574 0 0.040968374169096163 0.0019296940340713929 0 0.040797916826266004 0.0015478450390488776 0 0.040642527759651804 0.0020595562555161574 0 0.040968374169096163 0.0019296940340713929 0 0.041221641636314386 0.0024277433051171607 0 0.040642527759651804 0.0020595562555161574 0 0.040752666133343544 0.00266635819382556 0 0.041221641636314386 0.0024277433051171607 0 0.040752666133343544 0.00266635819382556 0 0.041151497020474131 0.0030870460169763608 0 0.040752666133343544 0.00266635819382556 0 0.04028009376920396 0.0025590064396984295 0 0.040503789031791554 0.0031666863576150198 0 0.040642527759651804 0.0020595562555161574 0 0.040752666133343544 0.00266635819382556 0 0.04028009376920396 0.0025590064396984295 0 0.040503789031791554 0.0031666863576150198 0 0.041249531353171998 0.0039163769476390975 0 0.040341761396134559 0.0039393363464264534 0 0.040752666133343544 0.00266635819382556 0 0.040503789031791554 0.0031666863576150198 0 0.041151497020474131 0.0030870460169763608 0 0.040503789031791554 0.0031666863576150198 0 0.041151497020474131 0.0030870460169763608 0 0.041249531353171998 0.0039163769476390975 0 0.041151497020474131 0.0030870460169763608 0 0.041249531353171998 0.0039163769476390975 0 0.042063206369121191 0.0033008473354031237 0 0.041221641636314386 0.0024277433051171607 0 0.041151497020474131 0.0030870460169763608 0 0.042063206369121191 0.0033008473354031237 0 0.041249531353171998 0.0039163769476390975 0 0.041842835686584541 0.0041614116746361866 0 0.042063206369121191 0.0033008473354031237 0 0.041249531353171998 0.0039163769476390975 0 0.041842835686584541 0.0041614116746361866 0 0.041528378707769473 0.0049338864112922366 0 0.041249531353171998 0.0039163769476390975 0 0.041528378707769473 0.0049338864112922366 0 0.040785120697447205 0.0045934533101835715 0 0.02740117798177583 -0.010885851247270558 0 0.029605724781163953 -0.011809110222279422 0 0.026388262708593842 -0.012862157081811302 0 0.02740117798177583 -0.010885851247270558 0 0.026388262708593842 -0.012862157081811302 0 0.025854562264028866 -0.011508369637040924 0 0.033095689612915341 -0.002620345848284206 0 0.033880220638214546 -3.1158936075477778e-06 0 0.041528378707769473 0.0049338864112922366 0 0.040550313572357298 0.005362054969557376 0 0.040785120697447205 0.0045934533101835715 0 0.040550313572357298 0.005362054969557376 0 0.040785120697447205 0.0045934533101835715 0 0.040103056995430833 0.0046123872777950005 0 0.041249531353171998 0.0039163769476390975 0 0.040785120697447205 0.0045934533101835715 0 0.040341761396134559 0.0039393363464264534 0 0.040785120697447205 0.0045934533101835715 0 0.040341761396134559 0.0039393363464264534 0 0.040103056995430833 0.0046123872777950005 0 0.040341761396134559 0.0039393363464264534 0 0.040103056995430833 0.0046123872777950005 0 0.039460443459805726 0.0040266756196767773 0 0.040103056995430833 0.0046123872777950005 0 0.039460443459805726 0.0040266756196767773 0 0.039357452955938621 0.0050469304149327668 0 0.038216142823201703 0.0050094116527738359 0 0.039460443459805726 0.0040266756196767773 0 0.039357452955938621 0.0050469304149327668 0 0.033880220638214546 -3.1158936075477778e-06 0 0.038655644937608383 0.003082109622520379 0 0.040550313572357298 0.005362054969557376 0 0.040103056995430833 0.0046123872777950005 0 0.039357452955938621 0.0050469304149327668 0 0.041702277205525828 0.0061966418451375304 0 0.040031501246320135 0.0056513120033659285 0 0.041109636036786329 0.0064543155076258974 0 0.032994564715469403 0.0030124893162343605 0 0.035171752881089209 0.0053454039065046902 0 0.032362742882203394 0.010593425016552631 0 0.033381899499691975 0.0082115456691628872 0 0.030807409148452036 0.0085983275478421686 0 0.032540062317139365 0.008322526850469936 0 0.033630639062828885 0.007861971453781284 0 0.032964540811464625 0.0073486821282519842 0 0.032994564715469403 0.0030124893162343605 0 0.032125612299075533 0.011937571612345861 0 0.040031501246320135 0.0056513120033659285 0 0.041109636036786329 0.0064543155076258974 0 0.039601816818578772 0.0071751840922965665 0 0.038385743134500591 0.0065188521185789872 0 0.040031501246320135 0.0056513120033659285 0 0.039601816818578772 0.0071751840922965665 0 0.035593398922020486 0.0095344781418854972 0 0.032125612299075533 0.011937571612345861 0 0.034395305878244568 0.0071410376060202863 0 0.033630639062828885 0.007861971453781284 0 0.032964540811464625 0.0073486821282519842 0 0.032125612299075533 0.011937571612345861 0 0.029823464133478791 0.013725820609005073 0 0.030332065552142747 0.030962916911392527 0 0.028043760947800003 0.029487121652655882 0 0.030104768424311562 0.029105231347181709 0 0.03334565997731636 0.030693753319198502 0 0.030332065552142747 0.030962916911392527 0 0.030104768424311562 0.029105231347181709 0 0.029823464133478791 0.013725820609005073 0 0.027320624510451259 0.013169342532297937 0 0.030332065552142747 0.030962916911392527 0 0.027541340288127155 0.031030733798214433 0 0.028043760947800003 0.029487121652655882 0 0.029716247882978643 -0.011669736685620187 0 0.027397515557478953 -0.012822523469600658 0 0.026388262708593842 -0.012862157081811302 0 0.030807409148452036 0.0085983275478421686 0 0.028224545060153951 0.008989135831969931 0 0.028990940742752106 0.0099881449472415239 0 0.033880220638214546 -3.1158936075477778e-06 0 0.028122485616010023 -0.0046472724539833293 0 0.029716247882978643 -0.011669736685620187 0 0.030780010924788201 -0.012080593215290409 0 0.027397515557478953 -0.012822523469600658 0 0.032994564715469403 0.0030124893162343605 0 0.027876858176671505 0.0042806014480995542 0 0.032362742882203394 0.010593425016552631 0 0.030807409148452036 0.0085983275478421686 0 0.028990940742752106 0.0099881449472415239 0 0.033880220638214546 -3.1158936075477778e-06 0 0.032994564715469403 0.0030124893162343605 0 0.025076288443156354 0.0099005010534358538 0 0.024216076145639431 0.0091467152221011792 0 0.024106946754470854 -0.013451147114246356 0 0.023396810407010773 -0.012332816122449226 0 0.024414178396424686 -0.011683700179613501 0 0.024498817315075628 0.0092553433413524525 0 0.024073389042551123 0.0091749674952069631 0 0.023697020622179987 0.0093709939934416946 0 0.024106946754470854 -0.013451147114246356 0 0.023396810407010773 -0.012332816122449226 0 0.022428958122258646 -0.013131446491445225 0 0.025076288443156354 0.0099005010534358538 0 0.023897637978502688 0.011316582999885584 0 0.023897637978502688 0.011316582999885584 0 0.023668753492153784 0.011649404263763765 0 0.025058653584826951 0.031029242511953804 0 0.024053384008334434 0.030778215916262702 0 0.024601720791695883 0.030505234193653682 0 0.024106946754470854 -0.013451147114246356 0 0.025185616787729959 -0.012382025574851812 0 0.024414178396424686 -0.011683700179613501 0 0.027320624510451259 0.013169342532297937 0 0.025076288443156354 0.0099005010534358538 0 0.028224545060153951 0.008989135831969931 0 0.028990940742752106 0.0099881449472415239 0 0.025637251578673109 0.0093881734085000685 0 0.024106946754470854 -0.013451147114246356 0 0.025185616787729959 -0.012382025574851812 0 0.026388262708593842 -0.012862157081811302 0 0.027876858176671505 0.0042806014480995542 0 0.025076288443156354 0.0099005010534358538 0 0.027397515557478953 -0.012822523469600658 0 0.024106946754470854 -0.013451147114246356 0 0.026388262708593842 -0.012862157081811302 0 0.025185616787729959 -0.012382025574851812 0 0.026388262708593842 -0.012862157081811302 0 0.025854562264028866 -0.011508369637040924 0 0.028043760947800003 0.029487121652655882 0 0.025880667602104689 0.029910107861132487 0 0.026123242163468847 0.028284407506652259 0 0.027541340288127155 0.031030733798214433 0 0.025058653584826951 0.031029242511953804 0 0.025880667602104689 0.029910107861132487 0 0.027541340288127155 0.031030733798214433 0 0.028043760947800003 0.029487121652655882 0 0.025880667602104689 0.029910107861132487 0 0.025880667602104689 0.029910107861132487 0 0.024689724855099425 0.029168676256303368 0 0.026123242163468847 0.028284407506652259 0 0.025058653584826951 0.031029242511953804 0 0.025880667602104689 0.029910107861132487 0 0.024601720791695883 0.030505234193653682 0 0.025880667602104689 0.029910107861132487 0 0.024689724855099425 0.029168676256303368 0 0.024601720791695883 0.030505234193653682 0 0.024116481932562751 0.030649610227447499 0 0.024601720791695883 0.030505234193653682 0 0.023947746566281007 0.029725879231055262 0 0.024689724855099425 0.029168676256303368 0 0.024601720791695883 0.030505234193653682 0 0.023947746566281007 0.029725879231055262 0 0.024689724855099425 0.029168676256303368 0 0.023947746566281007 0.029725879231055262 0 0.023390568436317649 0.028717005375660101 0 0.024116481932562751 0.030649610227447499 0 0.023151281614525752 0.029525680792300401 0 0.022175845564443096 0.029872069389533025 0 0.023897637978502688 0.011316582999885584 0 0.022923233095686998 0.015212120683718501 0 0.023947746566281007 0.029725879231055262 0 0.023151281614525752 0.029525680792300401 0 0.023390568436317649 0.028717005375660101 0 0.023151281614525752 0.029525680792300401 0 0.022160070173414495 0.028703947712883014 0 0.023390568436317649 0.028717005375660101 0 0.023151281614525752 0.029525680792300401 0 0.022160070173414495 0.028703947712883014 0 0.022175845564443096 0.029872069389533025 0 0.024116481932562751 0.030649610227447499 0 0.023947746566281007 0.029725879231055262 0 0.023151281614525752 0.029525680792300401 0 0.022923233095686998 0.015212120683718501 0 0.022084401707126812 0.01750939994394806 0 0.021862237174583177 0.0098096820014474291 0 0.021388910034166292 0.0099253918493496397 0 0.020752164748294926 0.0096055097499774394 0 0.021014528634592067 0.028595484867240641 0 0.022175845564443096 0.029872069389533025 0 0.020382979881449829 0.028950363516326225 0 0.021014528634592067 0.028595484867240641 0 0.022160070173414495 0.028703947712883014 0 0.021311548664472432 0.028141096841284161 0 0.021014528634592067 0.028595484867240641 0 0.022160070173414495 0.028703947712883014 0 0.022175845564443096 0.029872069389533025 0 0.024216076145639431 0.0091467152221011792 0 0.022389452841116028 0.0047377682738992469 0 0.022466141325949263 0.010212181482900982 0 0.021964115419505922 0.010274047067916738 0 0.021125572394024759 0.0108581118985808 0 0.021506391493735764 0.010259042080919155 0 0.021964115419505922 0.010274047067916738 0 0.021125572394024759 0.0108581118985808 0 0.021388910034166292 0.0099253918493496397 0 0.021506391493735764 0.010259042080919155 0 0.021209604101959711 0.010391878301915352 0 0.021388910034166292 0.0099253918493496397 0 0.021209604101959711 0.010391878301915352 0 0.020754522282421962 0.010518636459543169 0 0.021862237174583177 0.0098096820014474291 0 0.021388910034166292 0.0099253918493496397 0 0.021506391493735764 0.010259042080919155 0 0.021862237174583177 0.0098096820014474291 0 0.021506391493735764 0.010259042080919155 0 0.021964115419505922 0.010274047067916738 0 0.021506391493735764 0.010259042080919155 0 0.021209604101959711 0.010391878301915352 0 0.021125572394024759 0.0108581118985808 0 0.023396810407010773 -0.012332816122449226 0 0.022428958122258646 -0.013131446491445225 0 0.022586719838023822 -0.01133736865707043 0 0.022865116393505708 0.0099968606285490112 0 0.021862237174583177 0.0098096820014474291 0 0.022476436823036169 0.01019978925266291 0 0.023897637978502688 0.011316582999885584 0 0.024216076145639431 0.0091467152221011792 0 0.021862237174583177 0.0098096820014474291 0 0.022476436823036169 0.01019978925266291 0 0.021964115419505922 0.010274047067916738 0 0.024216076145639431 0.0091467152221011792 0 0.02390168135770061 0.0092255301910972067 0 0.022428958122258646 -0.013131446491445225 0 0.022586719838023822 -0.01133736865707043 0 0.019797221692711996 -0.011830654938755661 0 0.022586719838023822 -0.01133736865707043 0 0.019797221692711996 -0.011830654938755661 0 0.021138570830401573 -0.010240490529829735 0 0.021138570830401573 -0.010240490529829735 0 0.02095235802171419 -0.0088097627119344026 0 0.0193989262518976 -0.0096123516049826229 0 0.019797221692711996 -0.011830654938755661 0 0.021138570830401573 -0.010240490529829735 0 0.0193989262518976 -0.0096123516049826229 0 0.027010684747897414 -0.0050716736438395152 0 0.024594794205675105 -0.0050496158924179515 0 0.022586719838023822 -0.01133736865707043 0 0.021138570830401573 -0.010240490529829735 0 0.022957016280951436 -0.0095841303411873992 0 0.021138570830401573 -0.010240490529829735 0 0.022957016280951436 -0.0095841303411873992 0 0.02095235802171419 -0.0088097627119344026 0 0.022957016280951436 -0.0095841303411873992 0 0.023698516775409156 -0.010874923003659585 0 0.024942543272918581 -0.010381809719501572 0 0.027010684747897414 -0.0050716736438395152 0 0.030095438336306814 -0.0043565706012586294 0 0.028898408218107026 -0.0046561351987892277 0 0.031029280714589234 -0.0055787143963538007 0 0.030297788076136329 -0.0036833424112090963 0 0.022586719838023822 -0.01133736865707043 0 0.022957016280951436 -0.0095841303411873992 0 0.023698516775409156 -0.010874923003659585 0 0.023698516775409156 -0.010874923003659585 0 0.024414178396424686 -0.011683700179613501 0 0.024942543272918581 -0.010381809719501572 0 0.023396810407010773 -0.012332816122449226 0 0.023698516775409156 -0.010874923003659585 0 0.024414178396424686 -0.011683700179613501 0 0.023396810407010773 -0.012332816122449226 0 0.022586719838023822 -0.01133736865707043 0 0.023698516775409156 -0.010874923003659585 0 0.02740117798177583 -0.010885851247270558 0 0.025854562264028866 -0.011508369637040924 0 0.025162833552772663 -0.0099141551369495168 0 0.033095689612915341 -0.002620345848284206 0 0.030095438336306814 -0.0043565706012586294 0 0.025185616787729959 -0.012382025574851812 0 0.024414178396424686 -0.011683700179613501 0 0.025854562264028866 -0.011508369637040924 0 0.024414178396424686 -0.011683700179613501 0 0.025854562264028866 -0.011508369637040924 0 0.025162833552772663 -0.0099141551369495168 0 0.028926201610415102 -0.0065659463027507477 0 0.030095438336306814 -0.0043565706012586294 0 0.031029280714589234 -0.0055787143963538007 0 0.032027258071698352 -0.0032757243501271805 0 0.030297788076136329 -0.0036833424112090963 0 0.041842835686584541 0.0041614116746361866 0 0.041528378707769473 0.0049338864112922366 0 0.042533067120958397 0.0044824045350691918 0 0.041842835686584541 0.0041614116746361866 0 0.042533067120958397 0.0044824045350691918 0 0.042063206369121191 0.0033008473354031237 0 0.030095438336306814 -0.0043565706012586294 0 0.034287129625306209 -0.00056074186459781176 0 0.032027258071698352 -0.0032757243501271805 0 0.030297788076136329 -0.0036833424112090963 0 0.030224928294943238 -0.0015801753492603126 0 0.028898408218107026 -0.0046561351987892277 0 0.030297788076136329 -0.0036833424112090963 0 0.029043860787303009 -0.0028989327120550637 0 0.030297788076136329 -0.0036833424112090963 0 0.029043860787303009 -0.0028989327120550637 0 0.030224928294943238 -0.0015801753492603126 0 0.034508946376264671 -0.0049631164765640019 0 0.036107489776303583 -0.0032536499141852019 0 0.028642375337991029 -0.0015366943031189292 0 0.029043860787303009 -0.0028989327120550637 0 0.030224928294943238 -0.0015801753492603126 0 0.027422072493043612 -0.0021937703278240195 0 0.039351504118900996 -0.0035217159902431842 0 0.034508946376264671 -0.0049631164765640019 0 0.036107489776303583 -0.0032536499141852019 0 0.03302849882366192 -0.00096688187281217676 0 0.032027258071698352 -0.0032757243501271805 0 0.030224928294943238 -0.0015801753492603126 0 0.035869899263065323 -3.1892940580449626e-05 0 0.031791552453041265 -0.002180779755201184 0 0.039351504118900996 -0.0035217159902431842 0 0.036107489776303583 -0.0032536499141852019 0 0.037332960856388542 -0.0021701995174799576 0 0.03842746873696546 -0.0012258497081259997 0 0.037332960856388542 -0.0021701995174799576 0 0.037309590467675235 -0.0011006659481457171 0 0.037332960856388542 -0.0021701995174799576 0 0.03630117335534782 -0.0016887202127932829 0 0.037309590467675235 -0.0011006659481457171 0 0.036107489776303583 -0.0032536499141852019 0 0.03630117335534782 -0.0016887202127932829 0 0.035058552136216899 -0.0017422985792133621 0 0.036107489776303583 -0.0032536499141852019 0 0.037332960856388542 -0.0021701995174799576 0 0.03630117335534782 -0.0016887202127932829 0 0.033264748081315729 -0.0031145519669255571 0 0.030279608452200679 -0.0027356499057512346 0 0.036107489776303583 -0.0032536499141852019 0 0.035058552136216899 -0.0017422985792133621 0 0.033583301953768976 -0.0021829948026214599 0 0.03630117335534782 -0.0016887202127932829 0 0.035058552136216899 -0.0017422985792133621 0 0.035461884489400963 -0.00090457673956085346 0 0.035461884489400963 -0.00090457673956085346 0 0.035445598132432504 -6.3290627611948047e-05 0 0.036382943171173389 -0.0003424080854033092 0 0.034540647913082895 0.00055635091999902786 0 0.034360317485002033 -0.00060768381419889291 0 0.035445598132432504 -6.3290627611948047e-05 0 0.035461884489400963 -0.00090457673956085346 0 0.034360317485002033 -0.00060768381419889291 0 0.035445598132432504 -6.3290627611948047e-05 0 0.035058552136216899 -0.0017422985792133621 0 0.035461884489400963 -0.00090457673956085346 0 0.034360317485002033 -0.00060768381419889291 0 0.036531110497756231 0.0008734186163523531 0 0.035445598132432504 -6.3290627611948047e-05 0 0.036382943171173389 -0.0003424080854033092 0 0.038584910203795307 0.0011129675716720052 0 0.038353488077590092 2.142619851042557e-05 0 0.036382943171173389 -0.0003424080854033092 0 0.038353488077590092 2.142619851042557e-05 0 0.036382943171173389 -0.0003424080854033092 0 0.037309590467675235 -0.0011006659481457171 0 0.03630117335534782 -0.0016887202127932829 0 0.036382943171173389 -0.0003424080854033092 0 0.037309590467675235 -0.0011006659481457171 0 0.03630117335534782 -0.0016887202127932829 0 0.035461884489400963 -0.00090457673956085346 0 0.036382943171173389 -0.0003424080854033092 0 0.031377450635270879 0.00078033852641447624 0 0.032717139052048323 -0.00080185729696618429 0 0.031235256821843735 -0.0016848702271680693 0 0.033790196468896909 0.00045135692718211167 0 0.034360317485002033 -0.00060768381419889291 0 0.032717139052048323 -0.00080185729696618429 0 0.034360317485002033 -0.00060768381419889291 0 0.032717139052048323 -0.00080185729696618429 0 0.033583301953768976 -0.0021829948026214599 0 0.035058552136216899 -0.0017422985792133621 0 0.034360317485002033 -0.00060768381419889291 0 0.033583301953768976 -0.0021829948026214599 0 0.030279608452200679 -0.0027356499057512346 0 0.023570713372191174 -0.0023612287375890462 0 0.028642375337991029 -0.0015366943031189292 0 0.023346049146104605 -0.0040712969974449351 0 0.020770528032988844 -0.00021294589635787413 0 0.032717139052048323 -0.00080185729696618429 0 0.033583301953768976 -0.0021829948026214599 0 0.031235256821843735 -0.0016848702271680693 0 0.023346049146104605 -0.0040712969974449351 0 0.027332476634515226 -0.0066747607455341085 0 0.020320426252462182 -0.0078822256084057143 0 0.028642375337991029 -0.0015366943031189292 0 0.023346049146104605 -0.0040712969974449351 0 0.027332476634515226 -0.0066747607455341085 0 0.034508946376264671 -0.0049631164765640019 0 0.028642375337991029 -0.0015366943031189292 0 0.027332476634515226 -0.0066747607455341085 0 0.031791552453041265 -0.002180779755201184 0 0.027280157559426355 -0.0036614274251298164 0 0.028898408218107026 -0.0046561351987892277 0 0.029043860787303009 -0.0028989327120550637 0 0.026758354509857422 -0.0037346487035451728 0 0.029043860787303009 -0.0028989327120550637 0 0.027422072493043612 -0.0021937703278240195 0 0.026758354509857422 -0.0037346487035451728 0 0.027280157559426355 -0.0036614274251298164 0 0.02276922230846367 -0.0046607404874522184 0 0.027422072493043612 -0.0021937703278240195 0 0.026758354509857422 -0.0037346487035451728 0 0.024613504858569037 -0.0028100716134917499 0 0.024594794205675105 -0.0050496158924179515 0 0.02276922230846367 -0.0046607404874522184 0 0.02095235802171419 -0.0088097627119344026 0 0.01895385276902882 -0.0078744667358702763 0 0.0193989262518976 -0.0096123516049826229 0 0.018626574320930216 -0.008863153473000894 0 0.01895385276902882 -0.0078744667358702763 0 0.0193989262518976 -0.0096123516049826229 0 0.01863148989498126 -0.0069197294983584972 0 0.019934529151567359 -0.0074845638337153924 0 0.01799776840205166 -0.0078129205634956383 0 0.018626574320930216 -0.008863153473000894 0 0.01895385276902882 -0.0078744667358702763 0 0.01799776840205166 -0.0078129205634956383 0 0.02276922230846367 -0.0046607404874522184 0 0.022143355516888914 -0.004873926276357938 0 0.022583647259717839 -0.0046637071916031721 0 0.02276922230846367 -0.0046607404874522184 0 0.01799776840205166 -0.0078129205634956383 0 0.015828820021805641 -0.0046747000019126874 0 0.017596013905809307 -0.0096037101028680592 0 0.01640439383166245 -0.0098907423787658426 0 0.016713493477989713 -0.0096950833777139749 0 0.017596013905809307 -0.0096037101028680592 0 0.016749476639735247 -0.007389484640919851 0 0.017132434696164132 -0.0085273583192928722 0 0.016713493477989713 -0.0096950833777139749 0 0.016757183892373559 -0.0095922818209554315 0 0.017596013905809307 -0.0096037101028680592 0 0.018626574320930216 -0.008863153473000894 0 0.01799776840205166 -0.0078129205634956383 0 0.017596013905809307 -0.0096037101028680592 0 0.01863148989498126 -0.0069197294983584972 0 0.018452063699117303 -0.0044364958478619069 0 0.015828820021805641 -0.0046747000019126874 0 0.01863148989498126 -0.0069197294983584972 0 0.01799776840205166 -0.0078129205634956383 0 0.015828820021805641 -0.0046747000019126874 0 0.018452063699117303 -0.0044364958478619069 0 0.015828820021805641 -0.0046747000019126874 0 0.018606186171126412 -0.0026221563216252655 0 0.023346049146104605 -0.0040712969974449351 0 0.020320426252462182 -0.0078822256084057143 0 0.02031557656638806 -0.0052132557952234019 0 0.01863148989498126 -0.0069197294983584972 0 0.020320426252462182 -0.0078822256084057143 0 0.02031557656638806 -0.0052132557952234019 0 0.01863148989498126 -0.0069197294983584972 0 0.018452063699117303 -0.0044364958478619069 0 0.02031557656638806 -0.0052132557952234019 0 0.018452063699117303 -0.0044364958478619069 0 0.02031557656638806 -0.0052132557952234019 0 0.02060640507121626 -0.0026253064856472642 0 0.023346049146104605 -0.0040712969974449351 0 0.02031557656638806 -0.0052132557952234019 0 0.02060640507121626 -0.0026253064856472642 0 0.023346049146104605 -0.0040712969974449351 0 0.02060640507121626 -0.0026253064856472642 0 0.020770528032988844 -0.00021294589635787413 0 0.023482813794865897 -0.0023335417662060706 0 0.023570713372191174 -0.0023612287375890462 0 0.020672139758169887 -0.00094452584190093134 0 0.018606186171126412 -0.0026221563216252655 0 0.017545723910509063 -0.00048808756595146229 0 0.023570713372191174 -0.0023612287375890462 0 0.019897493948432935 -0.0014902735240247802 0 0.018452063699117303 -0.0044364958478619069 0 0.02060640507121626 -0.0026253064856472642 0 0.018606186171126412 -0.0026221563216252655 0 0.02060640507121626 -0.0026253064856472642 0 0.020672139758169887 -0.00094452584190093134 0 0.018606186171126412 -0.0026221563216252655 0 0.015828820021805641 -0.0046747000019126874 0 0.017545723910509063 -0.00048808756595146229 0 0.014566765145920701 -1.3310392253595246e-05 0 0.015828820021805641 -0.0046747000019126874 0 0.018606186171126412 -0.0026221563216252655 0 0.017545723910509063 -0.00048808756595146229 0 0.016901704035808745 -0.00044838946238088222 0 0.015113686071337106 0.001036686272783995 0 0.014566765145920701 -1.3310392253595246e-05 0 0.019897493948432935 -0.0014902735240247802 0 0.018547332911636984 -0.0011806889471245839 0 0.016901704035808745 -0.00044838946238088222 0 0.016083749879673044 0.001813758669113765 0 0.015113686071337106 0.001036686272783995 0 0.016901704035808745 -0.00044838946238088222 0 0.016083749879673044 0.001813758669113765 0 0.017777208433357578 0.0015811630487501801 0 0.019233195540343206 -0.00091841865742481961 0 0.016901704035808745 -0.00044838946238088222 0 0.017777208433357578 0.0015811630487501801 0 0.023989540791953149 -0.0032292202567558272 0 0.023570713372191174 -0.0023612287375890462 0 0.019521051131542837 0.0035895609944492581 0 0.019233195540343206 -0.00091841865742481961 0 0.017777208433357578 0.0015811630487501801 0 0.01753513866354306 -0.011266856243116928 0 0.017478139839887743 -0.011975551881142849 0 0.016649969423055459 -0.010377509530472721 0 0.017478139839887743 -0.011975551881142849 0 0.016819516313301138 -0.011403504598201055 0 0.016982461837300188 -0.010511189230614296 0 0.01807039525223178 -0.01046798050967057 0 0.017958915243650286 -0.009312854623309625 0 0.016819516313301138 -0.011403504598201055 0 0.016619920612979653 -0.011787679844662025 0 0.016556099299301713 -0.011350495500058243 0 0.017478139839887743 -0.011975551881142849 0 0.016819516313301138 -0.011403504598201055 0 0.016856749151205115 -0.012085855475773247 0 0.016819516313301138 -0.011403504598201055 0 0.016856749151205115 -0.012085855475773247 0 0.016619920612979653 -0.011787679844662025 0 0.016642709540030984 -0.012234920124681891 0 0.016856749151205115 -0.012085855475773247 0 0.016619920612979653 -0.011787679844662025 0 0.016642709540030984 -0.012234920124681891 0 0.016619920612979653 -0.011787679844662025 0 0.016229100586914406 -0.011498239601914538 0 0.014775913572455519 0.0023857761372700604 0 0.015113686071337106 0.001036686272783995 0 0.014040863966109105 0.00056199463752125661 0 0.014775913572455519 0.0023857761372700604 0 0.016083749879673044 0.001813758669113765 0 0.015113686071337106 0.001036686272783995 0 0.015113686071337106 0.001036686272783995 0 0.014566765145920701 -1.3310392253595246e-05 0 0.014040863966109105 0.00056199463752125661 0 0.016229100586914406 -0.011498239601914538 0 0.016556099299301713 -0.011350495500058243 0 0.016597962995184602 -0.010799064837796805 0 0.016619920612979653 -0.011787679844662025 0 0.016229100586914406 -0.011498239601914538 0 0.016556099299301713 -0.011350495500058243 0 0.01640439383166245 -0.0098907423787658426 0 0.016229100586914406 -0.011498239601914538 0 0.016597962995184602 -0.010799064837796805 0 0.016819516313301138 -0.011403504598201055 0 0.016556099299301713 -0.011350495500058243 0 0.016597962995184602 -0.010799064837796805 0 0.015828820021805641 -0.0046747000019126874 0 0.014566765145920701 -1.3310392253595246e-05 0 0.014040863966109105 0.00056199463752125661 0 0.016749476639735247 -0.007389484640919851 0 0.016640026805119095 -0.0059872336614457808 0 0.01640439383166245 -0.0098907423787658426 0 0.016597962995184602 -0.010799064837796805 0 0.01666615442706466 -0.010257854342527928 0 0.016597962995184602 -0.010799064837796805 0 0.016982461837300188 -0.010511189230614296 0 0.01666615442706466 -0.010257854342527928 0 0.017654233350904623 -0.010920305628232639 0 0.01753513866354306 -0.011266856243116928 0 0.016649969423055459 -0.010377509530472721 0 0.017654233350904623 -0.010920305628232639 0 0.016649969423055459 -0.010377509530472721 0 0.017231981527767531 -0.010410344570213158 0 0.016819516313301138 -0.011403504598201055 0 0.016597962995184602 -0.010799064837796805 0 0.016982461837300188 -0.010511189230614296 0 0.016649969423055459 -0.010377509530472721 0 0.017231981527767531 -0.010410344570213158 0 0.017208373577056488 -0.009828783501617493 0 0.016649969423055459 -0.010377509530472721 0 0.017208373577056488 -0.009828783501617493 0 0.015842963057852228 -0.0088184596199832321 0 0.017370071569204313 -0.0076711045222676282 0 0.017820520643576438 -0.005653409432873944 0 0.016982461837300188 -0.010511189230614296 0 0.016686150178694688 -0.0099758868050063201 0 0.016770996939518674 -0.0095683750174125337 0 0.017958915243650286 -0.009312854623309625 0 0.017820520643576438 -0.005653409432873944 0 0.01640439383166245 -0.0098907423787658426 0 0.01666615442706466 -0.010257854342527928 0 0.016686150178694688 -0.0099758868050063201 0 0.016982461837300188 -0.010511189230614296 0 0.01666615442706466 -0.010257854342527928 0 0.016686150178694688 -0.0099758868050063201 0 0.016686150178694688 -0.0099758868050063201 0 0.016713493477989713 -0.0096950833777139749 0 0.016770996939518674 -0.0095683750174125337 0 0.01640439383166245 -0.0098907423787658426 0 0.016686150178694688 -0.0099758868050063201 0 0.016713493477989713 -0.0096950833777139749 0 0.012652414545810935 -0.0057144252046592743 0 0.014994645725118381 -0.0058754486767615497 0 0.012689433595803764 -0.003656597587561154 0 0.016641481214362302 -0.0095033396673944795 0 0.016757183892373559 -0.0095922818209554315 0 0.017137286209809335 -0.010541558930158642 0 0.016713493477989713 -0.0096950833777139749 0 0.016770996939518674 -0.0095683750174125337 0 0.016757183892373559 -0.0095922818209554315 0 0.017820520643576438 -0.005653409432873944 0 0.017831689831910379 -0.0056828104274056455 0 0.018073866301311931 0.0090478054137655053 0 0.01757600330672579 0.010688328468126347 0 0.015309843089359124 -0.00773044480639405 0 0.012652414545810935 -0.0057144252046592743 0 0.014994645725118381 -0.0058754486767615497 0 0.020300498353458363 0.0239289722242082 0 0.019992516251976535 0.024830161068418607 0 0.019183586966050915 0.025437376995292665 0 0.020300498353458363 0.0239289722242082 0 0.019992516251976535 0.024830161068418607 0 0.020585666022360411 0.024814475885162411 0 0.020145699728122746 0.02543911124970134 0 0.020071281117742396 0.026414091795717635 0 0.019738239091310641 0.025347795263676226 0 0.020585666022360411 0.024814475885162411 0 0.020145699728122746 0.02543911124970134 0 0.020497445809653639 0.025574983234782939 0 0.019992516251976535 0.024830161068418607 0 0.020585666022360411 0.024814475885162411 0 0.020145699728122746 0.02543911124970134 0 0.019992516251976535 0.024830161068418607 0 0.020145699728122746 0.02543911124970134 0 0.019738239091310641 0.025347795263676226 0 0.020145699728122746 0.02543911124970134 0 0.020497445809653639 0.025574983234782939 0 0.020071281117742396 0.026414091795717635 0 0.021375160253621451 0.025417054394948905 0 0.020497445809653639 0.025574983234782939 0 0.020071281117742396 0.026414091795717635 0 0.01793564275105439 0.019388215430300532 0 0.019079562235886874 0.023075343875036625 0 0.020477295564477856 0.027356628819032842 0 0.019432017598503337 0.027014022694665529 0 0.019738239091310641 0.025347795263676226 0 0.019432017598503337 0.027014022694665529 0 0.019343984152825153 0.025748424023889004 0 0.018826671490424843 0.027269944669211586 0 0.019432017598503337 0.027014022694665529 0 0.01917892134757038 0.027759530084041448 0 0.019388920081779188 0.028032441388937301 0 0.020477295564477856 0.027356628819032842 0 0.019432017598503337 0.027014022694665529 0 0.019388920081779188 0.028032441388937301 0 0.019432017598503337 0.027014022694665529 0 0.019738239091310641 0.025347795263676226 0 0.019343984152825153 0.025748424023889004 0 0.012652414545810935 -0.0057144252046592743 0 0.012689433595803764 -0.003656597587561154 0 0.011181587235627902 -0.0028181412914077791 0 0.017820520643576438 -0.005653409432873944 0 0.019080883553514488 0.0061454109229372427 0 0.01757600330672579 0.010688328468126347 0 0.019080883553514488 0.0061454109229372427 0 0.016926683531936444 0.012336922252764906 0 0.01757600330672579 0.010688328468126347 0 0.019992516251976535 0.024830161068418607 0 0.019738239091310641 0.025347795263676226 0 0.019343984152825153 0.025748424023889004 0 0.01757600330672579 0.010688328468126347 0 0.018495609928278513 0.011382950205250712 0 0.018610785037788336 0.010394145915020036 0 0.019490471976578237 0.0099450971335527747 0 0.019827257919864522 0.0093340711633367584 0 0.017596013905809307 -0.0096037101028680592 0 0.017137286209809335 -0.010541558930158642 0 0.0193989262518976 -0.0096123516049826229 0 0.016757183892373559 -0.0095922818209554315 0 0.017596013905809307 -0.0096037101028680592 0 0.017137286209809335 -0.010541558930158642 0 0.019797221692711996 -0.011830654938755661 0 0.017137286209809335 -0.010541558930158642 0 0.0193989262518976 -0.0096123516049826229 0 0.018626574320930216 -0.008863153473000894 0 0.017596013905809307 -0.0096037101028680592 0 0.0193989262518976 -0.0096123516049826229 0 0.021125572394024759 0.0108581118985808 0 0.019905203945937026 0.011450202406489555 0 0.020128017973895934 0.0110586588580449 0 0.022389452841116028 0.0047377682738992469 0 0.019080883553514488 0.0061454109229372427 0 0.021125572394024759 0.0108581118985808 0 0.020128017973895934 0.0110586588580449 0 0.020754522282421962 0.010518636459543169 0 0.018495609928278513 0.011382950205250712 0 0.019727001776131209 0.010606715139160783 0 0.019432017598503337 0.027014022694665529 0 0.018826671490424843 0.027269944669211586 0 0.01917892134757038 0.027759530084041448 0 0.019080883553514488 0.0061454109229372427 0 0.018495609928278513 0.011382950205250712 0 0.018826671490424843 0.027269944669211586 0 0.01917892134757038 0.027759530084041448 0 0.019223002220661863 0.027925184392570634 0 0.018495609928278513 0.011382950205250712 0 0.019741429968747295 0.015879810736551186 0 0.01917892134757038 0.027759530084041448 0 0.019365363560226386 0.028035793298866837 0 0.019223002220661863 0.027925184392570634 0 0.019365363560226386 0.028035793298866837 0 0.019223002220661863 0.027925184392570634 0 0.019467999412618005 0.028112790276062553 0 0.021209604101959711 0.010391878301915352 0 0.021125572394024759 0.0108581118985808 0 0.020754522282421962 0.010518636459543169 0 0.019699751324198864 0.011479959721816329 0 0.020585152731051735 0.010690847391431814 0 0.020231514054687927 0.010509930841778604 0 0.020585152731051735 0.010690847391431814 0 0.020231514054687927 0.010509930841778604 0 0.020743183931333384 0.010181643691792992 0 0.019223002220661863 0.027925184392570634 0 0.019541258396442111 0.02827826371820822 0 0.019467999412618005 0.028112790276062553 0 0.019741429968747295 0.015879810736551186 0 0.022084401707126812 0.01750939994394806 0 0.021388910034166292 0.0099253918493496397 0 0.020585152731051735 0.010690847391431814 0 0.020743183931333384 0.010181643691792992 0 0.020231514054687927 0.010509930841778604 0 0.020743183931333384 0.010181643691792992 0 0.020752164748294926 0.0096055097499774394 0 0.020173388391366828 0.010304943962120727 0 0.019727001776131209 0.010606715139160783 0 0.021388910034166292 0.0099253918493496397 0 0.020743183931333384 0.010181643691792992 0 0.020752164748294926 0.0096055097499774394 0 0.020382979881449829 0.028950363516326225 0 0.019698461001211587 0.028350560037562759 0 0.020234413302361441 0.028570814857496383 0 0.019541258396442111 0.02827826371820822 0 0.019467999412618005 0.028112790276062553 0 0.019698461001211587 0.028350560037562759 0 0.019467999412618005 0.028112790276062553 0 0.019698461001211587 0.028350560037562759 0 0.019542886421176554 0.028092033440837931 0 0.022084401707126812 0.01750939994394806 0 0.022067180638500501 0.017672710497536277 0 0.019698461001211587 0.028350560037562759 0 0.019796347212607049 0.028101110294659983 0 0.019542886421176554 0.028092033440837931 0 0.019796347212607049 0.028101110294659983 0 0.020042978787565467 0.028298208256511782 0 0.020220865106895147 0.028129120789040733 0 0.019698461001211587 0.028350560037562759 0 0.019796347212607049 0.028101110294659983 0 0.020042978787565467 0.028298208256511782 0 0.019698461001211587 0.028350560037562759 0 0.020042978787565467 0.028298208256511782 0 0.020234413302361441 0.028570814857496383 0 0.020042978787565467 0.028298208256511782 0 0.020234413302361441 0.028570814857496383 0 0.020418984355642864 0.028401059302260737 0 0.020382979881449829 0.028950363516326225 0 0.020234413302361441 0.028570814857496383 0 0.020529369296604486 0.028608751911210806 0 0.020234413302361441 0.028570814857496383 0 0.020418984355642864 0.028401059302260737 0 0.020529369296604486 0.028608751911210806 0 0.020220865106895147 0.028129120789040733 0 0.020418984355642864 0.028401059302260737 0 0.020560537332859518 0.028230670091939174 0 0.020042978787565467 0.028298208256511782 0 0.020220865106895147 0.028129120789040733 0 0.020418984355642864 0.028401059302260737 0 0.021014528634592067 0.028595484867240641 0 0.020560537332859518 0.028230670091939174 0 0.020663108567487102 0.027931914874929031 0 0.021014528634592067 0.028595484867240641 0 0.020418984355642864 0.028401059302260737 0 0.020560537332859518 0.028230670091939174 0 0.021014528634592067 0.028595484867240641 0 0.020382979881449829 0.028950363516326225 0 0.020529369296604486 0.028608751911210806 0 0.021014528634592067 0.028595484867240641 0 0.020418984355642864 0.028401059302260737 0 0.020529369296604486 0.028608751911210806 0 0.019365363560226386 0.028035793298866837 0 0.019542886421176554 0.028092033440837931 0 0.019316283368973165 0.027831937090048154 0 0.019365363560226386 0.028035793298866837 0 0.019467999412618005 0.028112790276062553 0 0.019542886421176554 0.028092033440837931 0 0.019796347212607049 0.028101110294659983 0 0.019542886421176554 0.028092033440837931 0 0.019571571826256993 0.027798523042909043 0 0.019542886421176554 0.028092033440837931 0 0.019316283368973165 0.027831937090048154 0 0.019571571826256993 0.027798523042909043 0 0.019365363560226386 0.028035793298866837 0 0.019316283368973165 0.027831937090048154 0 0.019147166964759727 0.027863486923637493 0 0.019316283368973165 0.027831937090048154 0 0.019147166964759727 0.027863486923637493 0 0.01887583549888356 0.027492147876624504 0 0.019147166964759727 0.027863486923637493 0 0.018496247128335079 0.027798273242147991 0 0.019388920081779188 0.028032441388937301 0 0.019147166964759727 0.027863486923637493 0 0.018496247128335079 0.027798273242147991 0 0.01887583549888356 0.027492147876624504 0 0.01793564275105439 0.019388215430300532 0 0.014761192591364075 0.016282312838729589 0 0.018979382373127244 0.028369164230743205 0 0.018496247128335079 0.027798273242147991 0 0.019388920081779188 0.028032441388937301 0 0.01793564275105439 0.019388215430300532 0 0.017366127479563113 0.020793475307223433 0 0.01917892134757038 0.027759530084041448 0 0.019365363560226386 0.028035793298866837 0 0.019388920081779188 0.028032441388937301 0 0.019365363560226386 0.028035793298866837 0 0.019147166964759727 0.027863486923637493 0 0.019388920081779188 0.028032441388937301 0 0.018828081159203286 0.026759238983924738 0 0.019310926334887991 0.026973104550513393 0 0.019253691482244917 0.027385535526208704 0 0.018828081159203286 0.026759238983924738 0 0.019310926334887991 0.026973104550513393 0 0.019278263423175623 0.026412569351026753 0 0.018828081159203286 0.026759238983924738 0 0.019278263423175623 0.026412569351026753 0 0.018896926765939681 0.026055071268617745 0 0.01782314067600067 0.026878047481021315 0 0.018828081159203286 0.026759238983924738 0 0.01826620040968378 0.025954195919477133 0 0.01782314067600067 0.026878047481021315 0 0.018496247128335079 0.027798273242147991 0 0.01887583549888356 0.027492147876624504 0 0.01782314067600067 0.026878047481021315 0 0.018828081159203286 0.026759238983924738 0 0.01887583549888356 0.027492147876624504 0 0.018828081159203286 0.026759238983924738 0 0.01887583549888356 0.027492147876624504 0 0.019253691482244917 0.027385535526208704 0 0.019316283368973165 0.027831937090048154 0 0.01887583549888356 0.027492147876624504 0 0.019253691482244917 0.027385535526208704 0 0.019253691482244917 0.027385535526208704 0 0.019571571826256993 0.027798523042909043 0 0.019649832790281159 0.027417715014934358 0 0.019316283368973165 0.027831937090048154 0 0.019253691482244917 0.027385535526208704 0 0.019571571826256993 0.027798523042909043 0 0.019796347212607049 0.028101110294659983 0 0.019571571826256993 0.027798523042909043 0 0.019837706248579525 0.027740732883016463 0 0.019571571826256993 0.027798523042909043 0 0.019837706248579525 0.027740732883016463 0 0.019649832790281159 0.027417715014934358 0 0.019649832790281159 0.027417715014934358 0 0.020036347686982633 0.027434970776865686 0 0.019952232112694111 0.027077889718355942 0 0.019837706248579525 0.027740732883016463 0 0.019649832790281159 0.027417715014934358 0 0.020036347686982633 0.027434970776865686 0 0.019310926334887991 0.026973104550513393 0 0.019253691482244917 0.027385535526208704 0 0.019649832790281159 0.027417715014934358 0 0.020220865106895147 0.028129120789040733 0 0.020560537332859518 0.028230670091939174 0 0.020663108567487102 0.027931914874929031 0 0.020220865106895147 0.028129120789040733 0 0.020663108567487102 0.027931914874929031 0 0.020132836229907417 0.027821747638877577 0 0.020663108567487102 0.027931914874929031 0 0.020132836229907417 0.027821747638877577 0 0.020379523468863528 0.02756102688432184 0 0.019796347212607049 0.028101110294659983 0 0.020220865106895147 0.028129120789040733 0 0.020132836229907417 0.027821747638877577 0 0.019796347212607049 0.028101110294659983 0 0.019837706248579525 0.027740732883016463 0 0.020132836229907417 0.027821747638877577 0 0.019837706248579525 0.027740732883016463 0 0.020132836229907417 0.027821747638877577 0 0.020036347686982633 0.027434970776865686 0 0.020036347686982633 0.027434970776865686 0 0.02040412747068648 0.027098302265373707 0 0.019952232112694111 0.027077889718355942 0 0.020036347686982633 0.027434970776865686 0 0.020379523468863528 0.02756102688432184 0 0.02040412747068648 0.027098302265373707 0 0.020132836229907417 0.027821747638877577 0 0.020036347686982633 0.027434970776865686 0 0.020379523468863528 0.02756102688432184 0 0.020760565278679897 0.027486476117706812 0 0.020925795000896349 0.027152107000720571 0 0.02040412747068648 0.027098302265373707 0 0.020663108567487102 0.027931914874929031 0 0.020379523468863528 0.02756102688432184 0 0.020760565278679897 0.027486476117706812 0 0.020379523468863528 0.02756102688432184 0 0.020760565278679897 0.027486476117706812 0 0.02040412747068648 0.027098302265373707 0 0.020760565278679897 0.027486476117706812 0 0.020925795000896349 0.027152107000720571 0 0.021195944809429147 0.027590901367083247 0 0.020663108567487102 0.027931914874929031 0 0.020760565278679897 0.027486476117706812 0 0.021195944809429147 0.027590901367083247 0 0.020957462965219366 0.026697860922473025 0 0.020925795000896349 0.027152107000720571 0 0.02040412747068648 0.027098302265373707 0 0.020957462965219366 0.026697860922473025 0 0.02040412747068648 0.027098302265373707 0 0.020534827674845331 0.026519627220713944 0 0.02040412747068648 0.027098302265373707 0 0.020096793069884628 0.026651913234425346 0 0.020534827674845331 0.026519627220713944 0 0.02040412747068648 0.027098302265373707 0 0.020096793069884628 0.026651913234425346 0 0.019952232112694111 0.027077889718355942 0 0.020534827674845331 0.026519627220713944 0 0.020883665426259954 0.026066764554564074 0 0.020329370213512766 0.026214458175183468 0 0.020096793069884628 0.026651913234425346 0 0.020534827674845331 0.026519627220713944 0 0.020329370213512766 0.026214458175183468 0 0.020957462965219366 0.026697860922473025 0 0.020534827674845331 0.026519627220713944 0 0.020883665426259954 0.026066764554564074 0 0.020957462965219366 0.026697860922473025 0 0.020883665426259954 0.026066764554564074 0 0.021402417797108594 0.026371039574724555 0 0.019310926334887991 0.026973104550513393 0 0.019278263423175623 0.026412569351026753 0 0.019673814736210257 0.026758284820329145 0 0.019310926334887991 0.026973104550513393 0 0.019649832790281159 0.027417715014934358 0 0.019673814736210257 0.026758284820329145 0 0.020096793069884628 0.026651913234425346 0 0.019673814736210257 0.026758284820329145 0 0.019952232112694111 0.027077889718355942 0 0.019649832790281159 0.027417715014934358 0 0.019673814736210257 0.026758284820329145 0 0.019952232112694111 0.027077889718355942 0 0.020096793069884628 0.026651913234425346 0 0.01983528888759304 0.02619545115345679 0 0.020329370213512766 0.026214458175183468 0 0.020096793069884628 0.026651913234425346 0 0.019673814736210257 0.026758284820329145 0 0.01983528888759304 0.02619545115345679 0 0.019278263423175623 0.026412569351026753 0 0.019673814736210257 0.026758284820329145 0 0.01983528888759304 0.02619545115345679 0 0.019278263423175623 0.026412569351026753 0 0.01983528888759304 0.02619545115345679 0 0.019337517450122722 0.0258224757807573 0 0.01983528888759304 0.02619545115345679 0 0.019785753590744828 0.025595393579847591 0 0.019337517450122722 0.0258224757807573 0 0.01983528888759304 0.02619545115345679 0 0.019785753590744828 0.025595393579847591 0 0.020344158851748072 0.025643258256497815 0 0.019785753590744828 0.025595393579847591 0 0.020344158851748072 0.025643258256497815 0 0.019931059521562173 0.025082252056805789 0 0.019785753590744828 0.025595393579847591 0 0.019454752512988064 0.025324124242415799 0 0.019337517450122722 0.0258224757807573 0 0.01983528888759304 0.02619545115345679 0 0.020329370213512766 0.026214458175183468 0 0.020344158851748072 0.025643258256497815 0 0.020883665426259954 0.026066764554564074 0 0.020329370213512766 0.026214458175183468 0 0.020344158851748072 0.025643258256497815 0 0.020344158851748072 0.025643258256497815 0 0.020489238018129144 0.025109982939472832 0 0.021169024282867679 0.025307467738270268 0 0.020883665426259954 0.026066764554564074 0 0.020344158851748072 0.025643258256497815 0 0.021169024282867679 0.025307467738270268 0 0.020489238018129144 0.025109982939472832 0 0.020914034866682307 0.024688264423671412 0 0.021169024282867679 0.025307467738270268 0 0.020344158851748072 0.025643258256497815 0 0.020489238018129144 0.025109982939472832 0 0.019931059521562173 0.025082252056805789 0 0.020489238018129144 0.025109982939472832 0 0.020914034866682307 0.024688264423671412 0 0.020303729196495531 0.024465235096559124 0 0.019532026575291173 0.024931765352492349 0 0.019368063832804771 0.02487283989234592 0 0.020489238018129144 0.025109982939472832 0 0.019931059521562173 0.025082252056805789 0 0.020303729196495531 0.024465235096559124 0 0.019454752512988064 0.025324124242415799 0 0.019931059521562173 0.025082252056805789 0 0.019342530480049327 0.024857341175541371 0 0.019785753590744828 0.025595393579847591 0 0.019454752512988064 0.025324124242415799 0 0.019931059521562173 0.025082252056805789 0 0.019931059521562173 0.025082252056805789 0 0.019690441262146374 0.024720072074324292 0 0.020303729196495531 0.024465235096559124 0 0.019931059521562173 0.025082252056805789 0 0.019690441262146374 0.024720072074324292 0 0.019342530480049327 0.024857341175541371 0 0.019342530480049327 0.024857341175541371 0 0.018886978547299722 0.025356664195051167 0 0.018787941884347386 0.024638816950938704 0 0.018886978547299722 0.025356664195051167 0 0.018252551803814604 0.024890598793777301 0 0.018787941884347386 0.024638816950938704 0 0.019454752512988064 0.025324124242415799 0 0.019342530480049327 0.024857341175541371 0 0.018886978547299722 0.025356664195051167 0 0.018886978547299722 0.025356664195051167 0 0.019337517450122722 0.0258224757807573 0 0.018896926765939681 0.026055071268617745 0 0.019454752512988064 0.025324124242415799 0 0.018886978547299722 0.025356664195051167 0 0.019337517450122722 0.0258224757807573 0 0.018886978547299722 0.025356664195051167 0 0.018896926765939681 0.026055071268617745 0 0.01826620040968378 0.025954195919477133 0 0.019278263423175623 0.026412569351026753 0 0.019337517450122722 0.0258224757807573 0 0.018896926765939681 0.026055071268617745 0 0.018828081159203286 0.026759238983924738 0 0.018896926765939681 0.026055071268617745 0 0.01826620040968378 0.025954195919477133 0 0.017313745733746985 0.025684882250935091 0 0.01826620040968378 0.025954195919477133 0 0.018252551803814604 0.024890598793777301 0 0.018886978547299722 0.025356664195051167 0 0.01826620040968378 0.025954195919477133 0 0.018252551803814604 0.024890598793777301 0 0.017804690220478224 0.024538897262192473 0 0.018252551803814604 0.024890598793777301 0 0.018164994733690681 0.024169635236586703 0 0.018252551803814604 0.024890598793777301 0 0.018787941884347386 0.024638816950938704 0 0.018164994733690681 0.024169635236586703 0 0.017791613689659966 0.024276189877999163 0 0.017804690220478224 0.024538897262192473 0 0.018164994733690681 0.024169635236586703 0 0.018787941884347386 0.024638816950938704 0 0.018966007176330877 0.024148394401725913 0 0.01935017223935738 0.024542217976538022 0 0.019342530480049327 0.024857341175541371 0 0.018787941884347386 0.024638816950938704 0 0.01935017223935738 0.024542217976538022 0 0.018787941884347386 0.024638816950938704 0 0.018966007176330877 0.024148394401725913 0 0.018164994733690681 0.024169635236586703 0 0.019494578394803671 0.024512283560139802 0 0.019054697366492838 0.024688666294293837 0 0.019223826332887918 0.024588465134418164 0 0.018658448339680084 0.024957083244336941 0 0.018723979749333132 0.02502987830171725 0 0.018619374353570778 0.024947522045011123 0 0.018925929999241982 0.024793152694607853 0 0.019150771923477593 0.024796329443372799 0 0.019494578394803671 0.024512283560139802 0 0.019054697366492838 0.024688666294293837 0 0.019824652177476292 0.024588331991269356 0 0.018966007176330877 0.024148394401725913 0 0.018164994733690681 0.024169635236586703 0 0.017719769291353615 0.023771553491071698 0 0.018658448339680084 0.024957083244336941 0 0.018723979749333132 0.02502987830171725 0 0.018772753011016396 0.025018013173377686 0 0.018772752466621231 0.024724862348983762 0 0.018040199711619315 0.024638681220357211 0 0.017791613689659966 0.024276189877999163 0 0.018164994733690681 0.024169635236586703 0 0.017708194559765716 0.024195159466714689 0 0.018013457114652513 0.024574687844200447 0 0.018040199711619315 0.024638681220357211 0 0.018942124936166593 0.024880906570605626 0 0.019126352238056851 0.02462814389800928 0 0.018942987084053325 0.024817555011190453 0 0.018942124936166593 0.024880906570605626 0 0.019077349275135418 0.024691941921835915 0 0.019126352238056851 0.02462814389800928 0 0.019054697366492838 0.024688666294293837 0 0.019077349275135418 0.024691941921835915 0 0.019223826332887918 0.024588465134418164 0 0.019054697366492838 0.024688666294293837 0 0.018942124936166593 0.024880906570605626 0 0.019077349275135418 0.024691941921835915 0 0.019223826332887918 0.024588465134418164 0 0.019407128119195496 0.024443414839815648 0 0.019126352238056851 0.02462814389800928 0 0.019077349275135418 0.024691941921835915 0 0.019223826332887918 0.024588465134418164 0 0.019126352238056851 0.02462814389800928 0 0.019494578394803671 0.024512283560139802 0 0.019407128119195496 0.024443414839815648 0 0.019879643265539277 0.024267136574312745 0 0.019494578394803671 0.024512283560139802 0 0.019223826332887918 0.024588465134418164 0 0.019407128119195496 0.024443414839815648 0 0.019407128119195496 0.024443414839815648 0 0.019255030408031098 0.024464392543180932 0 0.019650069545861966 0.024236566630304761 0 0.019407128119195496 0.024443414839815648 0 0.019126352238056851 0.02462814389800928 0 0.019255030408031098 0.024464392543180932 0 0.019255030408031098 0.024464392543180932 0 0.019021873792222227 0.024627930320958554 0 0.018942987084053325 0.024817555011190453 0 0.019126352238056851 0.02462814389800928 0 0.019255030408031098 0.024464392543180932 0 0.018942987084053325 0.024817555011190453 0 0.019021873792222227 0.024627930320958554 0 0.018942987084053325 0.024817555011190453 0 0.018820356930846327 0.025001831982186491 0 0.018860843546051512 0.025055617039632161 0 0.018942987084053325 0.024817555011190453 0 0.018756105005303246 0.025339127880350396 0 0.018942124936166593 0.024880906570605626 0 0.018860843546051512 0.025055617039632161 0 0.018942987084053325 0.024817555011190453 0 0.020763411872770112 0.023659798687949263 0 0.019516813430774393 0.02411633814161188 0 0.020572762911320926 0.023510180074487824 0 0.020763411872770112 0.023659798687949263 0 0.019516813430774393 0.02411633814161188 0 0.020353721064000463 0.02394799482086173 0 0.019516813430774393 0.02411633814161188 0 0.019650069545861966 0.024236566630304761 0 0.020353721064000463 0.02394799482086173 0 0.019255030408031098 0.024464392543180932 0 0.019021873792222227 0.024627930320958554 0 0.019516813430774393 0.02411633814161188 0 0.019255030408031098 0.024464392543180932 0 0.019516813430774393 0.02411633814161188 0 0.019650069545861966 0.024236566630304761 0 0.019407128119195496 0.024443414839815648 0 0.019650069545861966 0.024236566630304761 0 0.019879643265539277 0.024267136574312745 0 0.019650069545861966 0.024236566630304761 0 0.019879643265539277 0.024267136574312745 0 0.020353721064000463 0.02394799482086173 0 0.020353721064000463 0.02394799482086173 0 0.02105641208460711 0.023785050304393669 0 0.021490315012383333 0.02348912276409813 0 0.019879643265539277 0.024267136574312745 0 0.020353721064000463 0.02394799482086173 0 0.020489943892774577 0.024048169891031802 0 0.020763411872770112 0.023659798687949263 0 0.020353721064000463 0.02394799482086173 0 0.021490315012383333 0.02348912276409813 0 0.020353721064000463 0.02394799482086173 0 0.02105641208460711 0.023785050304393669 0 0.020489943892774577 0.024048169891031802 0 0.02105641208460711 0.023785050304393669 0 0.020489943892774577 0.024048169891031802 0 0.020779609524588297 0.024116176309976818 0 0.020489943892774577 0.024048169891031802 0 0.020779609524588297 0.024116176309976818 0 0.020170780103174829 0.024271166711557643 0 0.020779609524588297 0.024116176309976818 0 0.020170780103174829 0.024271166711557643 0 0.020191065274091737 0.024393455022018423 0 0.019494578394803671 0.024512283560139802 0 0.019879643265539277 0.024267136574312745 0 0.019873333527220215 0.024407833758503431 0 0.019879643265539277 0.024267136574312745 0 0.020170780103174829 0.024271166711557643 0 0.019873333527220215 0.024407833758503431 0 0.019879643265539277 0.024267136574312745 0 0.020489943892774577 0.024048169891031802 0 0.020170780103174829 0.024271166711557643 0 0.020170780103174829 0.024271166711557643 0 0.020191065274091737 0.024393455022018423 0 0.019873333527220215 0.024407833758503431 0 0.020191065274091737 0.024393455022018423 0 0.019873333527220215 0.024407833758503431 0 0.019824652177476292 0.024588331991269356 0 0.019494578394803671 0.024512283560139802 0 0.019873333527220215 0.024407833758503431 0 0.019824652177476292 0.024588331991269356 0 0.018658448339680084 0.024957083244336941 0 0.018619374353570778 0.024947522045011123 0 0.018556621420719559 0.024898424581820795 0 0.019690441262146374 0.024720072074324292 0 0.01935017223935738 0.024542217976538022 0 0.020303729196495531 0.024465235096559124 0 0.019824652177476292 0.024588331991269356 0 0.020535525317906127 0.024416734731854278 0 0.020536545078874594 0.024627998635356099 0 0.020191065274091737 0.024393455022018423 0 0.019824652177476292 0.024588331991269356 0 0.020535525317906127 0.024416734731854278 0 0.018772752466621231 0.024724862348983762 0 0.019368063832804771 0.02487283989234592 0 0.018966007176330877 0.024148394401725913 0 0.01935017223935738 0.024542217976538022 0 0.020303729196495531 0.024465235096559124 0 0.019150771923477593 0.024796329443372799 0 0.019368063832804771 0.02487283989234592 0 0.019690441262146374 0.024720072074324292 0 0.019342530480049327 0.024857341175541371 0 0.01935017223935738 0.024542217976538022 0 0.020779609524588297 0.024116176309976818 0 0.020972071798424603 0.024346628781837919 0 0.021580419329051571 0.024049451712937528 0 0.020779609524588297 0.024116176309976818 0 0.020535525317906127 0.024416734731854278 0 0.020972071798424603 0.024346628781837919 0 0.020779609524588297 0.024116176309976818 0 0.020191065274091737 0.024393455022018423 0 0.020535525317906127 0.024416734731854278 0 0.020914034866682307 0.024688264423671412 0 0.020535525317906127 0.024416734731854278 0 0.020536545078874594 0.024627998635356099 0 0.020914034866682307 0.024688264423671412 0 0.020972071798424603 0.024346628781837919 0 0.021580419329051571 0.024049451712937528 0 0.020914034866682307 0.024688264423671412 0 0.020535525317906127 0.024416734731854278 0 0.020972071798424603 0.024346628781837919 0 0.021580419329051571 0.024049451712937528 0 0.022597383272324769 0.023743564526480444 0 0.021892138232046599 0.023508130448024654 0 0.021580419329051571 0.024049451712937528 0 0.022597383272324769 0.023743564526480444 0 0.021871370917993124 0.024541000600421949 0 0.022597383272324769 0.023743564526480444 0 0.02337343962918207 0.022790055121059256 0 0.024151662606893519 0.023357348911046166 0 0.022597383272324769 0.023743564526480444 0 0.021892138232046599 0.023508130448024654 0 0.02337343962918207 0.022790055121059256 0 0.021892138232046599 0.023508130448024654 0 0.02263352091298073 0.02303805425161878 0 0.02337343962918207 0.022790055121059256 0 0.020779609524588297 0.024116176309976818 0 0.021580419329051571 0.024049451712937528 0 0.021892138232046599 0.023508130448024654 0 0.02105641208460711 0.023785050304393669 0 0.020779609524588297 0.024116176309976818 0 0.021892138232046599 0.023508130448024654 0 0.021892138232046599 0.023508130448024654 0 0.021490315012383333 0.02348912276409813 0 0.02263352091298073 0.02303805425161878 0 0.02105641208460711 0.023785050304393669 0 0.021892138232046599 0.023508130448024654 0 0.021490315012383333 0.02348912276409813 0 0.021490315012383333 0.02348912276409813 0 0.02263352091298073 0.02303805425161878 0 0.021926139561148222 0.023112481959397621 0 0.02263352091298073 0.02303805425161878 0 0.021926139561148222 0.023112481959397621 0 0.023069017088902067 0.022737387501978467 0 0.020763411872770112 0.023659798687949263 0 0.021490315012383333 0.02348912276409813 0 0.021926139561148222 0.023112481959397621 0 0.020763411872770112 0.023659798687949263 0 0.021926139561148222 0.023112481959397621 0 0.020572762911320926 0.023510180074487824 0 0.023504707918726719 0.022668130014657773 0 0.023069017088902067 0.022737387501978467 0 0.023732862957803916 0.022639806165621081 0 0.02263352091298073 0.02303805425161878 0 0.023069017088902067 0.022737387501978467 0 0.023732862957803916 0.022639806165621081 0 0.02263352091298073 0.02303805425161878 0 0.023732862957803916 0.022639806165621081 0 0.02337343962918207 0.022790055121059256 0 0.023732862957803916 0.022639806165621081 0 0.025215736115932873 0.02169239279982222 0 0.023590796478017036 0.022665886344577831 0 0.023504707918726719 0.022668130014657773 0 0.023732862957803916 0.022639806165621081 0 0.023590796478017036 0.022665886344577831 0 0.026555163178295427 0.021593195735334834 0 0.027425260565732964 0.020864262646323156 0 0.023732862957803916 0.022639806165621081 0 0.02337343962918207 0.022790055121059256 0 0.025215736115932873 0.02169239279982222 0 0.02337343962918207 0.022790055121059256 0 0.024151662606893519 0.023357348911046166 0 0.025215736115932873 0.02169239279982222 0 0.024151662606893519 0.023357348911046166 0 0.025215736115932873 0.02169239279982222 0 0.027159994237796165 0.023662564891812708 0 0.024151662606893519 0.023357348911046166 0 0.027159994237796165 0.023662564891812708 0 0.024759622369215903 0.024798634564769041 0 0.026579289730661516 0.025450066521843669 0 0.024759622369215903 0.024798634564769041 0 0.025539028628534077 0.026507811487470397 0 0.027159994237796165 0.023662564891812708 0 0.026579289730661516 0.025450066521843669 0 0.024759622369215903 0.024798634564769041 0 0.024759622369215903 0.024798634564769041 0 0.023062927015805011 0.024495581724972244 0 0.023359166941512355 0.025583838669511968 0 0.024759622369215903 0.024798634564769041 0 0.025539028628534077 0.026507811487470397 0 0.02423567257498974 0.026174245618143844 0 0.024759622369215903 0.024798634564769041 0 0.023359166941512355 0.025583838669511968 0 0.02423567257498974 0.026174245618143844 0 0.024151662606893519 0.023357348911046166 0 0.024759622369215903 0.024798634564769041 0 0.023062927015805011 0.024495581724972244 0 0.022597383272324769 0.023743564526480444 0 0.023062927015805011 0.024495581724972244 0 0.021871370917993124 0.024541000600421949 0 0.022597383272324769 0.023743564526480444 0 0.024151662606893519 0.023357348911046166 0 0.023062927015805011 0.024495581724972244 0 0.023062927015805011 0.024495581724972244 0 0.021871370917993124 0.024541000600421949 0 0.0221132502725018 0.025453228319428516 0 0.021871370917993124 0.024541000600421949 0 0.021169024282867679 0.025307467738270268 0 0.0221132502725018 0.025453228319428516 0 0.020914034866682307 0.024688264423671412 0 0.021580419329051571 0.024049451712937528 0 0.021871370917993124 0.024541000600421949 0 0.020914034866682307 0.024688264423671412 0 0.021871370917993124 0.024541000600421949 0 0.021169024282867679 0.025307467738270268 0 0.021169024282867679 0.025307467738270268 0 0.0221132502725018 0.025453228319428516 0 0.021483290918001444 0.02586288382400289 0 0.0221132502725018 0.025453228319428516 0 0.021883428847489755 0.026134872415773485 0 0.021483290918001444 0.02586288382400289 0 0.0221132502725018 0.025453228319428516 0 0.021883428847489755 0.026134872415773485 0 0.022544777338294804 0.026308966409975036 0 0.020883665426259954 0.026066764554564074 0 0.021169024282867679 0.025307467738270268 0 0.021483290918001444 0.02586288382400289 0 0.020883665426259954 0.026066764554564074 0 0.021483290918001444 0.02586288382400289 0 0.021402417797108594 0.026371039574724555 0 0.021883428847489755 0.026134872415773485 0 0.021483290918001444 0.02586288382400289 0 0.021402417797108594 0.026371039574724555 0 0.023062927015805011 0.024495581724972244 0 0.0221132502725018 0.025453228319428516 0 0.023359166941512355 0.025583838669511968 0 0.0221132502725018 0.025453228319428516 0 0.023359166941512355 0.025583838669511968 0 0.022544777338294804 0.026308966409975036 0 0.023359166941512355 0.025583838669511968 0 0.023463558801582903 0.026960021146490251 0 0.02423567257498974 0.026174245618143844 0 0.023359166941512355 0.025583838669511968 0 0.022544777338294804 0.026308966409975036 0 0.023463558801582903 0.026960021146490251 0 0.022544777338294804 0.026308966409975036 0 0.022571283087347363 0.027151177062146568 0 0.021913688333269843 0.026693971225588885 0 0.022544777338294804 0.026308966409975036 0 0.022571283087347363 0.027151177062146568 0 0.023463558801582903 0.026960021146490251 0 0.022571283087347363 0.027151177062146568 0 0.023463558801582903 0.026960021146490251 0 0.023279164032086699 0.027727000848713674 0 0.020957462965219366 0.026697860922473025 0 0.021402417797108594 0.026371039574724555 0 0.021355516635203093 0.026934667552092745 0 0.021402417797108594 0.026371039574724555 0 0.021913688333269843 0.026693971225588885 0 0.021355516635203093 0.026934667552092745 0 0.021883428847489755 0.026134872415773485 0 0.022544777338294804 0.026308966409975036 0 0.021913688333269843 0.026693971225588885 0 0.021883428847489755 0.026134872415773485 0 0.021402417797108594 0.026371039574724555 0 0.021913688333269843 0.026693971225588885 0 0.022571283087347363 0.027151177062146568 0 0.021913688333269843 0.026693971225588885 0 0.021804893400644121 0.027294844571460974 0 0.021913688333269843 0.026693971225588885 0 0.021355516635203093 0.026934667552092745 0 0.021804893400644121 0.027294844571460974 0 0.020957462965219366 0.026697860922473025 0 0.020925795000896349 0.027152107000720571 0 0.021355516635203093 0.026934667552092745 0 0.020925795000896349 0.027152107000720571 0 0.021355516635203093 0.026934667552092745 0 0.021195944809429147 0.027590901367083247 0 0.021355516635203093 0.026934667552092745 0 0.021195944809429147 0.027590901367083247 0 0.021804893400644121 0.027294844571460974 0 0.021195944809429147 0.027590901367083247 0 0.021768059768968871 0.027841641636251021 0 0.021804893400644121 0.027294844571460974 0 0.021768059768968871 0.027841641636251021 0 0.021804893400644121 0.027294844571460974 0 0.022505088754631999 0.027946268463183717 0 0.022160070173414495 0.028703947712883014 0 0.021768059768968871 0.027841641636251021 0 0.022505088754631999 0.027946268463183717 0 0.022160070173414495 0.028703947712883014 0 0.021768059768968871 0.027841641636251021 0 0.021311548664472432 0.028141096841284161 0 0.021195944809429147 0.027590901367083247 0 0.021768059768968871 0.027841641636251021 0 0.021311548664472432 0.028141096841284161 0 0.021014528634592067 0.028595484867240641 0 0.020663108567487102 0.027931914874929031 0 0.021311548664472432 0.028141096841284161 0 0.020663108567487102 0.027931914874929031 0 0.021195944809429147 0.027590901367083247 0 0.021311548664472432 0.028141096841284161 0 0.023463558801582903 0.026960021146490251 0 0.023279164032086699 0.027727000848713674 0 0.024358440425900959 0.027773753646385301 0 0.023279164032086699 0.027727000848713674 0 0.023390568436317649 0.028717005375660101 0 0.024358440425900959 0.027773753646385301 0 0.022571283087347363 0.027151177062146568 0 0.023279164032086699 0.027727000848713674 0 0.022505088754631999 0.027946268463183717 0 0.022571283087347363 0.027151177062146568 0 0.021804893400644121 0.027294844571460974 0 0.022505088754631999 0.027946268463183717 0 0.022160070173414495 0.028703947712883014 0 0.022505088754631999 0.027946268463183717 0 0.023390568436317649 0.028717005375660101 0 0.023279164032086699 0.027727000848713674 0 0.022505088754631999 0.027946268463183717 0 0.023390568436317649 0.028717005375660101 0 0.024689724855099425 0.029168676256303368 0 0.024358440425900959 0.027773753646385301 0 0.026123242163468847 0.028284407506652259 0 0.024689724855099425 0.029168676256303368 0 0.023390568436317649 0.028717005375660101 0 0.024358440425900959 0.027773753646385301 0 0.024358440425900959 0.027773753646385301 0 0.026123242163468847 0.028284407506652259 0 0.025539028628534077 0.026507811487470397 0 0.026123242163468847 0.028284407506652259 0 0.027104851634992568 0.026719459061232537 0 0.028636251458658685 0.027687173675607392 0 0.026123242163468847 0.028284407506652259 0 0.027104851634992568 0.026719459061232537 0 0.025539028628534077 0.026507811487470397 0 0.026579289730661516 0.025450066521843669 0 0.027104851634992568 0.026719459061232537 0 0.025539028628534077 0.026507811487470397 0 0.023463558801582903 0.026960021146490251 0 0.024358440425900959 0.027773753646385301 0 0.02423567257498974 0.026174245618143844 0 0.024358440425900959 0.027773753646385301 0 0.025539028628534077 0.026507811487470397 0 0.02423567257498974 0.026174245618143844 0 0.030199017134152299 0.025899504969432111 0 0.031607205117925273 0.027392104506290399 0 0.031749376137930364 0.024424797971882947 0 0.030199017134152299 0.025899504969432111 0 0.028636251458658685 0.027687173675607392 0 0.031607205117925273 0.027392104506290399 0 0.030199017134152299 0.025899504969432111 0 0.02849610262167988 0.025596851138617632 0 0.028636251458658685 0.027687173675607392 0 0.027104851634992568 0.026719459061232537 0 0.02849610262167988 0.025596851138617632 0 0.028636251458658685 0.027687173675607392 0 0.026579289730661516 0.025450066521843669 0 0.027104851634992568 0.026719459061232537 0 0.02849610262167988 0.025596851138617632 0 0.028043760947800003 0.029487121652655882 0 0.026123242163468847 0.028284407506652259 0 0.028636251458658685 0.027687173675607392 0 0.028043760947800003 0.029487121652655882 0 0.028636251458658685 0.027687173675607392 0 0.030104768424311562 0.029105231347181709 0 0.028636251458658685 0.027687173675607392 0 0.030104768424311562 0.029105231347181709 0 0.031607205117925273 0.027392104506290399 0 0.03334565997731636 0.030693753319198502 0 0.030104768424311562 0.029105231347181709 0 0.031607205117925273 0.027392104506290399 0 0.03334565997731636 0.030693753319198502 0 0.031607205117925273 0.027392104506290399 0 0.03536631661490923 0.026881897099509548 0 0.032125612299075533 0.011937571612345861 0 0.034639543710224256 0.016593085867963851 0 0.037917661405329241 0.0091594915683786814 0 0.039161541779125876 0.0089793448478465657 0 0.038451293597334651 0.01000401908718836 0 0.039161541779125876 0.0089793448478465657 0 0.038451293597334651 0.01000401908718836 0 0.038660405867090769 0.010220740541109215 0 0.031607205117925273 0.027392104506290399 0 0.031749376137930364 0.024424797971882947 0 0.034096013969634284 0.024571478193334738 0 0.031607205117925273 0.027392104506290399 0 0.03536631661490923 0.026881897099509548 0 0.034096013969634284 0.024571478193334738 0 0.031749376137930364 0.024424797971882947 0 0.034549580312045587 0.021396005336067184 0 0.031961356425580068 0.022231273956986791 0 0.031749376137930364 0.024424797971882947 0 0.034096013969634284 0.024571478193334738 0 0.034549580312045587 0.021396005336067184 0 0.034096013969634284 0.024571478193334738 0 0.034549580312045587 0.021396005336067184 0 0.03770523976055111 0.022182554317400738 0 0.034639543710224256 0.016593085867963851 0 0.036549465990803089 0.016569251139693285 0 0.03536631661490923 0.026881897099509548 0 0.034096013969634284 0.024571478193334738 0 0.03770523976055111 0.022182554317400738 0 0.034549580312045587 0.021396005336067184 0 0.036023404855898396 0.018966556225931828 0 0.036741927974557144 0.020291128872868838 0 0.036155477465166022 0.017087747028003687 0 0.036549465990803089 0.016569251139693285 0 0.034549580312045587 0.021396005336067184 0 0.03321545459061323 0.020209548791624805 0 0.035268548081779032 0.01892525826950079 0 0.034549580312045587 0.021396005336067184 0 0.036023404855898396 0.018966556225931828 0 0.035268548081779032 0.01892525826950079 0 0.034549580312045587 0.021396005336067184 0 0.031961356425580068 0.022231273956986791 0 0.03321545459061323 0.020209548791624805 0 0.031961356425580068 0.022231273956986791 0 0.029913487229190645 0.023743332595475779 0 0.030437519484192616 0.021552768934850121 0 0.031961356425580068 0.022231273956986791 0 0.030437519484192616 0.021552768934850121 0 0.03321545459061323 0.020209548791624805 0 0.030199017134152299 0.025899504969432111 0 0.02849610262167988 0.025596851138617632 0 0.029913487229190645 0.023743332595475779 0 0.030199017134152299 0.025899504969432111 0 0.031749376137930364 0.024424797971882947 0 0.029913487229190645 0.023743332595475779 0 0.031749376137930364 0.024424797971882947 0 0.031961356425580068 0.022231273956986791 0 0.029913487229190645 0.023743332595475779 0 0.027159994237796165 0.023662564891812708 0 0.026579289730661516 0.025450066521843669 0 0.02849610262167988 0.025596851138617632 0 0.027159994237796165 0.023662564891812708 0 0.02849610262167988 0.025596851138617632 0 0.029913487229190645 0.023743332595475779 0 0.027159994237796165 0.023662564891812708 0 0.029913487229190645 0.023743332595475779 0 0.030437519484192616 0.021552768934850121 0 0.025215736115932873 0.02169239279982222 0 0.030437519484192616 0.021552768934850121 0 0.030484024550693711 0.019170029198375817 0 0.025215736115932873 0.02169239279982222 0 0.027159994237796165 0.023662564891812708 0 0.030437519484192616 0.021552768934850121 0 0.030437519484192616 0.021552768934850121 0 0.030484024550693711 0.019170029198375817 0 0.03274008975963779 0.019048727198946885 0 0.030437519484192616 0.021552768934850121 0 0.03274008975963779 0.019048727198946885 0 0.03321545459061323 0.020209548791624805 0 0.030484024550693711 0.019170029198375817 0 0.03326820257393466 0.017342410727882229 0 0.03274008975963779 0.019048727198946885 0 0.025215736115932873 0.02169239279982222 0 0.030484024550693711 0.019170029198375817 0 0.029120526315501355 0.016667505904059656 0 0.030484024550693711 0.019170029198375817 0 0.029120526315501355 0.016667505904059656 0 0.03326820257393466 0.017342410727882229 0 0.03326820257393466 0.017342410727882229 0 0.035659851433621124 0.015965333024133239 0 0.031960218059501257 0.014230237077276107 0 0.029120526315501355 0.016667505904059656 0 0.03326820257393466 0.017342410727882229 0 0.031960218059501257 0.014230237077276107 0 0.027425260565732964 0.020864262646323156 0 0.028971636999237948 0.021268724506218358 0 0.023504707918726719 0.022668130014657773 0 0.023590796478017036 0.022665886344577831 0 0.023773123291958079 0.022500815376970618 0 0.035659851433621124 0.015965333024133239 0 0.035447556706877027 0.016827194083405161 0 0.036089226914188158 0.016848160063998488 0 0.03326820257393466 0.017342410727882229 0 0.035659851433621124 0.015965333024133239 0 0.035447556706877027 0.016827194083405161 0 0.03326820257393466 0.017342410727882229 0 0.035447556706877027 0.016827194083405161 0 0.035212721062477574 0.017856971075201278 0 0.035447556706877027 0.016827194083405161 0 0.035212721062477574 0.017856971075201278 0 0.036035099639706629 0.016917331363953198 0 0.035447556706877027 0.016827194083405161 0 0.036035099639706629 0.016917331363953198 0 0.036089226914188158 0.016848160063998488 0 0.03326820257393466 0.017342410727882229 0 0.035212721062477574 0.017856971075201278 0 0.03274008975963779 0.019048727198946885 0 0.035212721062477574 0.017856971075201278 0 0.03274008975963779 0.019048727198946885 0 0.03321545459061323 0.020209548791624805 0 0.035212721062477574 0.017856971075201278 0 0.035268548081779032 0.01892525826950079 0 0.036441687876050531 0.017568936125694202 0 0.035212721062477574 0.017856971075201278 0 0.03321545459061323 0.020209548791624805 0 0.035268548081779032 0.01892525826950079 0 0.036023404855898396 0.018966556225931828 0 0.035268548081779032 0.01892525826950079 0 0.036441687876050531 0.017568936125694202 0 0.036441687876050531 0.017568936125694202 0 0.03665992830168343 0.016631235060421273 0 0.037113478239708654 0.017377343348339298 0 0.036441687876050531 0.017568936125694202 0 0.03665992830168343 0.016631235060421273 0 0.036468397777539463 0.016888320352255036 0 0.03665992830168343 0.016631235060421273 0 0.036468397777539463 0.016888320352255036 0 0.036257366115224308 0.015832631093639145 0 0.03665992830168343 0.016631235060421273 0 0.036257366115224308 0.015832631093639145 0 0.036319109937725649 0.015385465732553448 0 0.03665992830168343 0.016631235060421273 0 0.036319109937725649 0.015385465732553448 0 0.037113478239708654 0.017377343348339298 0 0.036468397777539463 0.016888320352255036 0 0.036302848661005131 0.016750617107937588 0 0.036257366115224308 0.015832631093639145 0 0.035212721062477574 0.017856971075201278 0 0.036441687876050531 0.017568936125694202 0 0.036468397777539463 0.016888320352255036 0 0.035212721062477574 0.017856971075201278 0 0.036468397777539463 0.016888320352255036 0 0.036035099639706629 0.016917331363953198 0 0.036035099639706629 0.016917331363953198 0 0.036302848661005131 0.016750617107937588 0 0.036089226914188158 0.016848160063998488 0 0.036468397777539463 0.016888320352255036 0 0.036035099639706629 0.016917331363953198 0 0.036302848661005131 0.016750617107937588 0 0.036302848661005131 0.016750617107937588 0 0.036117502002835075 0.017227831627512097 0 0.035913377120718883 0.017501222581390776 0 0.036302848661005131 0.016750617107937588 0 0.036117502002835075 0.017227831627512097 0 0.036089226914188158 0.016848160063998488 0 0.034999674813393451 0.01726124207510556 0 0.035868608913252449 0.016350705675267193 0 0.035913377120718883 0.017501222581390776 0 0.036302848661005131 0.016750617107937588 0 0.035868608913252449 0.016350705675267193 0 0.035913377120718883 0.017501222581390776 0 0.036302848661005131 0.016750617107937588 0 0.035868608913252449 0.016350705675267193 0 0.036257366115224308 0.015832631093639145 0 0.034999674813393451 0.01726124207510556 0 0.035868608913252449 0.016350705675267193 0 0.034999850126027215 0.015243148230261109 0 0.036257366115224308 0.015832631093639145 0 0.034999755528850054 0.013225183318781768 0 0.036319109937725649 0.015385465732553448 0 0.034999850126027215 0.015243148230261109 0 0.036257366115224308 0.015832631093639145 0 0.034999755528850054 0.013225183318781768 0 0.035868608913252449 0.016350705675267193 0 0.034999850126027215 0.015243148230261109 0 0.036257366115224308 0.015832631093639145 0 0.034999755528850054 0.013225183318781768 0 0.036120365701806469 0.013726296819602175 0 0.036319109937725649 0.015385465732553448 0 0.034999755528850054 0.013225183318781768 0 0.034999586124044406 0.01120621765015891 0 0.036120365701806469 0.013726296819602175 0 0.034999925784046593 0.011207437942315903 0 0.035774632298546459 0.01347921277774904 0 0.035000033577440685 0.011203436248675524 0 0.036672034308537028 0.011362898839723808 0 0.036285890062531363 0.010336131973237546 0 0.036120365701806469 0.013726296819602175 0 0.036319109937725649 0.015385465732553448 0 0.037113478239708654 0.017377343348339298 0 0.036120365701806469 0.013726296819602175 0 0.037113478239708654 0.017377343348339298 0 0.037725123660074175 0.016082559605572689 0 0.036023404855898396 0.018966556225931828 0 0.036441687876050531 0.017568936125694202 0 0.037113478239708654 0.017377343348339298 0 0.036506434479602924 0.016808972067611765 0 0.036549465990803089 0.016569251139693285 0 0.036023404855898396 0.018966556225931828 0 0.037113478239708654 0.017377343348339298 0 0.036741927974557144 0.020291128872868838 0 0.035774632298546459 0.01347921277774904 0 0.036549465990803089 0.016569251139693285 0 0.036672034308537028 0.011362898839723808 0 0.038110355737360387 0.011597364920920282 0 0.037691394100629626 0.010553486935582763 0 0.036672034308537028 0.011362898839723808 0 0.036949063719822366 0.010493398537847497 0 0.037691394100629626 0.010553486935582763 0 0.036949063719822366 0.010493398537847497 0 0.037691394100629626 0.010553486935582763 0 0.037131422221476251 0.0097327005627467367 0 0.038451293597334651 0.01000401908718836 0 0.038660405867090769 0.010220740541109215 0 0.037691394100629626 0.010553486935582763 0 0.038660405867090769 0.010220740541109215 0 0.038110355737360387 0.011597364920920282 0 0.037691394100629626 0.010553486935582763 0 0.038451293597334651 0.01000401908718836 0 0.037691394100629626 0.010553486935582763 0 0.037131422221476251 0.0097327005627467367 0 0.037668746027590197 0.0097291917393038958 0 0.036944781592719196 0.009577251999005075 0 0.037917661405329241 0.0091594915683786814 0 0.038451293597334651 0.01000401908718836 0 0.037176826872690728 0.0098383789071558245 0 0.036618725194897332 0.0093490373370619193 0 0.037917661405329241 0.0091594915683786814 0 0.037176826872690728 0.0098383789071558245 0 0.036944781592719196 0.009577251999005075 0 0.035457212576920485 0.0092020812741396858 0 0.036618725194897332 0.0093490373370619193 0 0.037176826872690728 0.0098383789071558245 0 0.035896896918909689 0.0096614897309835485 0 0.037131422221476251 0.0097327005627467367 0 0.035602585746135444 0.0093617325854806234 0 0.036285890062531363 0.010336131973237546 0 0.035835409248309219 0.0085606237451297355 0 0.035457212576920485 0.0092020812741396858 0 0.035835409248309219 0.0085606237451297355 0 0.035000994721595784 0.0090105931420087527 0 0.036601013814897471 0.0087707271348064324 0 0.03561747662582735 0.009197395119210517 0 0.0350000209050867 0.0090114409109581448 0 0.035457212576920485 0.0092020812741396858 0 0.03500117832943702 0.0091211952619495874 0 0.035678536328889773 0.0092138738256797043 0 0.034999999383499979 0.0091209451249514694 0 0.034999999716674814 0.0095106493237977971 0 0.03561747662582735 0.009197395119210517 0 0.0350000209050867 0.0090114409109581448 0 0.034999976271904043 0.0091208333494478353 0 0.035602585746135444 0.0093617325854806234 0 0.034999887919285766 0.0095112918174263469 0 0.035553129215848536 0.010114018723479104 0 0.035457212576920485 0.0092020812741396858 0 0.035000978900402956 0.0095097259013678728 0 0.035000033577440685 0.011203436248675524 0 0.034999887919285766 0.0095112918174263469 0 0.035553129215848536 0.010114018723479104 0 0.035000033577440685 0.011203436248675524 0 0.035553129215848536 0.010114018723479104 0 0.036285890062531363 0.010336131973237546 0 0.035602585746135444 0.0093617325854806234 0 0.035553129215848536 0.010114018723479104 0 0.036285890062531363 0.010336131973237546 0 0.036672034308537028 0.011362898839723808 0 0.036949063719822366 0.010493398537847497 0 0.036285890062531363 0.010336131973237546 0 0.036949063719822366 0.010493398537847497 0 0.037131422221476251 0.0097327005627467367 0 0.036285890062531363 0.010336131973237546 0 0.035460765379569097 0.02456958234194475 0 0.03518752079338517 0.025598889257473723 0 0.03546458079032911 0.025645028984578683 0 0.035460765379569097 0.02456958234194475 0 0.035159421355930968 0.024460437659309706 0 0.03518752079338517 0.025598889257473723 0 0.035159421355930968 0.024460437659309706 0 0.034999221111452303 0.025338183818805215 0 0.03518752079338517 0.025598889257473723 0 0.035159421355930968 0.024460437659309706 0 0.034999221111452303 0.025338183818805215 0 0.034999090968571275 0.023318257415832891 0 0.034999221111452303 0.025338183818805215 0 0.03518752079338517 0.025598889257473723 0 0.035041933250304164 0.026612588606804995 0 0.03518752079338517 0.025598889257473723 0 0.035058552649234513 0.026472324731682092 0 0.035041933250304164 0.026612588606804995 0 0.03518752079338517 0.025598889257473723 0 0.03546458079032911 0.025645028984578683 0 0.035058552649234513 0.026472324731682092 0 0.03546458079032911 0.025645028984578683 0 0.035170785789816687 0.026616764741937953 0 0.035058552649234513 0.026472324731682092 0 0.03546458079032911 0.025645028984578683 0 0.036134270222592295 0.025403736161382952 0 0.035170785789816687 0.026616764741937953 0 0.036134270222592295 0.025403736161382952 0 0.036030184675409735 0.025949895507315305 0 0.035170785789816687 0.026616764741937953 0 0.034612945289871994 0.024609052228266818 0 0.034153618162805092 0.024870717985993492 0 0.036134270222592295 0.025403736161382952 0 0.03648048503822629 0.023920545106484215 0 0.037589947208686754 0.023748600931168155 0 0.03546458079032911 0.025645028984578683 0 0.036134270222592295 0.025403736161382952 0 0.035850579512707891 0.024740460943034843 0 0.036134270222592295 0.025403736161382952 0 0.035850579512707891 0.024740460943034843 0 0.03648048503822629 0.023920545106484215 0 0.035460765379569097 0.02456958234194475 0 0.03546458079032911 0.025645028984578683 0 0.035850579512707891 0.024740460943034843 0 0.035460765379569097 0.02456958234194475 0 0.035850579512707891 0.024740460943034843 0 0.035889374477842573 0.023714543074321009 0 0.035889374477842573 0.023714543074321009 0 0.03638696819065354 0.022479231415444601 0 0.035525980208206118 0.022757669986792309 0 0.035460765379569097 0.02456958234194475 0 0.035889374477842573 0.023714543074321009 0 0.035525980208206118 0.022757669986792309 0 0.03648048503822629 0.023920545106484215 0 0.03638696819065354 0.022479231415444601 0 0.037565172912952617 0.023484362640641573 0 0.034792859515903905 0.024534338709863657 0 0.034182980993947683 0.024588521537582449 0 0.03648048503822629 0.023920545106484215 0 0.037565172912952617 0.023484362640641573 0 0.037589947208686754 0.023748600931168155 0 0.035850579512707891 0.024740460943034843 0 0.035889374477842573 0.023714543074321009 0 0.03648048503822629 0.023920545106484215 0 0.035889374477842573 0.023714543074321009 0 0.03648048503822629 0.023920545106484215 0 0.03638696819065354 0.022479231415444601 0 0.03638696819065354 0.022479231415444601 0 0.036915640577428598 0.020498561797455236 0 0.037763495385228447 0.023307695534059696 0 0.03638696819065354 0.022479231415444601 0 0.036204648449895092 0.021090536254308876 0 0.036915640577428598 0.020498561797455236 0 0.03638696819065354 0.022479231415444601 0 0.035525980208206118 0.022757669986792309 0 0.036204648449895092 0.021090536254308876 0 0.035525980208206118 0.022757669986792309 0 0.035734923000424967 0.020663998198155141 0 0.035335034147535339 0.021680862550823615 0 0.035460765379569097 0.02456958234194475 0 0.035159421355930968 0.024460437659309706 0 0.035525980208206118 0.022757669986792309 0 0.035159421355930968 0.024460437659309706 0 0.035525980208206118 0.022757669986792309 0 0.034999090968571275 0.023318257415832891 0 0.035525980208206118 0.022757669986792309 0 0.034999090968571275 0.023318257415832891 0 0.035335034147535339 0.021680862550823615 0 0.034999090968571275 0.023318257415832891 0 0.034999317808582578 0.021299021023094604 0 0.035335034147535339 0.021680862550823615 0 0.034999317808582578 0.021299021023094604 0 0.035335034147535339 0.021680862550823615 0 0.035349627720883466 0.020207069785759844 0 0.035734923000424967 0.020663998198155141 0 0.035335034147535339 0.021680862550823615 0 0.035349627720883466 0.020207069785759844 0 0.035734923000424967 0.020663998198155141 0 0.035349627720883466 0.020207069785759844 0 0.035710230249373344 0.018980233257124664 0 0.034999317808582578 0.021299021023094604 0 0.035349627720883466 0.020207069785759844 0 0.034999394337339333 0.019279902057926412 0 0.034999394337339333 0.019279902057926412 0 0.035710230249373344 0.018980233257124664 0 0.035422456060689431 0.018262930997259421 0 0.035349627720883466 0.020207069785759844 0 0.034999394337339333 0.019279902057926412 0 0.035710230249373344 0.018980233257124664 0 0.035710230249373344 0.018980233257124664 0 0.035913377120718883 0.017501222581390776 0 0.035422456060689431 0.018262930997259421 0 0.034999674813393451 0.01726124207510556 0 0.035913377120718883 0.017501222581390776 0 0.035422456060689431 0.018262930997259421 0 0.034999674813393451 0.01726124207510556 0 0.034999394337339333 0.019279902057926412 0 0.035422456060689431 0.018262930997259421 0 0.036117502002835075 0.017227831627512097 0 0.036089226914188158 0.016848160063998488 0 0.03615864224511367 0.018109001676369536 0 0.036089226914188158 0.016848160063998488 0 0.03615864224511367 0.018109001676369536 0 0.036221504899965978 0.017582975833663431 0 0.036117502002835075 0.017227831627512097 0 0.035913377120718883 0.017501222581390776 0 0.03615864224511367 0.018109001676369536 0 0.035710230249373344 0.018980233257124664 0 0.035913377120718883 0.017501222581390776 0 0.03615864224511367 0.018109001676369536 0 0.035710230249373344 0.018980233257124664 0 0.03615864224511367 0.018109001676369536 0 0.036257925540596612 0.019594179699529507 0 0.03615864224511367 0.018109001676369536 0 0.036257925540596612 0.019594179699529507 0 0.036647625358870922 0.019136968055565213 0 0.036257925540596612 0.019594179699529507 0 0.036915640577428598 0.020498561797455236 0 0.036647625358870922 0.019136968055565213 0 0.035734923000424967 0.020663998198155141 0 0.035710230249373344 0.018980233257124664 0 0.036257925540596612 0.019594179699529507 0 0.035525980208206118 0.022757669986792309 0 0.035734923000424967 0.020663998198155141 0 0.036204648449895092 0.021090536254308876 0 0.035734923000424967 0.020663998198155141 0 0.036257925540596612 0.019594179699529507 0 0.036204648449895092 0.021090536254308876 0 0.036257925540596612 0.019594179699529507 0 0.036204648449895092 0.021090536254308876 0 0.036915640577428598 0.020498561797455236 0 0.036915640577428598 0.020498561797455236 0 0.037386688108103999 0.020437755565039153 0 0.036647625358870922 0.019136968055565213 0 0.025673156276497695 0.025177704113658675 0 0.025784408252461009 0.025158868443525124 0 0.025638426352013223 0.025224645437094358 0 0.025711955496278492 0.025151351294996821 0 0.025673156276497695 0.025177704113658675 0 0.025624513972528819 0.025148994332239306 0 0.025711955496278492 0.025151351294996821 0 0.025673156276497695 0.025177704113658675 0 0.025784408252461009 0.025158868443525124 0 0.025784408252461009 0.025158868443525124 0 0.025645947985917107 0.025301845570027591 0 0.025638426352013223 0.025224645437094358 0 0.032222704043933313 0.023169543350861729 0 0.030963463060308651 0.022049603153796744 0 0.025784408252461009 0.025158868443525124 0 0.025663033054963983 0.025491737132990921 0 0.025645947985917107 0.025301845570027591 0 0.037386688108103999 0.020437755565039153 0 0.036647625358870922 0.019136968055565213 0 0.037519982669482879 0.018816542574417762 0 0.035659851433621124 0.015965333024133239 0 0.036221504899965978 0.017582975833663431 0 0.037519982669482879 0.018816542574417762 0 0.03615864224511367 0.018109001676369536 0 0.036647625358870922 0.019136968055565213 0 0.036221504899965978 0.017582975833663431 0 0.036647625358870922 0.019136968055565213 0 0.036221504899965978 0.017582975833663431 0 0.037519982669482879 0.018816542574417762 0 0.035659851433621124 0.015965333024133239 0 0.036089226914188158 0.016848160063998488 0 0.036221504899965978 0.017582975833663431 0 0.035659851433621124 0.015965333024133239 0 0.03813173737395701 0.016463415343719676 0 0.037519982669482879 0.018816542574417762 0 0.028971636999237948 0.021268724506218358 0 0.025076408106572391 0.022783715843956276 0 0.025415265768667161 0.026055397914794338 0 0.025249322703455545 0.025667127299991897 0 0.02487591395607824 0.025951608757705798 0 0.023504707918726719 0.022668130014657773 0 0.023773123291958079 0.022500815376970618 0 0.02348185239078043 0.022348393371569329 0 0.031831122713354941 0.020645081556139401 0 0.028971636999237948 0.021268724506218358 0 0.025249322703455545 0.025667127299991897 0 0.025663033054963983 0.025491737132990921 0 0.025397482499660767 0.025407448443421431 0 0.028971636999237948 0.021268724506218358 0 0.030963463060308651 0.022049603153796744 0 0.025415265768667161 0.026055397914794338 0 0.025249322703455545 0.025667127299991897 0 0.025663033054963983 0.025491737132990921 0 0.025249322703455545 0.025667127299991897 0 0.025063252759269159 0.025461053505817864 0 0.025011439206026539 0.025676213364367394 0 0.025249322703455545 0.025667127299991897 0 0.025063252759269159 0.025461053505817864 0 0.025397482499660767 0.025407448443421431 0 0.025139356145507802 0.025269940899406752 0 0.025397482499660767 0.025407448443421431 0 0.025544999172448738 0.025214464066759489 0 0.025063252759269159 0.025461053505817864 0 0.025139356145507802 0.025269940899406752 0 0.025397482499660767 0.025407448443421431 0 0.025663033054963983 0.025491737132990921 0 0.025397482499660767 0.025407448443421431 0 0.025565682052081453 0.025331138742107372 0 0.025397482499660767 0.025407448443421431 0 0.025565682052081453 0.025331138742107372 0 0.025544999172448738 0.025214464066759489 0 0.025663033054963983 0.025491737132990921 0 0.025565682052081453 0.025331138742107372 0 0.025645947985917107 0.025301845570027591 0 0.025565682052081453 0.025331138742107372 0 0.025645947985917107 0.025301845570027591 0 0.025573688410911951 0.025225340628163118 0 0.025645947985917107 0.025301845570027591 0 0.025638426352013223 0.025224645437094358 0 0.025573688410911951 0.025225340628163118 0 0.025565682052081453 0.025331138742107372 0 0.025573688410911951 0.025225340628163118 0 0.025544999172448738 0.025214464066759489 0 0.024535808296008096 0.025559861000500367 0 0.024531369442981645 0.025560079831871814 0 0.024590312046585905 0.025541627909068339 0 0.024531369442981645 0.025560079831871814 0 0.025638426352013223 0.025224645437094358 0 0.025586446146092935 0.025246863269149562 0 0.025601626110209504 0.025208157768601587 0 0.025638426352013223 0.025224645437094358 0 0.025573688410911951 0.025225340628163118 0 0.025548448505450592 0.02521659436031521 0 0.024531369442981645 0.025560079831871814 0 0.024165270395317715 0.025648115148305877 0 0.025586446146092935 0.025246863269149562 0 0.025601626110209504 0.025208157768601587 0 0.025471845600128735 0.025241933073232945 0 0.025559298941918985 0.025271583380435201 0 0.02553690841492727 0.025270491876992426 0 0.025647316672493876 0.025170912986696908 0 0.024945996342285479 0.025256677264509489 0 0.024165270395317715 0.025648115148305877 0 0.023871239367955752 0.0257213444238799 0 0.024703096168482579 0.025222350181061486 0 0.025601626110209504 0.025208157768601587 0 0.025624513972528819 0.025148994332239306 0 0.025471845600128735 0.025241933073232945 0 0.025679496904959791 0.025188972481652434 0 0.025559298941918985 0.025271583380435201 0 0.025647316672493876 0.025170912986696908 0 0.025673156276497695 0.025177704113658675 0 0.025638426352013223 0.025224645437094358 0 0.025601626110209504 0.025208157768601587 0 0.025673156276497695 0.025177704113658675 0 0.025601626110209504 0.025208157768601587 0 0.025624513972528819 0.025148994332239306 0 0.024091354608085487 0.025573210381553524 0 0.024531369442981645 0.025560079831871814 0 0.024148678955338954 0.025605934008941508 0 0.024320259013034161 0.025553200183455763 0 0.024231657436156802 0.025548705254756311 0 0.023871239367955752 0.0257213444238799 0 0.020126844748975151 0.026572483312624028 0 0.025346760419072349 0.025504111019224639 0 0.02535320576252871 0.025296269915192213 0 0.024995945905852884 0.025489909654725095 0 0.021942479586965567 0.025887562745748334 0 0.022167373294237392 0.025678934560231667 0 0.021723688476287896 0.02565518280557489 0 0.024091354608085487 0.025573210381553524 0 0.023871239367955752 0.0257213444238799 0 0.024142666075248339 0.025511715431798688 0 0.023736881070796301 0.025798684531366755 0 0.023838713166589313 0.02580312790074861 0 0.024091354608085487 0.025573210381553524 0 0.024165270395317715 0.025648115148305877 0 0.024165270395317715 0.025648115148305877 0 0.023871239367955752 0.0257213444238799 0 0.025346760419072349 0.025504111019224639 0 0.02535320576252871 0.025296269915192213 0 0.025603080935318781 0.025259331198013265 0 0.022417079472318927 0.026861748576286208 0 0.020126844748975151 0.026572483312624028 0 0.014148994431032976 0.027884022467021315 0 0.014821231788141195 0.028193197892925979 0 0.014819759927436773 0.027491084689850533 0 0.022417079472318927 0.026861748576286208 0 0.0225202385997057 0.026753545023639511 0 0.014148994431032976 0.027884022467021315 0 0.014560094867274307 0.029142259431907003 0 0.014821231788141195 0.028193197892925979 0 0.025569265437849334 0.025213869894569377 0 0.025537579787779065 0.025063757547167793 0 0.025648797365452936 0.025069819442468791 0 0.025537579787779065 0.025063757547167793 0 0.025648797365452936 0.025069819442468791 0 0.02560097569364712 0.025008772143610802 0 0.025648797365452936 0.025069819442468791 0 0.025737545499790657 0.02505472813967272 0 0.025717849745290535 0.024993687035640352 0 0.025648797365452936 0.025069819442468791 0 0.025735920159826228 0.025106794684332228 0 0.025737545499790657 0.02505472813967272 0 0.025648797365452936 0.025069819442468791 0 0.025645425276509783 0.025165545980912727 0 0.025735920159826228 0.025106794684332228 0 0.025569265437849334 0.025213869894569377 0 0.025648797365452936 0.025069819442468791 0 0.025645425276509783 0.025165545980912727 0 0.022417079472318927 0.026861748576286208 0 0.023503690182503718 0.026241410511334998 0 0.02535320576252871 0.025296269915192213 0 0.025603080935318781 0.025259331198013265 0 0.025645425276509783 0.025165545980912727 0 0.024703096168482579 0.025222350181061486 0 0.024938930568044818 0.025088362053453554 0 0.025679496904959791 0.025188972481652434 0 0.025647316672493876 0.025170912986696908 0 0.025735920159826228 0.025106794684332228 0 0.025603080935318781 0.025259331198013265 0 0.025645425276509783 0.025165545980912727 0 0.025735920159826228 0.025106794684332228 0 0.025679496904959791 0.025188972481652434 0 0.025764388508544681 0.025118829320124793 0 0.025735920159826228 0.025106794684332228 0 0.025711955496278492 0.025151351294996821 0 0.025624513972528819 0.025148994332239306 0 0.025764388508544681 0.025118829320124793 0 0.025784408252461009 0.025158868443525124 0 0.025764388508544681 0.025118829320124793 0 0.02578616194241445 0.025082783985139072 0 0.024945996342285479 0.025256677264509489 0 0.025160397556061181 0.025154615807557519 0 0.025711955496278492 0.025151351294996821 0 0.025784408252461009 0.025158868443525124 0 0.025764388508544681 0.025118829320124793 0 0.025764388508544681 0.025118829320124793 0 0.025735920159826228 0.025106794684332228 0 0.02578616194241445 0.025082783985139072 0 0.037386688108103999 0.020437755565039153 0 0.037004665024923486 0.021166740251565737 0 0.037043978391405954 0.02119093753918044 0 0.032222704043933313 0.023169543350861729 0 0.034019620927829418 0.024635011028312528 0 0.036915640577428598 0.020498561797455236 0 0.037386688108103999 0.020437755565039153 0 0.037004665024923486 0.021166740251565737 0 0.025784408252461009 0.025158868443525124 0 0.025849792763999971 0.025056822982335188 0 0.02578616194241445 0.025082783985139072 0 0.034784608239991917 0.022397117035950018 0 0.034182980993947683 0.024588521537582449 0 0.034733176544918094 0.02439355876329035 0 0.03460898070205666 0.024319650953130829 0 0.034696576747263397 0.024145970129878697 0 0.034182980993947683 0.024588521537582449 0 0.034019620927829418 0.024635011028312528 0 0.034934525438523913 0.032154753728578768 0 0.035004549224941013 0.03201331802118914 0 0.034330846353786075 0.031137604496108282 0 0.034019620927829418 0.024635011028312528 0 0.034153618162805092 0.024870717985993492 0 0.034182980993947683 0.024588521537582449 0 0.034153618162805092 0.024870717985993492 0 0.025849792763999971 0.025056822982335188 0 0.025737545499790657 0.02505472813967272 0 0.025717849745290535 0.024993687035640352 0 0.025849792763999971 0.025056822982335188 0 0.02578616194241445 0.025082783985139072 0 0.025737545499790657 0.02505472813967272 0 0.034019620927829418 0.024635011028312528 0 0.030552687208880228 0.026592417179064975 0 0.025735920159826228 0.025106794684332228 0 0.02578616194241445 0.025082783985139072 0 0.025737545499790657 0.02505472813967272 0 0.034934525438523913 0.032154753728578768 0 0.033212842854404019 0.031145652139365654 0 0.034330846353786075 0.031137604496108282 0 0.033212842854404019 0.031145652139365654 0 0.033712118436219608 0.030316322079765232 0 0.03244041719081394 0.030157082323479561 0 0.033212842854404019 0.031145652139365654 0 0.034330846353786075 0.031137604496108282 0 0.033712118436219608 0.030316322079765232 0 0.036134270222592295 0.025403736161382952 0 0.036342064155667875 0.025034720352464037 0 0.036030184675409735 0.025949895507315305 0 0.035004549224941013 0.03201331802118914 0 0.034330846353786075 0.031137604496108282 0 0.034755937840089499 0.030045738311699623 0 0.034153618162805092 0.024870717985993492 0 0.034766807789714332 0.027290339222463357 0 0.034330846353786075 0.031137604496108282 0 0.034755937840089499 0.030045738311699623 0 0.033712118436219608 0.030316322079765232 0 0.034755937840089499 0.030045738311699623 0 0.033712118436219608 0.030316322079765232 0 0.033474002667988029 0.02914378647729161 0 0.033712118436219608 0.030316322079765232 0 0.03244041719081394 0.030157082323479561 0 0.033474002667988029 0.02914378647729161 0 0.03244041719081394 0.030157082323479561 0 0.032065488336438304 0.029149384794947011 0 0.033474002667988029 0.02914378647729161 0 0.033212842854404019 0.031145652139365654 0 0.03244041719081394 0.030157082323479561 0 0.031506732707720912 0.030141230386900027 0 0.031589808009128813 0.030220032696293093 0 0.031067921094707355 0.02947655798333686 0 0.032065488336438304 0.029149384794947011 0 0.031589808009128813 0.030220032696293093 0 0.030507307162593224 0.030252395155699236 0 0.031067921094707355 0.02947655798333686 0 0.03244041719081394 0.030157082323479561 0 0.031589808009128813 0.030220032696293093 0 0.032065488336438304 0.029149384794947011 0 0.028415955688906605 0.027828403154911838 0 0.025114437304530272 0.028195691160940169 0 0.029294555162372705 0.027995179266644257 0 0.028415955688906605 0.027828403154911838 0 0.025537579787779065 0.025063757547167793 0 0.02560097569364712 0.025008772143610802 0 0.025499136155159162 0.02494402378051341 0 0.025583100515001837 0.024940287460371146 0 0.02560097569364712 0.025008772143610802 0 0.025499136155159162 0.02494402378051341 0 0.025648797365452936 0.025069819442468791 0 0.025717849745290535 0.024993687035640352 0 0.02560097569364712 0.025008772143610802 0 0.030552687208880228 0.026592417179064975 0 0.028415955688906605 0.027828403154911838 0 0.025717849745290535 0.024993687035640352 0 0.025583100515001837 0.024940287460371146 0 0.02560097569364712 0.025008772143610802 0 0.015513381524096568 0.029596775100054262 0 0.014990152006351221 0.0304615061094595 0 0.016004751769343926 0.030534135300937095 0 0.015513381524096568 0.029596775100054262 0 0.016004751769343926 0.030534135300937095 0 0.016203384093678695 0.029652416367430361 0 0.014560094867274307 0.029142259431907003 0 0.015513381524096568 0.029596775100054262 0 0.014990152006351221 0.0304615061094595 0 0.0225202385997057 0.026753545023639511 0 0.025114437304530272 0.028195691160940169 0 0.025114437304530272 0.028195691160940169 0 0.02221431317967263 0.02957115950650346 0 0.02965680221838984 0.032800674285047404 0 0.026657440542012904 0.032712320898610613 0 0.028723113777120547 0.029995831469325999 0 0.02221431317967263 0.02957115950650346 0 0.020899041301469478 0.03017457657042779 0 0.016004751769343926 0.030534135300937095 0 0.017115045148051893 0.030680270167750892 0 0.016203384093678695 0.029652416367430361 0 0.026657440542012904 0.032712320898610613 0 0.023133694287343659 0.032349102433050239 0 0.024014035494502237 0.030311378337663359 0 0.023133694287343659 0.032349102433050239 0 0.019145668147801852 0.03075943399085904 0 0.021583044475328786 0.029796682011227305 0 0.020899041301469478 0.03017457657042779 0 0.020422890293387504 0.030306612121167396 0 0.017115045148051893 0.030680270167750892 0 0.017004164220582419 0.029321428508570231 0 0.017981196947736491 0.029797921660625157 0 0.017115045148051893 0.030680270167750892 0 0.016203384093678695 0.029652416367430361 0 0.017004164220582419 0.029321428508570231 0 0.016203384093678695 0.029652416367430361 0 0.016121797271969291 0.028792296656081968 0 0.017004164220582419 0.029321428508570231 0 0.016121797271969291 0.028792296656081968 0 0.017004164220582419 0.029321428508570231 0 0.016979437290800783 0.028328944342045366 0 0.017004164220582419 0.029321428508570231 0 0.01767088338047753 0.029064377047470946 0 0.017981196947736491 0.029797921660625157 0 0.017004164220582419 0.029321428508570231 0 0.016979437290800783 0.028328944342045366 0 0.01767088338047753 0.029064377047470946 0 0.016979437290800783 0.028328944342045366 0 0.016262501651424666 0.028068158062199922 0 0.01666702063372975 0.027631191440565077 0 0.016121797271969291 0.028792296656081968 0 0.016979437290800783 0.028328944342045366 0 0.016262501651424666 0.028068158062199922 0 0.016121797271969291 0.028792296656081968 0 0.016262501651424666 0.028068158062199922 0 0.015743078919650374 0.028135291882256108 0 0.016121797271969291 0.028792296656081968 0 0.015743078919650374 0.028135291882256108 0 0.015300054148413662 0.028522108964411465 0 0.015743078919650374 0.028135291882256108 0 0.015300054148413662 0.028522108964411465 0 0.015270662591985121 0.027939651531056202 0 0.015513381524096568 0.029596775100054262 0 0.016203384093678695 0.029652416367430361 0 0.016121797271969291 0.028792296656081968 0 0.015513381524096568 0.029596775100054262 0 0.016121797271969291 0.028792296656081968 0 0.015300054148413662 0.028522108964411465 0 0.014560094867274307 0.029142259431907003 0 0.015513381524096568 0.029596775100054262 0 0.015300054148413662 0.028522108964411465 0 0.014560094867274307 0.029142259431907003 0 0.015300054148413662 0.028522108964411465 0 0.014821231788141195 0.028193197892925979 0 0.015300054148413662 0.028522108964411465 0 0.014821231788141195 0.028193197892925979 0 0.015270662591985121 0.027939651531056202 0 0.020126844748975151 0.026572483312624028 0 0.016703548821939279 0.026889485823378498 0 0.014821231788141195 0.028193197892925979 0 0.015270662591985121 0.027939651531056202 0 0.014819759927436773 0.027491084689850533 0 0.015270662591985121 0.027939651531056202 0 0.014819759927436773 0.027491084689850533 0 0.015775574742635006 0.027552999638229062 0 0.012953903653685761 0.02724730412011088 0 0.014209542207955818 0.027316569790935118 0 0.014023391239677706 0.026587832877187235 0 0.016262501651424666 0.028068158062199922 0 0.015743078919650374 0.028135291882256108 0 0.015775574742635006 0.027552999638229062 0 0.015743078919650374 0.028135291882256108 0 0.015270662591985121 0.027939651531056202 0 0.015775574742635006 0.027552999638229062 0 0.021175360847104367 0.025966772554861295 0 0.021269281699136052 0.026087400978609298 0 0.020628153338106706 0.026270348137655278 0 0.022590515539522286 0.025589203213300635 0 0.020593506558704712 0.025695666874119599 0 0.024554800209035395 0.025302289401117218 0 0.024159537745942726 0.025580959552084764 0 0.023954200163962137 0.025465058735018413 0 0.019250395947337923 0.026553517920347627 0 0.020593506558704712 0.025695666874119599 0 0.014209542207955818 0.027316569790935118 0 0.014023391239677706 0.026587832877187235 0 0.014901531019515227 0.026745716759239035 0 0.024554800209035395 0.025302289401117218 0 0.024742280271798391 0.025366429542913974 0 0.024388093693782299 0.025613042088077576 0 0.025104667680456688 0.025142691195773191 0 0.024554800209035395 0.025302289401117218 0 0.024742280271798391 0.025366429542913974 0 0.024091354608085487 0.025573210381553524 0 0.022590515539522286 0.025589203213300635 0 0.020126844748975151 0.026572483312624028 0 0.019250395947337923 0.026553517920347627 0 0.021942479586965567 0.025887562745748334 0 0.021723688476287896 0.02565518280557489 0 0.021269281699136052 0.026087400978609298 0 0.021723688476287896 0.02565518280557489 0 0.021175360847104367 0.025966772554861295 0 0.021269281699136052 0.026087400978609298 0 0.024091354608085487 0.025573210381553524 0 0.024410643650834146 0.025426399714139854 0 0.025063252759269159 0.025461053505817864 0 0.024827759303816276 0.025493626249855048 0 0.024947490325140331 0.025559990027782257 0 0.024091354608085487 0.025573210381553524 0 0.024388427241825016 0.025453802797772707 0 0.025063252759269159 0.025461053505817864 0 0.025139356145507802 0.025269940899406752 0 0.024827759303816276 0.025493626249855048 0 0.025056439339688045 0.025176932210805324 0 0.024729778966046806 0.025389544155334311 0 0.024766362485498034 0.02546189088075794 0 0.025063252759269159 0.025461053505817864 0 0.024947490325140331 0.025559990027782257 0 0.025011439206026539 0.025676213364367394 0 0.024885779211015497 0.025609222597338333 0 0.025011439206026539 0.025676213364367394 0 0.024740392350073633 0.025731505773842738 0 0.025249322703455545 0.025667127299991897 0 0.025011439206026539 0.025676213364367394 0 0.02487591395607824 0.025951608757705798 0 0.024827759303816276 0.025493626249855048 0 0.024947490325140331 0.025559990027782257 0 0.024885779211015497 0.025609222597338333 0 0.024947490325140331 0.025559990027782257 0 0.024885779211015497 0.025609222597338333 0 0.025011439206026539 0.025676213364367394 0 0.025011439206026539 0.025676213364367394 0 0.024740392350073633 0.025731505773842738 0 0.02487591395607824 0.025951608757705798 0 0.024740392350073633 0.025731505773842738 0 0.0244493840571509 0.025784204424642378 0 0.02487591395607824 0.025951608757705798 0 0.024827759303816276 0.025493626249855048 0 0.024740392350073633 0.025731505773842738 0 0.0244493840571509 0.025784204424642378 0 0.024827759303816276 0.025493626249855048 0 0.024885779211015497 0.025609222597338333 0 0.024740392350073633 0.025731505773842738 0 0.024729778966046806 0.025389544155334311 0 0.024766362485498034 0.02546189088075794 0 0.024388093693782299 0.025613042088077576 0 0.024388427241825016 0.025453802797772707 0 0.024397901818120824 0.02549309783103194 0 0.024410643650834146 0.025426399714139854 0 0.024422313053695362 0.025435954403283202 0 0.0244493840571509 0.025784204424642378 0 0.02487591395607824 0.025951608757705798 0 0.024188780489797682 0.025810455753181895 0 0.024766362485498034 0.02546189088075794 0 0.024388093693782299 0.025613042088077576 0 0.0244493840571509 0.025784204424642378 0 0.024554800209035395 0.025302289401117218 0 0.024388093693782299 0.025613042088077576 0 0.024159537745942726 0.025580959552084764 0 0.024388093693782299 0.025613042088077576 0 0.024188780489797682 0.025810455753181895 0 0.024159537745942726 0.025580959552084764 0 0.024388093693782299 0.025613042088077576 0 0.0244493840571509 0.025784204424642378 0 0.024188780489797682 0.025810455753181895 0 0.025076408106572391 0.022783715843956276 0 0.02317513517532813 0.023918951800078223 0 0.023069017088902067 0.022737387501978467 0 0.02348185239078043 0.022348393371569329 0 0.022621574938560884 0.022197572312373577 0 0.023504707918726719 0.022668130014657773 0 0.023069017088902067 0.022737387501978467 0 0.02348185239078043 0.022348393371569329 0 0.021926139561148222 0.023112481959397621 0 0.021459777702793507 0.022833024528006375 0 0.020572762911320926 0.023510180074487824 0 0.021459777702793507 0.022833024528006375 0 0.020572762911320926 0.023510180074487824 0 0.020444933402588215 0.023192934512329708 0 0.021926139561148222 0.023112481959397621 0 0.021459777702793507 0.022833024528006375 0 0.022621574938560884 0.022197572312373577 0 0.021926139561148222 0.023112481959397621 0 0.023069017088902067 0.022737387501978467 0 0.022621574938560884 0.022197572312373577 0 0.021459777702793507 0.022833024528006375 0 0.022621574938560884 0.022197572312373577 0 0.021039241139439412 0.021990727570173185 0 0.02317513517532813 0.023918951800078223 0 0.02064313698535928 0.024865884847525527 0 0.024188780489797682 0.025810455753181895 0 0.023824280900854946 0.025535263528878641 0 0.023441901465386435 0.02561997491107313 0 0.024188780489797682 0.025810455753181895 0 0.024159537745942726 0.025580959552084764 0 0.023824280900854946 0.025535263528878641 0 0.024159537745942726 0.025580959552084764 0 0.023954200163962137 0.025465058735018413 0 0.023824280900854946 0.025535263528878641 0 0.020593506558704712 0.025695666874119599 0 0.020693971082318775 0.025652902686385013 0 0.023951878299909773 0.025459642621237243 0 0.023824280900854946 0.025535263528878641 0 0.023441901465386435 0.02561997491107313 0 0.020593506558704712 0.025695666874119599 0 0.02064313698535928 0.024865884847525527 0 0.021459777702793507 0.022833024528006375 0 0.021039241139439412 0.021990727570173185 0 0.020444933402588215 0.023192934512329708 0 0.016444876917438473 0.025422709174787006 0 0.016272352633886791 0.025382957738831237 0 0.016679931279835237 0.026047191324508948 0 0.020589235718277567 0.024857112044418459 0 0.02064313698535928 0.024865884847525527 0 0.01518276559521986 0.02582677144430634 0 0.016272352633886791 0.025382957738831237 0 0.015903568578177787 0.026395342626544804 0 0.016272352633886791 0.025382957738831237 0 0.016679931279835237 0.026047191324508948 0 0.015903568578177787 0.026395342626544804 0 0.016679931279835237 0.026047191324508948 0 0.015903568578177787 0.026395342626544804 0 0.016569410783839677 0.026799627303944095 0 0.015903568578177787 0.026395342626544804 0 0.016569410783839677 0.026799627303944095 0 0.015583149993034714 0.027452577484973716 0 0.014023391239677706 0.026587832877187235 0 0.01518276559521986 0.02582677144430634 0 0.014901531019515227 0.026745716759239035 0 0.01518276559521986 0.02582677144430634 0 0.015903568578177787 0.026395342626544804 0 0.014901531019515227 0.026745716759239035 0 0.015903568578177787 0.026395342626544804 0 0.014901531019515227 0.026745716759239035 0 0.015583149993034714 0.027452577484973716 0 0.014209542207955818 0.027316569790935118 0 0.014901531019515227 0.026745716759239035 0 0.015583149993034714 0.027452577484973716 0 0.016262501651424666 0.028068158062199922 0 0.015775574742635006 0.027552999638229062 0 0.01666702063372975 0.027631191440565077 0 0.016703548821939279 0.026889485823378498 0 0.01643509976793283 0.027112013868160763 0 0.016569410783839677 0.026799627303944095 0 0.015583149993034714 0.027452577484973716 0 0.017254734573514948 0.027584879720737192 0 0.016979437290800783 0.028328944342045366 0 0.01666702063372975 0.027631191440565077 0 0.017254734573514948 0.027584879720737192 0 0.01643509976793283 0.027112013868160763 0 0.016674647908257064 0.027193072206928626 0 0.017254734573514948 0.027584879720737192 0 0.017838302024195105 0.027165841765191073 0 0.017898799119589404 0.028299302635240716 0 0.017254734573514948 0.027584879720737192 0 0.017838302024195105 0.027165841765191073 0 0.017376325356356088 0.02656704086575994 0 0.017838302024195105 0.027165841765191073 0 0.018214158418503882 0.027119010570366763 0 0.017898799119589404 0.028299302635240716 0 0.017838302024195105 0.027165841765191073 0 0.018365676759136747 0.025845612979906049 0 0.018214158418503882 0.027119010570366763 0 0.017838302024195105 0.027165841765191073 0 0.018365676759136747 0.025845612979906049 0 0.017376325356356088 0.02656704086575994 0 0.016569410783839677 0.026799627303944095 0 0.017254734573514948 0.027584879720737192 0 0.017376325356356088 0.02656704086575994 0 0.016679931279835237 0.026047191324508948 0 0.016569410783839677 0.026799627303944095 0 0.017376325356356088 0.02656704086575994 0 0.018365676759136747 0.025845612979906049 0 0.017376325356356088 0.02656704086575994 0 0.017496659638113428 0.025716155756679834 0 0.016679931279835237 0.026047191324508948 0 0.017376325356356088 0.02656704086575994 0 0.017496659638113428 0.025716155756679834 0 0.016444876917438473 0.025422709174787006 0 0.016679931279835237 0.026047191324508948 0 0.017496659638113428 0.025716155756679834 0 0.016444876917438473 0.025422709174787006 0 0.017496659638113428 0.025716155756679834 0 0.018706960618218769 0.024310262752084706 0 0.02064313698535928 0.024865884847525527 0 0.01976628740531057 0.024802838463901418 0 0.021039241139439412 0.021990727570173185 0 0.018706960618218769 0.024310262752084706 0 0.020444933402588215 0.023192934512329708 0 0.016444876917438473 0.025422709174787006 0 0.016165071711415825 0.025364598205786446 0 0.018706960618218769 0.024310262752084706 0 0.018365676759136747 0.025845612979906049 0 0.018706960618218769 0.024310262752084706 0 0.018803543928870896 0.024728636037345073 0 0.018365676759136747 0.025845612979906049 0 0.017496659638113428 0.025716155756679834 0 0.018706960618218769 0.024310262752084706 0 0.019516813430774393 0.02411633814161188 0 0.018706960618218769 0.024310262752084706 0 0.018803543928870896 0.024728636037345073 0 0.019021873792222227 0.024627930320958554 0 0.019516813430774393 0.02411633814161188 0 0.018803543928870896 0.024728636037345073 0 0.018706960618218769 0.024310262752084706 0 0.020572762911320926 0.023510180074487824 0 0.020444933402588215 0.023192934512329708 0 0.019516813430774393 0.02411633814161188 0 0.018706960618218769 0.024310262752084706 0 0.020572762911320926 0.023510180074487824 0 0.018756105005303246 0.025339127880350396 0 0.018820356930846327 0.025001831982186491 0 0.018668797161064128 0.025686625449803831 0 0.018942987084053325 0.024817555011190453 0 0.018756105005303246 0.025339127880350396 0 0.018820356930846327 0.025001831982186491 0 0.018820356930846327 0.025001831982186491 0 0.018803543928870896 0.024728636037345073 0 0.018668797161064128 0.025686625449803831 0 0.019021873792222227 0.024627930320958554 0 0.018820356930846327 0.025001831982186491 0 0.018803543928870896 0.024728636037345073 0 0.018365676759136747 0.025845612979906049 0 0.018803543928870896 0.024728636037345073 0 0.018668797161064128 0.025686625449803831 0 0.018756105005303246 0.025339127880350396 0 0.018668797161064128 0.025686625449803831 0 0.018539542798877012 0.026219538253092225 0 0.018668797161064128 0.025686625449803831 0 0.018245198426875213 0.027223459697116023 0 0.018539542798877012 0.026219538253092225 0 0.018668797161064128 0.025686625449803831 0 0.018214158418503882 0.027119010570366763 0 0.018245198426875213 0.027223459697116023 0 0.018365676759136747 0.025845612979906049 0 0.018668797161064128 0.025686625449803831 0 0.018214158418503882 0.027119010570366763 0 0.018214158418503882 0.027119010570366763 0 0.018245198426875213 0.027223459697116023 0 0.017986509257211195 0.028387991100966663 0 0.018245198426875213 0.027223459697116023 0 0.017986509257211195 0.028387991100966663 0 0.017593752532229123 0.028489590964838541 0 0.016662257500351607 0.029326705583616587 0 0.017593752532229123 0.028489590964838541 0 0.016988391719262499 0.029567441881581537 0 0.017986509257211195 0.028387991100966663 0 0.016662257500351607 0.029326705583616587 0 0.017593752532229123 0.028489590964838541 0 0.017986509257211195 0.028387991100966663 0 0.018433016838262189 0.029580306143007863 0 0.018589418983789987 0.029648355573096866 0 0.017488609403995541 0.029409444773019128 0 0.017384795353020791 0.029707474186714076 0 0.018214158418503882 0.027119010570366763 0 0.017986509257211195 0.028387991100966663 0 0.017898799119589404 0.028299302635240716 0 0.016979437290800783 0.028328944342045366 0 0.017254734573514948 0.027584879720737192 0 0.017898799119589404 0.028299302635240716 0 0.016979437290800783 0.028328944342045366 0 0.017898799119589404 0.028299302635240716 0 0.01767088338047753 0.029064377047470946 0 0.017898799119589404 0.028299302635240716 0 0.01767088338047753 0.029064377047470946 0 0.018433016838262189 0.029580306143007863 0 0.017986509257211195 0.028387991100966663 0 0.017898799119589404 0.028299302635240716 0 0.018433016838262189 0.029580306143007863 0 0.018433016838262189 0.029580306143007863 0 0.017981196947736491 0.029797921660625157 0 0.019145668147801852 0.03075943399085904 0 0.01767088338047753 0.029064377047470946 0 0.018433016838262189 0.029580306143007863 0 0.017981196947736491 0.029797921660625157 0 0.017115045148051893 0.030680270167750892 0 0.017981196947736491 0.029797921660625157 0 0.019145668147801852 0.03075943399085904 0 0.019145668147801852 0.03075943399085904 0 0.018724918700598357 0.030049128011453884 0 0.019786973378009522 0.029581889527792456 0 0.018433016838262189 0.029580306143007863 0 0.019145668147801852 0.03075943399085904 0 0.018724918700598357 0.030049128011453884 0 0.018724918700598357 0.030049128011453884 0 0.018114274241622406 0.029790150996627733 0 0.018589418983789987 0.029648355573096866 0 0.017138630534017089 0.030035286306862623 0 0.017384795353020791 0.029707474186714076 0 0.015920350681867011 0.03044474737359449 0 0.016662257500351607 0.029326705583616587 0 0.016988391719262499 0.029567441881581537 0 0.018433016838262189 0.029580306143007863 0 0.018724918700598357 0.030049128011453884 0 0.018589418983789987 0.029648355573096866 0 0.018530020211032679 0.028021056915417765 0 0.01739260200466939 0.028165787725376489 0 0.018446444728722779 0.02908744110423751 0 0.018530020211032679 0.028021056915417765 0 0.018446444728722779 0.02908744110423751 0 0.019225876780899136 0.028802961023901161 0 0.017138630534017089 0.030035286306862623 0 0.016960310140340513 0.030261494162524119 0 0.018114274241622406 0.029790150996627733 0 0.01739260200466939 0.028165787725376489 0 0.018446444728722779 0.02908744110423751 0 0.015920350681867011 0.03044474737359449 0 0.015238526393759617 0.03182460193026234 0 0.016414925333172597 0.031335879226091372 0 0.018724918700598357 0.030049128011453884 0 0.018114274241622406 0.029790150996627733 0 0.018446444728722779 0.02908744110423751 0 0.018724918700598357 0.030049128011453884 0 0.018446444728722779 0.02908744110423751 0 0.019225876780899136 0.028802961023901161 0 0.018724918700598357 0.030049128011453884 0 0.019786973378009522 0.029581889527792456 0 0.019225876780899136 0.028802961023901161 0 0.019786973378009522 0.029581889527792456 0 0.021003136026649688 0.027850699961414621 0 0.021583044475328786 0.029796682011227305 0 0.019145668147801852 0.03075943399085904 0 0.019786973378009522 0.029581889527792456 0 0.021583044475328786 0.029796682011227305 0 0.019786973378009522 0.029581889527792456 0 0.021003136026649688 0.027850699961414621 0 0.019225876780899136 0.028802961023901161 0 0.021003136026649688 0.027850699961414621 0 0.019225876780899136 0.028802961023901161 0 0.019629722933248585 0.027401288843744251 0 0.018530020211032679 0.028021056915417765 0 0.019225876780899136 0.028802961023901161 0 0.019629722933248585 0.027401288843744251 0 0.019629722933248585 0.027401288843744251 0 0.02033558724478186 0.026034290211995027 0 0.018307445030183399 0.02690854802718105 0 0.020735802242476314 0.02673273237672481 0 0.019722864060723596 0.026809348276986639 0 0.02033558724478186 0.026034290211995027 0 0.021760709876248462 0.026561702645451352 0 0.023320421847670254 0.025354051578737491 0 0.021003136026649688 0.027850699961414621 0 0.020707397027323295 0.026937758271826418 0 0.021760709876248462 0.026561702645451352 0 0.019629722933248585 0.027401288843744251 0 0.020707397027323295 0.026937758271826418 0 0.02033558724478186 0.026034290211995027 0 0.021003136026649688 0.027850699961414621 0 0.019629722933248585 0.027401288843744251 0 0.020707397027323295 0.026937758271826418 0 0.020707397027323295 0.026937758271826418 0 0.02033558724478186 0.026034290211995027 0 0.021760709876248462 0.026561702645451352 0 0.020735802242476314 0.02673273237672481 0 0.022922467419409148 0.026720691164693916 0 0.01990438707724675 0.026825425588608173 0 0.0200068326677162 0.026277818439346984 0 0.020801267306887573 0.026196249323601446 0 0.021419903510096872 0.029578186034625684 0 0.021105071451740585 0.030582818596137897 0 0.0200068326677162 0.026277818439346984 0 0.020597103826222162 0.025468397662598754 0 0.020801267306887573 0.026196249323601446 0 0.01990438707724675 0.026825425588608173 0 0.019035312066019015 0.026354038294523111 0 0.018307445030183399 0.02690854802718105 0 0.0200068326677162 0.026277818439346984 0 0.019035312066019015 0.026354038294523111 0 0.01873838695150614 0.025125520994619205 0 0.01990438707724675 0.026825425588608173 0 0.0200068326677162 0.026277818439346984 0 0.019035312066019015 0.026354038294523111 0 0.018042926306416754 0.025917254038229309 0 0.018307445030183399 0.02690854802718105 0 0.01717093476376479 0.026377294027585083 0 0.019035312066019015 0.026354038294523111 0 0.018042926306416754 0.025917254038229309 0 0.01873838695150614 0.025125520994619205 0 0.019035312066019015 0.026354038294523111 0 0.018042926306416754 0.025917254038229309 0 0.018307445030183399 0.02690854802718105 0 0.018530020211032679 0.028021056915417765 0 0.019629722933248585 0.027401288843744251 0 0.018307445030183399 0.02690854802718105 0 0.018530020211032679 0.028021056915417765 0 0.01739260200466939 0.028165787725376489 0 0.018307445030183399 0.02690854802718105 0 0.016960310140340513 0.030261494162524119 0 0.017175707949126037 0.030854290060519964 0 0.01739260200466939 0.028165787725376489 0 0.018307445030183399 0.02690854802718105 0 0.01717093476376479 0.026377294027585083 0 0.015238526393759617 0.03182460193026234 0 0.014743643421494109 0.034391862238423394 0 0.015753633735277193 0.032863699360072648 0 0.017175707949126037 0.030854290060519964 0 0.018278587409502445 0.033135166332632089 0 0.014743643421494109 0.034391862238423394 0 0.014990562917553088 0.036766580055450852 0 0.015267724328515916 0.035904195570206028 0 0.018042926306416754 0.025917254038229309 0 0.01717093476376479 0.026377294027585083 0 0.016987267411976478 0.024819107890972261 0 0.019323883666020288 0.031835852211727245 0 0.018278587409502445 0.033135166332632089 0 0.018042926306416754 0.025917254038229309 0 0.01873838695150614 0.025125520994619205 0 0.016987267411976478 0.024819107890972261 0 0.019626051222259341 0.038718306211064077 0 0.018064627295754164 0.037168521011993819 0 0.019214671253173908 0.036685072933255673 0 0.019626051222259341 0.038718306211064077 0 0.017379520809208366 0.038392353932746821 0 0.018064627295754164 0.037168521011993819 0 0.017379520809208366 0.038392353932746821 0 0.018064627295754164 0.037168521011993819 0 0.016955148957966886 0.036017012142274443 0 0.018278587409502445 0.033135166332632089 0 0.018064768635437798 0.035280775981547143 0 0.018064627295754164 0.037168521011993819 0 0.018233306848797221 0.036097719588416059 0 0.016955148957966886 0.036017012142274443 0 0.018064627295754164 0.037168521011993819 0 0.018233306848797221 0.036097719588416059 0 0.019214671253173908 0.036685072933255673 0 0.018233306848797221 0.036097719588416059 0 0.019214671253173908 0.036685072933255673 0 0.019231995242658353 0.035731068233122797 0 0.019231995242658353 0.035731068233122797 0 0.018051629043853872 0.034999681870355751 0 0.020149107666140049 0.034999980926456571 0 0.018233306848797221 0.036097719588416059 0 0.018051629043853872 0.034999681870355751 0 0.016955148957966886 0.036017012142274443 0 0.018233306848797221 0.036097719588416059 0 0.019231995242658353 0.035731068233122797 0 0.018051629043853872 0.034999681870355751 0 0.021392210429540516 0.035211455409178853 0 0.020149107666140049 0.034999980926456571 0 0.022245917519896064 0.034999980722730958 0 0.021632736580878397 0.036034629236893281 0 0.021392210429540516 0.035211455409178853 0 0.020549552583674809 0.035974037377325227 0 0.021632736580878397 0.036034629236893281 0 0.021392210429540516 0.035211455409178853 0 0.022465276770188402 0.035748382333198242 0 0.019231995242658353 0.035731068233122797 0 0.020149107666140049 0.034999980926456571 0 0.020549552583674809 0.035974037377325227 0 0.021392210429540516 0.035211455409178853 0 0.020149107666140049 0.034999980926456571 0 0.020549552583674809 0.035974037377325227 0 0.019214671253173908 0.036685072933255673 0 0.019231995242658353 0.035731068233122797 0 0.020549552583674809 0.035974037377325227 0 0.019214671253173908 0.036685072933255673 0 0.020549552583674809 0.035974037377325227 0 0.020334491553242243 0.037217928666832052 0 0.020549552583674809 0.035974037377325227 0 0.021376842470183375 0.036932380255122708 0 0.020334491553242243 0.037217928666832052 0 0.021632736580878397 0.036034629236893281 0 0.020549552583674809 0.035974037377325227 0 0.021376842470183375 0.036932380255122708 0 0.021632736580878397 0.036034629236893281 0 0.021376842470183375 0.036932380255122708 0 0.022333971682287884 0.036629766856730063 0 0.021376842470183375 0.036932380255122708 0 0.021117337909797609 0.0379077243840397 0 0.022627769008372395 0.037673421904536417 0 0.021117337909797609 0.0379077243840397 0 0.021706716458369992 0.039052571444359356 0 0.022627769008372395 0.037673421904536417 0 0.021376842470183375 0.036932380255122708 0 0.021117337909797609 0.0379077243840397 0 0.020334491553242243 0.037217928666832052 0 0.019626051222259341 0.038718306211064077 0 0.021117337909797609 0.0379077243840397 0 0.020334491553242243 0.037217928666832052 0 0.019626051222259341 0.038718306211064077 0 0.019214671253173908 0.036685072933255673 0 0.020334491553242243 0.037217928666832052 0 0.019323883666020288 0.031835852211727245 0 0.021105071451740585 0.030582818596137897 0 0.0200068326677162 0.026277818439346984 0 0.01873838695150614 0.025125520994619205 0 0.020557208189730228 0.025473866584402337 0 0.019626051222259341 0.038718306211064077 0 0.021117337909797609 0.0379077243840397 0 0.021706716458369992 0.039052571444359356 0 0.021105071451740585 0.030582818596137897 0 0.022045284802660596 0.033103116326285181 0 0.022864951292678275 0.030990693620942342 0 0.022620743122531296 0.030943334815532048 0 0.022704271611641503 0.03123881990049681 0 0.021105071451740585 0.030582818596137897 0 0.021825176843998845 0.029674891046603421 0 0.020597103826222162 0.025468397662598754 0 0.021868512477767065 0.025743967660396626 0 0.020801267306887573 0.026196249323601446 0 0.022620743122531296 0.030943334815532048 0 0.022538209667439729 0.031109390870144509 0 0.022372197191707514 0.030893432265124244 0 0.022620743122531296 0.030943334815532048 0 0.022538209667439729 0.031109390870144509 0 0.022704271611641503 0.03123881990049681 0 0.022538209667439729 0.031109390870144509 0 0.022513804625607342 0.031280434852327572 0 0.022377900176575604 0.031148943364042045 0 0.022538209667439729 0.031109390870144509 0 0.022513804625607342 0.031280434852327572 0 0.022704271611641503 0.03123881990049681 0 0.022333971682287884 0.036629766856730063 0 0.023544370189965979 0.03630527091037937 0 0.022465276770188402 0.035748382333198242 0 0.022627769008372395 0.037673421904536417 0 0.022333971682287884 0.036629766856730063 0 0.023544370189965979 0.03630527091037937 0 0.021376842470183375 0.036932380255122708 0 0.022627769008372395 0.037673421904536417 0 0.022333971682287884 0.036629766856730063 0 0.021632736580878397 0.036034629236893281 0 0.022333971682287884 0.036629766856730063 0 0.022465276770188402 0.035748382333198242 0 0.022045284802660596 0.033103116326285181 0 0.023550453722903361 0.033736602760149011 0 0.022513804625607342 0.031280434852327572 0 0.02254215570515471 0.031490768746546161 0 0.022384444537073084 0.031406481263848457 0 0.022513804625607342 0.031280434852327572 0 0.022704271611641503 0.03123881990049681 0 0.02254215570515471 0.031490768746546161 0 0.023550453722903361 0.033736602760149011 0 0.024301820924448478 0.032424423570419421 0 0.023550453722903361 0.033736602760149011 0 0.0231593623880679 0.034208223056115802 0 0.023550453722903361 0.033736602760149011 0 0.02428197824355538 0.034790359424425689 0 0.022245917519896064 0.034999980722730958 0 0.022455066588634231 0.035771561250297505 0 0.02434447837349555 0.035105081574544512 0 0.022245917519896064 0.034999980722730958 0 0.02434447837349555 0.035105081574544512 0 0.024342793321198663 0.035000004219653963 0 0.023514991561344855 0.036324136201473692 0 0.022455066588634231 0.035771561250297505 0 0.02434447837349555 0.035105081574544512 0 0.022855228738700259 0.034257937166981174 0 0.0231593623880679 0.034208223056115802 0 0.021392210429540516 0.035211455409178853 0 0.022245917519896064 0.034999980722730958 0 0.022455066588634231 0.035771561250297505 0 0.02602308671743422 0.034999989599547726 0 0.025185094928483361 0.035904105010146146 0 0.024342820296197241 0.034999986532792841 0 0.02602308671743422 0.034999989599547726 0 0.025185094928483361 0.035904105010146146 0 0.02646640834681321 0.036256918566836153 0 0.024778841524553459 0.033576223271904571 0 0.024511038725084582 0.033975463396562162 0 0.024501467544213045 0.033429543791390931 0 0.025185094928483361 0.035904105010146146 0 0.02434620345340192 0.035103459568546082 0 0.024388232110972595 0.036748183836391557 0 0.025185094928483361 0.035904105010146146 0 0.02434620345340192 0.035103459568546082 0 0.024342820296197241 0.034999986532792841 0 0.02428197824355538 0.034790359424425689 0 0.024301820924448478 0.032424423570419421 0 0.02428197824355538 0.034790359424425689 0 0.024340890650131689 0.034996598811983755 0 0.025185094928483361 0.035904105010146146 0 0.024388232110972595 0.036748183836391557 0 0.025468748689131581 0.037309076808845251 0 0.024301820924448478 0.032424423570419421 0 0.02566986233187182 0.031067130613710595 0 0.025468748689131581 0.037309076808845251 0 0.026549567740354486 0.037867158171848568 0 0.02646640834681321 0.036256918566836153 0 0.025185094928483361 0.035904105010146146 0 0.025468748689131581 0.037309076808845251 0 0.02646640834681321 0.036256918566836153 0 0.02566986233187182 0.031067130613710595 0 0.028056490682161792 0.02989880973823671 0 0.023276690439015431 0.026149328289081425 0 0.023271133757309784 0.026190127881629686 0 0.023347282150930446 0.026182685029564147 0 0.022513804625607342 0.031280434852327572 0 0.022384444537073084 0.031406481263848457 0 0.022377900176575604 0.031148943364042045 0 0.024301820924448478 0.032424423570419421 0 0.023188470381846824 0.02987126071785557 0 0.023213755512138074 0.026130306538770916 0 0.023276690439015431 0.026149328289081425 0 0.023202972553639806 0.026188567513061988 0 0.023276690439015431 0.026149328289081425 0 0.023271133757309784 0.026190127881629686 0 0.023202972553639806 0.026188567513061988 0 0.022538209667439729 0.031109390870144509 0 0.022377900176575604 0.031148943364042045 0 0.022372197191707514 0.030893432265124244 0 0.023202972553639806 0.026188567513061988 0 0.023218350534526838 0.026236178776020337 0 0.023150945552005944 0.026296497827183258 0 0.023188470381846824 0.02987126071785557 0 0.022230314501728556 0.029174325649494032 0 0.023271133757309784 0.026190127881629686 0 0.023202972553639806 0.026188567513061988 0 0.023218350534526838 0.026236178776020337 0 0.023218350534526838 0.026236178776020337 0 0.023295814138350874 0.026231754685351154 0 0.023160964289145318 0.026300187296142506 0 0.023218350534526838 0.026236178776020337 0 0.023150945552005944 0.026296497827183258 0 0.023160964289145318 0.026300187296142506 0 0.023271133757309784 0.026190127881629686 0 0.023295814138350874 0.026231754685351154 0 0.023347282150930446 0.026182685029564147 0 0.027500094051303107 0.027774831804354652 0 0.028056490682161792 0.02989880973823671 0 0.023271133757309784 0.026190127881629686 0 0.023218350534526838 0.026236178776020337 0 0.023295814138350874 0.026231754685351154 0 0.030786927753773039 0.026316184064826491 0 0.031488498429268409 0.026884532961270555 0 0.032051203138004095 0.026868826650446407 0 0.031115500241153737 0.026416049922633075 0 0.030786927753773039 0.026316184064826491 0 0.032051203138004095 0.026868826650446407 0 0.031115500241153737 0.026416049922633075 0 0.030786927753773039 0.026316184064826491 0 0.030786113108074418 0.02630538675678265 0 0.030786927753773039 0.026316184064826491 0 0.029925210039760269 0.02681851432426453 0 0.031488498429268409 0.026884532961270555 0 0.029925210039760269 0.02681851432426453 0 0.031153250751919246 0.027514611137664065 0 0.031488498429268409 0.026884532961270555 0 0.029925210039760269 0.02681851432426453 0 0.031153250751919246 0.027514611137664065 0 0.030168421608356547 0.027963376317675641 0 0.028504925405887314 0.027566610344220657 0 0.028418952176660708 0.026605249376535356 0 0.02638330739931909 0.026493017265729078 0 0.029925210039760269 0.02681851432426453 0 0.028504925405887314 0.027566610344220657 0 0.030168421608356547 0.027963376317675641 0 0.029925210039760269 0.02681851432426453 0 0.028504925405887314 0.027566610344220657 0 0.028418952176660708 0.026605249376535356 0 0.029925210039760269 0.02681851432426453 0 0.028418952176660708 0.026605249376535356 0 0.02879757432179612 0.025562350745269153 0 0.026307852854472211 0.026993333711875504 0 0.025677525136339904 0.027255258895870275 0 0.028418952176660708 0.026605249376535356 0 0.02879757432179612 0.025562350745269153 0 0.02638330739931909 0.026493017265729078 0 0.030786927753773039 0.026316184064826491 0 0.029925210039760269 0.02681851432426453 0 0.02879757432179612 0.025562350745269153 0 0.027220042305173504 0.026861768683644417 0 0.026307852854472211 0.026993333711875504 0 0.023295814138350874 0.026231754685351154 0 0.023187292231524971 0.026456272998894959 0 0.023160964289145318 0.026300187296142506 0 0.027500094051303107 0.027774831804354652 0 0.026307852854472211 0.026993333711875504 0 0.022235471684348748 0.029095197935316286 0 0.022230314501728556 0.029174325649494032 0 0.023187292231524971 0.026456272998894959 0 0.023096673866826289 0.026302255028448573 0 0.023160964289145318 0.026300187296142506 0 0.023096673866826289 0.026302255028448573 0 0.023135606964519322 0.026293011498881105 0 0.023160964289145318 0.026300187296142506 0 0.022230314501728556 0.029174325649494032 0 0.022234489628817283 0.02916884025101352 0 0.026307852854472211 0.026993333711875504 0 0.022922467419409148 0.026720691164693916 0 0.021825176843998845 0.029674891046603421 0 0.022230314501728556 0.029174325649494032 0 0.021868512477767065 0.025743967660396626 0 0.023096673866826289 0.026302255028448573 0 0.023093545074722877 0.026030298936075658 0 0.023187292231524971 0.026456272998894959 0 0.023096673866826289 0.026302255028448573 0 0.021609442307974989 0.026677712781464892 0 0.021868512477767065 0.025743967660396626 0 0.023096673866826289 0.026302255028448573 0 0.021609442307974989 0.026677712781464892 0 0.021868512477767065 0.025743967660396626 0 0.020801267306887573 0.026196249323601446 0 0.021609442307974989 0.026677712781464892 0 0.01990438707724675 0.026825425588608173 0 0.020801267306887573 0.026196249323601446 0 0.021609442307974989 0.026677712781464892 0 0.021003136026649688 0.027850699961414621 0 0.021760709876248462 0.026561702645451352 0 0.023197345798206356 0.026783612975237864 0 0.021760709876248462 0.026561702645451352 0 0.023320421847670254 0.025354051578737491 0 0.023197345798206356 0.026783612975237864 0 0.026175683901825744 0.025020090987640391 0 0.023320421847670254 0.025354051578737491 0 0.024744983430888198 0.026566224934806697 0 0.023320421847670254 0.025354051578737491 0 0.023197345798206356 0.026783612975237864 0 0.024744983430888198 0.026566224934806697 0 0.023197345798206356 0.026783612975237864 0 0.024744983430888198 0.026566224934806697 0 0.023507853671079285 0.028041065636058852 0 0.025677525136339904 0.027255258895870275 0 0.025143318680343953 0.027661514967620954 0 0.028504925405887314 0.027566610344220657 0 0.02638330739931909 0.026493017265729078 0 0.026368982327642867 0.029268396411793178 0 0.02638330739931909 0.026493017265729078 0 0.026368982327642867 0.029268396411793178 0 0.023507853671079285 0.028041065636058852 0 0.021003136026649688 0.027850699961414621 0 0.023197345798206356 0.026783612975237864 0 0.023507853671079285 0.028041065636058852 0 0.021003136026649688 0.027850699961414621 0 0.023507853671079285 0.028041065636058852 0 0.021583044475328786 0.029796682011227305 0 0.023133694287343659 0.032349102433050239 0 0.021583044475328786 0.029796682011227305 0 0.024014035494502237 0.030311378337663359 0 0.023507853671079285 0.028041065636058852 0 0.021583044475328786 0.029796682011227305 0 0.024014035494502237 0.030311378337663359 0 0.026368982327642867 0.029268396411793178 0 0.023507853671079285 0.028041065636058852 0 0.024014035494502237 0.030311378337663359 0 0.026657440542012904 0.032712320898610613 0 0.026368982327642867 0.029268396411793178 0 0.024014035494502237 0.030311378337663359 0 0.026657440542012904 0.032712320898610613 0 0.026368982327642867 0.029268396411793178 0 0.028723113777120547 0.029995831469325999 0 0.025114437304530272 0.028195691160940169 0 0.026856508470383334 0.02923194749284308 0 0.029921122333865846 0.029154387644207982 0 0.031070585607589386 0.028555293288111475 0 0.031067921094707355 0.02947655798333686 0 0.030507307162593224 0.030252395155699236 0 0.029921122333865846 0.029154387644207982 0 0.031067921094707355 0.02947655798333686 0 0.031153250751919246 0.027514611137664065 0 0.031070585607589386 0.028555293288111475 0 0.030168421608356547 0.027963376317675641 0 0.029921122333865846 0.029154387644207982 0 0.031070585607589386 0.028555293288111475 0 0.030168421608356547 0.027963376317675641 0 0.028504925405887314 0.027566610344220657 0 0.026368982327642867 0.029268396411793178 0 0.028723113777120547 0.029995831469325999 0 0.027086660060747982 0.028772005812895723 0 0.026856508470383334 0.02923194749284308 0 0.028504925405887314 0.027566610344220657 0 0.029921122333865846 0.029154387644207982 0 0.030168421608356547 0.027963376317675641 0 0.032994916342806428 0.028200690370466661 0 0.032134928024590691 0.027989842852565106 0 0.033087990251805054 0.027366964182870081 0 0.031153250751919246 0.027514611137664065 0 0.031070585607589386 0.028555293288111475 0 0.032134928024590691 0.027989842852565106 0 0.031070585607589386 0.028555293288111475 0 0.032134928024590691 0.027989842852565106 0 0.032065488336438304 0.029149384794947011 0 0.031070585607589386 0.028555293288111475 0 0.031067921094707355 0.02947655798333686 0 0.032065488336438304 0.029149384794947011 0 0.032994916342806428 0.028200690370466661 0 0.032134928024590691 0.027989842852565106 0 0.032065488336438304 0.029149384794947011 0 0.032994916342806428 0.028200690370466661 0 0.032065488336438304 0.029149384794947011 0 0.033474002667988029 0.02914378647729161 0 0.032994916342806428 0.028200690370466661 0 0.033474002667988029 0.02914378647729161 0 0.034389688974671588 0.027634957466591167 0 0.036030184675409735 0.025949895507315305 0 0.034389688974671588 0.027634957466591167 0 0.035170785789816687 0.026616764741937953 0 0.034755937840089499 0.030045738311699623 0 0.033474002667988029 0.02914378647729161 0 0.034389688974671588 0.027634957466591167 0 0.034766807789714332 0.027290339222463357 0 0.034742565750608891 0.027325798524504737 0 0.034389688974671588 0.027634957466591167 0 0.033691001353712224 0.027345937416223286 0 0.034317418432004018 0.027348030119694444 0 0.034389688974671588 0.027634957466591167 0 0.034317418432004018 0.027348030119694444 0 0.035170785789816687 0.026616764741937953 0 0.034389688974671588 0.027634957466591167 0 0.033087990251805054 0.027366964182870081 0 0.033691001353712224 0.027345937416223286 0 0.032994916342806428 0.028200690370466661 0 0.034389688974671588 0.027634957466591167 0 0.033087990251805054 0.027366964182870081 0 0.033087990251805054 0.027366964182870081 0 0.033691001353712224 0.027345937416223286 0 0.033076032538564802 0.027228310528868767 0 0.033691001353712224 0.027345937416223286 0 0.033313215079841543 0.027301990437796412 0 0.033076032538564802 0.027228310528868767 0 0.033691001353712224 0.027345937416223286 0 0.033313215079841543 0.027301990437796412 0 0.034317418432004018 0.027348030119694444 0 0.032627837353689799 0.027448197810733342 0 0.033076032538564802 0.027228310528868767 0 0.032496383862069732 0.027869557784097547 0 0.033313215079841543 0.027301990437796412 0 0.032627837353689799 0.027448197810733342 0 0.033076032538564802 0.027228310528868767 0 0.033313215079841543 0.027301990437796412 0 0.032627837353689799 0.027448197810733342 0 0.032900248252770978 0.027355839755848429 0 0.033087990251805054 0.027366964182870081 0 0.033076032538564802 0.027228310528868767 0 0.033007422189040819 0.027132902294369314 0 0.033076032538564802 0.027228310528868767 0 0.033007422189040819 0.027132902294369314 0 0.032496383862069732 0.027869557784097547 0 0.033007422189040819 0.027132902294369314 0 0.032203981685665642 0.027124110083397924 0 0.032051203138004095 0.026868826650446407 0 0.033087990251805054 0.027366964182870081 0 0.033007422189040819 0.027132902294369314 0 0.032203981685665642 0.027124110083397924 0 0.032134928024590691 0.027989842852565106 0 0.033087990251805054 0.027366964182870081 0 0.032203981685665642 0.027124110083397924 0 0.031153250751919246 0.027514611137664065 0 0.032134928024590691 0.027989842852565106 0 0.032203981685665642 0.027124110083397924 0 0.031153250751919246 0.027514611137664065 0 0.032203981685665642 0.027124110083397924 0 0.031488498429268409 0.026884532961270555 0 0.032203981685665642 0.027124110083397924 0 0.031488498429268409 0.026884532961270555 0 0.032051203138004095 0.026868826650446407 0 0.031115500241153737 0.026416049922633075 0 0.032051203138004095 0.026868826650446407 0 0.032080298892411117 0.026246433810123124 0 0.032051203138004095 0.026868826650446407 0 0.033286310114298404 0.027487564969916861 0 0.032080298892411117 0.026246433810123124 0 0.033007422189040819 0.027132902294369314 0 0.032051203138004095 0.026868826650446407 0 0.033286310114298404 0.027487564969916861 0 0.033007422189040819 0.027132902294369314 0 0.033286310114298404 0.027487564969916861 0 0.032218393644516105 0.029024623200580631 0 0.033286310114298404 0.027487564969916861 0 0.033672084735917963 0.03185743466788471 0 0.032218393644516105 0.029024623200580631 0 0.033286310114298404 0.027487564969916861 0 0.035953915865457702 0.028818542788439684 0 0.033672084735917963 0.03185743466788471 0 0.028056490682161792 0.02989880973823671 0 0.02922459427475272 0.032834811146310885 0 0.02975325369612123 0.030048150113229293 0 0.028056490682161792 0.02989880973823671 0 0.026549567740354486 0.037867158171848568 0 0.02646640834681321 0.036256918566836153 0 0.027887488102644017 0.036439322323425234 0 0.027887488102644017 0.036439322323425234 0 0.027630185738321295 0.034999987200470269 0 0.029237280120933875 0.035000001730897748 0 0.02646640834681321 0.036256918566836153 0 0.027887488102644017 0.036439322323425234 0 0.027630185738321295 0.034999987200470269 0 0.02602308671743422 0.034999989599547726 0 0.02646640834681321 0.036256918566836153 0 0.027630185738321295 0.034999987200470269 0 0.03023452821347819 0.033945547598799058 0 0.029248857843987848 0.034998667996279417 0 0.03064665667272802 0.032529165302538576 0 0.03023452821347819 0.033945547598799058 0 0.029248857843987848 0.034998667996279417 0 0.03093963365240146 0.03499846963167598 0 0.029248857843987848 0.034998667996279417 0 0.03138438763188181 0.031792460758422743 0 0.03064665667272802 0.032529165302538576 0 0.033672084735917963 0.03185743466788471 0 0.029248857843987848 0.034998667996279417 0 0.03138438763188181 0.031792460758422743 0 0.02922459427475272 0.032834811146310885 0 0.029236828334831412 0.034997235520077448 0 0.033672084735917963 0.03185743466788471 0 0.03138438763188181 0.031792460758422743 0 0.032218393644516105 0.029024623200580631 0 0.03138438763188181 0.031792460758422743 0 0.031051075016417032 0.03094531008231299 0 0.03064665667272802 0.032529165302538576 0 0.03023452821347819 0.033945547598799058 0 0.03064665667272802 0.032529165302538576 0 0.029456355806256728 0.032524380031463511 0 0.031051075016417032 0.03094531008231299 0 0.03064665667272802 0.032529165302538576 0 0.029456355806256728 0.032524380031463511 0 0.031051075016417032 0.03094531008231299 0 0.031419704918720877 0.029408958084770665 0 0.032218393644516105 0.029024623200580631 0 0.031051075016417032 0.03094531008231299 0 0.031419704918720877 0.029408958084770665 0 0.029456355806256728 0.032524380031463511 0 0.03138438763188181 0.031792460758422743 0 0.031051075016417032 0.03094531008231299 0 0.032218393644516105 0.029024623200580631 0 0.033007422189040819 0.027132902294369314 0 0.032218393644516105 0.029024623200580631 0 0.032496383862069732 0.027869557784097547 0 0.031419704918720877 0.029408958084770665 0 0.032218393644516105 0.029024623200580631 0 0.032496383862069732 0.027869557784097547 0 0.031419704918720877 0.029408958084770665 0 0.032496383862069732 0.027869557784097547 0 0.032059405639890758 0.028008301507420771 0 0.032627837353689799 0.027448197810733342 0 0.032496383862069732 0.027869557784097547 0 0.032059405639890758 0.028008301507420771 0 0.032059405639890758 0.028008301507420771 0 0.032047453184954777 0.02737693115871713 0 0.031021091968569024 0.027879850366309838 0 0.032627837353689799 0.027448197810733342 0 0.032059405639890758 0.028008301507420771 0 0.032047453184954777 0.02737693115871713 0 0.033170097478114377 0.02676874366930003 0 0.033462749628875375 0.027283202782294382 0 0.032985551553464484 0.027237914473866465 0 0.032047453184954777 0.02737693115871713 0 0.032775023090627235 0.027104636453022159 0 0.032985551553464484 0.027237914473866465 0 0.032775023090627235 0.027104636453022159 0 0.033170097478114377 0.02676874366930003 0 0.032985551553464484 0.027237914473866465 0 0.03349542965689889 0.032181433854519347 0 0.033474720645664126 0.032273913450535423 0 0.032775023090627235 0.027104636453022159 0 0.032874894771976582 0.026866505485929029 0 0.033170097478114377 0.02676874366930003 0 0.032047453184954777 0.02737693115871713 0 0.032775023090627235 0.027104636453022159 0 0.032874894771976582 0.026866505485929029 0 0.031419704918720877 0.029408958084770665 0 0.032059405639890758 0.028008301507420771 0 0.031021091968569024 0.027879850366309838 0 0.033170097478114377 0.02676874366930003 0 0.034680593098770522 0.026983567245957255 0 0.034596945481213053 0.0258421140522655 0 0.033474720645664126 0.032273913450535423 0 0.033916669811133164 0.032430311902651845 0 0.033170097478114377 0.02676874366930003 0 0.034680593098770522 0.026983567245957255 0 0.034883879298002504 0.028218262474443662 0 0.032874894771976582 0.026866505485929029 0 0.033170097478114377 0.02676874366930003 0 0.034596945481213053 0.0258421140522655 0 0.031495704295874519 0.038607422851548064 0 0.03263873358108306 0.037780045085375004 0 0.031577873921687989 0.036841849712373649 0 0.033474720645664126 0.032273913450535423 0 0.03214370056628961 0.033993504372341901 0 0.031073878216237666 0.032056978243768706 0 0.030996207145315837 0.033025331887421787 0 0.031419704918720877 0.029408958084770665 0 0.031021091968569024 0.027879850366309838 0 0.030119932770362481 0.031726340652774888 0 0.030119932770362481 0.031726340652774888 0 0.03145927631883047 0.032719449117477935 0 0.031602439755222513 0.035001460908616548 0 0.031419704918720877 0.029408958084770665 0 0.030119932770362481 0.031726340652774888 0 0.03145927631883047 0.032719449117477935 0 0.031577873921687989 0.036841849712373649 0 0.032721378378532749 0.036290722839970972 0 0.031610052547867307 0.035000010012184377 0 0.03263873358108306 0.037780045085375004 0 0.031577873921687989 0.036841849712373649 0 0.032721378378532749 0.036290722839970972 0 0.032721378378532749 0.036290722839970972 0 0.032790768849030032 0.034999962077940976 0 0.031610052547867307 0.035000010012184377 0 0.030996207145315837 0.033025331887421787 0 0.030948353728195179 0.034997078491146701 0 0.03145927631883047 0.032719449117477935 0 0.031602439755222513 0.035001460908616548 0 0.030955603455356872 0.034997732136214009 0 0.03214370056628961 0.033993504372341901 0 0.031610596429694798 0.034998808063427068 0 0.03023452821347819 0.033945547598799058 0 0.029456355806256728 0.032524380031463511 0 0.03093963365240146 0.03499846963167598 0 0.034815804258843126 0.034416883382998781 0 0.033975237939282393 0.03499881081057913 0 0.03537270081453453 0.0338816016138659 0 0.034815804258843126 0.034416883382998781 0 0.034998871187027047 0.034999092561934439 0 0.034998672818589885 0.03378496610128387 0 0.033972316531818418 0.034998857868267202 0 0.034380634921843338 0.032934117396235148 0 0.034815804258843126 0.034416883382998781 0 0.034998871187027047 0.034999092561934439 0 0.033975237939282393 0.03499881081057913 0 0.03397158171242564 0.035000001195858645 0 0.033329369128867942 0.035811109005699601 0 0.033824133956063034 0.0369374574497442 0 0.032721378378532749 0.036290722839970972 0 0.032790768849030032 0.034999962077940976 0 0.033329369128867942 0.035811109005699601 0 0.032790768849030032 0.034999962077940976 0 0.03397158171242564 0.035000001195858645 0 0.033329369128867942 0.035811109005699601 0 0.03263873358108306 0.037780045085375004 0 0.032721378378532749 0.036290722839970972 0 0.033824133956063034 0.0369374574497442 0 0.032721378378532749 0.036290722839970972 0 0.033329369128867942 0.035811109005699601 0 0.033824133956063034 0.0369374574497442 0 0.036117518525060698 0.032953726101085982 0 0.034999983433312232 0.033781939602885037 0 0.0350000305306295 0.032175638811564829 0 0.034815804258843126 0.034416883382998781 0 0.03537270081453453 0.0338816016138659 0 0.034998672818589885 0.03378496610128387 0 0.034380634921843338 0.032934117396235148 0 0.03499864420695073 0.033779889912147996 0 0.036117518525060698 0.032953726101085982 0 0.0350000305306295 0.032175638811564829 0 0.036199909431712751 0.030960447917016826 0 0.033916669811133164 0.032430311902651845 0 0.034380634921843338 0.032934117396235148 0 0.034380634921843338 0.032934117396235148 0 0.035239746049731999 0.029632473836568737 0 0.034596945481213053 0.0258421140522655 0 0.036028443068528801 0.024809241861480306 0 0.035920802219657745 0.02708597903448921 0 0.034680593098770522 0.026983567245957255 0 0.035920802219657745 0.02708597903448921 0 0.034883879298002504 0.028218262474443662 0 0.034680593098770522 0.026983567245957255 0 0.034596945481213053 0.0258421140522655 0 0.035920802219657745 0.02708597903448921 0 0.0350000305306295 0.032175638811564829 0 0.036199909431712751 0.030960447917016826 0 0.034999849887169004 0.030568949746416364 0 0.036199909431712751 0.030960447917016826 0 0.035672801233882459 0.029878794795283506 0 0.035877293669653566 0.028807679455989194 0 0.034999849887169004 0.030568949746416364 0 0.035672801233882459 0.029878794795283506 0 0.035551447875002487 0.029239415670350679 0 0.036199909431712751 0.030960447917016826 0 0.034999849887169004 0.030568949746416364 0 0.035672801233882459 0.029878794795283506 0 0.034999849887169004 0.030568949746416364 0 0.035000009172154345 0.02896300929909898 0 0.035551447875002487 0.029239415670350679 0 0.035000009172154345 0.02896300929909898 0 0.035551447875002487 0.029239415670350679 0 0.036043310606829873 0.028928822559387626 0 0.035672801233882459 0.029878794795283506 0 0.035551447875002487 0.029239415670350679 0 0.035877293669653566 0.028807679455989194 0 0.035551447875002487 0.029239415670350679 0 0.036043310606829873 0.028928822559387626 0 0.035877293669653566 0.028807679455989194 0 0.034483669268661012 0.027179383070984428 0 0.034729179533684588 0.027060965404593171 0 0.0341799895186004 0.027199182201061458 0 0.035009923775279631 0.027656886515567282 0 0.034586540801447171 0.027471551070368961 0 0.036043310606829873 0.028928822559387626 0 0.035877293669653566 0.028807679455989194 0 0.034883879298002504 0.028218262474443662 0 0.034483669268661012 0.027179383070984428 0 0.034729179533684588 0.027060965404593171 0 0.034687186872105674 0.027103845942937421 0 0.035239746049731999 0.029632473836568737 0 0.035434033215387795 0.029171231998679929 0 0.035920802219657745 0.02708597903448921 0 0.035877293669653566 0.028807679455989194 0 0.034883879298002504 0.028218262474443662 0 0.034169283570846906 0.02714453383399552 0 0.034586540801447171 0.027471551070368961 0 0.033170097478114377 0.02676874366930003 0 0.033462749628875375 0.027283202782294382 0 0.0341799895186004 0.027199182201061458 0 0.033462749628875375 0.027283202782294382 0 0.0341799895186004 0.027199182201061458 0 0.034115322239349981 0.027277455415176035 0 0.032047453184954777 0.02737693115871713 0 0.032900248252770978 0.027355839755848429 0 0.032985551553464484 0.027237914473866465 0 0.032627837353689799 0.027448197810733342 0 0.032047453184954777 0.02737693115871713 0 0.032900248252770978 0.027355839755848429 0 0.033462749628875375 0.027283202782294382 0 0.032900248252770978 0.027355839755848429 0 0.032985551553464484 0.027237914473866465 0 0.033462749628875375 0.027283202782294382 0 0.032900248252770978 0.027355839755848429 0 0.033821782936332909 0.027330843388696957 0 0.033313215079841543 0.027301990437796412 0 0.032900248252770978 0.027355839755848429 0 0.033821782936332909 0.027330843388696957 0 0.033821782936332909 0.027330843388696957 0 0.034437221300212567 0.027209298240915048 0 0.034317418432004018 0.027348030119694444 0 0.033313215079841543 0.027301990437796412 0 0.033821782936332909 0.027330843388696957 0 0.034317418432004018 0.027348030119694444 0 0.034483669268661012 0.027179383070984428 0 0.0341799895186004 0.027199182201061458 0 0.034115322239349981 0.027277455415176035 0 0.033462749628875375 0.027283202782294382 0 0.033821782936332909 0.027330843388696957 0 0.034115322239349981 0.027277455415176035 0 0.033821782936332909 0.027330843388696957 0 0.034115322239349981 0.027277455415176035 0 0.034437221300212567 0.027209298240915048 0 0.034483669268661012 0.027179383070984428 0 0.034115322239349981 0.027277455415176035 0 0.034437221300212567 0.027209298240915048 0 0.034483669268661012 0.027179383070984428 0 0.034437221300212567 0.027209298240915048 0 0.034777185076712944 0.027017544347379973 0 0.034437221300212567 0.027209298240915048 0 0.034800589628727646 0.026926099479010684 0 0.034777185076712944 0.027017544347379973 0 0.034437221300212567 0.027209298240915048 0 0.034317418432004018 0.027348030119694444 0 0.034800589628727646 0.026926099479010684 0 0.034317418432004018 0.027348030119694444 0 0.035170785789816687 0.026616764741937953 0 0.034800589628727646 0.026926099479010684 0 0.035170785789816687 0.026616764741937953 0 0.034800589628727646 0.026926099479010684 0 0.035058552649234513 0.026472324731682092 0 0.034800589628727646 0.026926099479010684 0 0.035058552649234513 0.026472324731682092 0 0.034777185076712944 0.027017544347379973 0 0.035058552649234513 0.026472324731682092 0 0.035041933250304164 0.026612588606804995 0 0.034777185076712944 0.027017544347379973 0 0.035041933250304164 0.026612588606804995 0 0.034777185076712944 0.027017544347379973 0 0.034836187062493564 0.027100473120747592 0 0.034999221111452303 0.025338183818805215 0 0.035041933250304164 0.026612588606804995 0 0.034998944376282461 0.027354262919603852 0 0.035041933250304164 0.026612588606804995 0 0.034998944376282461 0.027354262919603852 0 0.034836187062493564 0.027100473120747592 0 0.035009923775279631 0.027656886515567282 0 0.034999936768822612 0.027356956829487883 0 0.034729179533684588 0.027060965404593171 0 0.034998944376282461 0.027354262919603852 0 0.034836187062493564 0.027100473120747592 0 0.035000009172154345 0.02896300929909898 0 0.036043310606829873 0.028928822559387626 0 0.03499997431405362 0.027356556392040644 0 0.034729179533684588 0.027060965404593171 0 0.034687186872105674 0.027103845942937421 0 0.034836187062493564 0.027100473120747592 0 0.034483669268661012 0.027179383070984428 0 0.034687186872105674 0.027103845942937421 0 0.034777185076712944 0.027017544347379973 0 0.034687186872105674 0.027103845942937421 0 0.034777185076712944 0.027017544347379973 0 0.034836187062493564 0.027100473120747592 0 0.012793311315780841 0.032292193232057662 0 0.011461841962493174 0.031916539345298964 0 0.021695476905481896 0.030221493690629486 0 0.021688641601200202 0.030115659603934104 0 0.021888100606370715 0.029422640180757687 0 0.021688641601200202 0.030115659603934104 0 0.021888100606370715 0.029422640180757687 0 0.021590976441146294 0.029832923654595358 0 0.0039859114601290494 0.03460405591111685 0 0.0029190250321176714 0.034918997776580404 0 0.0034923474456475712 0.035703492861911226 0 0.0029190250321176714 0.034918997776580404 0 0.0029525112061447038 0.033879708470420732 0 0.0019566182313402458 0.034776754804562937 0 0.0034923474456475712 0.035703492861911226 0 0.0023745183621608486 0.03573797392172906 0 0.0027486478434725525 0.036363243891137945 0 0.0029190250321176714 0.034918997776580404 0 0.0023268368794957446 0.035232679960538457 0 0.0023745183621608486 0.03573797392172906 0 0.0029190250321176714 0.034918997776580404 0 0.0034923474456475712 0.035703492861911226 0 0.0023745183621608486 0.03573797392172906 0 0.021888100606370715 0.029422640180757687 0 0.021476744829455864 0.02965686231677785 0 0.021590976441146294 0.029832923654595358 0 0.021888100606370715 0.029422640180757687 0 0.021476744829455864 0.02965686231677785 0 0.021575372557781466 0.029219948133682245 0 0.021476744829455864 0.02965686231677785 0 0.020919313030300597 0.029843757184702779 0 0.021575372557781466 0.029219948133682245 0 0.019377217128059555 0.028733479862393701 0 0.018007253742617104 0.027839065432205341 0 0.020895066339349871 0.02944140648592743 0 0.020701787485094238 0.028501150141155819 0 0.021541254859255246 0.02848074306673239 0 0.020895066339349871 0.02944140648592743 0 0.020701787485094238 0.028501150141155819 0 0.020063654365955728 0.029013959124456586 0 0.020895066339349871 0.02944140648592743 0 0.020063654365955728 0.029013959124456586 0 0.019914347524115739 0.030711521646640288 0 0.019377217128059555 0.028733479862393701 0 0.019387342560321028 0.029393642333667896 0 0.020919313030300597 0.029843757184702779 0 0.021305144505548865 0.030317100435327454 0 0.020883008909745541 0.0307208637269764 0 0.021688641601200202 0.030115659603934104 0 0.021590976441146294 0.029832923654595358 0 0.021492476231073046 0.03004847505880881 0 0.021476744829455864 0.02965686231677785 0 0.021362181223744722 0.029931596806583933 0 0.021590976441146294 0.029832923654595358 0 0.021362181223744722 0.029931596806583933 0 0.021590976441146294 0.029832923654595358 0 0.021492476231073046 0.03004847505880881 0 0.021476744829455864 0.02965686231677785 0 0.020919313030300597 0.029843757184702779 0 0.021362181223744722 0.029931596806583933 0 0.020919313030300597 0.029843757184702779 0 0.021362181223744722 0.029931596806583933 0 0.021305144505548865 0.030317100435327454 0 0.021362181223744722 0.029931596806583933 0 0.021305144505548865 0.030317100435327454 0 0.021492476231073046 0.03004847505880881 0 0.021688641601200202 0.030115659603934104 0 0.021305144505548865 0.030317100435327454 0 0.021492476231073046 0.03004847505880881 0 0.021305144505548865 0.030317100435327454 0 0.020883008909745541 0.0307208637269764 0 0.021545942790998945 0.031422890799145543 0 0.021688641601200202 0.030115659603934104 0 0.021305144505548865 0.030317100435327454 0 0.021545942790998945 0.031422890799145543 0 0.021695476905481896 0.030221493690629486 0 0.021688641601200202 0.030115659603934104 0 0.021225534819980491 0.031118292473002657 0 0.016617803326628537 0.030301652547853108 0 0.014202536094562285 0.032378297862165166 0 0.012793311315780841 0.032292193232057662 0 0.014202536094562285 0.032378297862165166 0 0.020919313030300597 0.029843757184702779 0 0.020883008909745541 0.0307208637269764 0 0.019914347524115739 0.030711521646640288 0 0.020883008909745541 0.0307208637269764 0 0.020589388489976032 0.031583647013961283 0 0.019914347524115739 0.030711521646640288 0 0.020883008909745541 0.0307208637269764 0 0.020589388489976032 0.031583647013961283 0 0.021545942790998945 0.031422890799145543 0 0.020589388489976032 0.031583647013961283 0 0.019586974247236003 0.03178655724014335 0 0.020154487290002406 0.032697830425371409 0 0.020589388489976032 0.031583647013961283 0 0.021545942790998945 0.031422890799145543 0 0.02137430926095513 0.032527511789090448 0 0.014202536094562285 0.032378297862165166 0 0.012144146965884861 0.035208142639580296 0 0.0044903682156267758 0.033488389866180295 0 0.0039879584088932055 0.032997793394819744 0 0.0047830132259613113 0.032746556693793186 0 0.0039879584088932055 0.032997793394819744 0 0.003797039761643921 0.033815292342390432 0 0.0029525112061447038 0.033879708470420732 0 0.0044903682156267758 0.033488389866180295 0 0.0039879584088932055 0.032997793394819744 0 0.003797039761643921 0.033815292342390432 0 0.0068228590066241202 0.038572273104190043 0 0.0049059204874643825 0.039105415786534967 0 0.0039859114601290494 0.03460405591111685 0 0.003797039761643921 0.033815292342390432 0 0.0029525112061447038 0.033879708470420732 0 0.0039859114601290494 0.03460405591111685 0 0.0044903682156267758 0.033488389866180295 0 0.003797039761643921 0.033815292342390432 0 0.0039859114601290494 0.03460405591111685 0 0.0029190250321176714 0.034918997776580404 0 0.0029525112061447038 0.033879708470420732 0 0.0072652612806334161 0.042853815661637054 0 0.005854060210422612 0.044017888847530461 0 0.005900177923850722 0.042725157306254521 0 0.005854060210422612 0.044017888847530461 0 0.0048883473429554517 0.043283293626872776 0 0.005900177923850722 0.042725157306254521 0 0.0048490230133263522 0.043189017769944278 0 0.0046969177181741548 0.043395821065266835 0 0.0048829064645906995 0.041543636748904079 0 0.001670334945468992 0.04000403334572563 0 0.0019685597500240016 0.040054166501351726 0 0.0019466999668987838 0.040158211906133619 0 0.0019685597500240016 0.040054166501351726 0 0.0018884783739918955 0.039682682168552974 0 0.0021081461755879417 0.040316637790487948 0 0.0018884783739918955 0.039682682168552974 0 0.0023176869188659631 0.039900691026503711 0 0.0020305473345998437 0.040568752458962146 0 0.0018884783739918955 0.039682682168552974 0 0.0020066130395130426 0.040591324919208652 0 0.0020305473345998437 0.040568752458962146 0 0.0017281206231206394 0.040134144487848598 0 0.0016647411839596424 0.040212579033375967 0 0.0019685597500240016 0.040054166501351726 0 0.0020067422836557054 0.040189175637383577 0 0.0019466999668987838 0.040158211906133619 0 0.0019685597500240016 0.040054166501351726 0 0.0020289487077736327 0.040203725090621097 0 0.0020067422836557054 0.040189175637383577 0 0.001670334945468992 0.04000403334572563 0 0.0019685597500240016 0.040054166501351726 0 0.0018884783739918955 0.039682682168552974 0 0.0018884783739918955 0.039682682168552974 0 0.0023176869188659631 0.039900691026503711 0 0.0022230116187320825 0.039020844164772826 0 0.0018884783739918955 0.039682682168552974 0 0.0017328954179547456 0.039245889990195015 0 0.0022230116187320825 0.039020844164772826 0 0.005854060210422612 0.044017888847530461 0 0.0048038643405839193 0.044802099491302601 0 0.004501138484622952 0.045193833308445376 0 0.0046969177181741548 0.043395821065266835 0 0.0048038643405839193 0.044802099491302601 0 0.004501138484622952 0.045193833308445376 0 0.0042316151489907106 0.042811093645934481 0 0.0043178886481792774 0.04361116318081585 0 0.0049059204874643825 0.039105415786534967 0 0.0039065117031346396 0.039201349587762183 0 0.005854060210422612 0.044017888847530461 0 0.0048883473429554517 0.043283293626872776 0 0.0048038643405839193 0.044802099491302601 0 0.0036648538979639862 0.041027285855779805 0 0.0039065117031346396 0.039201349587762183 0 0.001670334945468992 0.04000403334572563 0 0.0017328954179547456 0.039245889990195015 0 0.0014174553046510023 0.03894079306030785 0 0.001670334945468992 0.04000403334572563 0 0.0018884783739918955 0.039682682168552974 0 0.0017328954179547456 0.039245889990195015 0 0.0048490230133263522 0.043189017769944278 0 0.0046969177181741548 0.043395821065266835 0 0.0048038643405839193 0.044802099491302601 0 0.0011170318258846592 0.041377782262953584 0 0.001287810073736813 0.040694062963717963 0 0.00068982194919558798 0.040892779125092565 0 0.001647413652974228 0.039969283497675069 0 0.0017472707888944719 0.040116178739096515 0 0.0023176869188659631 0.039900691026503711 0 0.0031346947583541528 0.039722927382717786 0 0.0020305473345998437 0.040568752458962146 0 0.0011170318258846592 0.041377782262953584 0 0.001287810073736813 0.040694062963717963 0 0.0020305473345998437 0.040568752458962146 0 0.0023176869188659631 0.039900691026503711 0 0.0031346947583541528 0.039722927382717786 0 0.0029182947086212269 0.039016716657245099 0 0.0023176869188659631 0.039900691026503711 0 0.0029182947086212269 0.039016716657245099 0 0.0022230116187320825 0.039020844164772826 0 0.0031346947583541528 0.039722927382717786 0 0.0029182947086212269 0.039016716657245099 0 0.0039933834965039617 0.038745192931268747 0 0.001647413652974228 0.039969283497675069 0 0.0012862288751889584 0.039403939150782975 0 0.0029182947086212269 0.039016716657245099 0 0.0026898293459769913 0.038195257201935714 0 0.0039933834965039617 0.038745192931268747 0 0.0029182947086212269 0.039016716657245099 0 0.0026898293459769913 0.038195257201935714 0 0.0022230116187320825 0.039020844164772826 0 0.0026898293459769913 0.038195257201935714 0 0.0022230116187320825 0.039020844164772826 0 0.0020487051785343896 0.038375687492981904 0 0.0026898293459769913 0.038195257201935714 0 0.0020689900093735195 0.037698157800733316 0 0.0024807598797466422 0.037244199964747447 0 0.0026898293459769913 0.038195257201935714 0 0.0033310128791310348 0.037474479285970329 0 0.0024807598797466422 0.037244199964747447 0 0.0026898293459769913 0.038195257201935714 0 0.0020487051785343896 0.038375687492981904 0 0.0020689900093735195 0.037698157800733316 0 0.0026898293459769913 0.038195257201935714 0 0.0033310128791310348 0.037474479285970329 0 0.0039933834965039617 0.038745192931268747 0 0.0029190250321176714 0.034918997776580404 0 0.0023268368794957446 0.035232679960538457 0 0.0019566182313402458 0.034776754804562937 0 0.0013812297732424936 0.038933906544631774 0 0.0014920145772472622 0.038829909833291792 0 0.0014922357295957167 0.037673880258355802 0 0.0017328954179547456 0.039245889990195015 0 0.0014174553046510023 0.03894079306030785 0 0.0014920145772472622 0.038829909833291792 0 0.0039065117031346396 0.039201349587762183 0 0.0038865473034135679 0.03921052751418673 0 0.0017328954179547456 0.039245889990195015 0 0.0018425284476248781 0.038797750447126508 0 0.0022230116187320825 0.039020844164772826 0 0.0017328954179547456 0.039245889990195015 0 0.0014920145772472622 0.038829909833291792 0 0.0018425284476248781 0.038797750447126508 0 0.0018425284476248781 0.038797750447126508 0 0.0022230116187320825 0.039020844164772826 0 0.0020487051785343896 0.038375687492981904 0 0.0014920145772472622 0.038829909833291792 0 0.0018425284476248781 0.038797750447126508 0 0.0017720284787945194 0.038513253827628352 0 0.0014920145772472622 0.038829909833291792 0 0.0017720284787945194 0.038513253827628352 0 0.0017373050683399877 0.038135291872808112 0 0.0018425284476248781 0.038797750447126508 0 0.0017720284787945194 0.038513253827628352 0 0.0020487051785343896 0.038375687492981904 0 0.0014920145772472622 0.038829909833291792 0 0.0017373050683399877 0.038135291872808112 0 0.0014922357295957167 0.037673880258355802 0 0.0017720284787945194 0.038513253827628352 0 0.0017373050683399877 0.038135291872808112 0 0.0020487051785343896 0.038375687492981904 0 0.0017373050683399877 0.038135291872808112 0 0.0020487051785343896 0.038375687492981904 0 0.0020689900093735195 0.037698157800733316 0 0.0017373050683399877 0.038135291872808112 0 0.0020689900093735195 0.037698157800733316 0 0.0014922357295957167 0.037673880258355802 0 0.0039065117031346396 0.039201349587762183 0 0.0031171007103328045 0.037425506772833537 0 0.0023268368794957446 0.035232679960538457 0 0.0019566182313402458 0.034776754804562937 0 0.0018792303193790817 0.03584714666452464 0 0.0023268368794957446 0.035232679960538457 0 0.0018792303193790817 0.03584714666452464 0 0.0023745183621608486 0.03573797392172906 0 0.0018792303193790817 0.03584714666452464 0 0.0023745183621608486 0.03573797392172906 0 0.0021601792112784478 0.036152892009001451 0 0.0023745183621608486 0.03573797392172906 0 0.0021601792112784478 0.036152892009001451 0 0.0024165718921956738 0.03611522216714317 0 0.0018792303193790817 0.03584714666452464 0 0.0021601792112784478 0.036152892009001451 0 0.0018731929793561236 0.03652103367170683 0 0.0021601792112784478 0.036152892009001451 0 0.0021427124509856687 0.036383155437812328 0 0.0022969227906128294 0.036295798109318302 0 0.0014922357295957167 0.037673880258355802 0 0.0020499966940015226 0.037081626578408966 0 0.0018731929793561236 0.03652103367170683 0 0.0031171007103328045 0.037425506772833537 0 0.0028858218182796032 0.037045389927006192 0 0.0020499966940015226 0.037081626578408966 0 0.0022222416264621953 0.036487285262484348 0 0.0024807598797466422 0.037244199964747447 0 0.0020689900093735195 0.037698157800733316 0 0.0014922357295957167 0.037673880258355802 0 0.0020499966940015226 0.037081626578408966 0 0.0020689900093735195 0.037698157800733316 0 0.0020499966940015226 0.037081626578408966 0 0.0024807598797466422 0.037244199964747447 0 0.0022222416264621953 0.036487285262484348 0 0.002641795264152941 0.036305076460512224 0 0.0019767297854167386 0.036386329263505893 0 0.0020499966940015226 0.037081626578408966 0 0.0018731929793561236 0.03652103367170683 0 0.0022222416264621953 0.036487285262484348 0 0.0022222416264621953 0.036487285262484348 0 0.0019603283063563356 0.03645493890827279 0 0.0019767297854167386 0.036386329263505893 0 0.0018731929793561236 0.03652103367170683 0 0.0022222416264621953 0.036487285262484348 0 0.0019603283063563356 0.03645493890827279 0 0.0019603283063563356 0.03645493890827279 0 0.0020516931996337104 0.036500164733438957 0 0.0019767297854167386 0.036386329263505893 0 0.0018731929793561236 0.03652103367170683 0 0.0019603283063563356 0.03645493890827279 0 0.0020516931996337104 0.036500164733438957 0 0.0018731929793561236 0.03652103367170683 0 0.0020516931996337104 0.036500164733438957 0 0.0021427124509856687 0.036383155437812328 0 0.0020516931996337104 0.036500164733438957 0 0.002208778049624791 0.036448460776626432 0 0.0021427124509856687 0.036383155437812328 0 0.0020516931996337104 0.036500164733438957 0 0.002208778049624791 0.036448460776626432 0 0.0021545359186056412 0.036534937134570608 0 0.002208778049624791 0.036448460776626432 0 0.0021427124509856687 0.036383155437812328 0 0.0022969227906128294 0.036295798109318302 0 0.0021601792112784478 0.036152892009001451 0 0.0018731929793561236 0.03652103367170683 0 0.0021427124509856687 0.036383155437812328 0 0.0033310128791310348 0.037474479285970329 0 0.0028693572308988247 0.036792077115811408 0 0.0035012968527867541 0.036361662661384804 0 0.0033310128791310348 0.037474479285970329 0 0.0024807598797466422 0.037244199964747447 0 0.0028693572308988247 0.036792077115811408 0 0.0022222416264621953 0.036487285262484348 0 0.0028693572308988247 0.036792077115811408 0 0.002641795264152941 0.036305076460512224 0 0.0022222416264621953 0.036487285262484348 0 0.0024807598797466422 0.037244199964747447 0 0.0028693572308988247 0.036792077115811408 0 0.0028693572308988247 0.036792077115811408 0 0.002641795264152941 0.036305076460512224 0 0.0035012968527867541 0.036361662661384804 0 0.0021221979266393223 0.035911338475809393 0 0.0035012968527867541 0.036361662661384804 0 0.0029348363209349003 0.035426386272479828 0 0.0032014115123274473 0.034125035175657903 0 0.0033885127472443877 0.034514054926296868 0 0.0035012968527867541 0.036361662661384804 0 0.0029348363209349003 0.035426386272479828 0 0.0037389164662967518 0.034884439924510388 0 0.0029348363209349003 0.035426386272479828 0 0.0029162063978840349 0.034642053936641125 0 0.0037389164662967518 0.034884439924510388 0 0.0029348363209349003 0.035426386272479828 0 0.0021963287461175653 0.034978103220302842 0 0.0029162063978840349 0.034642053936641125 0 0.0032014115123274473 0.034125035175657903 0 0.003389684119642019 0.033043913591118239 0 0.0021221979266393223 0.035911338475809393 0 0.0029348363209349003 0.035426386272479828 0 0.0021963287461175653 0.034978103220302842 0 0.0021221979266393223 0.035911338475809393 0 0.0021963287461175653 0.034978103220302842 0 0.0013267113028563916 0.035229074805843245 0 0.0021963287461175653 0.034978103220302842 0 0.0016263595100945835 0.034799417294120456 0 0.0013267113028563916 0.035229074805843245 0 0.0021963287461175653 0.034978103220302842 0 0.0016263595100945835 0.034799417294120456 0 0.0017021730307606032 0.034351418714650521 0 0.0016263595100945835 0.034799417294120456 0 0.0017021730307606032 0.034351418714650521 0 0.0012801379683792646 0.034638371879664703 0 0.0017772814278629444 0.03359591192394118 0 0.0017021730307606032 0.034351418714650521 0 0.0024309781317211209 0.034002946564482182 0 0.0017772814278629444 0.03359591192394118 0 0.0017021730307606032 0.034351418714650521 0 0.0011824043400920877 0.034171586124313418 0 0.0021963287461175653 0.034978103220302842 0 0.0017021730307606032 0.034351418714650521 0 0.0024309781317211209 0.034002946564482182 0 0.0021963287461175653 0.034978103220302842 0 0.0024309781317211209 0.034002946564482182 0 0.0029162063978840349 0.034642053936641125 0 0.0024309781317211209 0.034002946564482182 0 0.0029162063978840349 0.034642053936641125 0 0.0032732636573846305 0.03392533485870184 0 0.0029162063978840349 0.034642053936641125 0 0.0032732636573846305 0.03392533485870184 0 0.0037389164662967518 0.034884439924510388 0 0.0020516931996337104 0.036500164733438957 0 0.0021312199189460457 0.036615909283683315 0 0.0019767297854167386 0.036386329263505893 0 -4.5056145258450854e-05 0.034909888731094983 0 -0.00021437592872916721 0.03510969540519765 0 0.00090943102047924226 0.035474988607023986 0 0.005381750562029824 0.031258461461165198 0 0.003389684119642019 0.033043913591118239 0 0.0078620619324865741 0.030399175654457263 0 0.0049554476422811805 0.029753659648126689 0 0.0056218743049434704 0.033034166804128372 0 0.0045169513312354418 0.031405547089638157 0 0.0054037481274247477 0.030836390634865037 0 0.0054037481274247477 0.030836390634865037 0 0.0059359967896863812 0.030974114559417322 0 0.0049554476422811805 0.029753659648126689 0 0.0056218743049434704 0.033034166804128372 0 0.0038301132639065334 0.03248944405928636 0 0.005381750562029824 0.031258461461165198 0 0.0059359967896863812 0.030974114559417322 0 0.0045169513312354418 0.031405547089638157 0 0.005381750562029824 0.031258461461165198 0 0.0021312199189460457 0.036615909283683315 0 0.0021545359186056412 0.036534937134570608 0 0.0022291002488678442 0.03656434507687225 0 0.0020516931996337104 0.036500164733438957 0 0.0021312199189460457 0.036615909283683315 0 0.0021545359186056412 0.036534937134570608 0 0.0021221979266393223 0.035911338475809393 0 0.00090943102047924226 0.035474988607023986 0 0.0013267113028563916 0.035229074805843245 0 -4.5056145258450854e-05 0.034909888731094983 0 0.00090943102047924226 0.035474988607023986 0 0.0013267113028563916 0.035229074805843245 0 -0.0002060161448943369 0.034873515889470623 0 0.0013267113028563916 0.035229074805843245 0 0.00066025602372185403 0.034578290459696806 0 0.0045169513312354418 0.031405547089638157 0 0.0027384928067570005 0.031940374380455383 0 0.0016263595100945835 0.034799417294120456 0 0.0013267113028563916 0.035229074805843245 0 0.0012801379683792646 0.034638371879664703 0 0.0013267113028563916 0.035229074805843245 0 0.00066025602372185403 0.034578290459696806 0 0.0012801379683792646 0.034638371879664703 0 0.0017021730307606032 0.034351418714650521 0 0.0012801379683792646 0.034638371879664703 0 0.0011824043400920877 0.034171586124313418 0 0.00066025602372185403 0.034578290459696806 0 0.0012801379683792646 0.034638371879664703 0 0.0011824043400920877 0.034171586124313418 0 0.00081033606891778157 0.033669466451584334 0 0.0017772814278629444 0.03359591192394118 0 0.0011824043400920877 0.034171586124313418 0 0.00081033606891778157 0.033669466451584334 0 0.00066025602372185403 0.034578290459696806 0 0.0011824043400920877 0.034171586124313418 0 0.00081033606891778157 0.033669466451584334 0 -0.0002060161448943369 0.034873515889470623 0 0.00066025602372185403 0.034578290459696806 0 0.0024171047477330415 0.032755021795312332 0 0.0045169513312354418 0.031405547089638157 0 0.0013092219154700378 0.032204377758811076 0 0.0016044969135038537 0.03228960557942543 0 0.0012074371226266285 0.032753306856651884 0 0.0032018399136696102 0.025757822262738345 0 0.0037388077141895428 0.025687471578659637 0 0.0035010108924263756 0.026296043548993113 0 0.0035278170067297361 0.029270638320834954 0 0.0054037481274247477 0.030836390634865037 0 0.0013092219154700378 0.032204377758811076 0 0.0012074371226266285 0.032753306856651884 0 0.0011121863881767152 0.032731193597976868 0 0.0032018399136696102 0.025757822262738345 0 0.0035010108924263756 0.026296043548993113 0 0.0028463620845711603 0.026143874520539404 0 0.0054037481274247477 0.030836390634865037 0 0.0089704170846238562 0.027750264666583958 0 0.0064397175010137584 0.029166860431697524 0 0.0084298093897641896 0.029392060449570056 0 0.0085209679696789265 0.029619093225625781 0 0.0026776861565512224 0.025717879890184828 0 0.0032018399136696102 0.025757822262738345 0 0.0028463620845711603 0.026143874520539404 0 0.0086300737202226648 0.025289910541961488 0 0.0089704170846238562 0.027750264666583958 0 0.0085758901886009171 0.026470314892219928 0 0.0082913619666596678 0.027804797683563559 0 0.0079664535102064345 0.027224209916102561 0 0.0085758901886009171 0.026470314892219928 0 0.0091855245847505523 0.0280050160583467 0 0.0082913619666596678 0.027804797683563559 0 0.0086300737202226648 0.025289910541961488 0 0.010967195342211506 0.026229866231098131 0 0.0092400943379849759 0.02827399462958987 0 0.0089704170846238562 0.027750264666583958 0 0.0089704170846238562 0.027750264666583958 0 0.011118056792066736 0.02715323417963663 0 0.0092400943379849759 0.02827399462958987 0 0.011312392285919948 0.027560943999745575 0 0.009441540847653123 0.027567490494122576 0 0.010622768837171854 0.027578341421901902 0 0.010782633657374224 0.027861297909850813 0 0.0092845695458862593 0.027175979343408194 0 0.009441540847653123 0.027567490494122576 0 0.010622768837171854 0.027578341421901902 0 0.011312392285919948 0.027560943999745575 0 0.011118056792066736 0.02715323417963663 0 0.0092400943379849759 0.02827399462958987 0 0.0097598974711571116 0.030521709572685771 0 0.010849389000044578 0.027666548873393787 0 0.010772582549605791 0.028878391053813301 0 0.01181874262749095 0.03011603743543613 0 0.021560075921990378 0.026551343466815185 0 0.02187700996116956 0.027100085536389415 0 0.021502390951098987 0.027095511792704988 0 0.011312392285919948 0.027560943999745575 0 0.01183524951888495 0.029108144695381123 0 0.010849389000044578 0.027666548873393787 0 0.0099428854254521269 0.027388294063440604 0 0.010772582549605791 0.028878391053813301 0 0.02187700996116956 0.027100085536389415 0 0.021522466361277744 0.027458327095920162 0 0.021502390951098987 0.027095511792704988 0 0.0092400943379849759 0.02827399462958987 0 0.0059359967896863812 0.030974114559417322 0 0.0064397175010137584 0.029166860431697524 0 0.0084298093897641896 0.029392060449570056 0 0.0065753024549112396 0.028837841463921699 0 0.008749126702219447 0.029097528433249139 0 0.0099125253142264575 0.029455981195588773 0 0.0097535215530041262 0.029846458817015028 0 0.008749126702219447 0.029097528433249139 0 0.0097535215530041262 0.029846458817015028 0 0.0092726510023229299 0.030415119888844992 0 0.0074865936650962226 0.030967249745954252 0 0.0070575621560247876 0.030836729817627702 0 0.0065528724042974726 0.032067297789102452 0 0.0059359967896863812 0.030974114559417322 0 0.0068591897467210573 0.031243566040748575 0 0.005381750562029824 0.031258461461165198 0 0.0068591897467210573 0.031243566040748575 0 0.0068591897467210573 0.031243566040748575 0 0.0097598974711571116 0.030521709572685771 0 0.0068591897467210573 0.031243566040748575 0 0.009309296065198357 0.031066137659347647 0 0.002208778049624791 0.036448460776626432 0 0.0021545359186056412 0.036534937134570608 0 0.0022291002488678442 0.03656434507687225 0 0.002208778049624791 0.036448460776626432 0 0.0022291002488678442 0.03656434507687225 0 0.0024115733975032835 0.036359818302028508 0 0.002208778049624791 0.036448460776626432 0 0.0024115733975032835 0.036359818302028508 0 0.0022969227906128294 0.036295798109318302 0 0.0096308783907902221 0.030807494839253137 0 0.009309296065198357 0.031066137659347647 0 0.0094217307138527023 0.032187322051212962 0 0.0099054393175057511 0.031010912171934166 0 0.0079746598585175143 0.029611064703730511 0 0.009309296065198357 0.031066137659347647 0 0.0097598974711571116 0.030521709572685771 0 0.0099054393175057511 0.031010912171934166 0 0.0079746598585175143 0.029611064703730511 0 0.0089091635988340755 0.028511918858511249 0 0.0096308783907902221 0.030807494839253137 0 0.010948612446635751 0.030098205146844033 0 0.0078636068076283431 0.030706042806128177 0 0.0080490561697601753 0.030271814110001176 0 0.008108337470597719 0.030424262632317397 0 0.010948612446635751 0.030098205146844033 0 0.0097598974711571116 0.030521709572685771 0 0.01183524951888495 0.029108144695381123 0 0.010948612446635751 0.030098205146844033 0 0.010772582549605791 0.028878391053813301 0 0.011604188313954973 0.030368599005101395 0 0.01181874262749095 0.03011603743543613 0 0.02187700996116956 0.027100085536389415 0 0.022181484122319184 0.027646481009197699 0 0.021806008315413711 0.027594698216628109 0 0.02187700996116956 0.027100085536389415 0 0.021806008315413711 0.027594698216628109 0 0.021522466361277744 0.027458327095920162 0 0.021806008315413711 0.027594698216628109 0 0.021522466361277744 0.027458327095920162 0 0.021445749393113677 0.027739545914503519 0 0.021806008315413711 0.027594698216628109 0 0.021678063587912202 0.027920120787739325 0 0.021445749393113677 0.027739545914503519 0 0.022181484122319184 0.027646481009197699 0 0.021806008315413711 0.027594698216628109 0 0.021678063587912202 0.027920120787739325 0 0.022052959776904132 0.028857317952167196 0 0.021973895143008865 0.028726962240271933 0 0.021575372557781466 0.029219948133682245 0 0.010948612446635751 0.030098205146844033 0 0.018007253742617104 0.027839065432205341 0 0.022181484122319184 0.027646481009197699 0 0.021678063587912202 0.027920120787739325 0 0.021541254859255246 0.02848074306673239 0 0.021888100606370715 0.029422640180757687 0 0.022052959776904132 0.028857317952167196 0 0.021575372557781466 0.029219948133682245 0 0.011461841962493174 0.031916539345298964 0 0.0096308783907902221 0.030807494839253137 0 0.0034923474456475712 0.035703492861911226 0 0.0030175555152370547 0.036824291203589342 0 0.0027486478434725525 0.036363243891137945 0 0.0085938658983564908 0.031973921388117957 0 0.0090643586330450224 0.031565634119923074 0 0.0024115733975032835 0.036359818302028508 0 0.0024165718921956738 0.03611522216714317 0 0.0022969227906128294 0.036295798109318302 0 0.0021601792112784478 0.036152892009001451 0 0.0024165718921956738 0.03611522216714317 0 0.0022969227906128294 0.036295798109318302 0 0.009309296065198357 0.031066137659347647 0 0.0090643586330450224 0.031565634119923074 0 0.0096308783907902221 0.030807494839253137 0 0.0090643586330450224 0.031565634119923074 0 0.0088090365655414254 0.030915718144181398 0 0.0088821445141303631 0.030737489392138752 0 0.0091810824359342298 0.031576862406370802 0 0.020701787485094238 0.028501150141155819 0 0.021010879178213003 0.028134985620461489 0 0.020595924277414357 0.027679745460378213 0 0.020701787485094238 0.028501150141155819 0 0.020081981529376902 0.027862777960592854 0 0.020063654365955728 0.029013959124456586 0 0.020701787485094238 0.028501150141155819 0 0.020595924277414357 0.027679745460378213 0 0.020081981529376902 0.027862777960592854 0 0.020701787485094238 0.028501150141155819 0 0.021541254859255246 0.02848074306673239 0 0.021010879178213003 0.028134985620461489 0 0.021541254859255246 0.02848074306673239 0 0.021367198668930019 0.028088412872437914 0 0.021010879178213003 0.028134985620461489 0 0.021678063587912202 0.027920120787739325 0 0.021367198668930019 0.028088412872437914 0 0.021445749393113677 0.027739545914503519 0 0.021678063587912202 0.027920120787739325 0 0.021541254859255246 0.02848074306673239 0 0.021367198668930019 0.028088412872437914 0 0.021367198668930019 0.028088412872437914 0 0.021010879178213003 0.028134985620461489 0 0.021069985274474661 0.027740583571621652 0 0.021069985274474661 0.027740583571621652 0 0.021445749393113677 0.027739545914503519 0 0.021269959671631422 0.027523841448905715 0 0.021367198668930019 0.028088412872437914 0 0.021069985274474661 0.027740583571621652 0 0.021445749393113677 0.027739545914503519 0 0.021522466361277744 0.027458327095920162 0 0.021445749393113677 0.027739545914503519 0 0.021269959671631422 0.027523841448905715 0 0.021522466361277744 0.027458327095920162 0 0.021269959671631422 0.027523841448905715 0 0.021272731293752949 0.027291653559322525 0 0.021069985274474661 0.027740583571621652 0 0.021035340484205439 0.027384749400095568 0 0.020829591615389071 0.027502006575141694 0 0.021069985274474661 0.027740583571621652 0 0.021269959671631422 0.027523841448905715 0 0.021035340484205439 0.027384749400095568 0 0.021269959671631422 0.027523841448905715 0 0.021035340484205439 0.027384749400095568 0 0.021272731293752949 0.027291653559322525 0 0.021035340484205439 0.027384749400095568 0 0.020882907106779171 0.02730123490894493 0 0.020829591615389071 0.027502006575141694 0 0.017193312037924877 0.025899710154896727 0 0.018387837783950433 0.026639931835246582 0 0.020829591615389071 0.027502006575141694 0 0.020595924277414357 0.027679745460378213 0 0.02068405378443142 0.027160182138278453 0 0.020598669421325044 0.026971761373810743 0 0.020166741560466491 0.027047024140263089 0 0.020185719036777607 0.027673982378965369 0 0.020595924277414357 0.027679745460378213 0 0.02068405378443142 0.027160182138278453 0 0.020081981529376902 0.027862777960592854 0 0.020882907106779171 0.02730123490894493 0 0.020829591615389071 0.027502006575141694 0 0.02068405378443142 0.027160182138278453 0 0.021010879178213003 0.028134985620461489 0 0.021069985274474661 0.027740583571621652 0 0.020595924277414357 0.027679745460378213 0 0.021069985274474661 0.027740583571621652 0 0.020829591615389071 0.027502006575141694 0 0.020595924277414357 0.027679745460378213 0 0.020562407135981606 0.026903247057746695 0 0.020589110500820015 0.026840307079136167 0 0.020579100938277375 0.026760857022364869 0 0.020598669421325044 0.026971761373810743 0 0.020562407135981606 0.026903247057746695 0 0.020166741560466491 0.027047024140263089 0 0.020562407135981606 0.026903247057746695 0 0.020214119509739559 0.026830508700528534 0 0.020166741560466491 0.027047024140263089 0 0.020882907106779171 0.02730123490894493 0 0.02068405378443142 0.027160182138278453 0 0.020996484454200232 0.027130516244490758 0 0.020598669421325044 0.026971761373810743 0 0.020562407135981606 0.026903247057746695 0 0.020589110500820015 0.026840307079136167 0 0.020562407135981606 0.026903247057746695 0 0.020453200793293456 0.026722854767111531 0 0.020607362545040551 0.026591189039502385 0 0.020562407135981606 0.026903247057746695 0 0.020453200793293456 0.026722854767111531 0 0.020214119509739559 0.026830508700528534 0 0.020453200793293456 0.026722854767111531 0 0.020481884613353485 0.026600288736491097 0 0.020607362545040551 0.026591189039502385 0 0.020453200793293456 0.026722854767111531 0 0.020283587820829618 0.026609608429160065 0 0.020214119509739559 0.026830508700528534 0 0.020453200793293456 0.026722854767111531 0 0.020481884613353485 0.026600288736491097 0 0.020283587820829618 0.026609608429160065 0 0.020598669421325044 0.026971761373810743 0 0.020589110500820015 0.026840307079136167 0 0.020632324532414068 0.026757536153318332 0 0.017193312037924877 0.025899710154896727 0 0.012451462794249591 0.026615796041321693 0 0.02068405378443142 0.027160182138278453 0 0.021100770139545273 0.026918135181555607 0 0.021268673985020085 0.02642694557430959 0 0.021522466361277744 0.027458327095920162 0 0.021502390951098987 0.027095511792704988 0 0.021272731293752949 0.027291653559322525 0 0.021502390951098987 0.027095511792704988 0 0.021272731293752949 0.027291653559322525 0 0.021251128187035454 0.027040017268755271 0 0.02068405378443142 0.027160182138278453 0 0.020996484454200232 0.027130516244490758 0 0.021100770139545273 0.026918135181555607 0 0.021251128187035454 0.027040017268755271 0 0.020996484454200232 0.027130516244490758 0 0.021100770139545273 0.026918135181555607 0 0.021035340484205439 0.027384749400095568 0 0.021272731293752949 0.027291653559322525 0 0.020996484454200232 0.027130516244490758 0 0.021272731293752949 0.027291653559322525 0 0.021251128187035454 0.027040017268755271 0 0.020996484454200232 0.027130516244490758 0 0.021035340484205439 0.027384749400095568 0 0.020882907106779171 0.02730123490894493 0 0.020996484454200232 0.027130516244490758 0 0.021560075921990378 0.026551343466815185 0 0.021502390951098987 0.027095511792704988 0 0.021328325354728797 0.026803569782851665 0 0.021100770139545273 0.026918135181555607 0 0.021328325354728797 0.026803569782851665 0 0.021268673985020085 0.02642694557430959 0 0.021251128187035454 0.027040017268755271 0 0.021100770139545273 0.026918135181555607 0 0.021328325354728797 0.026803569782851665 0 0.021502390951098987 0.027095511792704988 0 0.021251128187035454 0.027040017268755271 0 0.021328325354728797 0.026803569782851665 0 0.021560075921990378 0.026551343466815185 0 0.021328325354728797 0.026803569782851665 0 0.021268673985020085 0.02642694557430959 0 0.011056204995363783 0.026511175950149395 0 0.011184098606812439 0.026737216686271104 0 0.01199075788372316 0.026912868033103124 0 0.011312392285919948 0.027560943999745575 0 0.012451462794249591 0.026615796041321693 0 0.011118056792066736 0.02715323417963663 0 0.012451462794249591 0.026615796041321693 0 0.010792361268113927 0.028218394438498464 0 0.0095144451400402379 0.027933637609068886 0 0.010175378859238308 0.027117843087272612 0 0.020589110500820015 0.026840307079136167 0 0.020632324532414068 0.026757536153318332 0 0.020596726065883024 0.026788166389300167 0 0.020589110500820015 0.026840307079136167 0 0.020596726065883024 0.026788166389300167 0 0.020579100938277375 0.026760857022364869 0 0.020632324532414068 0.026757536153318332 0 0.020600673083162987 0.026768273362524533 0 0.020596726065883024 0.026788166389300167 0 0.012451462794249591 0.026615796041321693 0 0.012834152986581776 0.026652981464524144 0 0.020600673083162987 0.026768273362524533 0 0.020596726065883024 0.026788166389300167 0 0.020579100938277375 0.026760857022364869 0 0.012451462794249591 0.026615796041321693 0 0.013370119479997531 0.025258799687932102 0 0.011503163309635986 0.026114613210011427 0 0.011134372951414265 0.026031760383847406 0 0.011628708103232032 0.025958770512467672 0 0.011354922207282792 0.025471716687787683 0 0.011134372951414265 0.026031760383847406 0 0.011628708103232032 0.025958770512467672 0 0.020625538475264413 0.026771732535152318 0 0.020600673083162987 0.026768273362524533 0 0.020579100938277375 0.026760857022364869 0 0.012451462794249591 0.026615796041321693 0 0.010967195342211506 0.026229866231098131 0 0.011118056792066736 0.02715323417963663 0 0.010967195342211506 0.026229866231098131 0 0.020562407135981606 0.026903247057746695 0 0.020787381925517712 0.026312246619431486 0 0.020607362545040551 0.026591189039502385 0 0.014458331243588553 0.025118605917935532 0 0.013370119479997531 0.025258799687932102 0 0.020449663418197272 0.026475322878195085 0 0.020518981532889252 0.02637078557276441 0 0.020264128870241687 0.026367875224345583 0 0.020449663418197272 0.026475322878195085 0 0.020518981532889252 0.02637078557276441 0 0.020554023030487967 0.026450131399676075 0 0.020449663418197272 0.026475322878195085 0 0.020546264901137964 0.026529530775358398 0 0.020554023030487967 0.026450131399676075 0 0.020449663418197272 0.026475322878195085 0 0.020264128870241687 0.026367875224345583 0 0.020283587820829618 0.026609608429160065 0 0.020449663418197272 0.026475322878195085 0 0.020481884613353485 0.026600288736491097 0 0.020283587820829618 0.026609608429160065 0 0.020449663418197272 0.026475322878195085 0 0.020481884613353485 0.026600288736491097 0 0.020546264901137964 0.026529530775358398 0 0.020607362545040551 0.026591189039502385 0 0.02060780258556421 0.026489394534827009 0 0.020691761090215102 0.026393502640160833 0 0.020787381925517712 0.026312246619431486 0 0.020607362545040551 0.026591189039502385 0 0.020691761090215102 0.026393502640160833 0 0.020481884613353485 0.026600288736491097 0 0.020607362545040551 0.026591189039502385 0 0.020546264901137964 0.026529530775358398 0 0.020607362545040551 0.026591189039502385 0 0.02060780258556421 0.026489394534827009 0 0.020546264901137964 0.026529530775358398 0 0.02060780258556421 0.026489394534827009 0 0.020546264901137964 0.026529530775358398 0 0.020554023030487967 0.026450131399676075 0 0.02060780258556421 0.026489394534827009 0 0.020554023030487967 0.026450131399676075 0 0.020613596219100597 0.026433496885188125 0 0.02060780258556421 0.026489394534827009 0 0.020691761090215102 0.026393502640160833 0 0.020613596219100597 0.026433496885188125 0 0.020691761090215102 0.026393502640160833 0 0.020613596219100597 0.026433496885188125 0 0.020608512517356323 0.026354656828197695 0 0.020518981532889252 0.02637078557276441 0 0.020613596219100597 0.026433496885188125 0 0.020608512517356323 0.026354656828197695 0 0.020518981532889252 0.02637078557276441 0 0.020554023030487967 0.026450131399676075 0 0.020613596219100597 0.026433496885188125 0 0.010914702901327443 0.023498730523665353 0 0.01107276610896508 0.024455231055554277 0 0.010490694006738233 0.024325760906995592 0 0.020518981532889252 0.02637078557276441 0 0.020608512517356323 0.026354656828197695 0 0.020586577887399347 0.026269184749486744 0 0.020691761090215102 0.026393502640160833 0 0.020608512517356323 0.026354656828197695 0 0.020586577887399347 0.026269184749486744 0 0.013370119479997531 0.025258799687932102 0 0.014426744540202973 0.024751476768909431 0 0.020787381925517712 0.026312246619431486 0 0.020691761090215102 0.026393502640160833 0 0.020586577887399347 0.026269184749486744 0 0.014426744540202973 0.024751476768909431 0 0.01576324253575526 0.025058055778384363 0 0.020118509151831554 0.025933918780743123 0 0.020522014185848814 0.026258321418649873 0 0.020165988412759989 0.026181789748230822 0 0.020586577887399347 0.026269184749486744 0 0.020165988412759989 0.026181789748230822 0 0.020264128870241687 0.026367875224345583 0 0.020518981532889252 0.02637078557276441 0 0.020586577887399347 0.026269184749486744 0 0.020264128870241687 0.026367875224345583 0 0.020165988412759989 0.026181789748230822 0 0.020264128870241687 0.026367875224345583 0 0.019837889329416006 0.026670264891236615 0 0.016142110724014697 0.023744865535681579 0 0.01691444578505924 0.024643854768248985 0 0.019918962941741107 0.025650325226308057 0 0.020343025465489224 0.025700357577637827 0 0.019837889329416006 0.026670264891236615 0 0.020118509151831554 0.025933918780743123 0 0.020165988412759989 0.026181789748230822 0 0.019837889329416006 0.026670264891236615 0 0.020264128870241687 0.026367875224345583 0 0.020283587820829618 0.026609608429160065 0 0.019837889329416006 0.026670264891236615 0 0.020214119509739559 0.026830508700528534 0 0.019837889329416006 0.026670264891236615 0 0.020166741560466491 0.027047024140263089 0 0.020283587820829618 0.026609608429160065 0 0.020214119509739559 0.026830508700528534 0 0.019837889329416006 0.026670264891236615 0 0.019837889329416006 0.026670264891236615 0 0.020166741560466491 0.027047024140263089 0 0.019530385489100185 0.027227004834226114 0 0.019837889329416006 0.026670264891236615 0 0.019109543663082304 0.026554548031672665 0 0.019530385489100185 0.027227004834226114 0 0.019837889329416006 0.026670264891236615 0 0.019467834102576589 0.02617058980658073 0 0.019109543663082304 0.026554548031672665 0 0.019918962941741107 0.025650325226308057 0 0.019837889329416006 0.026670264891236615 0 0.019467834102576589 0.02617058980658073 0 0.0190730158229033 0.025819934935097766 0 0.019467834102576589 0.02617058980658073 0 0.019109543663082304 0.026554548031672665 0 0.0190730158229033 0.025819934935097766 0 0.018656111270549506 0.026359667030038812 0 0.019109543663082304 0.026554548031672665 0 0.018656111270549506 0.026359667030038812 0 0.018651843541970019 0.026934581827194531 0 0.019109543663082304 0.026554548031672665 0 0.018651843541970019 0.026934581827194531 0 0.019109543663082304 0.026554548031672665 0 0.01887959831642751 0.027423361574778447 0 0.019109543663082304 0.026554548031672665 0 0.01887959831642751 0.027423361574778447 0 0.019530385489100185 0.027227004834226114 0 0.018651843541970019 0.026934581827194531 0 0.01887959831642751 0.027423361574778447 0 0.018413156622453065 0.02756498419667866 0 0.01887959831642751 0.027423361574778447 0 0.018413156622453065 0.02756498419667866 0 0.018673220111812588 0.028395234112782872 0 0.018413156622453065 0.02756498419667866 0 0.01799805706009883 0.028510159706869924 0 0.018673220111812588 0.028395234112782872 0 0.01887959831642751 0.027423361574778447 0 0.019327833544005607 0.0278452592086419 0 0.018673220111812588 0.028395234112782872 0 0.019327833544005607 0.0278452592086419 0 0.019481511514499769 0.02855726915735721 0 0.018673220111812588 0.028395234112782872 0 0.019327833544005607 0.0278452592086419 0 0.020185719036777607 0.027673982378965369 0 0.019481511514499769 0.02855726915735721 0 0.018387837783950433 0.026639931835246582 0 0.018533594202137359 0.027096262814697181 0 0.020081981529376902 0.027862777960592854 0 0.020063654365955728 0.029013959124456586 0 0.019481511514499769 0.02855726915735721 0 0.020166741560466491 0.027047024140263089 0 0.020185719036777607 0.027673982378965369 0 0.019530385489100185 0.027227004834226114 0 0.019327833544005607 0.0278452592086419 0 0.020185719036777607 0.027673982378965369 0 0.019530385489100185 0.027227004834226114 0 0.01887959831642751 0.027423361574778447 0 0.019327833544005607 0.0278452592086419 0 0.019530385489100185 0.027227004834226114 0 0.018539542798877012 0.026219538253092225 0 0.01871572698543579 0.025656890317956149 0 0.018620244516861967 0.026180372177428125 0 0.018756105005303246 0.025339127880350396 0 0.018539542798877012 0.026219538253092225 0 0.01871572698543579 0.025656890317956149 0 0.018791003631093352 0.025319642506262775 0 0.018756105005303246 0.025339127880350396 0 0.01871572698543579 0.025656890317956149 0 0.018767398934202737 0.025606872525189409 0 0.018774390797205335 0.025475823986810545 0 0.01871572698543579 0.025656890317956149 0 0.018767398934202737 0.025606872525189409 0 0.01871572698543579 0.025656890317956149 0 0.018620244516861967 0.026180372177428125 0 0.018767398934202737 0.025606872525189409 0 0.018620244516861967 0.026180372177428125 0 0.018783602679419732 0.0259534905841706 0 0.018539542798877012 0.026219538253092225 0 0.018620244516861967 0.026180372177428125 0 0.018379733004862731 0.02680618456309793 0 0.018620244516861967 0.026180372177428125 0 0.018379733004862731 0.02680618456309793 0 0.018400726057308341 0.026745734779274437 0 0.018620244516861967 0.026180372177428125 0 0.018783602679419732 0.0259534905841706 0 0.018400726057308341 0.026745734779274437 0 0.017732970008551976 0.025954707529439926 0 0.018250592767937789 0.026089024116122187 0 0.018400726057308341 0.026745734779274437 0 0.018269104994082724 0.025654800937353017 0 0.018386537519827263 0.025955315641412808 0 0.018475143224369748 0.025763501387657602 0 0.018656111270549506 0.026359667030038812 0 0.018250592767937789 0.026089024116122187 0 0.018656111270549506 0.026359667030038812 0 0.018250592767937789 0.026089024116122187 0 0.018400726057308341 0.026745734779274437 0 0.018656111270549506 0.026359667030038812 0 0.018651843541970019 0.026934581827194531 0 0.018400726057308341 0.026745734779274437 0 0.018413156622453065 0.02756498419667866 0 0.018400726057308341 0.026745734779274437 0 0.018144203297947092 0.027563197649875526 0 0.018651843541970019 0.026934581827194531 0 0.018413156622453065 0.02756498419667866 0 0.018400726057308341 0.026745734779274437 0 0.018413156622453065 0.02756498419667866 0 0.018144203297947092 0.027563197649875526 0 0.01799805706009883 0.028510159706869924 0 0.018144203297947092 0.027563197649875526 0 0.017714365072501681 0.028454468052615239 0 0.01799805706009883 0.028510159706869924 0 0.018379733004862731 0.02680618456309793 0 0.018400726057308341 0.026745734779274437 0 0.018144203297947092 0.027563197649875526 0 0.018379733004862731 0.02680618456309793 0 0.018144203297947092 0.027563197649875526 0 0.018135408159261065 0.027363908587351694 0 0.018539542798877012 0.026219538253092225 0 0.018379733004862731 0.02680618456309793 0 0.018135408159261065 0.027363908587351694 0 0.018144203297947092 0.027563197649875526 0 0.018135408159261065 0.027363908587351694 0 0.017714365072501681 0.028454468052615239 0 0.018245198426875213 0.027223459697116023 0 0.018135408159261065 0.027363908587351694 0 0.017593752532229123 0.028489590964838541 0 0.018245198426875213 0.027223459697116023 0 0.018539542798877012 0.026219538253092225 0 0.018135408159261065 0.027363908587351694 0 0.017593752532229123 0.028489590964838541 0 0.017314339176001437 0.029194850261935679 0 0.016988391719262499 0.029567441881581537 0 0.017593752532229123 0.028489590964838541 0 0.017314339176001437 0.029194850261935679 0 0.017714365072501681 0.028454468052615239 0 0.018135408159261065 0.027363908587351694 0 0.017593752532229123 0.028489590964838541 0 0.017714365072501681 0.028454468052615239 0 0.017314339176001437 0.029194850261935679 0 0.017714365072501681 0.028454468052615239 0 0.017365750923767628 0.029603842277706099 0 0.017714365072501681 0.028454468052615239 0 0.01799805706009883 0.028510159706869924 0 0.017365750923767628 0.029603842277706099 0 0.01799805706009883 0.028510159706869924 0 0.017365750923767628 0.029603842277706099 0 0.018058405426403468 0.029380414880523783 0 0.017365750923767628 0.029603842277706099 0 0.018058405426403468 0.029380414880523783 0 0.017371906899586669 0.03049438945825237 0 0.017365750923767628 0.029603842277706099 0 0.016436399674009054 0.031211760352699427 0 0.017371906899586669 0.03049438945825237 0 0.016436399674009054 0.031211760352699427 0 0.017008554616442406 0.030135374296585721 0 0.01695845876885688 0.030458509570827491 0 0.017365750923767628 0.029603842277706099 0 0.016436399674009054 0.031211760352699427 0 0.017008554616442406 0.030135374296585721 0 0.017314339176001437 0.029194850261935679 0 0.017365750923767628 0.029603842277706099 0 0.017008554616442406 0.030135374296585721 0 0.017314339176001437 0.029194850261935679 0 0.017008554616442406 0.030135374296585721 0 0.016988391719262499 0.029567441881581537 0 0.017008554616442406 0.030135374296585721 0 0.01695845876885688 0.030458509570827491 0 0.016988391719262499 0.029567441881581537 0 0.015920350681867011 0.03044474737359449 0 0.01695845876885688 0.030458509570827491 0 0.016988391719262499 0.029567441881581537 0 0.018958808855953725 0.029558389974993313 0 0.020063654365955728 0.029013959124456586 0 0.019914347524115739 0.030711521646640288 0 0.018958808855953725 0.029558389974993313 0 0.019481511514499769 0.02855726915735721 0 0.018673220111812588 0.028395234112782872 0 0.018958808855953725 0.029558389974993313 0 0.020063654365955728 0.029013959124456586 0 0.019481511514499769 0.02855726915735721 0 0.018958808855953725 0.029558389974993313 0 0.018673220111812588 0.028395234112782872 0 0.018058405426403468 0.029380414880523783 0 0.01799805706009883 0.028510159706869924 0 0.018673220111812588 0.028395234112782872 0 0.018058405426403468 0.029380414880523783 0 0.018958808855953725 0.029558389974993313 0 0.018058405426403468 0.029380414880523783 0 0.018181644532965953 0.030338218855461084 0 0.018181644532965953 0.030338218855461084 0 0.017371906899586669 0.03049438945825237 0 0.017210726675844883 0.031989848726907695 0 0.018058405426403468 0.029380414880523783 0 0.018181644532965953 0.030338218855461084 0 0.017371906899586669 0.03049438945825237 0 0.016436399674009054 0.031211760352699427 0 0.017371906899586669 0.03049438945825237 0 0.017210726675844883 0.031989848726907695 0 0.017210726675844883 0.031989848726907695 0 0.018613467956205623 0.031308871674297703 0 0.017558776516016766 0.03304124305869343 0 0.018181644532965953 0.030338218855461084 0 0.017210726675844883 0.031989848726907695 0 0.018613467956205623 0.031308871674297703 0 0.018613467956205623 0.031308871674297703 0 0.019586974247236003 0.03178655724014335 0 0.018742829763669217 0.03280062603483181 0 0.018958808855953725 0.029558389974993313 0 0.018613467956205623 0.031308871674297703 0 0.019914347524115739 0.030711521646640288 0 0.018958808855953725 0.029558389974993313 0 0.018181644532965953 0.030338218855461084 0 0.018613467956205623 0.031308871674297703 0 0.020589388489976032 0.031583647013961283 0 0.019914347524115739 0.030711521646640288 0 0.019586974247236003 0.03178655724014335 0 0.018613467956205623 0.031308871674297703 0 0.019914347524115739 0.030711521646640288 0 0.019586974247236003 0.03178655724014335 0 0.019300675767613306 0.033850331794464936 0 0.018742829763669217 0.03280062603483181 0 0.020154487290002406 0.032697830425371409 0 0.019586974247236003 0.03178655724014335 0 0.018742829763669217 0.03280062603483181 0 0.020154487290002406 0.032697830425371409 0 0.019300675767613306 0.033850331794464936 0 0.019026640399789241 0.035692568009456457 0 0.020986935776357196 0.033804235211867269 0 0.019300675767613306 0.033850331794464936 0 0.017303603858614194 0.034524068152226854 0 0.019026640399789241 0.035692568009456457 0 0.019300675767613306 0.033850331794464936 0 0.017303603858614194 0.034524068152226854 0 0.018742829763669217 0.03280062603483181 0 0.018613467956205623 0.031308871674297703 0 0.018742829763669217 0.03280062603483181 0 0.017558776516016766 0.03304124305869343 0 0.017303603858614194 0.034524068152226854 0 0.018742829763669217 0.03280062603483181 0 0.017558776516016766 0.03304124305869343 0 0.017210726675844883 0.031989848726907695 0 0.017558776516016766 0.03304124305869343 0 0.016015781290294118 0.034553081337568223 0 0.017210726675844883 0.031989848726907695 0 0.016015781290294118 0.034553081337568223 0 0.015796752882956684 0.033700680636867847 0 0.017303603858614194 0.034524068152226854 0 0.016015781290294118 0.034553081337568223 0 0.015630668725234432 0.035947392860321538 0 0.017303603858614194 0.034524068152226854 0 0.017558776516016766 0.03304124305869343 0 0.016015781290294118 0.034553081337568223 0 0.017303603858614194 0.034524068152226854 0 0.015630668725234432 0.035947392860321538 0 0.014700083136800209 0.037730798628656768 0 0.016015781290294118 0.034553081337568223 0 0.015630668725234432 0.035947392860321538 0 0.01497315863312644 0.036530815237202086 0 0.01497315863312644 0.036530815237202086 0 0.014700083136800209 0.037730798628656768 0 0.013905275524084111 0.036822624819535611 0 0.015630668725234432 0.035947392860321538 0 0.01497315863312644 0.036530815237202086 0 0.014700083136800209 0.037730798628656768 0 0.014700083136800209 0.037730798628656768 0 0.01014913880977856 0.038614843613376228 0 0.012307675050400183 0.036894351684808369 0 0.014700083136800209 0.037730798628656768 0 0.01014913880977856 0.038614843613376228 0 0.011451610146474877 0.041174794880668476 0 0.01014913880977856 0.038614843613376228 0 0.011451610146474877 0.041174794880668476 0 0.0093475671531523235 0.041250412850360824 0 0.017303603858614194 0.034524068152226854 0 0.014700083136800209 0.037730798628656768 0 0.019026640399789241 0.035692568009456457 0 0.014151478013438261 0.037150002719140769 0 0.013618232023970358 0.037169181301387924 0 0.015238526393759617 0.03182460193026234 0 0.016414925333172597 0.031335879226091372 0 0.015753633735277193 0.032863699360072648 0 0.015920350681867011 0.03044474737359449 0 0.01695845876885688 0.030458509570827491 0 0.016414925333172597 0.031335879226091372 0 0.01695845876885688 0.030458509570827491 0 0.016414925333172597 0.031335879226091372 0 0.017244015359413681 0.031177829506503399 0 0.015970851727472993 0.033035503210995167 0 0.015589232874203463 0.034181823038946957 0 0.016414925333172597 0.031335879226091372 0 0.017244015359413681 0.031177829506503399 0 0.017001496542322518 0.033092426970962659 0 0.014232577533501422 0.034325066489686216 0 0.015796752882956684 0.033700680636867847 0 0.014823130599176995 0.035805178692697316 0 0.016261001702411695 0.032337919829283295 0 0.015970851727472993 0.033035503210995167 0 0.016436399674009054 0.031211760352699427 0 0.014232577533501422 0.034325066489686216 0 0.015796752882956684 0.033700680636867847 0 0.016436399674009054 0.031211760352699427 0 0.01695845876885688 0.030458509570827491 0 0.017244015359413681 0.031177829506503399 0 0.016436399674009054 0.031211760352699427 0 0.017210726675844883 0.031989848726907695 0 0.015796752882956684 0.033700680636867847 0 0.016015781290294118 0.034553081337568223 0 0.015796752882956684 0.033700680636867847 0 0.014823130599176995 0.035805178692697316 0 0.016015781290294118 0.034553081337568223 0 0.01497315863312644 0.036530815237202086 0 0.014823130599176995 0.035805178692697316 0 0.01497315863312644 0.036530815237202086 0 0.014794253063263532 0.03651864264977258 0 0.014516635435639807 0.036631330697230437 0 0.01497315863312644 0.036530815237202086 0 0.014823130599176995 0.035805178692697316 0 0.014794253063263532 0.03651864264977258 0 0.014823130599176995 0.035805178692697316 0 0.014958364806597763 0.036278982434431735 0 0.014794253063263532 0.03651864264977258 0 0.014232577533501422 0.034325066489686216 0 0.014823130599176995 0.035805178692697316 0 0.014516242244774082 0.03592971601769257 0 0.014823130599176995 0.035805178692697316 0 0.014516242244774082 0.03592971601769257 0 0.014958364806597763 0.036278982434431735 0 0.014743643421494109 0.034391862238423394 0 0.017001496542322518 0.033092426970962659 0 0.015267724328515916 0.035904195570206028 0 0.015589232874203463 0.034181823038946957 0 0.015317284776772059 0.034868422578582699 0 0.014516242244774082 0.03592971601769257 0 0.015267724328515916 0.035904195570206028 0 0.014958364806597763 0.036278982434431735 0 0.016414925333172597 0.031335879226091372 0 0.017001496542322518 0.033092426970962659 0 0.015753633735277193 0.032863699360072648 0 0.014743643421494109 0.034391862238423394 0 0.017001496542322518 0.033092426970962659 0 0.015753633735277193 0.032863699360072648 0 0.016239973930678657 0.036748594003174852 0 0.015592545431915759 0.036609512043444467 0 0.016955148957966886 0.036017012142274443 0 0.018278587409502445 0.033135166332632089 0 0.017659558956435752 0.033337580393024792 0 0.015267724328515916 0.035904195570206028 0 0.015351358263004565 0.036268577303878974 0 0.014958364806597763 0.036278982434431735 0 0.014990562917553088 0.036766580055450852 0 0.015267724328515916 0.035904195570206028 0 0.015351358263004565 0.036268577303878974 0 0.014990562917553088 0.036766580055450852 0 0.015592545431915759 0.036609512043444467 0 0.015351358263004565 0.036268577303878974 0 0.015592545431915759 0.036609512043444467 0 0.015351358263004565 0.036268577303878974 0 0.01509576747655564 0.036509926009132651 0 0.015351358263004565 0.036268577303878974 0 0.014958364806597763 0.036278982434431735 0 0.01509576747655564 0.036509926009132651 0 0.015592545431915759 0.036609512043444467 0 0.01509576747655564 0.036509926009132651 0 0.015691754478090982 0.036186026762667023 0 0.01509576747655564 0.036509926009132651 0 0.014310328824681679 0.036490982547542794 0 0.014727137497177547 0.0360437311013527 0 0.01509576747655564 0.036509926009132651 0 0.014794253063263532 0.03651864264977258 0 0.014310328824681679 0.036490982547542794 0 0.014958364806597763 0.036278982434431735 0 0.01509576747655564 0.036509926009132651 0 0.014794253063263532 0.03651864264977258 0 0.014794253063263532 0.03651864264977258 0 0.014310328824681679 0.036490982547542794 0 0.014516635435639807 0.036631330697230437 0 0.014310328824681679 0.036490982547542794 0 0.013686690730991071 0.035907671866988164 0 0.014727137497177547 0.0360437311013527 0 0.013686690730991071 0.035907671866988164 0 0.013858871874933584 0.034999714308153393 0 0.014727137497177547 0.0360437311013527 0 0.013858871874933584 0.034999714308153393 0 0.014727137497177547 0.0360437311013527 0 0.015954835691767456 0.0349999354394568 0 0.014727137497177547 0.0360437311013527 0 0.015691754478090982 0.036186026762667023 0 0.015954835691767456 0.0349999354394568 0 0.01509576747655564 0.036509926009132651 0 0.014727137497177547 0.0360437311013527 0 0.015691754478090982 0.036186026762667023 0 0.018051629043853872 0.034999681870355751 0 0.015954835691767456 0.0349999354394568 0 0.016955148957966886 0.036017012142274443 0 0.015691754478090982 0.036186026762667023 0 0.015954835691767456 0.0349999354394568 0 0.016955148957966886 0.036017012142274443 0 0.015592545431915759 0.036609512043444467 0 0.015691754478090982 0.036186026762667023 0 0.016955148957966886 0.036017012142274443 0 0.012352472444136769 0.036358291916917092 0 0.012307675050400183 0.036894351684808369 0 0.013905275524084111 0.036822624819535611 0 0.012352472444136769 0.036358291916917092 0 0.011053198849246529 0.036359175247310804 0 0.011110803230500208 0.035784471034675733 0 0.012352472444136769 0.036358291916917092 0 0.011053198849246529 0.036359175247310804 0 0.012307675050400183 0.036894351684808369 0 0.011053198849246529 0.036359175247310804 0 0.0095283757770197302 0.03582407440862987 0 0.0098709062997911681 0.036835289976835321 0 0.011053198849246529 0.036359175247310804 0 0.012307675050400183 0.036894351684808369 0 0.0098709062997911681 0.036835289976835321 0 0.01014913880977856 0.038614843613376228 0 0.012307675050400183 0.036894351684808369 0 0.0098709062997911681 0.036835289976835321 0 0.014700083136800209 0.037730798628656768 0 0.012307675050400183 0.036894351684808369 0 0.013905275524084111 0.036822624819535611 0 0.01497315863312644 0.036530815237202086 0 0.013905275524084111 0.036822624819535611 0 0.014516635435639807 0.036631330697230437 0 0.014310328824681679 0.036490982547542794 0 0.013905275524084111 0.036822624819535611 0 0.014516635435639807 0.036631330697230437 0 0.014310328824681679 0.036490982547542794 0 0.013905275524084111 0.036822624819535611 0 0.012973694749067734 0.036123862842027461 0 0.012352472444136769 0.036358291916917092 0 0.013905275524084111 0.036822624819535611 0 0.012481836055493103 0.035908216844981543 0 0.012552559766912519 0.036354433532252213 0 0.0122875572519372 0.035862319762963973 0 0.012352472444136769 0.036358291916917092 0 0.012481836055493103 0.035908216844981543 0 0.011110803230500208 0.035784471034675733 0 0.014310328824681679 0.036490982547542794 0 0.013686690730991071 0.035907671866988164 0 0.012973694749067734 0.036123862842027461 0 0.013686690730991071 0.035907671866988164 0 0.012973694749067734 0.036123862842027461 0 0.011763608196562324 0.034999948870223639 0 0.013686690730991071 0.035907671866988164 0 0.013858871874933584 0.034999714308153393 0 0.011763608196562324 0.034999948870223639 0 0.0122875572519372 0.035862319762963973 0 0.01176277332684434 0.035000789506042636 0 0.012481836055493103 0.035908216844981543 0 0.011761586420146304 0.034999785122073163 0 0.011110803230500208 0.035784471034675733 0 0.011761586420146304 0.034999785122073163 0 0.010084818428529655 0.034999515677769308 0 0.011110803230500208 0.035784471034675733 0 0.011053198849246529 0.036359175247310804 0 0.011110803230500208 0.035784471034675733 0 0.0095283757770197302 0.03582407440862987 0 0.010084818428529655 0.034999515677769308 0 0.0095283757770197302 0.03582407440862987 0 0.0084063423869197434 0.03499960885757817 0 0.010084818428529655 0.034999515677769308 0 0.011110803230500208 0.035784471034675733 0 0.0095283757770197302 0.03582407440862987 0 0.0095283757770197302 0.03582407440862987 0 0.0084063423869197434 0.03499960885757817 0 0.0079333558716228273 0.035637322318049509 0 0.0079333558716228273 0.035637322318049509 0 0.0067280013889322301 0.034999644276811771 0 0.0067484204721209324 0.035959384629000883 0 0.0084063423869197434 0.03499960885757817 0 0.0079333558716228273 0.035637322318049509 0 0.0067280013889322301 0.034999644276811771 0 0.0079333558716228273 0.035637322318049509 0 0.0067484204721209324 0.035959384629000883 0 0.0082852142354570245 0.036542617700504029 0 0.0095283757770197302 0.03582407440862987 0 0.0079333558716228273 0.035637322318049509 0 0.0082852142354570245 0.036542617700504029 0 0.0050495905948270327 0.035001085006388773 0 0.0048469722658090741 0.036414264328584842 0 0.0067280013889322301 0.034999644276811771 0 0.0050510309251864983 0.034999769793015389 0 0.0067484204721209324 0.035959384629000883 0 0.0050510309251864983 0.034999769793015389 0 0.0067484204721209324 0.035959384629000883 0 0.0054826293161387889 0.036283741804994933 0 0.0048469722658090741 0.036414264328584842 0 0.004554601386858502 0.038017018406233775 0 0.0054826293161387889 0.036283741804994933 0 0.0070230608665789798 0.037511097869930184 0 0.0053916064211877498 0.037863083941095194 0 0.0067484204721209324 0.035959384629000883 0 0.0054826293161387889 0.036283741804994933 0 0.0070230608665789798 0.037511097869930184 0 0.0070230608665789798 0.037511097869930184 0 0.0053916064211877498 0.037863083941095194 0 0.0064842790511202833 0.039090062963796017 0 0.0098709062997911681 0.036835289976835321 0 0.0082852142354570245 0.036542617700504029 0 0.0085985517545082019 0.037618522247731843 0 0.0095283757770197302 0.03582407440862987 0 0.0098709062997911681 0.036835289976835321 0 0.0082852142354570245 0.036542617700504029 0 0.0070230608665789798 0.037511097869930184 0 0.0082852142354570245 0.036542617700504029 0 0.0085985517545082019 0.037618522247731843 0 0.0067484204721209324 0.035959384629000883 0 0.0070230608665789798 0.037511097869930184 0 0.0082852142354570245 0.036542617700504029 0 0.0070230608665789798 0.037511097869930184 0 0.0085985517545082019 0.037618522247731843 0 0.0080289921628814622 0.038842746975010736 0 0.01014913880977856 0.038614843613376228 0 0.0098709062997911681 0.036835289976835321 0 0.0085985517545082019 0.037618522247731843 0 0.01014913880977856 0.038614843613376228 0 0.0085985517545082019 0.037618522247731843 0 0.0080289921628814622 0.038842746975010736 0 0.01014913880977856 0.038614843613376228 0 0.0085328999784701574 0.039860347212175344 0 0.0080289921628814622 0.038842746975010736 0 0.01014913880977856 0.038614843613376228 0 0.0093996937542805848 0.040276450711008202 0 0.0085328999784701574 0.039860347212175344 0 0.0098790568365769525 0.039363343436731514 0 0.0098445461898242631 0.039459757397528439 0 0.0093996937542805848 0.040276450711008202 0 0.0085328999784701574 0.039860347212175344 0 0.0087250672173557631 0.0406478234687929 0 0.011451610146474877 0.041174794880668476 0 0.0095329311337454814 0.041598364902054791 0 0.0093475671531523235 0.041250412850360824 0 0.0085328999784701574 0.039860347212175344 0 0.0080289921628814622 0.038842746975010736 0 0.0073559964869613272 0.040300367835706466 0 0.0085328999784701574 0.039860347212175344 0 0.0073559964869613272 0.040300367835706466 0 0.0081910122024850957 0.040780495032303049 0 0.0085328999784701574 0.039860347212175344 0 0.0087250672173557631 0.0406478234687929 0 0.0081910122024850957 0.040780495032303049 0 0.0070230608665789798 0.037511097869930184 0 0.0080289921628814622 0.038842746975010736 0 0.0064842790511202833 0.039090062963796017 0 0.0080289921628814622 0.038842746975010736 0 0.0064842790511202833 0.039090062963796017 0 0.0073559964869613272 0.040300367835706466 0 0.0053916064211877498 0.037863083941095194 0 0.0064842790511202833 0.039090062963796017 0 0.0051494491798978574 0.039750982665510054 0 0.004554601386858502 0.038017018406233775 0 0.0042166866443958256 0.039635399509681216 0 0.0064842790511202833 0.039090062963796017 0 0.0060642744137241874 0.04048093258444465 0 0.0051494491798978574 0.039750982665510054 0 0.0064842790511202833 0.039090062963796017 0 0.0060642744137241874 0.04048093258444465 0 0.0073559964869613272 0.040300367835706466 0 0.0073559964869613272 0.040300367835706466 0 0.0064221840272133133 0.041548522955082413 0 0.0075317244055018977 0.041645282437113317 0 0.0060642744137241874 0.04048093258444465 0 0.0073559964869613272 0.040300367835706466 0 0.0064221840272133133 0.041548522955082413 0 0.0060642744137241874 0.04048093258444465 0 0.0049323645227074874 0.041702926961898291 0 0.0051494491798978574 0.039750982665510054 0 0.0060642744137241874 0.04048093258444465 0 0.0064221840272133133 0.041548522955082413 0 0.0049323645227074874 0.041702926961898291 0 0.0064221840272133133 0.041548522955082413 0 0.005900177923850722 0.042725157306254521 0 0.0049323645227074874 0.041702926961898291 0 0.0072652612806334161 0.042853815661637054 0 0.0064221840272133133 0.041548522955082413 0 0.0075317244055018977 0.041645282437113317 0 0.0072652612806334161 0.042853815661637054 0 0.0064221840272133133 0.041548522955082413 0 0.005900177923850722 0.042725157306254521 0 0.0072652612806334161 0.042853815661637054 0 0.0087604516303737608 0.041644959184398547 0 0.0075317244055018977 0.041645282437113317 0 0.0068228590066241202 0.038572273104190043 0 0.010538867555808872 0.037530364243471198 0 0.0039879584088932055 0.032997793394819744 0 0.0047830132259613113 0.032746556693793186 0 0.0050269836661420925 0.032133449936686966 0 0.012144146965884861 0.035208142639580296 0 0.010538867555808872 0.037530364243471198 0 0.02137430926095513 0.032527511789090448 0 0.020154487290002406 0.032697830425371409 0 0.020986935776357196 0.033804235211867269 0 0.020589388489976032 0.031583647013961283 0 0.02137430926095513 0.032527511789090448 0 0.020154487290002406 0.032697830425371409 0 0.019300675767613306 0.033850331794464936 0 0.020154487290002406 0.032697830425371409 0 0.020986935776357196 0.033804235211867269 0 0.012144146965884861 0.035208142639580296 0 0.011183972658983611 0.03733065706178499 0 0.01198962771888042 0.035463484913112575 0 0.011289515791027636 0.037447150766187272 0 0.010921419289659244 0.037779424267263044 0 0.0093996937542805848 0.040276450711008202 0 0.0087604516303737608 0.041644959184398547 0 0.0087250672173557631 0.0406478234687929 0 0.0093475671531523235 0.041250412850360824 0 0.0085810919113584599 0.043558294434875272 0 0.008856641703338837 0.043304630848926051 0 0.0098445461898242631 0.039459757397528439 0 0.010538867555808872 0.037530364243471198 0 0.011451610146474877 0.041174794880668476 0 0.0095329311337454814 0.041598364902054791 0 0.0087233089372927911 0.043495960395077603 0 0.013618232023970358 0.037169181301387924 0 0.011183972658983611 0.03733065706178499 0 0.0095329311337454814 0.041598364902054791 0 0.0093475671531523235 0.041250412850360824 0 0.008856641703338837 0.043304630848926051 0 0.010538867555808872 0.037530364243471198 0 0.011183972658983611 0.03733065706178499 0 0.01058422020845767 0.038811052760739151 0 0.011183972658983611 0.03733065706178499 0 0.0087604516303737608 0.041644959184398547 0 0.0081910122024850957 0.040780495032303049 0 0.0075317244055018977 0.041645282437113317 0 0.0087604516303737608 0.041644959184398547 0 0.0087250672173557631 0.0406478234687929 0 0.0081910122024850957 0.040780495032303049 0 0.0073559964869613272 0.040300367835706466 0 0.0081910122024850957 0.040780495032303049 0 0.0075317244055018977 0.041645282437113317 0 0.0014917677366256112 0.040118411294354762 0 0.0019369800413415478 0.040203075745449117 0 0.0021081461755879417 0.040316637790487948 0 0.0014917677366256112 0.040118411294354762 0 0.0019369800413415478 0.040203075745449117 0 0.0019697449871107463 0.039968912548842987 0 0.0012071044461098974 0.039835857224792257 0 0.0016647411839596424 0.040212579033375967 0 0.0012372408719401955 0.039784300332919596 0 0.00087981700797986446 0.040097440396206045 0 0.001388395252103485 0.040283111806975309 0 0.0012372408719401955 0.039784300332919596 0 0.00087981700797986446 0.040097440396206045 0 0.00050487827850804448 0.039819229395510067 0 0.00087981700797986446 0.040097440396206045 0 0.00080710419139041058 0.040481509442057827 0 0.001388395252103485 0.040283111806975309 0 0.00080710419139041058 0.040481509442057827 0 0.001287810073736813 0.040694062963717963 0 0.00068982194919558798 0.040892779125092565 0 0.00080710419139041058 0.040481509442057827 0 0.001287810073736813 0.040694062963717963 0 0.001388395252103485 0.040283111806975309 0 0.0016975626955329658 0.040522604801045255 0 0.001388395252103485 0.040283111806975309 0 0.0020066130395130426 0.040591324919208652 0 0.0012372408719401955 0.039784300332919596 0 0.001388395252103485 0.040283111806975309 0 0.0020066130395130426 0.040591324919208652 0 0.001287810073736813 0.040694062963717963 0 0.0016975626955329658 0.040522604801045255 0 0.0020305473345998437 0.040568752458962146 0 0.001287810073736813 0.040694062963717963 0 0.0016975626955329658 0.040522604801045255 0 0.001388395252103485 0.040283111806975309 0 0.0019369800413415478 0.040203075745449117 0 0.0021081461755879417 0.040316637790487948 0 0.0020596313435276197 0.0402767409883453 0 0.0016975626955329658 0.040522604801045255 0 0.0020066130395130426 0.040591324919208652 0 0.0020305473345998437 0.040568752458962146 0 0.0019685597500240016 0.040054166501351726 0 0.0021081461755879417 0.040316637790487948 0 0.0020289487077736327 0.040203725090621097 0 0.0021081461755879417 0.040316637790487948 0 0.0020600191834443428 0.040265416502839782 0 0.0020289487077736327 0.040203725090621097 0 0.0021081461755879417 0.040316637790487948 0 0.0020600191834443428 0.040265416502839782 0 0.0020596313435276197 0.0402767409883453 0 0.0020600191834443428 0.040265416502839782 0 0.0020464816347883059 0.040248529453070225 0 0.0020596313435276197 0.0402767409883453 0 0.0020600191834443428 0.040265416502839782 0 0.0020464816347883059 0.040248529453070225 0 0.0020289487077736327 0.040203725090621097 0 0.0020464816347883059 0.040248529453070225 0 0.0020289487077736327 0.040203725090621097 0 0.0020067422836557054 0.040189175637383577 0 0.0020067422836557054 0.040189175637383577 0 0.0020619427945146578 0.040233098360715376 0 0.0019466999668987838 0.040158211906133619 0 0.0020464816347883059 0.040248529453070225 0 0.0020067422836557054 0.040189175637383577 0 0.0020619427945146578 0.040233098360715376 0 0.0020464816347883059 0.040248529453070225 0 0.0020619427945146578 0.040233098360715376 0 0.0020734469214737277 0.040253906370895001 0 0.0020619427945146578 0.040233098360715376 0 0.0020734469214737277 0.040253906370895001 0 0.0021439811667856388 0.040226300460737691 0 0.0019369800413415478 0.040203075745449117 0 0.0020734469214737277 0.040253906370895001 0 0.0020596313435276197 0.0402767409883453 0 0.0020464816347883059 0.040248529453070225 0 0.0020734469214737277 0.040253906370895001 0 0.0020596313435276197 0.0402767409883453 0 0.0042316151489907106 0.042811093645934481 0 0.0038890397947904188 0.041042806348453871 0 0.001670334945468992 0.04000403334572563 0 0.0019466999668987838 0.040158211906133619 0 0.0022603021960384091 0.04026292605613372 0 0.0048883473429554517 0.043283293626872776 0 0.005900177923850722 0.042725157306254521 0 0.0049323645227074874 0.041702926961898291 0 0.0036648538979639862 0.041027285855779805 0 0.0038890397947904188 0.041042806348453871 0 0.0020619427945146578 0.040233098360715376 0 0.0019466999668987838 0.040158211906133619 0 0.0022603021960384091 0.04026292605613372 0 0.0020619427945146578 0.040233098360715376 0 0.0022603021960384091 0.04026292605613372 0 0.0021439811667856388 0.040226300460737691 0 0.0022603021960384091 0.04026292605613372 0 0.0023136837607861337 0.040135253280038655 0 0.0027369611678999439 0.039956313769628479 0 0.0038890397947904188 0.041042806348453871 0 0.0036603911432187088 0.040316884226067003 0 0.0029451089226007129 0.04112258893364383 0 0.0032546038231795744 0.039744351001950548 0 0.0030694067689215061 0.040232714541179021 0 0.0038890397947904188 0.041042806348453871 0 0.0042166866443958256 0.039635399509681216 0 0.0022603021960384091 0.04026292605613372 0 0.0023136837607861337 0.040135253280038655 0 0.0021439811667856388 0.040226300460737691 0 0.0023136837607861337 0.040135253280038655 0 0.0023368543918417624 0.039940684081781364 0 0.0027369611678999439 0.039956313769628479 0 0.0019369800413415478 0.040203075745449117 0 0.0020734469214737277 0.040253906370895001 0 0.0021193707694436392 0.040153213542146508 0 0.0023136837607861337 0.040135253280038655 0 0.0021193707694436392 0.040153213542146508 0 0.0021439811667856388 0.040226300460737691 0 0.0020734469214737277 0.040253906370895001 0 0.0021193707694436392 0.040153213542146508 0 0.0021439811667856388 0.040226300460737691 0 0.0023136837607861337 0.040135253280038655 0 0.0021193707694436392 0.040153213542146508 0 0.0023368543918417624 0.039940684081781364 0 0.0019369800413415478 0.040203075745449117 0 0.0021193707694436392 0.040153213542146508 0 0.0019697449871107463 0.039968912548842987 0 0.0021193707694436392 0.040153213542146508 0 0.0019697449871107463 0.039968912548842987 0 0.0023368543918417624 0.039940684081781364 0 0.0019697449871107463 0.039968912548842987 0 0.0023368543918417624 0.039940684081781364 0 0.0022937556181449837 0.039570560347422824 0 0.0023368543918417624 0.039940684081781364 0 0.0022937556181449837 0.039570560347422824 0 0.00266683067388213 0.039657509997103962 0 0.0019697449871107463 0.039968912548842987 0 0.0022937556181449837 0.039570560347422824 0 0.0017405141309398367 0.039593210072435506 0 0.0027369611678999439 0.039956313769628479 0 0.00266683067388213 0.039657509997103962 0 0.0032404356956273945 0.039342053342016466 0 0.0036603911432187088 0.040316884226067003 0 0.0036101942383897781 0.040006981434920673 0 0.0032546038231795744 0.039744351001950548 0 0.0030694067689215061 0.040232714541179021 0 0.0032404356956273945 0.039342053342016466 0 0.0023368543918417624 0.039940684081781364 0 0.0027369611678999439 0.039956313769628479 0 0.00266683067388213 0.039657509997103962 0 0.0022937556181449837 0.039570560347422824 0 0.00266683067388213 0.039657509997103962 0 0.0028026534213263024 0.03929172699684675 0 0.0038350044336279161 0.038369948835261111 0 0.0032404356956273945 0.039342053342016466 0 0.0030500778804081305 0.038850455025674475 0 0.0038350044336279161 0.038369948835261111 0 0.0032546038231795744 0.039744351001950548 0 0.0032404356956273945 0.039342053342016466 0 0.0032404356956273945 0.039342053342016466 0 0.0028026534213263024 0.03929172699684675 0 0.0030500778804081305 0.038850455025674475 0 0.00266683067388213 0.039657509997103962 0 0.0032404356956273945 0.039342053342016466 0 0.0028026534213263024 0.03929172699684675 0 0.0028026534213263024 0.03929172699684675 0 0.0030500778804081305 0.038850455025674475 0 0.0025692893338820082 0.038941152858029841 0 0.0022937556181449837 0.039570560347422824 0 0.0020565131669354089 0.039135422249860975 0 0.0017405141309398367 0.039593210072435506 0 0.0022937556181449837 0.039570560347422824 0 0.0025692893338820082 0.038941152858029841 0 0.0020565131669354089 0.039135422249860975 0 0.0022937556181449837 0.039570560347422824 0 0.0028026534213263024 0.03929172699684675 0 0.0025692893338820082 0.038941152858029841 0 0.0025692893338820082 0.038941152858029841 0 0.0020565131669354089 0.039135422249860975 0 0.0020877724032765895 0.038376746573997811 0 0.0020565131669354089 0.039135422249860975 0 0.0014858876056540139 0.039052279896296914 0 0.0020877724032765895 0.038376746573997811 0 0.0014858876056540139 0.039052279896296914 0 0.001275073121025312 0.039450993617118811 0 0.0010651892488871423 0.039053477642982497 0 0.0014858876056540139 0.039052279896296914 0 0.001275073121025312 0.039450993617118811 0 0.0017405141309398367 0.039593210072435506 0 0.0020565131669354089 0.039135422249860975 0 0.0014858876056540139 0.039052279896296914 0 0.0017405141309398367 0.039593210072435506 0 0.0014917677366256112 0.040118411294354762 0 0.001275073121025312 0.039450993617118811 0 0.0017405141309398367 0.039593210072435506 0 0.0014917677366256112 0.040118411294354762 0 0.0019697449871107463 0.039968912548842987 0 0.0017405141309398367 0.039593210072435506 0 0.0012372408719401955 0.039784300332919596 0 0.00054687009989072869 0.039550106960848548 0 0.00050487827850804448 0.039819229395510067 0 0.0012071044461098974 0.039835857224792257 0 0.00047257899917601637 0.039048051512370015 0 0.0012372408719401955 0.039784300332919596 0 0.00063682339662189636 0.039447006529266124 0 0.00054687009989072869 0.039550106960848548 0 0.0014917677366256112 0.040118411294354762 0 0.001275073121025312 0.039450993617118811 0 0.00059886205311691888 0.039278481986298727 0 0.0012372408719401955 0.039784300332919596 0 0.00063682339662189636 0.039447006529266124 0 0.0004910546445866166 0.039274051647155514 0 0.00059886205311691888 0.039278481986298727 0 0.0010651892488871423 0.039053477642982497 0 0.00090541196335258754 0.038267891773162199 0 0.001275073121025312 0.039450993617118811 0 0.00059886205311691888 0.039278481986298727 0 0.0010651892488871423 0.039053477642982497 0 0.0014858876056540139 0.039052279896296914 0 0.0010651892488871423 0.039053477642982497 0 0.00090541196335258754 0.038267891773162199 0 0.00059886205311691888 0.039278481986298727 0 0.00090541196335258754 0.038267891773162199 0 -0.00038413142929962733 0.038039772062317991 0 0.0014858876056540139 0.039052279896296914 0 0.00090541196335258754 0.038267891773162199 0 0.0020877724032765895 0.038376746573997811 0 0.00090541196335258754 0.038267891773162199 0 0.0020877724032765895 0.038376746573997811 0 0.0017641335565503318 0.037032052002994614 0 0.00090541196335258754 0.038267891773162199 0 0.00027983325827368179 0.036701695378480025 0 0.0017641335565503318 0.037032052002994614 0 0.00090541196335258754 0.038267891773162199 0 0.00027983325827368179 0.036701695378480025 0 -0.00038413142929962733 0.038039772062317991 0 0.0038350044336279161 0.038369948835261111 0 0.0028675048359793377 0.038329370892128609 0 0.0030337932385474946 0.037465906682393017 0 0.0038350044336279161 0.038369948835261111 0 0.0030500778804081305 0.038850455025674475 0 0.0028675048359793377 0.038329370892128609 0 0.0030500778804081305 0.038850455025674475 0 0.0025692893338820082 0.038941152858029841 0 0.0028675048359793377 0.038329370892128609 0 0.0028675048359793377 0.038329370892128609 0 0.0020877724032765895 0.038376746573997811 0 0.0030337932385474946 0.037465906682393017 0 0.0025692893338820082 0.038941152858029841 0 0.0028675048359793377 0.038329370892128609 0 0.0020877724032765895 0.038376746573997811 0 0.0020877724032765895 0.038376746573997811 0 0.0030337932385474946 0.037465906682393017 0 0.0017641335565503318 0.037032052002994614 0 0.0044642230685662376 0.036790477392927623 0 0.0038350044336279161 0.038369948835261111 0 0.0030337932385474946 0.037465906682393017 0 0.0044642230685662376 0.036790477392927623 0 0.0030337932385474946 0.037465906682393017 0 0.0029321121184437428 0.036295402511601911 0 0.0030337932385474946 0.037465906682393017 0 0.0029321121184437428 0.036295402511601911 0 0.0017641335565503318 0.037032052002994614 0 0.0029321121184437428 0.036295402511601911 0 0.0031813923481377971 0.03499990947066578 0 0.0013133651997801273 0.035000041158749842 0 0.0050493102950657197 0.035000045524370749 0 0.0044642230685662376 0.036790477392927623 0 0.0029321121184437428 0.036295402511601911 0 0.0050493102950657197 0.035000045524370749 0 0.0029321121184437428 0.036295402511601911 0 0.0031813923481377971 0.03499990947066578 0 0.0029321121184437428 0.036295402511601911 0 0.0017641335565503318 0.037032052002994614 0 0.0013133651997801273 0.035000041158749842 0 0.00027983325827368179 0.036701695378480025 0 0.0017641335565503318 0.037032052002994614 0 0.0013133651997801273 0.035000041158749842 0 0.00027983325827368179 0.036701695378480025 0 0.0013133651997801273 0.035000041158749842 0 -0.00055464794812971538 0.034999929056498853 0 0.00027983325827368179 0.036701695378480025 0 -0.00055464794812971538 0.034999929056498853 0 -0.001403937229445441 0.036587875032161203 0 -0.0014572501395422981 0.036434969035270749 0 -0.002421954234882119 0.035001230430956806 0 -0.00055464794812971538 0.034999929056498853 0 -0.001403937229445441 0.036587875032161203 0 -0.0024228553576955028 0.034999992689683512 0 -0.0016193456742274585 0.036392154191962803 0 -0.0024231563641333885 0.034999892290778087 0 -0.002959800790096963 0.035995021110694428 0 -0.0024231563641333885 0.034999892290778087 0 -0.0036603880355929961 0.034999935418163174 0 -0.002959800790096963 0.035995021110694428 0 -0.0036603880355929961 0.034999935418163174 0 -0.0041495212563135249 0.035989019982613654 0 -0.0048975110824169433 0.034999952586121756 0 -0.0036603880355929961 0.034999935418163174 0 -0.0041495212563135249 0.035989019982613654 0 -0.002959800790096963 0.035995021110694428 0 -0.0041495212563135249 0.035989019982613654 0 -0.0034748308007629359 0.036776617494655849 0 -0.002959800790096963 0.035995021110694428 0 -0.0041495212563135249 0.035989019982613654 0 -0.0034748308007629359 0.036776617494655849 0 -0.0043917883478410118 0.037246871021010985 0 -0.0016193456742274585 0.036392154191962803 0 -0.002959800790096963 0.035995021110694428 0 -0.0023640754061080003 0.037283523950708559 0 -0.0034748308007629359 0.036776617494655849 0 -0.002959800790096963 0.035995021110694428 0 -0.0023640754061080003 0.037283523950708559 0 -0.0023640754061080003 0.037283523950708559 0 -0.0034319015896018658 0.037603031565288894 0 -0.0028009126642340319 0.038301014045473022 0 -0.0034748308007629359 0.036776617494655849 0 -0.0023640754061080003 0.037283523950708559 0 -0.0034319015896018658 0.037603031565288894 0 -0.0034319015896018658 0.037603031565288894 0 -0.0041691109053814748 0.038286186944550216 0 -0.0043917883478410118 0.037246871021010985 0 -0.0034748308007629359 0.036776617494655849 0 -0.0034319015896018658 0.037603031565288894 0 -0.0043917883478410118 0.037246871021010985 0 -0.0034319015896018658 0.037603031565288894 0 -0.0041691109053814748 0.038286186944550216 0 -0.0028009126642340319 0.038301014045473022 0 -0.0041691109053814748 0.038286186944550216 0 -0.0028009126642340319 0.038301014045473022 0 -0.0035710655187750251 0.039393064961669812 0 -0.0023640754061080003 0.037283523950708559 0 -0.0028009126642340319 0.038301014045473022 0 -0.001717485378659058 0.03841029371053014 0 -0.0028009126642340319 0.038301014045473022 0 -0.001717485378659058 0.03841029371053014 0 -0.0021843985022820182 0.038954233704823968 0 -0.0023640754061080003 0.037283523950708559 0 -0.001717485378659058 0.03841029371053014 0 -0.00065706157527252419 0.037789682061794491 0 0.00047257899917601637 0.039048051512370015 0 -0.00046961327144093295 0.037832051142988571 0 -0.001717485378659058 0.03841029371053014 0 -0.00065706157527252419 0.037789682061794491 0 -0.00076575349501432498 0.038844335039932218 0 0.0004910546445866166 0.039274051647155514 0 -0.00065706157527252419 0.037789682061794491 0 -0.00076575349501432498 0.038844335039932218 0 0.00027983325827368179 0.036701695378480025 0 -0.001403937229445441 0.036587875032161203 0 -0.00038413142929962733 0.038039772062317991 0 -0.0014572501395422981 0.036434969035270749 0 -0.00046961327144093295 0.037832051142988571 0 -0.0016193456742274585 0.036392154191962803 0 -0.0023640754061080003 0.037283523950708559 0 -0.00065706157527252419 0.037789682061794491 0 -0.0070463462554560159 0.036513021284359848 0 -0.00816546075247092 0.037596907604960671 0 -0.0088189552144449929 0.03659690507288034 0 -0.0080036892334590711 0.035000073564212218 0 -0.0070463462554560159 0.036513021284359848 0 -0.0088189552144449929 0.03659690507288034 0 -0.0080070835850886615 0.035000183284347446 0 -0.010329557597240253 0.035783627360222947 0 -0.0070075086998000009 0.035001496087875679 0 -0.0073651234734968089 0.036394599450630692 0 -0.0070066582255617123 0.034999989071771057 0 -0.0069107309364582091 0.036603986177294809 0 -0.006070146178251498 0.035827431827624399 0 -0.0080036892334590711 0.035000073564212218 0 -0.0070071446499462972 0.034999892440552773 0 -0.0070463462554560159 0.036513021284359848 0 -0.0069107309364582091 0.036603986177294809 0 -0.006070146178251498 0.035827431827624399 0 -0.0054500696578650013 0.036671367508586655 0 -0.0069107309364582091 0.036603986177294809 0 -0.0054500696578650013 0.036671367508586655 0 -0.0062757654654428821 0.037346088205991931 0 -0.0070066582255617123 0.034999989071771057 0 -0.006070146178251498 0.035827431827624399 0 -0.0048980355962715385 0.034999988864246927 0 -0.004899044812521563 0.035001174903779866 0 -0.0057476496334380352 0.036341495048627957 0 -0.006070146178251498 0.035827431827624399 0 -0.0048980355962715385 0.034999988864246927 0 -0.0054500696578650013 0.036671367508586655 0 -0.0041495212563135249 0.035989019982613654 0 -0.0048975110824169433 0.034999952586121756 0 -0.0051275972951564542 0.036500647721145585 0 -0.0041495212563135249 0.035989019982613654 0 -0.0051275972951564542 0.036500647721145585 0 -0.0043917883478410118 0.037246871021010985 0 -0.0051275972951564542 0.036500647721145585 0 -0.0043917883478410118 0.037246871021010985 0 -0.0055123550499496434 0.037993023329044688 0 -0.0041691109053814748 0.038286186944550216 0 -0.0043917883478410118 0.037246871021010985 0 -0.0055123550499496434 0.037993023329044688 0 -0.0041691109053814748 0.038286186944550216 0 -0.0055123550499496434 0.037993023329044688 0 -0.0051902897796198572 0.039120979770953149 0 -0.0059577343479383068 0.038236590665085446 0 -0.0068350811912930125 0.03811331016962638 0 -0.0067898671176703958 0.039553300984087159 0 -0.0068235007461322876 0.037422021828539098 0 -0.0083031606812743325 0.037288557029768021 0 -0.0057476496334380352 0.036341495048627957 0 -0.0068235007461322876 0.037422021828539098 0 -0.0054500696578650013 0.036671367508586655 0 -0.0059577343479383068 0.038236590665085446 0 -0.0062757654654428821 0.037346088205991931 0 -0.0059577343479383068 0.038236590665085446 0 -0.0062757654654428821 0.037346088205991931 0 -0.0068350811912930125 0.03811331016962638 0 -0.0070463462554560159 0.036513021284359848 0 -0.0070388989413394778 0.037947808574917065 0 -0.00816546075247092 0.037596907604960671 0 -0.0073651234734968089 0.036394599450630692 0 -0.0079216654254941066 0.037442149686628026 0 -0.0069107309364582091 0.036603986177294809 0 -0.0062757654654428821 0.037346088205991931 0 -0.0068350811912930125 0.03811331016962638 0 -0.0079216654254941066 0.037442149686628026 0 -0.0089995217656904138 0.036942744170369586 0 -0.0070388989413394778 0.037947808574917065 0 -0.0083086323354514425 0.038759621347488026 0 -0.0070052210790626608 0.039371808573304218 0 -0.0070388989413394778 0.037947808574917065 0 -0.0083086323354514425 0.038759621347488026 0 -0.00816546075247092 0.037596907604960671 0 -0.014948555599801936 0.034612050388677949 0 -0.014951359525163568 0.034461742819298431 0 -0.014769321826847166 0.034536729217982211 0 -0.014948555599801936 0.034612050388677949 0 -0.015145073555996095 0.034471906793228195 0 -0.014951359525163568 0.034461742819298431 0 -0.014921438489797104 0.034794308476897941 0 -0.014948555599801936 0.034612050388677949 0 -0.014770641617066109 0.034711128451781204 0 -0.014921438489797104 0.034794308476897941 0 -0.014948555599801936 0.034612050388677949 0 -0.015131589137228152 0.034694686944908001 0 -0.011351505791733415 0.036306939653798609 0 -0.0089995217656904138 0.036942744170369586 0 -0.0089995217656904138 0.036942744170369586 0 -0.0083031606812743325 0.037288557029768021 0 -0.0089624754198122433 0.037702532611717313 0 -0.0089854299391263302 0.036960677376129472 0 -0.0091725738225098205 0.037602547568708816 0 -0.014948555599801936 0.034612050388677949 0 -0.015131589137228152 0.034694686944908001 0 -0.015145073555996095 0.034471906793228195 0 -0.0089995217656904138 0.036942744170369586 0 -0.0092664599932557289 0.037252975324774625 0 -0.0092664599932557289 0.037252975324774625 0 -0.0083031606812743325 0.037288557029768021 0 -0.0059873611346322022 0.04013734775632153 0 -0.0056120241844723143 0.039663443074635055 0 -0.0057927265328820716 0.039362234917248592 0 -0.0059873611346322022 0.04013734775632153 0 -0.0054270498570657306 0.039993893067752681 0 -0.0056120241844723143 0.039663443074635055 0 -0.0054270498570657306 0.039993893067752681 0 -0.0052611473679836504 0.039582801503658768 0 -0.0050390550943883554 0.03995922875735753 0 -0.0054270498570657306 0.039993893067752681 0 -0.0050390550943883554 0.03995922875735753 0 -0.0052286392552516603 0.040182275773167651 0 -0.0054270498570657306 0.039993893067752681 0 -0.0052611473679836504 0.039582801503658768 0 -0.0056120241844723143 0.039663443074635055 0 -0.0052611473679836504 0.039582801503658768 0 -0.0056120241844723143 0.039663443074635055 0 -0.0054733522967214858 0.039487814051348505 0 -0.0056120241844723143 0.039663443074635055 0 -0.0057083239701093214 0.039408289569291523 0 -0.0054733522967214858 0.039487814051348505 0 -0.005827961082600544 0.039363722249301736 0 -0.0057083239701093214 0.039408289569291523 0 -0.0051902897796198572 0.039120979770953149 0 -0.0055123550499496434 0.037993023329044688 0 -0.005827961082600544 0.039363722249301736 0 -0.0051902897796198572 0.039120979770953149 0 -0.0059577343479383068 0.038236590665085446 0 -0.0067898671176703958 0.039553300984087159 0 -0.0064121061988071564 0.03973199471311907 0 -0.0083031606812743325 0.037288557029768021 0 -0.008276378706098448 0.037303451146090807 0 -0.0056120241844723143 0.039663443074635055 0 -0.0057927265328820716 0.039362234917248592 0 -0.0057083239701093214 0.039408289569291523 0 -0.0052611473679836504 0.039582801503658768 0 -0.0051902897796198572 0.039120979770953149 0 -0.0054733522967214858 0.039487814051348505 0 -0.0057083239701093214 0.039408289569291523 0 -0.0051902897796198572 0.039120979770953149 0 -0.0054733522967214858 0.039487814051348505 0 -0.0051902897796198572 0.039120979770953149 0 -0.0046416853863156058 0.039540821010345631 0 -0.0049764820874191535 0.039617913252181884 0 -0.0051902897796198572 0.039120979770953149 0 -0.0046416853863156058 0.039540821010345631 0 -0.0041231647414598956 0.039259249421850884 0 -0.0041691109053814748 0.038286186944550216 0 -0.0051902897796198572 0.039120979770953149 0 -0.0035710655187750251 0.039393064961669812 0 -0.0042891678883056851 0.039105784984525008 0 -0.0035422279735825464 0.039150388113572666 0 -0.0052611473679836504 0.039582801503658768 0 -0.0051902897796198572 0.039120979770953149 0 -0.0049764820874191535 0.039617913252181884 0 -0.0046416853863156058 0.039540821010345631 0 -0.0049764820874191535 0.039617913252181884 0 -0.0048035501505279583 0.039892746801088737 0 -0.0049764820874191535 0.039617913252181884 0 -0.0050390550943883554 0.03995922875735753 0 -0.0048035501505279583 0.039892746801088737 0 -0.0052611473679836504 0.039582801503658768 0 -0.0049764820874191535 0.039617913252181884 0 -0.0050390550943883554 0.03995922875735753 0 -0.0050390550943883554 0.03995922875735753 0 -0.0048035501505279583 0.039892746801088737 0 -0.0048387346118729186 0.040194991386406691 0 -0.0046416853863156058 0.039540821010345631 0 -0.0048035501505279583 0.039892746801088737 0 -0.0045202922466456462 0.040150500115106631 0 -0.0048035501505279583 0.039892746801088737 0 -0.0048387346118729186 0.040194991386406691 0 -0.0045202922466456462 0.040150500115106631 0 -0.0048387346118729186 0.040194991386406691 0 -0.004919846456264013 0.040782736709991031 0 -0.0045202922466456462 0.040150500115106631 0 -0.0050390550943883554 0.03995922875735753 0 -0.0050455407402569957 0.040370692537152149 0 -0.0052286392552516603 0.040182275773167651 0 -0.0048387346118729186 0.040194991386406691 0 -0.0050455407402569957 0.040370692537152149 0 -0.004919846456264013 0.040782736709991031 0 -0.0050390550943883554 0.03995922875735753 0 -0.0048387346118729186 0.040194991386406691 0 -0.0050455407402569957 0.040370692537152149 0 -0.0050455407402569957 0.040370692537152149 0 -0.004919846456264013 0.040782736709991031 0 -0.0051671798361842191 0.04056616472518465 0 -0.004919846456264013 0.040782736709991031 0 -0.0051671798361842191 0.04056616472518465 0 -0.0053026386793084716 0.040708859593210314 0 -0.0013880334099432025 0.040185437851330635 0 -0.0014313780494604102 0.040421028856078831 0 -0.0011143478569415959 0.040431583692803336 0 -0.0014313780494604102 0.040421028856078831 0 -0.0014215355478191648 0.040607877096701848 0 -0.0011143478569415959 0.040431583692803336 0 -0.0014215355478191648 0.040607877096701848 0 -0.0017896296060275286 0.040460600814975274 0 -0.001636016640814712 0.040745907298781088 0 -0.0014313780494604102 0.040421028856078831 0 -0.0014215355478191648 0.040607877096701848 0 -0.0017896296060275286 0.040460600814975274 0 -0.0044359097195594156 0.037948320880683617 0 -0.005127035712312075 0.037940427659056176 0 -0.0013880334099432025 0.040185437851330635 0 -0.0014313780494604102 0.040421028856078831 0 -0.0017896296060275286 0.040460600814975274 0 -0.0015541040065954578 0.040206600489024032 0 -0.0013880334099432025 0.040185437851330635 0 -0.0019055979505373092 0.040457031950053901 0 -0.0054877336793419419 0.040974842913279692 0 -0.0056518831308442529 0.040695213674365086 0 -0.0053026386793084716 0.040708859593210314 0 -0.004919846456264013 0.040782736709991031 0 -0.0054877336793419419 0.040974842913279692 0 -0.0053026386793084716 0.040708859593210314 0 -0.0045436130696805618 0.039000263428948585 0 -0.0074218884934969219 0.037965863959853068 0 -0.004919846456264013 0.040782736709991031 0 -0.0054877336793419419 0.040974842913279692 0 -0.0058505726714973127 0.041449132290361096 0 -0.0015541040065954578 0.040206600489024032 0 -0.0019055979505373092 0.040457031950053901 0 -0.0024404088274935366 0.040724726770875089 0 -0.005127035712312075 0.037940427659056176 0 -0.0074218884934969219 0.037965863959853068 0 -0.0054877336793419419 0.040974842913279692 0 -0.0057748271141585782 0.041116043503649093 0 -0.0058505726714973127 0.041449132290361096 0 -0.0057748271141585782 0.041116043503649093 0 -0.0056518831308442529 0.040695213674365086 0 -0.0059585274746333742 0.040826418969283781 0 -0.0054877336793419419 0.040974842913279692 0 -0.0057748271141585782 0.041116043503649093 0 -0.0056518831308442529 0.040695213674365086 0 -0.0056518831308442529 0.040695213674365086 0 -0.0053026386793084716 0.040708859593210314 0 -0.0054009709592784914 0.040402243258428928 0 -0.0051671798361842191 0.04056616472518465 0 -0.0053026386793084716 0.040708859593210314 0 -0.0054009709592784914 0.040402243258428928 0 -0.0050455407402569957 0.040370692537152149 0 -0.0052286392552516603 0.040182275773167651 0 -0.0054009709592784914 0.040402243258428928 0 -0.0050455407402569957 0.040370692537152149 0 -0.0051671798361842191 0.04056616472518465 0 -0.0054009709592784914 0.040402243258428928 0 -0.0054270498570657306 0.039993893067752681 0 -0.0052286392552516603 0.040182275773167651 0 -0.0054009709592784914 0.040402243258428928 0 -0.0059873611346322022 0.04013734775632153 0 -0.0056518831308442529 0.040695213674365086 0 -0.0054009709592784914 0.040402243258428928 0 -0.0059873611346322022 0.04013734775632153 0 -0.0054270498570657306 0.039993893067752681 0 -0.0054009709592784914 0.040402243258428928 0 -0.010123619102522576 0.03735131575354883 0 -0.010056789256983797 0.037118896952534543 0 -0.010129748972116189 0.037167359723840672 0 -0.0092664599932557289 0.037252975324774625 0 -0.010603708608505883 0.03663351460826355 0 -0.0059873611346322022 0.04013734775632153 0 -0.0056518831308442529 0.040695213674365086 0 -0.0059585274746333742 0.040826418969283781 0 -0.0092664599932557289 0.037252975324774625 0 -0.0087468018695088974 0.038066977958152982 0 -0.015145073555996095 0.034471906793228195 0 -0.015091985365659538 0.034249024281642372 0 -0.014987524273335974 0.034335756047184494 0 -0.0087468018695088974 0.038066977958152982 0 -0.0084182877777174113 0.037832867179243224 0 -0.010056789256983797 0.037118896952534543 0 -0.010129748972116189 0.037167359723840672 0 -0.010136586178643223 0.036979859830265853 0 -0.0057748271141585782 0.041116043503649093 0 -0.0059585274746333742 0.040826418969283781 0 -0.005941897724075597 0.041516530806522144 0 -0.0057748271141585782 0.041116043503649093 0 -0.0058505726714973127 0.041449132290361096 0 -0.005941897724075597 0.041516530806522144 0 -0.0149353051200606 0.034175564521394523 0 -0.014987524273335974 0.034335756047184494 0 -0.014810991004861756 0.034318454754781055 0 -0.015091985365659538 0.034249024281642372 0 -0.0149353051200606 0.034175564521394523 0 -0.015038819822659012 0.034023502604036179 0 -0.015091985365659538 0.034249024281642372 0 -0.0149353051200606 0.034175564521394523 0 -0.014987524273335974 0.034335756047184494 0 -0.015145073555996095 0.034471906793228195 0 -0.014987524273335974 0.034335756047184494 0 -0.014951359525163568 0.034461742819298431 0 -0.014987524273335974 0.034335756047184494 0 -0.014951359525163568 0.034461742819298431 0 -0.014810991004861756 0.034318454754781055 0 0.00011716775590705922 0.03945240638263503 0 0.00036337400573594814 0.039331150854438238 0 -9.6809005881964011e-05 0.039227389804951988 0 0.00011716775590705922 0.03945240638263503 0 -0.00020404460102693247 0.039582343106507573 0 -9.6809005881964011e-05 0.039227389804951988 0 -0.00020404460102693247 0.039582343106507573 0 9.9130913670009545e-05 0.039689750603671428 0 -0.00030538894492793117 0.03993537621839955 0 0.00011716775590705922 0.03945240638263503 0 -0.00020404460102693247 0.039582343106507573 0 9.9130913670009545e-05 0.039689750603671428 0 0.00011716775590705922 0.03945240638263503 0 9.9130913670009545e-05 0.039689750603671428 0 0.00031697660221127798 0.039536228581257347 0 9.9130913670009545e-05 0.039689750603671428 0 0.00031697660221127798 0.039536228581257347 0 0.00050487827850804448 0.039819229395510067 0 0.00063682339662189636 0.039447006529266124 0 0.00054687009989072869 0.039550106960848548 0 0.00036337400573594814 0.039331150854438238 0 0.00054687009989072869 0.039550106960848548 0 0.00031697660221127798 0.039536228581257347 0 0.00050487827850804448 0.039819229395510067 0 0.00054687009989072869 0.039550106960848548 0 0.00031697660221127798 0.039536228581257347 0 0.00036337400573594814 0.039331150854438238 0 0.00011716775590705922 0.03945240638263503 0 0.00031697660221127798 0.039536228581257347 0 0.00036337400573594814 0.039331150854438238 0 -0.00057686026136790508 0.039701840092851673 0 -0.00076575349501432498 0.038844335039932218 0 -0.0015015750582477387 0.039399939700480176 0 -0.00054974899305405107 0.039350867768287716 0 -0.00090292478715501819 0.039308982561146254 0 0.00063682339662189636 0.039447006529266124 0 0.0004910546445866166 0.039274051647155514 0 -0.00057686026136790508 0.039701840092851673 0 0.0004910546445866166 0.039274051647155514 0 -0.00057686026136790508 0.039701840092851673 0 -0.00076575349501432498 0.038844335039932218 0 -0.00090292478715501819 0.039308982561146254 0 -0.0018817591824683583 0.039175530888316067 0 -0.00057686026136790508 0.039701840092851673 0 -0.0015015750582477387 0.039399939700480176 0 -0.0018139757682757293 0.039643390585290511 0 -0.001717485378659058 0.03841029371053014 0 -0.00076575349501432498 0.038844335039932218 0 -0.0015015750582477387 0.039399939700480176 0 -0.0015015750582477387 0.039399939700480176 0 -0.0017987415485260364 0.039619086175303193 0 -0.0021843985022820182 0.038954233704823968 0 -0.0018775628961817696 0.039177536147488069 0 -0.0018817591824683583 0.039175530888316067 0 -0.001717485378659058 0.03841029371053014 0 -0.0015015750582477387 0.039399939700480176 0 -0.0021843985022820182 0.038954233704823968 0 -0.0017987415485260364 0.039619086175303193 0 -0.0021843985022820182 0.038954233704823968 0 -0.0035710655187750251 0.039393064961669812 0 -0.0018817591824683583 0.039175530888316067 0 -0.0035422279735825464 0.039150388113572666 0 -0.0028009126642340319 0.038301014045473022 0 -0.0021843985022820182 0.038954233704823968 0 -0.0035710655187750251 0.039393064961669812 0 -0.0046416853863156058 0.039540821010345631 0 -0.0041231647414598956 0.039259249421850884 0 -0.0039678512076273603 0.040086293837203753 0 -0.0046416853863156058 0.039540821010345631 0 -0.0039678512076273603 0.040086293837203753 0 -0.0045202922466456462 0.040150500115106631 0 -0.0030259474379044377 0.039383438707506518 0 -0.0041231647414598956 0.039259249421850884 0 -0.0039678512076273603 0.040086293837203753 0 -0.0018817591824683583 0.039175530888316067 0 -0.0029425353267778344 0.039256222241771541 0 -0.00020404460102693247 0.039582343106507573 0 -9.6809005881964011e-05 0.039227389804951988 0 -0.0007951712097259533 0.039693740416186403 0 -0.00020404460102693247 0.039582343106507573 0 -0.0007951712097259533 0.039693740416186403 0 -0.00030538894492793117 0.03993537621839955 0 -0.0007951712097259533 0.039693740416186403 0 -0.00030538894492793117 0.03993537621839955 0 -0.00076253754697048343 0.040205397330589178 0 -0.00030538894492793117 0.03993537621839955 0 -0.00076253754697048343 0.040205397330589178 0 -0.00028890646419408271 0.040385173791682327 0 -0.004919846456264013 0.040782736709991031 0 -0.0039678512076273603 0.040086293837203753 0 -0.0045202922466456462 0.040150500115106631 0 -0.0015541040065954578 0.040206600489024032 0 -0.0013880334099432025 0.040185437851330635 0 -0.0007951712097259533 0.039693740416186403 0 -0.0013880334099432025 0.040185437851330635 0 -0.0007951712097259533 0.039693740416186403 0 -0.00076253754697048343 0.040205397330589178 0 -0.0045436130696805618 0.039000263428948585 0 -0.0029425353267778344 0.039256222241771541 0 -0.00076253754697048343 0.040205397330589178 0 -0.0011143478569415959 0.040431583692803336 0 -0.00071750962080410871 0.040705800882100032 0 -0.0013880334099432025 0.040185437851330635 0 -0.00076253754697048343 0.040205397330589178 0 -0.0011143478569415959 0.040431583692803336 0 -0.0011143478569415959 0.040431583692803336 0 -0.00071750962080410871 0.040705800882100032 0 -0.0011348758875503835 0.040800605171116014 0 -0.0014215355478191648 0.040607877096701848 0 -0.0011143478569415959 0.040431583692803336 0 -0.0011348758875503835 0.040800605171116014 0 -0.00076253754697048343 0.040205397330589178 0 -0.00028890646419408271 0.040385173791682327 0 -0.00071750962080410871 0.040705800882100032 0 -0.00028890646419408271 0.040385173791682327 0 -0.00071750962080410871 0.040705800882100032 0 -0.00022106877831484743 0.040909453764803871 0 -0.00028890646419408271 0.040385173791682327 0 0.00023244198327329157 0.040580124817013993 0 -0.00022106877831484743 0.040909453764803871 0 -0.00028890646419408271 0.040385173791682327 0 0.00023244198327329157 0.040580124817013993 0 9.9345078097768288e-05 0.040074033420168333 0 -0.00030538894492793117 0.03993537621839955 0 -0.00028890646419408271 0.040385173791682327 0 9.9345078097768288e-05 0.040074033420168333 0 9.9130913670009545e-05 0.039689750603671428 0 -0.00030538894492793117 0.03993537621839955 0 9.9345078097768288e-05 0.040074033420168333 0 9.9130913670009545e-05 0.039689750603671428 0 9.9345078097768288e-05 0.040074033420168333 0 0.00050487827850804448 0.039819229395510067 0 9.9345078097768288e-05 0.040074033420168333 0 0.00050487827850804448 0.039819229395510067 0 0.00049437135730528135 0.040177136608369739 0 0.00087981700797986446 0.040097440396206045 0 0.00050487827850804448 0.039819229395510067 0 0.00049437135730528135 0.040177136608369739 0 0.00080710419139041058 0.040481509442057827 0 0.00023244198327329157 0.040580124817013993 0 0.00049437135730528135 0.040177136608369739 0 0.00080710419139041058 0.040481509442057827 0 0.00023244198327329157 0.040580124817013993 0 0.00068982194919558798 0.040892779125092565 0 0.00023244198327329157 0.040580124817013993 0 9.9345078097768288e-05 0.040074033420168333 0 0.00049437135730528135 0.040177136608369739 0 0.00087981700797986446 0.040097440396206045 0 0.00080710419139041058 0.040481509442057827 0 0.00049437135730528135 0.040177136608369739 0 0.0011170318258846592 0.041377782262953584 0 0.00068982194919558798 0.040892779125092565 0 0.00032091209147286197 0.041294665457960969 0 0.00023244198327329157 0.040580124817013993 0 0.00068982194919558798 0.040892779125092565 0 0.00032091209147286197 0.041294665457960969 0 -0.00022106877831484743 0.040909453764803871 0 0.00032091209147286197 0.041294665457960969 0 -0.00027266942167287556 0.041419961957043304 0 0.00023244198327329157 0.040580124817013993 0 -0.00022106877831484743 0.040909453764803871 0 0.00032091209147286197 0.041294665457960969 0 0.00032091209147286197 0.041294665457960969 0 1.4444083934334358e-05 0.041834989799624953 0 -0.00027266942167287556 0.041419961957043304 0 0.00032091209147286197 0.041294665457960969 0 0.0005011681880114588 0.041941280103891143 0 1.4444083934334358e-05 0.041834989799624953 0 0.0011170318258846592 0.041377782262953584 0 0.00032091209147286197 0.041294665457960969 0 0.0005011681880114588 0.041941280103891143 0 0.0005011681880114588 0.041941280103891143 0 1.4444083934334358e-05 0.041834989799624953 0 -5.4357589259932706e-05 0.042518461955171893 0 1.4444083934334358e-05 0.041834989799624953 0 -5.4357589259932706e-05 0.042518461955171893 0 -0.00042258577265146116 0.041973604726576755 0 1.4444083934334358e-05 0.041834989799624953 0 -0.00042258577265146116 0.041973604726576755 0 -0.00027266942167287556 0.041419961957043304 0 0.0033310128791310348 0.037474479285970329 0 0.0039933834965039617 0.038745192931268747 0 0.0041151646136835572 0.037720287013177652 0 0.0039933834965039617 0.038745192931268747 0 0.0049206067520835648 0.037711661953744459 0 0.0041151646136835572 0.037720287013177652 0 0.0012862288751889584 0.039403939150782975 0 0.00044034549178345139 0.03805558874763354 0 -0.00094531009542650533 0.04231706124128537 0 -0.001558215227420282 0.042311402289145844 0 -0.001023953895092244 0.042752311587712387 0 -0.00094531009542650533 0.04231706124128537 0 -0.00058222139970031479 0.042590171350284603 0 -0.001023953895092244 0.042752311587712387 0 -5.4357589259932706e-05 0.042518461955171893 0 -0.00042258577265146116 0.041973604726576755 0 -0.00058222139970031479 0.042590171350284603 0 -0.00094531009542650533 0.04231706124128537 0 -0.00042258577265146116 0.041973604726576755 0 -0.00058222139970031479 0.042590171350284603 0 -0.00042258577265146116 0.041973604726576755 0 -0.00087749636268537247 0.041874831312234545 0 -0.00080666514432864423 0.041436492722751551 0 -0.00094531009542650533 0.04231706124128537 0 -0.00042258577265146116 0.041973604726576755 0 -0.00087749636268537247 0.041874831312234545 0 -0.00094531009542650533 0.04231706124128537 0 -0.00087749636268537247 0.041874831312234545 0 -0.0013055767433638212 0.041936997911589405 0 -0.00087749636268537247 0.041874831312234545 0 -0.0012805228374359306 0.041522162508991718 0 -0.0013055767433638212 0.041936997911589405 0 -0.00087749636268537247 0.041874831312234545 0 -0.00080666514432864423 0.041436492722751551 0 -0.0012805228374359306 0.041522162508991718 0 -0.00080666514432864423 0.041436492722751551 0 -0.0011720011014519204 0.041187973477933328 0 -0.00089790225634517567 0.041047866472048632 0 -0.00080666514432864423 0.041436492722751551 0 -0.0005897897393752525 0.041099632787390782 0 -0.00089790225634517567 0.041047866472048632 0 -0.00080666514432864423 0.041436492722751551 0 -0.0011720011014519204 0.041187973477933328 0 -0.0012805228374359306 0.041522162508991718 0 -0.00080666514432864423 0.041436492722751551 0 -0.00027266942167287556 0.041419961957043304 0 -0.0005897897393752525 0.041099632787390782 0 -0.00042258577265146116 0.041973604726576755 0 -0.00080666514432864423 0.041436492722751551 0 -0.00027266942167287556 0.041419961957043304 0 -0.00071750962080410871 0.040705800882100032 0 -0.00022106877831484743 0.040909453764803871 0 -0.0005897897393752525 0.041099632787390782 0 -0.00022106877831484743 0.040909453764803871 0 -0.00027266942167287556 0.041419961957043304 0 -0.0005897897393752525 0.041099632787390782 0 -0.00071750962080410871 0.040705800882100032 0 -0.0005897897393752525 0.041099632787390782 0 -0.00089790225634517567 0.041047866472048632 0 -0.0011720011014519204 0.041187973477933328 0 -0.00089790225634517567 0.041047866472048632 0 -0.0011348758875503835 0.040800605171116014 0 -0.00071750962080410871 0.040705800882100032 0 -0.00089790225634517567 0.041047866472048632 0 -0.0011348758875503835 0.040800605171116014 0 -0.0014215355478191648 0.040607877096701848 0 -0.0011348758875503835 0.040800605171116014 0 -0.0014633046451807739 0.040913264330471433 0 -0.0011720011014519204 0.041187973477933328 0 -0.0011348758875503835 0.040800605171116014 0 -0.0014633046451807739 0.040913264330471433 0 -0.0011720011014519204 0.041187973477933328 0 -0.0014633046451807739 0.040913264330471433 0 -0.0015275941381519896 0.041205148661949027 0 -0.0014633046451807739 0.040913264330471433 0 -0.0018690605686782521 0.041002431688657422 0 -0.0015275941381519896 0.041205148661949027 0 -0.0014633046451807739 0.040913264330471433 0 -0.001636016640814712 0.040745907298781088 0 -0.0018690605686782521 0.041002431688657422 0 -0.0014215355478191648 0.040607877096701848 0 -0.0014633046451807739 0.040913264330471433 0 -0.001636016640814712 0.040745907298781088 0 -0.0017896296060275286 0.040460600814975274 0 -0.001636016640814712 0.040745907298781088 0 -0.0018690605686782521 0.041002431688657422 0 -0.0018690605686782521 0.041002431688657422 0 -0.0022670938514429174 0.040777599444818416 0 -0.0022288872874784752 0.041671964075320679 0 -0.0017896296060275286 0.040460600814975274 0 -0.0018690605686782521 0.041002431688657422 0 -0.0021987769578134361 0.04072686585751828 0 -0.0018690605686782521 0.041002431688657422 0 -0.0021987769578134361 0.04072686585751828 0 -0.0022670938514429174 0.040777599444818416 0 -0.0018690605686782521 0.041002431688657422 0 -0.0016753998715406369 0.041605253131022486 0 -0.0022288872874784752 0.041671964075320679 0 -0.0018690605686782521 0.041002431688657422 0 -0.0016753998715406369 0.041605253131022486 0 -0.0015275941381519896 0.041205148661949027 0 -0.0016753998715406369 0.041605253131022486 0 -0.0012805228374359306 0.041522162508991718 0 -0.0015275941381519896 0.041205148661949027 0 -0.0011720011014519204 0.041187973477933328 0 -0.0012805228374359306 0.041522162508991718 0 -0.0015275941381519896 0.041205148661949027 0 -0.015038819822659012 0.034023502604036179 0 -0.014826483156282258 0.033930522219323758 0 -0.014858504550793447 0.034058297197729216 0 -0.0149353051200606 0.034175564521394523 0 -0.015038819822659012 0.034023502604036179 0 -0.014858504550793447 0.034058297197729216 0 -0.015555488989198502 0.034363603310893588 0 -0.016018662998465456 0.034672182351637638 0 -0.016063919849006129 0.033613332970669242 0 -0.010056789256983797 0.037118896952534543 0 -0.0099921712089162864 0.036885286200311874 0 -0.010136586178643223 0.036979859830265853 0 -0.010603708608505883 0.03663351460826355 0 -0.011275306043477387 0.037031090053175127 0 -0.011275306043477387 0.037031090053175127 0 -0.0084182877777174113 0.037832867179243224 0 -0.0074218884934969219 0.037965863959853068 0 -0.0084182877777174113 0.037832867179243224 0 -0.015555488989198502 0.034363603310893588 0 -0.015835651990389631 0.03364584015663747 0 -0.016063919849006129 0.033613332970669242 0 -0.015555488989198502 0.034363603310893588 0 -0.015470854642920463 0.033887058992547521 0 -0.015835651990389631 0.03364584015663747 0 -0.0084182877777174113 0.037832867179243224 0 -0.0088820181680204901 0.037584674758234904 0 -0.015470854642920463 0.033887058992547521 0 -0.015291435484744336 0.033570190512682868 0 -0.015835651990389631 0.03364584015663747 0 -0.015507058761607276 0.034325907243578348 0 -0.01517486980831472 0.034005271201683347 0 -0.014796113429445191 0.033819814064561408 0 -0.015038819822659012 0.034023502604036179 0 -0.014826483156282258 0.033930522219323758 0 -0.014796113429445191 0.033819814064561408 0 -0.011275306043477387 0.037031090053175127 0 -0.012796468605396287 0.03650717640341699 0 -0.015555488989198502 0.034363603310893588 0 -0.015470854642920463 0.033887058992547521 0 -0.01517486980831472 0.034005271201683347 0 -0.011275306043477387 0.037031090053175127 0 -0.011800153697996767 0.036924695396126174 0 -0.015470854642920463 0.033887058992547521 0 -0.01517486980831472 0.034005271201683347 0 -0.015291435484744336 0.033570190512682868 0 -0.01517486980831472 0.034005271201683347 0 -0.015291435484744336 0.033570190512682868 0 -0.014959606768426965 0.033697088243466303 0 -0.015424978102097564 0.033257582283677541 0 -0.015419354775815219 0.032894314437188918 0 -0.014970038048835873 0.033435318705811817 0 -0.015419217344397235 0.033524619270878894 0 -0.015669749576245971 0.03334791094193329 0 -0.015835651990389631 0.03364584015663747 0 -0.015424978102097564 0.033257582283677541 0 -0.015419217344397235 0.033524619270878894 0 -0.014970038048835873 0.033435318705811817 0 -0.016711443589770541 0.031762833399618398 0 -0.016473106439741932 0.031913669544497869 0 -0.015424978102097564 0.033257582283677541 0 -0.015669749576245971 0.03334791094193329 0 -0.01563023886835329 0.033086574264167071 0 -0.015424978102097564 0.033257582283677541 0 -0.015419217344397235 0.033524619270878894 0 -0.015669749576245971 0.03334791094193329 0 -0.015669749576245971 0.03334791094193329 0 -0.015892860430852963 0.033159861452632611 0 -0.01563023886835329 0.033086574264167071 0 -0.015669749576245971 0.03334791094193329 0 -0.015863654989019996 0.033439562768084859 0 -0.015892860430852963 0.033159861452632611 0 -0.015669749576245971 0.03334791094193329 0 -0.015835651990389631 0.03364584015663747 0 -0.015863654989019996 0.033439562768084859 0 -0.015835651990389631 0.03364584015663747 0 -0.015863654989019996 0.033439562768084859 0 -0.016063919849006129 0.033613332970669242 0 -0.015863654989019996 0.033439562768084859 0 -0.016063919849006129 0.033613332970669242 0 -0.015892860430852963 0.033159861452632611 0 -0.0088820181680204901 0.037584674758234904 0 -0.0091419914888420176 0.036984262303546719 0 -0.016063919849006129 0.033613332970669242 0 -0.015892860430852963 0.033159861452632611 0 -0.016061369905304212 0.032729370364829743 0 -0.015892860430852963 0.033159861452632611 0 -0.015758571907653084 0.032864063272407075 0 -0.016061369905304212 0.032729370364829743 0 -0.015892860430852963 0.033159861452632611 0 -0.015758571907653084 0.032864063272407075 0 -0.01563023886835329 0.033086574264167071 0 -0.015424978102097564 0.033257582283677541 0 -0.01563023886835329 0.033086574264167071 0 -0.015419354775815219 0.032894314437188918 0 -0.015758571907653084 0.032864063272407075 0 -0.01563023886835329 0.033086574264167071 0 -0.015419354775815219 0.032894314437188918 0 -0.015758571907653084 0.032864063272407075 0 -0.015419354775815219 0.032894314437188918 0 -0.015718010473999355 0.032539286467445375 0 -0.0016753998715406369 0.041605253131022486 0 -0.0013055767433638212 0.041936997911589405 0 -0.001558215227420282 0.042311402289145844 0 -0.0016753998715406369 0.041605253131022486 0 -0.0012805228374359306 0.041522162508991718 0 -0.0013055767433638212 0.041936997911589405 0 -0.0016753998715406369 0.041605253131022486 0 -0.0022288872874784752 0.041671964075320679 0 -0.001558215227420282 0.042311402289145844 0 -0.0022288872874784752 0.041671964075320679 0 -0.001558215227420282 0.042311402289145844 0 -0.0021955650824675749 0.042544774130526986 0 -0.00094531009542650533 0.04231706124128537 0 -0.0013055767433638212 0.041936997911589405 0 -0.001558215227420282 0.042311402289145844 0 -0.001558215227420282 0.042311402289145844 0 -0.001384768282394442 0.043259477602486024 0 -0.0021955650824675749 0.042544774130526986 0 -0.001558215227420282 0.042311402289145844 0 -0.001384768282394442 0.043259477602486024 0 -0.001023953895092244 0.042752311587712387 0 -0.0021764610703684985 0.043403392395393911 0 -0.001384768282394442 0.043259477602486024 0 -0.0021955650824675749 0.042544774130526986 0 -0.0095084353181218474 0.032709280707080478 0 -0.0046199245999985379 0.034417156277328304 0 -0.0063134957718590902 0.030807269848395574 0 -0.0062200537059871877 0.030767649459007198 0 -0.0062663884974239921 0.030810884236640825 0 -0.015718010473999355 0.032539286467445375 0 -0.015411619312995586 0.032195911882465865 0 -0.015049572500360212 0.032456126454091634 0 -0.015419354775815219 0.032894314437188918 0 -0.015718010473999355 0.032539286467445375 0 -0.014995628267731678 0.032499835207951855 0 -0.016767979785010524 0.030715158688360573 0 -0.019423267823916686 0.03022067511148286 0 -0.015718010473999355 0.032539286467445375 0 -0.016061369905304212 0.032729370364829743 0 -0.01574767774705502 0.032182472266014686 0 -0.0095084353181218474 0.032709280707080478 0 -0.0091419914888420176 0.036984262303546719 0 -0.015758571907653084 0.032864063272407075 0 -0.015718010473999355 0.032539286467445375 0 -0.016061369905304212 0.032729370364829743 0 -0.016064014007641753 0.031959569107920416 0 -0.016061369905304212 0.032729370364829743 0 -0.01574767774705502 0.032182472266014686 0 -0.016064014007641753 0.031959569107920416 0 -0.01574767774705502 0.032182472266014686 0 -0.015552421766403845 0.031850279691015233 0 -0.015718010473999355 0.032539286467445375 0 -0.01574767774705502 0.032182472266014686 0 -0.015411619312995586 0.032195911882465865 0 -0.01574767774705502 0.032182472266014686 0 -0.015411619312995586 0.032195911882465865 0 -0.015552421766403845 0.031850279691015233 0 -0.015474722657555598 0.027344410926812751 0 -0.015342153158380525 0.026613758931294373 0 -0.014675347262730643 0.027163441073237454 0 -0.015411619312995586 0.032195911882465865 0 -0.015552421766403845 0.031850279691015233 0 -0.015057612478627455 0.031736294197511804 0 -0.016275122645697415 0.027527867990398691 0 -0.015474722657555598 0.027344410926812751 0 -0.016314947889862819 0.026522308666953612 0 -0.0095084353181218474 0.032709280707080478 0 -0.015232787241082384 0.029905220156467752 0 -0.015342153158380525 0.026613758931294373 0 -0.016314947889862819 0.026522308666953612 0 -0.015455406493459008 0.025804434280957897 0 -0.015474722657555598 0.027344410926812751 0 -0.015342153158380525 0.026613758931294373 0 -0.016314947889862819 0.026522308666953612 0 -0.0062200537059871877 0.030767649459007198 0 -0.0062332881196867649 0.03084450707284055 0 -0.0061089899404303269 0.030842395371607892 0 -0.0062289996827766493 0.030890207823209101 0 -0.0062332881196867649 0.03084450707284055 0 -0.0061089899404303269 0.030842395371607892 0 -0.0062289996827766493 0.030890207823209101 0 -0.0062018154308583796 0.030938327163294078 0 -0.0061089899404303269 0.030842395371607892 0 -0.0062874865107435344 0.030803949068081312 0 -0.0062999915122571399 0.030800907574301033 0 -0.0062975524249996879 0.030790600678313625 0 -0.0062874865107435344 0.030803949068081312 0 -0.0062999915122571399 0.030800907574301033 0 -0.0062663884974239921 0.030810884236640825 0 -0.0050371772327253124 0.029964451902799838 0 -0.0050538286998845269 0.030014532124837769 0 -0.0062200537059871877 0.030767649459007198 0 -0.0062663884974239921 0.030810884236640825 0 -0.0062332881196867649 0.03084450707284055 0 -0.0050371772327253124 0.029964451902799838 0 -0.005085385516935605 0.030025239954526561 0 -0.006233171582465221 0.030893267403699763 0 -0.0062663884974239921 0.030810884236640825 0 -0.0062332881196867649 0.03084450707284055 0 -0.0095084353181218474 0.032709280707080478 0 -0.010443541176919324 0.028883892291395291 0 -0.0063134957718590902 0.030807269848395574 0 -0.0062908646642100786 0.030804693533174787 0 -0.0062827757928043326 0.030784782822397824 0 -0.0063134957718590902 0.030807269848395574 0 -0.0062663884974239921 0.030810884236640825 0 -0.0062908646642100786 0.030804693533174787 0 -0.0062874865107435344 0.030803949068081312 0 -0.0062908646642100786 0.030804693533174787 0 -0.0062975524249996879 0.030790600678313625 0 -0.0062874865107435344 0.030803949068081312 0 -0.0062663884974239921 0.030810884236640825 0 -0.0062908646642100786 0.030804693533174787 0 -0.0062975524249996879 0.030790600678313625 0 -0.0062827757928043326 0.030784782822397824 0 -0.0063091379543803892 0.030748066386678152 0 -0.0062908646642100786 0.030804693533174787 0 -0.0062975524249996879 0.030790600678313625 0 -0.0062827757928043326 0.030784782822397824 0 -0.0034047413243181845 0.028985802204018047 0 -0.0032251233945786405 0.028763697412987656 0 -0.003968516892363807 0.027886889375865798 0 -0.0062975524249996879 0.030790600678313625 0 -0.006312178007829866 0.030782021006205345 0 -0.0063091379543803892 0.030748066386678152 0 -0.0054367821635397514 0.029370587301369475 0 -0.0080229801757580477 0.02776493561248581 0 -0.0062999915122571399 0.030800907574301033 0 -0.0062975524249996879 0.030790600678313625 0 -0.006312178007829866 0.030782021006205345 0 -0.0057869615387774144 0.030252138438350135 0 -0.0059754300637642069 0.029891314109779472 0 -0.0058063346118246853 0.029682222791138295 0 -0.0050371772327253124 0.029964451902799838 0 -0.0054367821635397514 0.029370587301369475 0 -0.0050371772327253124 0.029964451902799838 0 -0.0044955593535289835 0.030154293548145635 0 -0.0044955593535289835 0.030154293548145635 0 -0.0054367821635397514 0.029370587301369475 0 0.0076751653964408761 0.034470289738202889 0 0.0065495406528320657 0.034380192666314952 0 0.0070017104907529812 0.033149142455337066 0 -0.0044955593535289835 0.030154293548145635 0 -0.0012454254835544229 0.030633110010198573 0 0.0076751653964408761 0.034470289738202889 0 0.0065495406528320657 0.034380192666314952 0 0.006850054552237291 0.035503843337592544 0 -0.0044955593535289835 0.030154293548145635 0 -0.0020350653236385968 0.032171966637649235 0 0.0065495406528320657 0.034380192666314952 0 0.006850054552237291 0.035503843337592544 0 0.0055904027061821591 0.035035570113222565 0 0.006850054552237291 0.035503843337592544 0 0.0055904027061821591 0.035035570113222565 0 0.0055671882561411871 0.035933736039955949 0 0.0065495406528320657 0.034380192666314952 0 0.0055904027061821591 0.035035570113222565 0 0.0056264587250679744 0.033739251806792124 0 0.0065495406528320657 0.034380192666314952 0 0.0056264587250679744 0.033739251806792124 0 0.0070017104907529812 0.033149142455337066 0 0.0056264587250679744 0.033739251806792124 0 0.004733148760727347 0.034567972002095486 0 0.0042415893372342991 0.033484369682691563 0 0.0055904027061821591 0.035035570113222565 0 0.0056264587250679744 0.033739251806792124 0 0.004733148760727347 0.034567972002095486 0 0.0032732636573846305 0.03392533485870184 0 0.0037389164662967518 0.034884439924510388 0 0.0042415893372342991 0.033484369682691563 0 0.004733148760727347 0.034567972002095486 0 0.0037389164662967518 0.034884439924510388 0 0.0042415893372342991 0.033484369682691563 0 0.004733148760727347 0.034567972002095486 0 0.0037389164662967518 0.034884439924510388 0 0.0046516087990066575 0.035833988262626286 0 0.0035012968527867541 0.036361662661384804 0 0.0037389164662967518 0.034884439924510388 0 0.0046516087990066575 0.035833988262626286 0 0.0055904027061821591 0.035035570113222565 0 0.004733148760727347 0.034567972002095486 0 0.0046516087990066575 0.035833988262626286 0 0.0055904027061821591 0.035035570113222565 0 0.0046516087990066575 0.035833988262626286 0 0.0055671882561411871 0.035933736039955949 0 0.0046516087990066575 0.035833988262626286 0 0.0053726430101992085 0.03665771742048906 0 0.0055671882561411871 0.035933736039955949 0 0.0046516087990066575 0.035833988262626286 0 0.0053726430101992085 0.03665771742048906 0 0.0042844772260147886 0.036981758570660953 0 0.0035012968527867541 0.036361662661384804 0 0.0046516087990066575 0.035833988262626286 0 0.0042844772260147886 0.036981758570660953 0 0.0033310128791310348 0.037474479285970329 0 0.0035012968527867541 0.036361662661384804 0 0.0042844772260147886 0.036981758570660953 0 0.0033310128791310348 0.037474479285970329 0 0.0041151646136835572 0.037720287013177652 0 0.0042844772260147886 0.036981758570660953 0 0.0049206067520835648 0.037711661953744459 0 0.0041151646136835572 0.037720287013177652 0 0.0042844772260147886 0.036981758570660953 0 0.0049206067520835648 0.037711661953744459 0 0.0053726430101992085 0.03665771742048906 0 0.0042844772260147886 0.036981758570660953 0 -5.4357589259932706e-05 0.042518461955171893 0 -0.00058222139970031479 0.042590171350284603 0 -0.00058276769857435221 0.043109183929315509 0 0.0049206067520835648 0.037711661953744459 0 0.0053726430101992085 0.03665771742048906 0 0.0059334537470943378 0.036539091452030749 0 0.00044034549178345139 0.03805558874763354 0 -0.0010986514261206067 0.034638359741601246 0 -0.00058222139970031479 0.042590171350284603 0 -0.001023953895092244 0.042752311587712387 0 -0.00058276769857435221 0.043109183929315509 0 -0.0062200537059871877 0.030767649459007198 0 -0.0061089899404303269 0.030842395371607892 0 -0.0059901508803595922 0.030727125329263683 0 -0.0046199245999985379 0.034417156277328304 0 -0.0010986514261206067 0.034638359741601246 0 -0.0020350653236385968 0.032171966637649235 0 -0.0010986514261206067 0.034638359741601246 0 -0.001384768282394442 0.043259477602486024 0 -0.001023953895092244 0.042752311587712387 0 -0.00058276769857435221 0.043109183929315509 0 0.006850054552237291 0.035503843337592544 0 0.0055671882561411871 0.035933736039955949 0 0.0060134073504711722 0.036529848720134449 0 0.0053726430101992085 0.03665771742048906 0 0.0055671882561411871 0.035933736039955949 0 0.0060134073504711722 0.036529848720134449 0 -0.00019310794604604218 0.034578506947637221 0 -0.0010986514261206067 0.034638359741601246 0 -0.024826590717243135 0.029272442674520612 0 -0.024679480475754571 0.029140094535901155 0 -0.024668041869899494 0.029404469185400815 0 -0.024826590717243135 0.029272442674520612 0 -0.024968621130821569 0.029352100366155126 0 -0.024668041869899494 0.029404469185400815 0 -0.024826590717243135 0.029272442674520612 0 -0.024679480475754571 0.029140094535901155 0 -0.024970436070885397 0.029195918900937305 0 -0.024499863733939139 0.029231656368342893 0 -0.024679480475754571 0.029140094535901155 0 -0.024366806308048709 0.029084037721254959 0 -0.024499863733939139 0.029231656368342893 0 -0.024668041869899494 0.029404469185400815 0 -0.024285223566857871 0.029296995929715033 0 -0.024499863733939139 0.029231656368342893 0 -0.024679480475754571 0.029140094535901155 0 -0.024668041869899494 0.029404469185400815 0 -0.02392808751250082 0.028971870022798291 0 -0.024250717418133616 0.029267894834041935 0 -0.023581955558772103 0.029242266742503031 0 -0.024281516047643739 0.029424311344796231 0 -0.023701073655666798 0.02953873493225969 0 -0.02392808751250082 0.028971870022798291 0 -0.024354919683252426 0.028959653008080753 0 -0.024250717418133616 0.029267894834041935 0 -0.024281516047643739 0.029424311344796231 0 -0.024531245829782687 0.029394377056502819 0 -0.024678169288961029 0.029051600061569004 0 -0.024973205175440518 0.028839592207476165 0 -0.024465741047842021 0.028651556844295985 0 -0.024250717418133616 0.029267894834041935 0 -0.024678169288961029 0.029051600061569004 0 -0.024970436070885397 0.029195918900937305 0 -0.024354919683252426 0.028959653008080753 0 -0.024250717418133616 0.029267894834041935 0 -0.024678169288961029 0.029051600061569004 0 -0.024354919683252426 0.028959653008080753 0 -0.024678169288961029 0.029051600061569004 0 -0.024389203865216157 0.028671756073425061 0 -0.024053561099231003 0.029497928297434289 0 -0.024032319445465477 0.029653661435991283 0 -0.024973205175440518 0.028839592207476165 0 -0.025358108726388297 0.028992999004757217 0 -0.024970436070885397 0.029195918900937305 0 -0.024678169288961029 0.029051600061569004 0 -0.024973205175440518 0.028839592207476165 0 -0.024970436070885397 0.029195918900937305 0 -0.024941828074807524 0.029410093014119235 0 -0.027342972325915687 0.028879176981828493 0 -0.025358108726388297 0.028992999004757217 0 -0.025273599057319757 0.029307393604637192 0 -0.024970436070885397 0.029195918900937305 0 -0.025273599057319757 0.029307393604637192 0 -0.024970436070885397 0.029195918900937305 0 -0.024968621130821569 0.029352100366155126 0 -0.025273599057319757 0.029307393604637192 0 -0.024968621130821569 0.029352100366155126 0 -0.025079195312928113 0.029532535422517329 0 -0.024826590717243135 0.029272442674520612 0 -0.024970436070885397 0.029195918900937305 0 -0.024968621130821569 0.029352100366155126 0 -0.024968621130821569 0.029352100366155126 0 -0.025079195312928113 0.029532535422517329 0 -0.024668041869899494 0.029404469185400815 0 -0.033710508605606031 0.016925108979446726 0 -0.033817692058980137 0.017075828326056527 0 -0.033961777734551814 0.016992533701330408 0 -0.025273599057319757 0.029307393604637192 0 -0.025079195312928113 0.029532535422517329 0 -0.025596654026615852 0.029630202945320983 0 -0.0299003800264287 0.022876811912028328 0 -0.032811462826539545 0.022569473345943128 0 -0.033710508605606031 0.016925108979446726 0 -0.033817692058980137 0.017075828326056527 0 -0.033697182428227515 0.017155101287092109 0 -0.033710508605606031 0.016925108979446726 0 -0.033514853389110345 0.017058460270022387 0 -0.033697182428227515 0.017155101287092109 0 -0.0299003800264287 0.022876811912028328 0 -0.029023410177614398 0.023225199838742445 0 -0.033710508605606031 0.016925108979446726 0 -0.033514853389110345 0.017058460270022387 0 -0.03345118514715887 0.016831881641909567 0 -0.03345118514715887 0.016831881641909567 0 -0.033272683877222917 0.01703213341836203 0 -0.033067273491321533 0.016907966316694216 0 -0.033514853389110345 0.017058460270022387 0 -0.03345118514715887 0.016831881641909567 0 -0.033272683877222917 0.01703213341836203 0 -0.029023410177614398 0.023225199838742445 0 -0.028235820475810303 0.023678350804099357 0 -0.033514853389110345 0.017058460270022387 0 -0.033272683877222917 0.01703213341836203 0 -0.033346502566999392 0.017172069550706114 0 -0.033272683877222917 0.01703213341836203 0 -0.033167837372382679 0.017128894473215209 0 -0.033346502566999392 0.017172069550706114 0 -0.033133066475473094 0.017040178555148288 0 -0.033060113884356881 0.017077109205659639 0 -0.033067273491321533 0.016907966316694216 0 -0.033272683877222917 0.01703213341836203 0 -0.033167837372382679 0.017128894473215209 0 -0.033133066475473094 0.017040178555148288 0 -0.033167837372382679 0.017128894473215209 0 -0.033133066475473094 0.017040178555148288 0 -0.033060113884356881 0.017077109205659639 0 -0.033060113884356881 0.017077109205659639 0 -0.032935040837679092 0.017087473568326583 0 -0.033067273491321533 0.016907966316694216 0 -0.033272683877222917 0.01703213341836203 0 -0.033133066475473094 0.017040178555148288 0 -0.033067273491321533 0.016907966316694216 0 -0.032095996375681488 0.018032322380470076 0 -0.032455070917172459 0.017046931508737626 0 -0.032049927123079351 0.017232520670745311 0 -0.032095996375681488 0.018032322380470076 0 -0.032049927123079351 0.017232520670745311 0 -0.031733125270711385 0.017533174458922163 0 -0.030987884923406546 0.017145214128157917 0 -0.031965402352079043 0.016730042843927477 0 -0.032455070917172459 0.017046931508737626 0 -0.031771195771476829 0.016747603605978309 0 -0.032834538760072952 0.01657680084735556 0 -0.032095996375681488 0.018032322380470076 0 -0.032455070917172459 0.017046931508737626 0 -0.033067273491321533 0.016907966316694216 0 -0.032455070917172459 0.017046931508737626 0 -0.032049927123079351 0.017232520670745311 0 -0.031771195771476829 0.016747603605978309 0 -0.032455070917172459 0.017046931508737626 0 -0.033067273491321533 0.016907966316694216 0 -0.032834538760072952 0.01657680084735556 0 -0.03345118514715887 0.016831881641909567 0 -0.033067273491321533 0.016907966316694216 0 -0.032834538760072952 0.01657680084735556 0 -0.015342153158380525 0.026613758931294373 0 -0.014678408687869141 0.026306189980890373 0 -0.014675347262730643 0.027163441073237454 0 -0.021595277297832425 0.024425189164178424 0 -0.020511169558915208 0.027152391926508711 0 -0.023416668798903504 0.023377499381125592 0 -0.022280586215866881 0.023510497635266636 0 -0.023393569726658323 0.027310049173896161 0 -0.031416597257134658 0.017408194221616331 0 -0.031092373957045106 0.018094755088768739 0 -0.031274530002144418 0.017117529905546863 0 -0.025500753561473449 0.021783987992806043 0 -0.024209819553267689 0.025567005821432634 0 -0.032095996375681488 0.018032322380470076 0 -0.031092373957045106 0.018094755088768739 0 -0.031733125270711385 0.017533174458922163 0 -0.031416597257134658 0.017408194221616331 0 -0.031092373957045106 0.018094755088768739 0 -0.031733125270711385 0.017533174458922163 0 -0.031771195771476829 0.016747603605978309 0 -0.031274530002144418 0.017117529905546863 0 -0.031408526700626507 0.016271279910795518 0 -0.022280586215866881 0.023510497635266636 0 -0.021778096629233488 0.026959891376490928 0 -0.023393569726658323 0.027310049173896161 0 -0.024209819553267689 0.025567005821432634 0 -0.02684330696390962 0.024607486253027274 0 -0.023882874533015741 0.029179670965842838 0 -0.023836688671520518 0.029175384956512264 0 -0.023870400229481628 0.029091034571293955 0 -0.032049927123079351 0.017232520670745311 0 -0.031680249370297384 0.017178071796346579 0 -0.031771195771476829 0.016747603605978309 0 -0.031416597257134658 0.017408194221616331 0 -0.031680249370297384 0.017178071796346579 0 -0.031274530002144418 0.017117529905546863 0 -0.032049927123079351 0.017232520670745311 0 -0.031733125270711385 0.017533174458922163 0 -0.031680249370297384 0.017178071796346579 0 -0.031416597257134658 0.017408194221616331 0 -0.031733125270711385 0.017533174458922163 0 -0.031680249370297384 0.017178071796346579 0 -0.031680249370297384 0.017178071796346579 0 -0.031771195771476829 0.016747603605978309 0 -0.031274530002144418 0.017117529905546863 0 -0.015232787241082384 0.029905220156467752 0 -0.020511169558915208 0.027152391926508711 0 -0.024209819553267689 0.025567005821432634 0 -0.020511169558915208 0.027152391926508711 0 -0.020511169558915208 0.027152391926508711 0 -0.019423267823916686 0.03022067511148286 0 -0.015411619312995586 0.032195911882465865 0 -0.015057612478627455 0.031736294197511804 0 -0.015049572500360212 0.032456126454091634 0 -0.023836688671520518 0.029175384956512264 0 -0.023870400229481628 0.029091034571293955 0 -0.023814910901760772 0.029009656766220696 0 -0.023882874533015741 0.029179670965842838 0 -0.023870400229481628 0.029091034571293955 0 -0.023897306777856713 0.029093620403538332 0 -0.02684330696390962 0.024607486253027274 0 -0.026593978269975949 0.025501468696757134 0 -0.023870400229481628 0.029091034571293955 0 -0.023910275002055142 0.029098174830662477 0 -0.023941797381948949 0.029040500655278537 0 -0.026739727200014864 0.024646393348561221 0 -0.02684330696390962 0.024607486253027274 0 -0.023909693654514723 0.029193113008043843 0 -0.023941797381948949 0.029040500655278537 0 -0.024073382472404193 0.029138472544639946 0 -0.019423267823916686 0.03022067511148286 0 -0.022572131835610319 0.029790369302267489 0 -0.023941797381948949 0.029040500655278537 0 -0.023814910901760772 0.029009656766220696 0 -0.024045572672535688 0.029034222886164907 0 -0.022250767055445143 0.029173742307501985 0 -0.022925601277247819 0.029216221834617889 0 -0.022601021889066469 0.028898673685012602 0 -0.023941797381948949 0.029040500655278537 0 -0.024073382472404193 0.029138472544639946 0 -0.024045572672535688 0.029034222886164907 0 -0.022925601277247819 0.029216221834617889 0 -0.022932838627715054 0.028808553172544816 0 -0.022601021889066469 0.028898673685012602 0 -0.023870400229481628 0.029091034571293955 0 -0.023941797381948949 0.029040500655278537 0 -0.023814910901760772 0.029009656766220696 0 -0.022250767055445143 0.029173742307501985 0 -0.022254795368043593 0.028687543603298192 0 -0.022601021889066469 0.028898673685012602 0 -0.019423267823916686 0.03022067511148286 0 -0.018942410248347578 0.030726389257113556 0 -0.024499863733939139 0.029231656368342893 0 -0.024285223566857871 0.029296995929715033 0 -0.024366806308048709 0.029084037721254959 0 -0.024285223566857871 0.029296995929715033 0 -0.024202809234994078 0.029135524541549745 0 -0.024366806308048709 0.029084037721254959 0 -0.031771195771476829 0.016747603605978309 0 -0.031408526700626507 0.016271279910795518 0 -0.032834538760072952 0.01657680084735556 0 -0.02684330696390962 0.024607486253027274 0 -0.028235820475810303 0.023678350804099357 0 -0.023909693654514723 0.029193113008043843 0 -0.024285223566857871 0.029296995929715033 0 -0.024073382472404193 0.029138472544639946 0 -0.024073382472404193 0.029138472544639946 0 -0.024202809234994078 0.029135524541549745 0 -0.024045572672535688 0.029034222886164907 0 -0.024285223566857871 0.029296995929715033 0 -0.024073382472404193 0.029138472544639946 0 -0.024202809234994078 0.029135524541549745 0 -0.022572131835610319 0.029790369302267489 0 -0.023701073655666798 0.02953873493225969 0 -0.022925601277247819 0.029216221834617889 0 -0.023194322037788925 0.029018974774298698 0 -0.023581955558772103 0.029242266742503031 0 -0.024202809234994078 0.029135524541549745 0 -0.024045572672535688 0.029034222886164907 0 -0.024366806308048709 0.029084037721254959 0 -0.022925601277247819 0.029216221834617889 0 -0.023194322037788925 0.029018974774298698 0 -0.022932838627715054 0.028808553172544816 0 -0.023581955558772103 0.029242266742503031 0 -0.023678949965138012 0.028810349179153052 0 -0.02333022245336697 0.02880303808982735 0 -0.023194322037788925 0.029018974774298698 0 -0.023581955558772103 0.029242266742503031 0 -0.02333022245336697 0.02880303808982735 0 -0.02392808751250082 0.028971870022798291 0 -0.023581955558772103 0.029242266742503031 0 -0.023678949965138012 0.028810349179153052 0 -0.023673293343009234 0.028491044166202784 0 -0.02333022245336697 0.02880303808982735 0 -0.022966328889305988 0.028337111481992385 0 -0.023678949965138012 0.028810349179153052 0 -0.023673293343009234 0.028491044166202784 0 -0.02333022245336697 0.02880303808982735 0 -0.02333022245336697 0.02880303808982735 0 -0.022932838627715054 0.028808553172544816 0 -0.022966328889305988 0.028337111481992385 0 -0.023194322037788925 0.029018974774298698 0 -0.02333022245336697 0.02880303808982735 0 -0.022932838627715054 0.028808553172544816 0 -0.023673293343009234 0.028491044166202784 0 -0.023506538112280484 0.02812028690082952 0 -0.023978587906641022 0.028193762104540426 0 -0.023673293343009234 0.028491044166202784 0 -0.023154484221280941 0.02841545544278028 0 -0.023506538112280484 0.02812028690082952 0 -0.022645549227446951 0.029965754581879986 0 -0.021849506920565077 0.030251183774477001 0 -0.015419354775815219 0.032894314437188918 0 -0.014995628267731678 0.032499835207951855 0 -0.015003693568716042 0.032917114474073327 0 -0.022254795368043593 0.028687543603298192 0 -0.022601910027894457 0.028587431879282262 0 -0.022253674290920261 0.028203733530113431 0 -0.015419354775815219 0.032894314437188918 0 -0.015003693568716042 0.032917114474073327 0 -0.015067613343376666 0.033317160366157429 0 -0.016707450609872755 0.032565396385774367 0 -0.017936796890196938 0.031367959663508874 0 -0.022932838627715054 0.028808553172544816 0 -0.022966328889305988 0.028337111481992385 0 -0.022601910027894457 0.028587431879282262 0 -0.022254795368043593 0.028687543603298192 0 -0.022601910027894457 0.028587431879282262 0 -0.022601021889066469 0.028898673685012602 0 -0.022932838627715054 0.028808553172544816 0 -0.022601910027894457 0.028587431879282262 0 -0.022601021889066469 0.028898673685012602 0 -0.023154484221280941 0.02841545544278028 0 -0.022633759599981637 0.02825134440060411 0 -0.022632714100740668 0.028327298478984592 0 -0.022966328889305988 0.028337111481992385 0 -0.022601910027894457 0.028587431879282262 0 -0.022253674290920261 0.028203733530113431 0 -0.021849506920565077 0.030251183774477001 0 -0.018535205871088273 0.031156866275202293 0 -0.018942410248347578 0.030726389257113556 0 -0.018535205871088273 0.031156866275202293 0 -0.015003693568716042 0.032917114474073327 0 -0.015010388733081336 0.033305526488321753 0 -0.015067613343376666 0.033317160366157429 0 -0.015291435484744336 0.033570190512682868 0 -0.014809548854040219 0.033499539251164973 0 -0.014959606768426965 0.033697088243466303 0 -0.016711443589770541 0.031762833399618398 0 -0.017936796890196938 0.031367959663508874 0 -0.018384128491142737 0.032227395084711272 0 -0.018397555105392011 0.02971696808135748 0 -0.020146701422457031 0.030058012781305939 0 -0.018312734792575804 0.031215829351060501 0 -0.017936796890196938 0.031367959663508874 0 -0.018312734792575804 0.031215829351060501 0 -0.018535205871088273 0.031156866275202293 0 -0.018535205871088273 0.031156866275202293 0 -0.017936796890196938 0.031367959663508874 0 -0.014735749626619353 0.033596726383737029 0 -0.014809548854040219 0.033499539251164973 0 -0.014959606768426965 0.033697088243466303 0 -0.023154484221280941 0.02841545544278028 0 -0.022633759599981637 0.02825134440060411 0 -0.023046089898656464 0.027761355379211282 0 -0.01517486980831472 0.034005271201683347 0 -0.014959606768426965 0.033697088243466303 0 -0.014796113429445191 0.033819814064561408 0 -0.018312734792575804 0.031215829351060501 0 -0.018209013805570818 0.031495579775997505 0 -0.014826483156282258 0.033930522219323758 0 -0.014796113429445191 0.033819814064561408 0 -0.014761514022276885 0.033841100576506203 0 -0.014735749626619353 0.033596726383737029 0 -0.014796113429445191 0.033819814064561408 0 -0.014761514022276885 0.033841100576506203 0 -0.014735749626619353 0.033596726383737029 0 -0.014959606768426965 0.033697088243466303 0 -0.014796113429445191 0.033819814064561408 0 -0.014826483156282258 0.033930522219323758 0 -0.014761514022276885 0.033841100576506203 0 -0.014746473297080818 0.034010956935705404 0 -0.014761514022276885 0.033841100576506203 0 -0.014576738481047465 0.03400980276259527 0 -0.014746473297080818 0.034010956935705404 0 -0.018312734792575804 0.031215829351060501 0 -0.019326140869505598 0.031531714765475415 0 -0.014761498770182558 0.033745525646636611 0 -0.014761514022276885 0.033841100576506203 0 -0.014576738481047465 0.03400980276259527 0 -0.014576738481047465 0.03400980276259527 0 -0.014746473297080818 0.034010956935705404 0 -0.014743707680048653 0.034150344781940727 0 -0.0149353051200606 0.034175564521394523 0 -0.014858504550793447 0.034058297197729216 0 -0.014743707680048653 0.034150344781940727 0 -0.014746473297080818 0.034010956935705404 0 -0.014858504550793447 0.034058297197729216 0 -0.014743707680048653 0.034150344781940727 0 -0.014826483156282258 0.033930522219323758 0 -0.014746473297080818 0.034010956935705404 0 -0.014858504550793447 0.034058297197729216 0 -0.023154484221280941 0.02841545544278028 0 -0.023046089898656464 0.027761355379211282 0 -0.023506538112280484 0.02812028690082952 0 -0.023506538112280484 0.02812028690082952 0 -0.023691493237517229 0.027746149271116769 0 -0.023978587906641022 0.028193762104540426 0 -0.023046089898656464 0.027761355379211282 0 -0.023506538112280484 0.02812028690082952 0 -0.023691493237517229 0.027746149271116769 0 -0.023046089898656464 0.027761355379211282 0 -0.023691493237517229 0.027746149271116769 0 -0.023434734989360301 0.027301362256844659 0 -0.021557091227642287 0.033636506935814582 0 -0.021594530489586858 0.033607711605684654 0 -0.021560012970804825 0.033587476490071315 0 -0.021557091227642287 0.033636506935814582 0 -0.021594530489586858 0.033607711605684654 0 -0.02163002104703441 0.033671089135371521 0 -0.021594530489586858 0.033607711605684654 0 -0.021719612492134357 0.033667647097982915 0 -0.02163002104703441 0.033671089135371521 0 -0.021656707210009146 0.033665202181723843 0 -0.021702092844389703 0.033704604969774218 0 -0.021621685369935237 0.033613825728724976 0 -0.02162861090742722 0.033675252429289579 0 -0.021658103712720995 0.033615295336253827 0 -0.021594530489586858 0.033607711605684654 0 -0.021621685369935237 0.033613825728724976 0 -0.02162861090742722 0.033675252429289579 0 -0.021670123829025115 0.033708593464961502 0 -0.021629701210855504 0.033744331923775087 0 -0.021706759566845112 0.033752089381040455 0 -0.021719612492134357 0.033667647097982915 0 -0.021670123829025115 0.033708593464961502 0 -0.02163002104703441 0.033671089135371521 0 -0.021719612492134357 0.033667647097982915 0 -0.021670123829025115 0.033708593464961502 0 -0.021706759566845112 0.033752089381040455 0 -0.021557091227642287 0.033636506935814582 0 -0.02163002104703441 0.033671089135371521 0 -0.021629701210855504 0.033744331923775087 0 -0.021709610142132983 0.031430308032804354 0 -0.02292224910967423 0.030762592044161149 0 -0.021670123829025115 0.033708593464961502 0 -0.02163002104703441 0.033671089135371521 0 -0.021629701210855504 0.033744331923775087 0 -0.023673293343009234 0.028491044166202784 0 -0.023978587906641022 0.028193762104540426 0 -0.024040123229642635 0.028586721273166148 0 -0.02292224910967423 0.030762592044161149 0 -0.024032319445465477 0.029653661435991283 0 -0.021629701210855504 0.033744331923775087 0 -0.021706759566845112 0.033752089381040455 0 -0.021703332722396822 0.033824001000821918 0 -0.021706759566845112 0.033752089381040455 0 -0.021703332722396822 0.033824001000821918 0 -0.021799911980597025 0.033796336635985275 0 -0.024032319445465477 0.029653661435991283 0 -0.024007827824886627 0.0295866431115804 0 -0.024354919683252426 0.028959653008080753 0 -0.024389203865216157 0.028671756073425061 0 -0.024040123229642635 0.028586721273166148 0 -0.02392808751250082 0.028971870022798291 0 -0.024354919683252426 0.028959653008080753 0 -0.024040123229642635 0.028586721273166148 0 -0.023978587906641022 0.028193762104540426 0 -0.024286439037340238 0.02867400352816191 0 -0.024040123229642635 0.028586721273166148 0 -0.02392808751250082 0.028971870022798291 0 -0.023678949965138012 0.028810349179153052 0 -0.024040123229642635 0.028586721273166148 0 -0.023678949965138012 0.028810349179153052 0 -0.023673293343009234 0.028491044166202784 0 -0.024040123229642635 0.028586721273166148 0 -0.027342972325915687 0.028879176981828493 0 -0.024986852698095349 0.030975379074597565 0 -0.021955554734353629 0.034102719350153812 0 -0.021819996633544544 0.033932030438983643 0 -0.022014531571485162 0.033966521033754304 0 -0.021796093337713051 0.033845790897227598 0 -0.021911970553148231 0.033862577172148821 0 -0.021799911980597025 0.033796336635985275 0 -0.024941828074807524 0.029410093014119235 0 -0.024032319445465477 0.029653661435991283 0 -0.021796093337713051 0.033845790897227598 0 -0.021703332722396822 0.033824001000821918 0 -0.021799911980597025 0.033796336635985275 0 -0.02428843933608207 0.031537266391838875 0 -0.024986852698095349 0.030975379074597565 0 -0.021706759566845112 0.033752089381040455 0 -0.021819996633544544 0.033932030438983643 0 -0.021866528109230857 0.03379527913808604 0 -0.021798719756208392 0.0337891473835659 0 -0.021876732435799958 0.033854366486048983 0 -0.021819996633544544 0.033932030438983643 0 -0.021866528109230857 0.03379527913808604 0 -0.022014531571485162 0.033966521033754304 0 -0.021711251277140867 0.033794662069655437 0 -0.021796786882187606 0.033703773955277731 0 -0.021931680833957679 0.033826666986671132 0 -0.021711251277140867 0.033794662069655437 0 -0.022014531571485162 0.033966521033754304 0 -0.021931680833957679 0.033826666986671132 0 -0.021711251277140867 0.033794662069655437 0 -0.021796786882187606 0.033703773955277731 0 -0.021693271679068434 0.033688471019136468 0 -0.021796786882187606 0.033703773955277731 0 -0.021693271679068434 0.033688471019136468 0 -0.021729339993823163 0.033663047665858398 0 -0.021796786882187606 0.033703773955277731 0 -0.021729339993823163 0.033663047665858398 0 -0.021820574929453013 0.033615900223490217 0 -0.021702092844389703 0.033704604969774218 0 -0.021798719756208392 0.0337891473835659 0 -0.02162861090742722 0.033675252429289579 0 -0.021711251277140867 0.033794662069655437 0 -0.021693271679068434 0.033688471019136468 0 -0.021719612492134357 0.033667647097982915 0 -0.021706759566845112 0.033752089381040455 0 -0.021866528109230857 0.03379527913808604 0 -0.021693271679068434 0.033688471019136468 0 -0.021658103712720995 0.033615295336253827 0 -0.021729339993823163 0.033663047665858398 0 -0.02162861090742722 0.033675252429289579 0 -0.021693271679068434 0.033688471019136468 0 -0.021658103712720995 0.033615295336253827 0 -0.021610945249121515 0.0338509922114721 0 -0.021634380968089804 0.033819334638277639 0 -0.021919571001212057 0.033931092263144794 0 -0.021729339993823163 0.033663047665858398 0 -0.021684017070378248 0.034009200019564242 0 -0.021729339993823163 0.033663047665858398 0 -0.021684017070378248 0.034009200019564242 0 -0.021632962254609173 0.033757878702083743 0 -0.021684017070378248 0.034009200019564242 0 -0.021335672437341149 0.034245080987020671 0 -0.021632962254609173 0.033757878702083743 0 -0.021335672437341149 0.034245080987020671 0 -0.021735869777883061 0.034637396114246988 0 -0.020628487461847887 0.035603925688709868 0 -0.021335672437341149 0.034245080987020671 0 -0.020628487461847887 0.035603925688709868 0 -0.021034378083331449 0.034934142622868147 0 -0.021684017070378248 0.034009200019564242 0 -0.021335672437341149 0.034245080987020671 0 -0.021735869777883061 0.034637396114246988 0 -0.021735869777883061 0.034637396114246988 0 -0.022003115697665696 0.034537419437787771 0 -0.022032083200746993 0.034908641365284841 0 -0.021735869777883061 0.034637396114246988 0 -0.021884659230037209 0.034201925671168878 0 -0.022003115697665696 0.034537419437787771 0 -0.021684017070378248 0.034009200019564242 0 -0.021735869777883061 0.034637396114246988 0 -0.021884659230037209 0.034201925671168878 0 -0.021919571001212057 0.033931092263144794 0 -0.021684017070378248 0.034009200019564242 0 -0.021884659230037209 0.034201925671168878 0 -0.021610945249121515 0.0338509922114721 0 -0.021369703032275145 0.033851584324055523 0 -0.021621685369935237 0.033613825728724976 0 -0.021658103712720995 0.033615295336253827 0 -0.021604644037978491 0.033577384735182333 0 -0.021919571001212057 0.033931092263144794 0 -0.022105416118095671 0.034214603646947769 0 -0.022118241207849575 0.034234919160635514 0 -0.021919571001212057 0.033931092263144794 0 -0.021884659230037209 0.034201925671168878 0 -0.022105416118095671 0.034214603646947769 0 -0.022105416118095671 0.034214603646947769 0 -0.022118241207849575 0.034234919160635514 0 -0.022068511000693597 0.034128780657003061 0 -0.021604644037978491 0.033577384735182333 0 -0.021564745197475001 0.033573551829989189 0 -0.021538033050594402 0.033535186448666147 0 -0.021369703032275145 0.033851584324055523 0 -0.020286469663003997 0.033515013620022224 0 -0.021586677572606849 0.033586343000445551 0 -0.021564745197475001 0.033573551829989189 0 -0.021560012970804825 0.033587476490071315 0 -0.021586677572606849 0.033586343000445551 0 -0.021604644037978491 0.033577384735182333 0 -0.021564745197475001 0.033573551829989189 0 -0.021594530489586858 0.033607711605684654 0 -0.021586677572606849 0.033586343000445551 0 -0.021560012970804825 0.033587476490071315 0 -0.021594530489586858 0.033607711605684654 0 -0.021621685369935237 0.033613825728724976 0 -0.021604644037978491 0.033577384735182333 0 -0.021594530489586858 0.033607711605684654 0 -0.021586677572606849 0.033586343000445551 0 -0.021604644037978491 0.033577384735182333 0 -0.022118241207849575 0.034234919160635514 0 -0.021798472417583852 0.034076829983345366 0 -0.021612881518500864 0.034135994057696302 0 -0.021798472417583852 0.034076829983345366 0 -0.021968948817266035 0.034068190254815084 0 -0.021863194893926807 0.033998568973814335 0 -0.022118241207849575 0.034234919160635514 0 -0.021798472417583852 0.034076829983345366 0 -0.021968948817266035 0.034068190254815084 0 -0.022118241207849575 0.034234919160635514 0 -0.021968948817266035 0.034068190254815084 0 -0.022068511000693597 0.034128780657003061 0 -0.021968948817266035 0.034068190254815084 0 -0.022025283798172708 0.034005918557330553 0 -0.022068511000693597 0.034128780657003061 0 -0.021968948817266035 0.034068190254815084 0 -0.021926603619267765 0.033907575713936634 0 -0.022025283798172708 0.034005918557330553 0 -0.021926603619267765 0.033907575713936634 0 -0.022025283798172708 0.034005918557330553 0 -0.022128548773732062 0.033908713909079687 0 -0.021968948817266035 0.034068190254815084 0 -0.021926603619267765 0.033907575713936634 0 -0.021863194893926807 0.033998568973814335 0 -0.021926603619267765 0.033907575713936634 0 -0.021863194893926807 0.033998568973814335 0 -0.021755270335710088 0.033940423129393708 0 -0.021798472417583852 0.034076829983345366 0 -0.021863194893926807 0.033998568973814335 0 -0.021755270335710088 0.033940423129393708 0 -0.020618118476666093 0.034739305119668717 0 -0.020382744595280205 0.034973469849264242 0 -0.022105416118095671 0.034214603646947769 0 -0.022003115697665696 0.034537419437787771 0 -0.022248005874196519 0.034725081264404468 0 -0.022105416118095671 0.034214603646947769 0 -0.022068511000693597 0.034128780657003061 0 -0.022128548773732062 0.033908713909079687 0 -0.021884659230037209 0.034201925671168878 0 -0.022105416118095671 0.034214603646947769 0 -0.022003115697665696 0.034537419437787771 0 -0.022025283798172708 0.034005918557330553 0 -0.022068511000693597 0.034128780657003061 0 -0.022128548773732062 0.033908713909079687 0 -0.022032083200746993 0.034908641365284841 0 -0.022248005874196519 0.034725081264404468 0 -0.022325941567731794 0.035221482042785773 0 -0.020382744595280205 0.034973469849264242 0 -0.019609572187480859 0.035900603805727641 0 -0.022003115697665696 0.034537419437787771 0 -0.022032083200746993 0.034908641365284841 0 -0.022248005874196519 0.034725081264404468 0 -0.020588103859244804 0.035982540790390302 0 -0.019609572187480859 0.035900603805727641 0 -0.022128548773732062 0.033908713909079687 0 -0.021919964826190644 0.033694245586726193 0 -0.022059329822689662 0.033477046140644326 0 -0.021926603619267765 0.033907575713936634 0 -0.021919964826190644 0.033694245586726193 0 -0.021717430910993134 0.033729179903340081 0 -0.021926603619267765 0.033907575713936634 0 -0.021755270335710088 0.033940423129393708 0 -0.021717430910993134 0.033729179903340081 0 -0.021926603619267765 0.033907575713936634 0 -0.022128548773732062 0.033908713909079687 0 -0.021919964826190644 0.033694245586726193 0 -0.021919964826190644 0.033694245586726193 0 -0.021751913334809195 0.033490379282303064 0 -0.021717430910993134 0.033729179903340081 0 -0.019609572187480859 0.035900603805727641 0 -0.018118901154425167 0.035704597716279603 0 -0.021751913334809195 0.033490379282303064 0 -0.022059329822689662 0.033477046140644326 0 -0.021674463311440843 0.033090524559624419 0 -0.021919964826190644 0.033694245586726193 0 -0.021751913334809195 0.033490379282303064 0 -0.022059329822689662 0.033477046140644326 0 -0.023302740931089371 0.036400156364468104 0 -0.022178952618729379 0.036793228627544868 0 -0.023550213961259794 0.037914511987747417 0 -0.022511468544353444 0.035541566607210071 0 -0.023302740931089371 0.036400156364468104 0 -0.022178952618729379 0.036793228627544868 0 -0.017900685706403997 0.036663871775430672 0 -0.019361767751529282 0.036092789943555845 0 -0.020628487461847887 0.035603925688709868 0 -0.01913341071662077 0.03662729666683729 0 -0.019346648242173331 0.03636640370311893 0 -0.019361767751529282 0.036092789943555845 0 -0.020628487461847887 0.035603925688709868 0 -0.020386870864481609 0.035719196755085308 0 -0.019361767751529282 0.036092789943555845 0 -0.019265306687457608 0.035967801173632442 0 -0.020386870864481609 0.035719196755085308 0 -0.022178952618729379 0.036793228627544868 0 -0.020628487461847887 0.035603925688709868 0 -0.021768578796463656 0.035647835100630673 0 -0.022511468544353444 0.035541566607210071 0 -0.022178952618729379 0.036793228627544868 0 -0.021768578796463656 0.035647835100630673 0 -0.021735869777883061 0.034637396114246988 0 -0.020628487461847887 0.035603925688709868 0 -0.021768578796463656 0.035647835100630673 0 -0.020747788378207871 0.035860861202023857 0 -0.020588103859244804 0.035982540790390302 0 -0.021735869777883061 0.034637396114246988 0 -0.022511468544353444 0.035541566607210071 0 -0.021768578796463656 0.035647835100630673 0 -0.014810991004861756 0.034318454754781055 0 -0.014687588462781242 0.034394278443862336 0 -0.014769321826847166 0.034536729217982211 0 -0.014951359525163568 0.034461742819298431 0 -0.014810991004861756 0.034318454754781055 0 -0.014769321826847166 0.034536729217982211 0 -0.014810991004861756 0.034318454754781055 0 -0.014743707680048653 0.034150344781940727 0 -0.014629527611516884 0.034249075936534895 0 -0.0149353051200606 0.034175564521394523 0 -0.014810991004861756 0.034318454754781055 0 -0.014743707680048653 0.034150344781940727 0 -0.014576738481047465 0.03400980276259527 0 -0.014743707680048653 0.034150344781940727 0 -0.014629527611516884 0.034249075936534895 0 -0.014810991004861756 0.034318454754781055 0 -0.014629527611516884 0.034249075936534895 0 -0.014687588462781242 0.034394278443862336 0 -0.014629527611516884 0.034249075936534895 0 -0.014687588462781242 0.034394278443862336 0 -0.01456499025127112 0.034362198108702849 0 -0.014687588462781242 0.034394278443862336 0 -0.01456499025127112 0.034362198108702849 0 -0.014569354959676937 0.034473620122081404 0 -0.014478300276205889 0.03442197807673332 0 -0.01456499025127112 0.034362198108702849 0 -0.0143952993578888 0.034256138353785333 0 -0.01871905940184004 0.033576968497632788 0 -0.020233526201787529 0.033030002228356059 0 -0.014478300276205889 0.03442197807673332 0 -0.01456499025127112 0.034362198108702849 0 -0.014569354959676937 0.034473620122081404 0 -0.01871905940184004 0.033576968497632788 0 -0.018217888226566739 0.033443459030573802 0 -0.014629527611516884 0.034249075936534895 0 -0.01456499025127112 0.034362198108702849 0 -0.0143952993578888 0.034256138353785333 0 -0.019326140869505598 0.031531714765475415 0 -0.020233526201787529 0.033030002228356059 0 -0.014576738481047465 0.03400980276259527 0 -0.014629527611516884 0.034249075936534895 0 -0.0143952993578888 0.034256138353785333 0 -0.021557091227642287 0.033636506935814582 0 -0.021514911531048227 0.033561594780348217 0 -0.021560012970804825 0.033587476490071315 0 -0.021709610142132983 0.031430308032804354 0 -0.020233526201787529 0.033030002228356059 0 -0.021514911531048227 0.033561594780348217 0 -0.021541232568755651 0.033560195835218444 0 -0.021538033050594402 0.033535186448666147 0 -0.021564745197475001 0.033573551829989189 0 -0.021541232568755651 0.033560195835218444 0 -0.021538033050594402 0.033535186448666147 0 -0.021514911531048227 0.033561594780348217 0 -0.021560012970804825 0.033587476490071315 0 -0.021541232568755651 0.033560195835218444 0 -0.021564745197475001 0.033573551829989189 0 -0.021560012970804825 0.033587476490071315 0 -0.021541232568755651 0.033560195835218444 0 -0.0194972458353629 0.033708974112722695 0 -0.019577909367648076 0.033856900211447563 0 -0.019639401405368639 0.033781475803411544 0 -0.021798472417583852 0.034076829983345366 0 -0.021700099945980284 0.034093850947728987 0 -0.021612881518500864 0.034135994057696302 0 -0.021798472417583852 0.034076829983345366 0 -0.021700099945980284 0.034093850947728987 0 -0.02168127068484894 0.034021955110276898 0 -0.021700099945980284 0.034093850947728987 0 -0.021612881518500864 0.034135994057696302 0 -0.02168127068484894 0.034021955110276898 0 -0.020233526201787529 0.033030002228356059 0 -0.020286469663003997 0.033515013620022224 0 -0.021261033916956832 0.033978178802628961 0 -0.021612881518500864 0.034135994057696302 0 -0.021530889779084877 0.03391722113561197 0 -0.01871905940184004 0.033576968497632788 0 -0.020286469663003997 0.033515013620022224 0 -0.021530889779084877 0.03391722113561197 0 -0.021755270335710088 0.033940423129393708 0 -0.02168127068484894 0.034021955110276898 0 -0.021612881518500864 0.034135994057696302 0 -0.021530889779084877 0.03391722113561197 0 -0.02168127068484894 0.034021955110276898 0 -0.021798472417583852 0.034076829983345366 0 -0.021755270335710088 0.033940423129393708 0 -0.02168127068484894 0.034021955110276898 0 -0.021751913334809195 0.033490379282303064 0 -0.021717430910993134 0.033729179903340081 0 -0.021360626258111609 0.033563215348084555 0 -0.021530889779084877 0.03391722113561197 0 -0.021717430910993134 0.033729179903340081 0 -0.021360626258111609 0.033563215348084555 0 -0.021530889779084877 0.03391722113561197 0 -0.021755270335710088 0.033940423129393708 0 -0.021717430910993134 0.033729179903340081 0 -0.021360626258111609 0.033563215348084555 0 -0.021224115411677038 0.03315585592637868 0 -0.021674463311440843 0.033090524559624419 0 -0.021751913334809195 0.033490379282303064 0 -0.021360626258111609 0.033563215348084555 0 -0.021674463311440843 0.033090524559624419 0 -0.021360626258111609 0.033563215348084555 0 -0.020971689366393702 0.03348699450452957 0 -0.021224115411677038 0.03315585592637868 0 -0.014485557833896668 0.034425067563421223 0 -0.014569354959676937 0.034473620122081404 0 -0.014593434709565291 0.034659635893280777 0 -0.01871905940184004 0.033576968497632788 0 -0.016566080004777928 0.034554427277307238 0 -0.021261033916956832 0.033978178802628961 0 -0.021360626258111609 0.033563215348084555 0 -0.020971689366393702 0.03348699450452957 0 -0.021261033916956832 0.033978178802628961 0 -0.021530889779084877 0.03391722113561197 0 -0.021360626258111609 0.033563215348084555 0 -0.014654767334506522 0.034516210613158578 0 -0.014593434709565291 0.034659635893280777 0 -0.014769321826847166 0.034536729217982211 0 -0.014569354959676937 0.034473620122081404 0 -0.014654767334506522 0.034516210613158578 0 -0.014593434709565291 0.034659635893280777 0 -0.014687588462781242 0.034394278443862336 0 -0.014569354959676937 0.034473620122081404 0 -0.014654767334506522 0.034516210613158578 0 -0.014687588462781242 0.034394278443862336 0 -0.014654767334506522 0.034516210613158578 0 -0.014769321826847166 0.034536729217982211 0 -0.014593434709565291 0.034659635893280777 0 -0.014770641617066109 0.034711128451781204 0 -0.014708920587727277 0.034896167930629864 0 -0.014593434709565291 0.034659635893280777 0 -0.014770641617066109 0.034711128451781204 0 -0.014769321826847166 0.034536729217982211 0 -0.014948555599801936 0.034612050388677949 0 -0.014770641617066109 0.034711128451781204 0 -0.014769321826847166 0.034536729217982211 0 -0.00816546075247092 0.037596907604960671 0 -0.0096295656678803045 0.038138576784991669 0 -0.0088189552144449929 0.03659690507288034 0 -0.013495474488829973 0.035474650879859418 0 -0.010329557597240253 0.035783627360222947 0 -0.0099198667703746836 0.038582064080324607 0 -0.010000354331681427 0.037083539793488697 0 -0.008958078596998079 0.036784314988370481 0 -0.014921438489797104 0.034794308476897941 0 -0.014770641617066109 0.034711128451781204 0 -0.014708920587727277 0.034896167930629864 0 -0.0083086323354514425 0.038759621347488026 0 -0.00816546075247092 0.037596907604960671 0 -0.0096295656678803045 0.038138576784991669 0 -0.011351505791733415 0.036306939653798609 0 -0.013495474488829973 0.035474650879859418 0 -0.020971689366393702 0.03348699450452957 0 -0.020684338028159326 0.032985584961967448 0 -0.021224115411677038 0.03315585592637868 0 -0.016566080004777928 0.034554427277307238 0 -0.013495474488829973 0.035474650879859418 0 -0.013495474488829973 0.035474650879859418 0 -0.015686063108805864 0.03587408083583761 0 -0.0099198667703746836 0.038582064080324607 0 -0.011836522757290351 0.037673957259407621 0 -0.010000354331681427 0.037083539793488697 0 -0.020684338028159326 0.032985584961967448 0 -0.021283178025875399 0.032703272412256616 0 -0.021224115411677038 0.03315585592637868 0 -0.021283178025875399 0.032703272412256616 0 -0.021224115411677038 0.03315585592637868 0 -0.021674463311440843 0.033090524559624419 0 -0.015686063108805864 0.03587408083583761 0 -0.018118901154425167 0.035704597716279603 0 -0.012586866679969206 0.037554096059418368 0 -0.01325613062116065 0.03723595656275077 0 -0.014525623139308877 0.039146155352408112 0 -0.017261349933875833 0.036078431218799105 0 -0.016937458596472717 0.035102585336085367 0 -0.017829838930503095 0.035833046573839511 0 -0.016506553159867078 0.035307163764433977 0 -0.017261349933875833 0.036078431218799105 0 -0.016937458596472717 0.035102585336085367 0 -0.015686063108805864 0.03587408083583761 0 -0.014920223180202415 0.036395981441382258 0 -0.014920223180202415 0.036395981441382258 0 -0.014747869432657264 0.036478996763133521 0 -0.012615798092941336 0.037490842727828294 0 -0.012276060426027295 0.036082000965224729 0 -0.013139548853711235 0.036419320505420766 0 -0.012615798092941336 0.037490842727828294 0 -0.01325613062116065 0.03723595656275077 0 -0.013139548853711235 0.036419320505420766 0 -0.012276060426027295 0.036082000965224729 0 -0.013139548853711235 0.036419320505420766 0 -0.012849260188328221 0.035584579487777657 0 -0.012849260188328221 0.035584579487777657 0 -0.011544590903303838 0.034999916266901202 0 -0.01345895783467905 0.034999623464540434 0 -0.012276060426027295 0.036082000965224729 0 -0.012849260188328221 0.035584579487777657 0 -0.011544590903303838 0.034999916266901202 0 -0.013139548853711235 0.036419320505420766 0 -0.012849260188328221 0.035584579487777657 0 -0.013972296119481692 0.035753339484560658 0 -0.012276060426027295 0.036082000965224729 0 -0.011544590903303838 0.034999916266901202 0 -0.011040594881502538 0.036140163929224811 0 -0.012615798092941336 0.037490842727828294 0 -0.012276060426027295 0.036082000965224729 0 -0.011040594881502538 0.036140163929224811 0 -0.011886536429480917 0.037733455557081748 0 -0.012625923570656372 0.037382921857457542 0 -0.011105694035465128 0.036153011831815768 0 -0.011886536429480917 0.037733455557081748 0 -0.011105694035465128 0.036153011831815768 0 -0.010789037176631848 0.03660984824429369 0 -0.014920223180202415 0.036395981441382258 0 -0.011817452138024064 0.035654651503857195 0 -0.015686063108805864 0.03587408083583761 0 -0.014436428282098219 0.03549993760668068 0 -0.011836522757290351 0.037673957259407621 0 -0.010000354331681427 0.037083539793488697 0 -0.010789037176631848 0.03660984824429369 0 -0.011105694035465128 0.036153011831815768 0 -0.010789037176631848 0.03660984824429369 0 -0.0097991513748493814 0.03608215037753084 0 -0.010000354331681427 0.037083539793488697 0 -0.010789037176631848 0.03660984824429369 0 -0.0097991513748493814 0.03608215037753084 0 -0.011105694035465128 0.036153011831815768 0 -0.0096315311555448587 0.03499997274381627 0 -0.0097991513748493814 0.03608215037753084 0 -0.011544590903303838 0.034999916266901202 0 -0.011040594881502538 0.036140163929224811 0 -0.0096314971715411139 0.035000031713132908 0 -0.011817452138024064 0.035654651503857195 0 -0.0096339093191733782 0.035000035621893764 0 -0.0080039923723752762 0.035000007971135637 0 -0.0096315311555448587 0.03499997274381627 0 -0.0097991513748493814 0.03608215037753084 0 -0.0080039923723752762 0.035000007971135637 0 -0.0097991513748493814 0.03608215037753084 0 -0.008958078596998079 0.036784314988370481 0 -0.010000354331681427 0.037083539793488697 0 -0.0097991513748493814 0.03608215037753084 0 -0.008958078596998079 0.036784314988370481 0 -0.017034824673418013 0.035830606778158504 0 -0.017774394719733203 0.036119630753262542 0 -0.016100482405866257 0.035963687459869276 0 -0.017034824673418013 0.035830606778158504 0 -0.018403408432298655 0.035827626739950956 0 -0.017774394719733203 0.036119630753262542 0 -0.018403408432298655 0.035827626739950956 0 -0.019265306687457608 0.035967801173632442 0 -0.017774394719733203 0.036119630753262542 0 -0.019361767751529282 0.036092789943555845 0 -0.019265306687457608 0.035967801173632442 0 -0.017774394719733203 0.036119630753262542 0 -0.018403408432298655 0.035827626739950956 0 -0.019265306687457608 0.035967801173632442 0 -0.019608114676703915 0.035839766204869991 0 -0.017900685706403997 0.036663871775430672 0 -0.019361767751529282 0.036092789943555845 0 -0.017774394719733203 0.036119630753262542 0 -0.017900685706403997 0.036663871775430672 0 -0.017774394719733203 0.036119630753262542 0 -0.015872157316129922 0.036472064702669588 0 -0.01913341071662077 0.03662729666683729 0 -0.017693412138751523 0.036416571849504524 0 -0.018015096359123767 0.036845972949258433 0 -0.017261349933875833 0.036078431218799105 0 -0.017829838930503095 0.035833046573839511 0 -0.019609572187480859 0.035900603805727641 0 -0.017693412138751523 0.036416571849504524 0 -0.014920223180202415 0.036395981441382258 0 -0.017693412138751523 0.036416571849504524 0 -0.017693412138751523 0.036416571849504524 0 -0.01674785871166027 0.036136922820318398 0 -0.01325613062116065 0.03723595656275077 0 -0.014525623139308877 0.039146155352408112 0 -0.01422070413372652 0.037471444935183194 0 -0.015872157316129922 0.036472064702669588 0 -0.015226304736772247 0.036003802721245481 0 -0.016100482405866257 0.035963687459869276 0 -0.017774394719733203 0.036119630753262542 0 -0.015872157316129922 0.036472064702669588 0 -0.016100482405866257 0.035963687459869276 0 -0.017034824673418013 0.035830606778158504 0 -0.016100482405866257 0.035963687459869276 0 -0.015898005144516326 0.035607307432377451 0 -0.016100482405866257 0.035963687459869276 0 -0.015184998309026939 0.035779872101967695 0 -0.015898005144516326 0.035607307432377451 0 -0.015184998309026939 0.035779872101967695 0 -0.015898005144516326 0.035607307432377451 0 -0.014815283132660916 0.035437637689216671 0 -0.015226304736772247 0.036003802721245481 0 -0.015184998309026939 0.035779872101967695 0 -0.013972296119481692 0.035753339484560658 0 -0.013139548853711235 0.036419320505420766 0 -0.01422070413372652 0.037471444935183194 0 -0.013972296119481692 0.035753339484560658 0 -0.01674785871166027 0.036136922820318398 0 -0.016392797173582583 0.03583588688475875 0 -0.01325613062116065 0.03723595656275077 0 -0.013139548853711235 0.036419320505420766 0 -0.01422070413372652 0.037471444935183194 0 -0.015226304736772247 0.036003802721245481 0 -0.016100482405866257 0.035963687459869276 0 -0.015184998309026939 0.035779872101967695 0 -0.015184998309026939 0.035779872101967695 0 -0.013972296119481692 0.035753339484560658 0 -0.014815283132660916 0.035437637689216671 0 -0.012849260188328221 0.035584579487777657 0 -0.013972296119481692 0.035753339484560658 0 -0.01345895783467905 0.034999623464540434 0 -0.013972296119481692 0.035753339484560658 0 -0.01345895783467905 0.034999623464540434 0 -0.014815283132660916 0.035437637689216671 0 -0.01345895783467905 0.034999623464540434 0 -0.014815283132660916 0.035437637689216671 0 -0.015372297484193869 0.034999462128370094 0 -0.015898005144516326 0.035607307432377451 0 -0.014815283132660916 0.035437637689216671 0 -0.015372297484193869 0.034999462128370094 0 -0.015372297484193869 0.034999462128370094 0 -0.017217690976537518 0.035509931485475162 0 -0.017285352786373546 0.034999652738769219 0 -0.015898005144516326 0.035607307432377451 0 -0.015372297484193869 0.034999462128370094 0 -0.017217690976537518 0.035509931485475162 0 -0.017034824673418013 0.035830606778158504 0 -0.018403408432298655 0.035827626739950956 0 -0.017217690976537518 0.035509931485475162 0 -0.017034824673418013 0.035830606778158504 0 -0.015898005144516326 0.035607307432377451 0 -0.017217690976537518 0.035509931485475162 0 -0.018403408432298655 0.035827626739950956 0 -0.017217690976537518 0.035509931485475162 0 -0.018885736105622199 0.035540762127181318 0 -0.017217690976537518 0.035509931485475162 0 -0.017285352786373546 0.034999652738769219 0 -0.018885736105622199 0.035540762127181318 0 -0.017285352786373546 0.034999652738769219 0 -0.019197674865685101 0.034998555838767667 0 -0.018885736105622199 0.035540762127181318 0 -0.019197674865685101 0.034998555838767667 0 -0.019848362050744639 0.035330879176369963 0 -0.018885736105622199 0.035540762127181318 0 -0.019848362050744639 0.035330879176369963 0 -0.018885736105622199 0.035540762127181318 0 -0.020070736954003295 0.035676820842473353 0 -0.018403408432298655 0.035827626739950956 0 -0.018885736105622199 0.035540762127181318 0 -0.019608114676703915 0.035839766204869991 0 -0.018885736105622199 0.035540762127181318 0 -0.020070736954003295 0.035676820842473353 0 -0.019608114676703915 0.035839766204869991 0 -0.020070736954003295 0.035676820842473353 0 -0.020400111355339978 0.035790778152767551 0 -0.019608114676703915 0.035839766204869991 0 -0.019265306687457608 0.035967801173632442 0 -0.019608114676703915 0.035839766204869991 0 -0.020386870864481609 0.035719196755085308 0 -0.020400111355339978 0.035790778152767551 0 -0.019608114676703915 0.035839766204869991 0 -0.020386870864481609 0.035719196755085308 0 -0.020757823466221882 0.035827409865312063 0 -0.02162835173383083 0.035883676706408872 0 -0.021199751189979708 0.035925109199651487 0 -0.02162835173383083 0.035883676706408872 0 -0.021512349394764891 0.036115511403211578 0 -0.021199751189979708 0.035925109199651487 0 -0.020070736954003295 0.035676820842473353 0 -0.020400111355339978 0.035790778152767551 0 -0.020757823466221882 0.035827409865312063 0 -0.020400111355339978 0.035790778152767551 0 -0.020757823466221882 0.035827409865312063 0 -0.02115996507189042 0.03560340331645407 0 -0.019848362050744639 0.035330879176369963 0 -0.020070736954003295 0.035676820842473353 0 -0.020684044500118823 0.035458787823509981 0 -0.020070736954003295 0.035676820842473353 0 -0.020757823466221882 0.035827409865312063 0 -0.020684044500118823 0.035458787823509981 0 -0.020757823466221882 0.035827409865312063 0 -0.020684044500118823 0.035458787823509981 0 -0.02162835173383083 0.035883676706408872 0 -0.020684044500118823 0.035458787823509981 0 -0.021586568264943869 0.035011386038460261 0 -0.02162835173383083 0.035883676706408872 0 -0.020526008854307991 0.035422309707932191 0 -0.0215910708764111 0.035748480481384251 0 -0.019197361263488286 0.035000022533744034 0 -0.020767107055171072 0.03579723081240474 0 -0.021501440157785413 0.034999723202378936 0 -0.020684044500118823 0.035458787823509981 0 -0.02046049729536201 0.034888816352524263 0 -0.021586568264943869 0.035011386038460261 0 -0.019848362050744639 0.035330879176369963 0 -0.020684044500118823 0.035458787823509981 0 -0.02046049729536201 0.034888816352524263 0 -0.019197674865685101 0.034998555838767667 0 -0.019848362050744639 0.035330879176369963 0 -0.02046049729536201 0.034888816352524263 0 -0.019199192743859242 0.035000173487537457 0 -0.020526008854307991 0.035422309707932191 0 -0.020767107055171072 0.03579723081240474 0 -0.021501440157785413 0.034999723202378936 0 -0.022335282840552865 0.0362337603009356 0 -0.021501440157785413 0.034999723202378936 0 -0.0234169292176192 0.035948871918556669 0 -0.024664852940834599 0.034999341928981034 0 -0.021501440157785413 0.034999723202378936 0 -0.0234169292176192 0.035948871918556669 0 -0.022335282840552865 0.0362337603009356 0 -0.0234169292176192 0.035948871918556669 0 -0.024664852940834599 0.034999341928981034 0 -0.02531271341606622 0.036672123206137559 0 -0.024664852940834599 0.034999341928981034 0 -0.02531271341606622 0.036672123206137559 0 -0.027486807214837903 0.036338497634957688 0 -0.025727954508912347 0.034344262973685966 0 -0.026491202731496633 0.036202590362242507 0 -0.027727181862015029 0.035189856948244287 0 -0.025727954508912347 0.034344262973685966 0 -0.024474127983324739 0.03582556440863377 0 -0.023414484377047688 0.035900738388674976 0 -0.0234169292176192 0.035948871918556669 0 -0.02531271341606622 0.036672123206137559 0 -0.023414484377047688 0.035900738388674976 0 -0.02612628851443196 0.035541276096550591 0 -0.02520903720393803 0.035693182386175804 0 -0.024474127983324739 0.03582556440863377 0 -0.026491202731496633 0.036202590362242507 0 -0.024540714697689394 0.036757760982639637 0 -0.023830217873279668 0.036150973087008854 0 -0.024474127983324739 0.03582556440863377 0 -0.023613141638961631 0.035954869626487022 0 -0.024474127983324739 0.03582556440863377 0 -0.023414484377047688 0.035900738388674976 0 -0.023613141638961631 0.035954869626487022 0 -0.023830217873279668 0.036150973087008854 0 -0.024474127983324739 0.03582556440863377 0 -0.024540714697689394 0.036757760982639637 0 -0.023830217873279668 0.036150973087008854 0 -0.023104109150499343 0.036357490297043348 0 -0.024540714697689394 0.036757760982639637 0 -0.025727954508912347 0.034344262973685966 0 -0.024474127983324739 0.03582556440863377 0 -0.026491202731496633 0.036202590362242507 0 -0.021586568264943869 0.035011386038460261 0 -0.022297572923092774 0.035692772125691531 0 -0.02162835173383083 0.035883676706408872 0 -0.021586568264943869 0.035011386038460261 0 -0.022297572923092774 0.035692772125691531 0 -0.023314390633473545 0.035880226380450797 0 -0.0215910708764111 0.035748480481384251 0 -0.022141696975405883 0.035940977828500503 0 -0.022297572923092774 0.035692772125691531 0 -0.022847999060470789 0.035875807443442383 0 -0.022191909737141472 0.036013447051017999 0 -0.0234169292176192 0.035948871918556669 0 -0.023414484377047688 0.035900738388674976 0 -0.023314390633473545 0.035880226380450797 0 -0.0234169292176192 0.035948871918556669 0 -0.022335282840552865 0.0362337603009356 0 -0.023314390633473545 0.035880226380450797 0 -0.023414484377047688 0.035900738388674976 0 -0.023233645734039257 0.035904318752341118 0 -0.023613141638961631 0.035954869626487022 0 -0.023414484377047688 0.035900738388674976 0 -0.023314390633473545 0.035880226380450797 0 -0.023233645734039257 0.035904318752341118 0 -0.022297572923092774 0.035692772125691531 0 -0.023314390633473545 0.035880226380450797 0 -0.022847999060470789 0.035875807443442383 0 -0.023233645734039257 0.035904318752341118 0 -0.022847999060470789 0.035875807443442383 0 -0.023128891041159949 0.035947124726583048 0 -0.023314390633473545 0.035880226380450797 0 -0.023233645734039257 0.035904318752341118 0 -0.022847999060470789 0.035875807443442383 0 -0.022847999060470789 0.035875807443442383 0 -0.022817562243689461 0.036043515035139681 0 -0.022191909737141472 0.036013447051017999 0 -0.022847999060470789 0.035875807443442383 0 -0.022817562243689461 0.036043515035139681 0 -0.023128891041159949 0.035947124726583048 0 -0.023233645734039257 0.035904318752341118 0 -0.023613141638961631 0.035954869626487022 0 -0.023128891041159949 0.035947124726583048 0 -0.023613141638961631 0.035954869626487022 0 -0.023128891041159949 0.035947124726583048 0 -0.023258773378853032 0.036069322577955115 0 -0.022817562243689461 0.036043515035139681 0 -0.023128891041159949 0.035947124726583048 0 -0.023258773378853032 0.036069322577955115 0 -0.023830217873279668 0.036150973087008854 0 -0.023613141638961631 0.035954869626487022 0 -0.023258773378853032 0.036069322577955115 0 -0.023830217873279668 0.036150973087008854 0 -0.023258773378853032 0.036069322577955115 0 -0.023104109150499343 0.036357490297043348 0 -0.022817562243689461 0.036043515035139681 0 -0.023258773378853032 0.036069322577955115 0 -0.023104109150499343 0.036357490297043348 0 -0.022817562243689461 0.036043515035139681 0 -0.023104109150499343 0.036357490297043348 0 -0.022255708320289135 0.036279053281915087 0 -0.022817562243689461 0.036043515035139681 0 -0.022255708320289135 0.036279053281915087 0 -0.022191909737141472 0.036013447051017999 0 -0.022255708320289135 0.036279053281915087 0 -0.022191909737141472 0.036013447051017999 0 -0.021512349394764891 0.036115511403211578 0 -0.022297572923092774 0.035692772125691531 0 -0.022191909737141472 0.036013447051017999 0 -0.02162835173383083 0.035883676706408872 0 -0.022191909737141472 0.036013447051017999 0 -0.02162835173383083 0.035883676706408872 0 -0.021512349394764891 0.036115511403211578 0 -0.022255708320289135 0.036279053281915087 0 -0.02271459653894559 0.036873573922511241 0 -0.021076875295518837 0.036132855363727144 0 -0.022255708320289135 0.036279053281915087 0 -0.021512349394764891 0.036115511403211578 0 -0.021076875295518837 0.036132855363727144 0 -0.023104109150499343 0.036357490297043348 0 -0.022255708320289135 0.036279053281915087 0 -0.02271459653894559 0.036873573922511241 0 -0.023104109150499343 0.036357490297043348 0 -0.02271459653894559 0.036873573922511241 0 -0.024540714697689394 0.036757760982639637 0 -0.018970731452753794 0.035578786048466406 0 -0.021076875295518837 0.036132855363727144 0 -0.019375506134539758 0.034207086817903361 0 -0.023340740567879315 0.034387072001214811 0 -0.022590214477343169 0.034654219399049793 0 -0.02271459653894559 0.036873573922511241 0 -0.023150694263803586 0.0382484369117434 0 -0.021076875295518837 0.036132855363727144 0 -0.02271459653894559 0.036873573922511241 0 -0.023150694263803586 0.0382484369117434 0 -0.024473882743598119 0.037848017837222692 0 -0.024540714697689394 0.036757760982639637 0 -0.024473882743598119 0.037848017837222692 0 -0.026803648943692727 0.037778833197626094 0 -0.026491202731496633 0.036202590362242507 0 -0.024540714697689394 0.036757760982639637 0 -0.026803648943692727 0.037778833197626094 0 -0.02271459653894559 0.036873573922511241 0 -0.024540714697689394 0.036757760982639637 0 -0.024473882743598119 0.037848017837222692 0 -0.023150694263803586 0.0382484369117434 0 -0.024473882743598119 0.037848017837222692 0 -0.025274120893401177 0.039120056795195063 0 -0.023340740567879315 0.034387072001214811 0 -0.027226226021698337 0.033611286964134145 0 -0.032805480707589207 0.032238452487210321 0 -0.032473715508617315 0.032700420745090032 0 -0.032251891621549129 0.032103080686438835 0 -0.027226226021698337 0.033611286964134145 0 -0.028626636804843703 0.034165384806916145 0 -0.024473882743598119 0.037848017837222692 0 -0.025274120893401177 0.039120056795195063 0 -0.026803648943692727 0.037778833197626094 0 -0.031760248060475303 0.031988655314802425 0 -0.031764251898095876 0.03198442582504752 0 -0.031761716424756885 0.03199795997307231 0 -0.027226226021698337 0.033611286964134145 0 -0.030489720001731824 0.033371680256866272 0 -0.031764251898095876 0.03198442582504752 0 -0.031769218801793626 0.031972438071337192 0 -0.031761716424756885 0.03199795997307231 0 -0.016999428112018534 0.035069758271272733 0 -0.018445785256230363 0.033206270395928307 0 -0.019375506134539758 0.034207086817903361 0 -0.031760248060475303 0.031988655314802425 0 -0.031764251898095876 0.03198442582504752 0 -0.031755477795322784 0.031982530468609362 0 -0.027226226021698337 0.033611286964134145 0 -0.026338342737334 0.032722437108558058 0 -0.018970731452753794 0.035578786048466406 0 -0.016999428112018534 0.035069758271272733 0 -0.019375506134539758 0.034207086817903361 0 -0.026338342737334 0.032722437108558058 0 -0.030722452308459349 0.031926238236561121 0 -0.029803324704613509 0.029627553500787107 0 -0.028464458799239093 0.029218511385358411 0 -0.028624738023293059 0.030743735798466783 0 -0.031764251898095876 0.03198442582504752 0 -0.031755477795322784 0.031982530468609362 0 -0.031769218801793626 0.031972438071337192 0 -0.028804375320675261 0.028759051058431975 0 -0.029803324704613509 0.029627553500787107 0 -0.032110385714648138 0.028539938497567058 0 -0.026338342737334 0.032722437108558058 0 -0.026373450432784031 0.032674743021211622 0 -0.028804375320675261 0.028759051058431975 0 -0.029803324704613509 0.029627553500787107 0 -0.028464458799239093 0.029218511385358411 0 -0.021076875295518837 0.036132855363727144 0 -0.020694875780701671 0.033815524104821824 0 -0.019375506134539758 0.034207086817903361 0 -0.018445785256230363 0.033206270395928307 0 -0.020694875780701671 0.033815524104821824 0 -0.019375506134539758 0.034207086817903361 0 -0.026338342737334 0.032722437108558058 0 -0.024195547869474712 0.03245554050010329 0 -0.028464458799239093 0.029218511385358411 0 -0.026279622549337245 0.030766572127677114 0 -0.028624738023293059 0.030743735798466783 0 -0.028696051257938528 0.028887608141216957 0 -0.025006044619884062 0.030418205666081985 0 -0.028464458799239093 0.029218511385358411 0 -0.025006044619884062 0.030418205666081985 0 -0.028464458799239093 0.029218511385358411 0 -0.026279622549337245 0.030766572127677114 0 -0.025006044619884062 0.030418205666081985 0 -0.026279622549337245 0.030766572127677114 0 -0.023762994680756377 0.031980663752818182 0 -0.021076875295518837 0.036132855363727144 0 -0.020694875780701671 0.033815524104821824 0 -0.022077326616638963 0.033616067490827774 0 -0.025006044619884062 0.030418205666081985 0 -0.023762994680756377 0.031980663752818182 0 -0.022077326616638963 0.033616067490827774 0 -0.024195547869474712 0.03245554050010329 0 -0.023800182286028648 0.032613703716556239 0 -0.022077326616638963 0.033616067490827774 0 -0.022344873644844505 0.033111996969284178 0 -0.021620909202742979 0.034021054004431374 0 -0.022344873644844505 0.033111996969284178 0 -0.021863323493442274 0.033504921251489198 0 -0.022673148356769906 0.032978535064673034 0 -0.023762994680756377 0.031980663752818182 0 -0.022077326616638963 0.033616067490827774 0 -0.022344873644844505 0.033111996969284178 0 -0.023762994680756377 0.031980663752818182 0 -0.022344873644844505 0.033111996969284178 0 -0.022673148356769906 0.032978535064673034 0 -0.022344873644844505 0.033111996969284178 0 -0.021863323493442274 0.033504921251489198 0 -0.021620909202742979 0.034021054004431374 0 -0.021335672437341149 0.034245080987020671 0 -0.021863323493442274 0.033504921251489198 0 -0.021620909202742979 0.034021054004431374 0 -0.021335672437341149 0.034245080987020671 0 -0.021863323493442274 0.033504921251489198 0 -0.021632962254609173 0.033757878702083743 0 -0.021335672437341149 0.034245080987020671 0 -0.021620909202742979 0.034021054004431374 0 -0.021034378083331449 0.034934142622868147 0 -0.022077326616638963 0.033616067490827774 0 -0.021620909202742979 0.034021054004431374 0 -0.021258030329045389 0.034918559566445385 0 -0.021620909202742979 0.034021054004431374 0 -0.021258030329045389 0.034918559566445385 0 -0.021034378083331449 0.034934142622868147 0 -0.020628487461847887 0.035603925688709868 0 -0.021034378083331449 0.034934142622868147 0 -0.020386870864481609 0.035719196755085308 0 -0.021258030329045389 0.034918559566445385 0 -0.021034378083331449 0.034934142622868147 0 -0.020386870864481609 0.035719196755085308 0 -0.021258030329045389 0.034918559566445385 0 -0.020386870864481609 0.035719196755085308 0 -0.02115996507189042 0.03560340331645407 0 -0.020400111355339978 0.035790778152767551 0 -0.020386870864481609 0.035719196755085308 0 -0.02115996507189042 0.03560340331645407 0 -0.020757823466221882 0.035827409865312063 0 -0.02115996507189042 0.03560340331645407 0 -0.021199751189979708 0.035925109199651487 0 -0.021512349394764891 0.036115511403211578 0 -0.021076875295518837 0.036132855363727144 0 -0.021322344644747304 0.035665062986348951 0 -0.02115996507189042 0.03560340331645407 0 -0.021199751189979708 0.035925109199651487 0 -0.021322344644747304 0.035665062986348951 0 -0.021512349394764891 0.036115511403211578 0 -0.021199751189979708 0.035925109199651487 0 -0.021322344644747304 0.035665062986348951 0 -0.021076875295518837 0.036132855363727144 0 -0.022077326616638963 0.033616067490827774 0 -0.021322344644747304 0.035665062986348951 0 -0.022077326616638963 0.033616067490827774 0 -0.021258030329045389 0.034918559566445385 0 -0.02115996507189042 0.03560340331645407 0 -0.022077326616638963 0.033616067490827774 0 -0.02115996507189042 0.03560340331645407 0 -0.021322344644747304 0.035665062986348951 0 -0.034997672773570576 0.034998418037044232 0 -0.032203259583286306 0.035101741769199016 0 -0.029021114785178621 0.034997607499740908 0 -0.034997672773570576 0.034998418037044232 0 -0.034959804859196059 0.033776824104846337 0 -0.034997999612703432 0.028013394443942231 0 -0.035747071393493382 0.031319313611085337 0 -0.034959804859196059 0.033776824104846337 0 -0.034997999612703432 0.028013394443942231 0 -0.035747071393493382 0.031319313611085337 0 -0.035583523048140157 0.032401466214057865 0 -0.034959804859196059 0.033776824104846337 0 -0.034997672773570576 0.034998418037044232 0 -0.034959804859196059 0.033776824104846337 0 -0.032203259583286306 0.035101741769199016 0 -0.032898929169405948 0.035563319063700305 0 -0.034959804859196059 0.033776824104846337 0 -0.032203259583286306 0.035101741769199016 0 -0.033723652401001072 0.033611302798030644 0 -0.034025854783820836 0.033629746291655847 0 -0.032203259583286306 0.035101741769199016 0 -0.030877029272973623 0.035346876762384766 0 -0.030544974531104836 0.035344508054673644 0 -0.033723652401001072 0.033611302798030644 0 -0.033205149472709715 0.033443785423941864 0 -0.032898929169405948 0.035563319063700305 0 -0.032203259583286306 0.035101741769199016 0 -0.030877029272973623 0.035346876762384766 0 -0.035747071393493382 0.031319313611085337 0 -0.035583523048140157 0.032401466214057865 0 -0.034784908286609857 0.031196991454440142 0 -0.035747071393493382 0.031319313611085337 0 -0.034784908286609857 0.031196991454440142 0 -0.034457964800609885 0.031851903817013083 0 -0.034784908286609857 0.031196991454440142 0 -0.032997728218514218 0.032438228929791327 0 -0.034457964800609885 0.031851903817013083 0 -0.033205149472709715 0.033443785423941864 0 -0.032908920203224452 0.033345976317465414 0 -0.034784908286609857 0.031196991454440142 0 -0.031688184098141177 0.032800421453636763 0 -0.032997728218514218 0.032438228929791327 0 -0.030877029272973623 0.035346876762384766 0 -0.031688184098141177 0.032800421453636763 0 -0.030877586717082801 0.034646841612054433 0 -0.031688184098141177 0.032800421453636763 0 -0.031190209876736916 0.033853379876264342 0 -0.030877586717082801 0.034646841612054433 0 -0.031688184098141177 0.032800421453636763 0 -0.031190209876736916 0.033853379876264342 0 -0.031604867851267343 0.033121565363555976 0 -0.031688184098141177 0.032800421453636763 0 -0.031604867851267343 0.033121565363555976 0 -0.032037648140934009 0.032756158405118474 0 -0.031190209876736916 0.033853379876264342 0 -0.030877586717082801 0.034646841612054433 0 -0.030626146941666814 0.034598649646926223 0 -0.030877586717082801 0.034646841612054433 0 -0.030093234134910378 0.035473139228054659 0 -0.030626146941666814 0.034598649646926223 0 -0.030877586717082801 0.034646841612054433 0 -0.030544974531104836 0.035344508054673644 0 -0.030093234134910378 0.035473139228054659 0 -0.030877029272973623 0.035346876762384766 0 -0.030877586717082801 0.034646841612054433 0 -0.030544974531104836 0.035344508054673644 0 -0.029021114785178621 0.034997607499740908 0 -0.030093234134910378 0.035473139228054659 0 -0.027486807214837903 0.036338497634957688 0 -0.032203259583286306 0.035101741769199016 0 -0.030544974531104836 0.035344508054673644 0 -0.029021114785178621 0.034997607499740908 0 -0.030544974531104836 0.035344508054673644 0 -0.029021114785178621 0.034997607499740908 0 -0.030093234134910378 0.035473139228054659 0 -0.024664852940834599 0.034999341928981034 0 -0.029021114785178621 0.034997607499740908 0 -0.027486807214837903 0.036338497634957688 0 -0.028555714328506121 0.035237895476287875 0 -0.027748082717626639 0.035314108857577395 0 -0.025727954508912347 0.034344262973685966 0 -0.027727181862015029 0.035189856948244287 0 -0.029478300344786854 0.033913086339208885 0 -0.027727181862015029 0.035189856948244287 0 -0.029478300344786854 0.033913086339208885 0 -0.028864270967974271 0.036294686615950977 0 -0.02612628851443196 0.035541276096550591 0 -0.027748082717626639 0.035314108857577395 0 -0.030093234134910378 0.035473139228054659 0 -0.029478300344786854 0.033913086339208885 0 -0.030626146941666814 0.034598649646926223 0 -0.029478300344786854 0.033913086339208885 0 -0.030626146941666814 0.034598649646926223 0 -0.028864270967974271 0.036294686615950977 0 -0.029884748560644693 0.034092983646584335 0 -0.029568591714444977 0.034145129017812206 0 -0.031190209876736916 0.033853379876264342 0 -0.031604867851267343 0.033121565363555976 0 -0.032178671614097543 0.033283605112097901 0 -0.031190209876736916 0.033853379876264342 0 -0.030626146941666814 0.034598649646926223 0 -0.032178671614097543 0.033283605112097901 0 -0.026491202731496633 0.036202590362242507 0 -0.028864270967974271 0.036294686615950977 0 -0.026803648943692727 0.037778833197626094 0 -0.026491202731496633 0.036202590362242507 0 -0.027727181862015029 0.035189856948244287 0 -0.028864270967974271 0.036294686615950977 0 -0.032178671614097543 0.033283605112097901 0 -0.032473715508617315 0.032700420745090032 0 -0.031964325326381292 0.032702362446861179 0 -0.029568591714444977 0.034145129017812206 0 -0.028626636804843703 0.034165384806916145 0 -0.031604867851267343 0.033121565363555976 0 -0.032178671614097543 0.033283605112097901 0 -0.031964325326381292 0.032702362446861179 0 -0.031604867851267343 0.033121565363555976 0 -0.031964325326381292 0.032702362446861179 0 -0.031617250156304046 0.032359611230973806 0 -0.0319913623066665 0.032366355320898675 0 -0.031705360471967682 0.032040418495447892 0 -0.031617250156304046 0.032359611230973806 0 -0.031964325326381292 0.032702362446861179 0 -0.0319913623066665 0.032366355320898675 0 -0.031617250156304046 0.032359611230973806 0 -0.032473715508617315 0.032700420745090032 0 -0.0319913623066665 0.032366355320898675 0 -0.032251891621549129 0.032103080686438835 0 -0.032473715508617315 0.032700420745090032 0 -0.031964325326381292 0.032702362446861179 0 -0.0319913623066665 0.032366355320898675 0 -0.032110385714648138 0.028539938497567058 0 -0.034742692968758392 0.028869046944669692 0 -0.034520108092514087 0.028998570173207328 0 -0.031769218801793626 0.031972438071337192 0 -0.031752021115092413 0.031977682068385124 0 -0.031756128692559761 0.031935792223910693 0 -0.030722452308459349 0.031926238236561121 0 -0.032944504893743523 0.031392538714083214 0 -0.031769218801793626 0.031972438071337192 0 -0.031761716424756885 0.03199795997307231 0 -0.031752021115092413 0.031977682068385124 0 -0.033626668665310541 0.031564248018003782 0 -0.032944504893743523 0.031392538714083214 0 -0.031752021115092413 0.031977682068385124 0 -0.031705360471967682 0.032040418495447892 0 -0.031633728455182766 0.03190207592310202 0 -0.033847601547670088 0.031055526102034332 0 -0.033873046989142154 0.031268522636895293 0 -0.033579895940498893 0.031186749328347151 0 -0.031752021115092413 0.031977682068385124 0 -0.031633728455182766 0.03190207592310202 0 -0.031756128692559761 0.031935792223910693 0 -0.031761716424756885 0.03199795997307231 0 -0.031752021115092413 0.031977682068385124 0 -0.031705360471967682 0.032040418495447892 0 -0.0319913623066665 0.032366355320898675 0 -0.032251891621549129 0.032103080686438835 0 -0.031705360471967682 0.032040418495447892 0 -0.030489720001731824 0.033371680256866272 0 -0.031055517041142251 0.033213151275630813 0 -0.033626668665310541 0.031564248018003782 0 -0.032759218342451539 0.032455130387347118 0 -0.031705360471967682 0.032040418495447892 0 -0.031633728455182766 0.03190207592310202 0 -0.031617250156304046 0.032359611230973806 0 -0.032587629807942019 0.033315519105735859 0 -0.032188258859836262 0.034034662014449803 0 -0.032092978192216105 0.032812813905024274 0 -0.033626668665310541 0.031564248018003782 0 -0.034320993988914292 0.031008294021143527 0 -0.036318836029528921 0.030890889166075994 0 -0.035799452243827391 0.03067884210580981 0 -0.036265680722163851 0.030361984678413338 0 -0.036318836029528921 0.030890889166075994 0 -0.035799452243827391 0.03067884210580981 0 -0.03581673710694553 0.031205999815706788 0 -0.035799452243827391 0.03067884210580981 0 -0.03581673710694553 0.031205999815706788 0 -0.035618882843800943 0.030795983082419723 0 -0.033626668665310541 0.031564248018003782 0 -0.034176029196601371 0.031797317382529285 0 -0.032587629807942019 0.033315519105735859 0 -0.032188258859836262 0.034034662014449803 0 -0.033366879284176164 0.033552232697764854 0 -0.032587629807942019 0.033315519105735859 0 -0.033366879284176164 0.033552232697764854 0 -0.032923576964735919 0.03287081745682198 0 -0.033366879284176164 0.033552232697764854 0 -0.032923576964735919 0.03287081745682198 0 -0.033913979223357968 0.032304138093324178 0 -0.032923576964735919 0.03287081745682198 0 -0.032739491924705405 0.032627029015874949 0 -0.033913979223357968 0.032304138093324178 0 -0.032587629807942019 0.033315519105735859 0 -0.032923576964735919 0.03287081745682198 0 -0.032092978192216105 0.032812813905024274 0 -0.032923576964735919 0.03287081745682198 0 -0.032092978192216105 0.032812813905024274 0 -0.032739491924705405 0.032627029015874949 0 -0.031604867851267343 0.033121565363555976 0 -0.032092978192216105 0.032812813905024274 0 -0.032037648140934009 0.032756158405118474 0 -0.032491807265580687 0.032669847345629784 0 -0.032759218342451539 0.032455130387347118 0 -0.032092978192216105 0.032812813905024274 0 -0.032037648140934009 0.032756158405118474 0 -0.032739491924705405 0.032627029015874949 0 -0.032997728218514218 0.032438228929791327 0 -0.032739491924705405 0.032627029015874949 0 -0.034457964800609885 0.031851903817013083 0 -0.031688184098141177 0.032800421453636763 0 -0.032037648140934009 0.032756158405118474 0 -0.032997728218514218 0.032438228929791327 0 -0.032037648140934009 0.032756158405118474 0 -0.032997728218514218 0.032438228929791327 0 -0.032739491924705405 0.032627029015874949 0 -0.032739491924705405 0.032627029015874949 0 -0.034457964800609885 0.031851903817013083 0 -0.033913979223357968 0.032304138093324178 0 -0.035747071393493382 0.031319313611085337 0 -0.035266712012004063 0.031339493439023001 0 -0.035815354111720037 0.030702826092352548 0 -0.035747071393493382 0.031319313611085337 0 -0.034457964800609885 0.031851903817013083 0 -0.035266712012004063 0.031339493439023001 0 -0.034457964800609885 0.031851903817013083 0 -0.035266712012004063 0.031339493439023001 0 -0.034936312761278371 0.031536743368059901 0 -0.034936312761278371 0.031536743368059901 0 -0.035815354111720037 0.030702826092352548 0 -0.035088732709295536 0.031732553566353912 0 -0.035266712012004063 0.031339493439023001 0 -0.034936312761278371 0.031536743368059901 0 -0.035815354111720037 0.030702826092352548 0 -0.035815354111720037 0.030702826092352548 0 -0.035088732709295536 0.031732553566353912 0 -0.034762977315175643 0.03161140350215276 0 -0.034457964800609885 0.031851903817013083 0 -0.034936312761278371 0.031536743368059901 0 -0.033913979223357968 0.032304138093324178 0 -0.034936312761278371 0.031536743368059901 0 -0.035088732709295536 0.031732553566353912 0 -0.033913979223357968 0.032304138093324178 0 -0.033366879284176164 0.033552232697764854 0 -0.035088732709295536 0.031732553566353912 0 -0.033913979223357968 0.032304138093324178 0 -0.03581673710694553 0.031205999815706788 0 -0.035430947984188707 0.031206225176891596 0 -0.035618882843800943 0.030795983082419723 0 -0.03581673710694553 0.031205999815706788 0 -0.035088732709295536 0.031732553566353912 0 -0.035430947984188707 0.031206225176891596 0 -0.034176029196601371 0.031797317382529285 0 -0.034411110812031923 0.0317939702583242 0 -0.035430947984188707 0.031206225176891596 0 -0.035618882843800943 0.030795983082419723 0 -0.035595971212310042 0.030594324968276042 0 -0.035618882843800943 0.030795983082419723 0 -0.035595971212310042 0.030594324968276042 0 -0.035438413386432249 0.030480906326675366 0 -0.035799452243827391 0.03067884210580981 0 -0.035618882843800943 0.030795983082419723 0 -0.035438413386432249 0.030480906326675366 0 -0.035595971212310042 0.030594324968276042 0 -0.034762977315175643 0.03161140350215276 0 -0.034152872174747814 0.029104048513982687 0 -0.035430947984188707 0.031206225176891596 0 -0.035595971212310042 0.030594324968276042 0 -0.034762977315175643 0.03161140350215276 0 -0.03567842391485649 0.028839583902418506 0 -0.035648216890862873 0.027403982820432764 0 -0.035088732709295536 0.031732553566353912 0 -0.035430947984188707 0.031206225176891596 0 -0.034762977315175643 0.03161140350215276 0 -0.035699364270439654 0.029393001369792011 0 -0.03567842391485649 0.028839583902418506 0 -0.035815354111720037 0.030702826092352548 0 -0.036668894175362912 0.02798100851908825 0 -0.034997999612703432 0.028013394443942231 0 -0.036668894175362912 0.02798100851908825 0 -0.034997999612703432 0.028013394443942231 0 -0.036771507150099629 0.026114317286672007 0 -0.035747071393493382 0.031319313611085337 0 -0.035815354111720037 0.030702826092352548 0 -0.034997999612703432 0.028013394443942231 0 -0.034997999612703432 0.028013394443942231 0 -0.034999665341375309 0.02278170638234514 0 -0.035900930826238797 0.024192900475072537 0 -0.034999665341375309 0.02278170638234514 0 -0.035900930826238797 0.024192900475072537 0 -0.03563938164668539 0.021889906675817954 0 -0.035900930826238797 0.024192900475072537 0 -0.035931162839852947 0.022998840729318255 0 -0.03563938164668539 0.021889906675817954 0 -0.035900930826238797 0.024192900475072537 0 -0.036651914473463866 0.024375900193579755 0 -0.035931162839852947 0.022998840729318255 0 -0.034997999612703432 0.028013394443942231 0 -0.035900930826238797 0.024192900475072537 0 -0.036771507150099629 0.026114317286672007 0 -0.035900930826238797 0.024192900475072537 0 -0.036651914473463866 0.024375900193579755 0 -0.036771507150099629 0.026114317286672007 0 -0.034628634746743339 0.025371369837713643 0 -0.034152872174747814 0.029104048513982687 0 -0.036931542160091251 0.026060863964254201 0 -0.034628634746743339 0.025371369837713643 0 -0.036931542160091251 0.026060863964254201 0 -0.035994538009420644 0.024143637373776151 0 -0.035595971212310042 0.030594324968276042 0 -0.034152872174747814 0.029104048513982687 0 -0.036931542160091251 0.026060863964254201 0 -0.035667821301587091 0.025738153712927016 0 -0.035648216890862873 0.027403982820432764 0 -0.035332721273255867 0.030210149473785579 0 -0.035438413386432249 0.030480906326675366 0 -0.034798199560396717 0.030064727173992754 0 -0.035527262780122922 0.028862760935745916 0 -0.035558130731283021 0.02768706220671149 0 -0.035799452243827391 0.03067884210580981 0 -0.035332721273255867 0.030210149473785579 0 -0.035438413386432249 0.030480906326675366 0 -0.035595971212310042 0.030594324968276042 0 -0.035438413386432249 0.030480906326675366 0 -0.034798199560396717 0.030064727173992754 0 -0.035332721273255867 0.030210149473785579 0 -0.034798199560396717 0.030064727173992754 0 -0.035251939675033074 0.029573285509399392 0 -0.033927908166603384 0.028262884505377766 0 -0.035379804863691605 0.028497317108520721 0 -0.035251939675033074 0.029573285509399392 0 -0.036931542160091251 0.026060863964254201 0 -0.035994538009420644 0.024143637373776151 0 -0.036595561756358606 0.022729023130998404 0 -0.034798199560396717 0.030064727173992754 0 -0.033927908166603384 0.028262884505377766 0 -0.035251939675033074 0.029573285509399392 0 -0.035558130731283021 0.02768706220671149 0 -0.035504285511505022 0.025905303241471628 0 -0.035667821301587091 0.025738153712927016 0 -0.03569502850211366 0.024903272433511283 0 -0.034628634746743339 0.025371369837713643 0 -0.035994538009420644 0.024143637373776151 0 -0.035931162839852947 0.022998840729318255 0 -0.035994538009420644 0.024143637373776151 0 -0.035931162839852947 0.022998840729318255 0 -0.036595561756358606 0.022729023130998404 0 -0.035931162839852947 0.022998840729318255 0 -0.036147138989112759 0.022476961009649129 0 -0.03563938164668539 0.021889906675817954 0 -0.035931162839852947 0.022998840729318255 0 -0.036595561756358606 0.022729023130998404 0 -0.036147138989112759 0.022476961009649129 0 -0.033927908166603384 0.028262884505377766 0 -0.035221222433192867 0.027248041802788173 0 -0.035407802858597279 0.025506796737970683 0 -0.033927908166603384 0.028262884505377766 0 -0.035379804863691605 0.028497317108520721 0 -0.035221222433192867 0.027248041802788173 0 -0.035379804863691605 0.028497317108520721 0 -0.036077921140344943 0.028481067956303487 0 -0.035785053431103477 0.026747938751622378 0 -0.035379804863691605 0.028497317108520721 0 -0.035221222433192867 0.027248041802788173 0 -0.035785053431103477 0.026747938751622378 0 -0.035221222433192867 0.027248041802788173 0 -0.035785053431103477 0.026747938751622378 0 -0.035407802858597279 0.025506796737970683 0 -0.036077921140344943 0.028481067956303487 0 -0.03632731018869375 0.027209086804742301 0 -0.035785053431103477 0.026747938751622378 0 -0.036077921140344943 0.028481067956303487 0 -0.036628472576346056 0.02884488894142586 0 -0.03632731018869375 0.027209086804742301 0 -0.036628472576346056 0.02884488894142586 0 -0.036834048365240311 0.027470651263306379 0 -0.03632731018869375 0.027209086804742301 0 -0.036077921140344943 0.028481067956303487 0 -0.036043386226548603 0.029490408857138755 0 -0.036628472576346056 0.02884488894142586 0 -0.035379804863691605 0.028497317108520721 0 -0.036077921140344943 0.028481067956303487 0 -0.035897991234529886 0.029517653352727422 0 -0.036077921140344943 0.028481067956303487 0 -0.036043386226548603 0.029490408857138755 0 -0.035897991234529886 0.029517653352727422 0 -0.036043386226548603 0.029490408857138755 0 -0.035897991234529886 0.029517653352727422 0 -0.035676239802561759 0.029817817480479222 0 -0.035379804863691605 0.028497317108520721 0 -0.035897991234529886 0.029517653352727422 0 -0.035251939675033074 0.029573285509399392 0 -0.035897991234529886 0.029517653352727422 0 -0.035251939675033074 0.029573285509399392 0 -0.035619371773279687 0.029939706344736902 0 -0.035332721273255867 0.030210149473785579 0 -0.035251939675033074 0.029573285509399392 0 -0.035619371773279687 0.029939706344736902 0 -0.035799452243827391 0.03067884210580981 0 -0.035332721273255867 0.030210149473785579 0 -0.036265680722163851 0.030361984678413338 0 -0.035332721273255867 0.030210149473785579 0 -0.035619371773279687 0.029939706344736902 0 -0.035949508136132326 0.030368709621688271 0 -0.035004622491200912 0.030954495069818441 0 -0.034320993988914292 0.031008294021143527 0 -0.035897991234529886 0.029517653352727422 0 -0.035619371773279687 0.029939706344736902 0 -0.035949508136132326 0.030368709621688271 0 -0.035897991234529886 0.029517653352727422 0 -0.035801294622063454 0.029521517716143163 0 -0.035676239802561759 0.029817817480479222 0 -0.034713175191251402 0.030120111664847193 0 -0.034320993988914292 0.031008294021143527 0 -0.035801294622063454 0.029521517716143163 0 -0.035676239802561759 0.029817817480479222 0 -0.035272090923096293 0.029821231870257515 0 -0.035676239802561759 0.029817817480479222 0 -0.035312072204021952 0.030058466767135899 0 -0.035272090923096293 0.029821231870257515 0 -0.035312072204021952 0.030058466767135899 0 -0.034643324813970741 0.030395978335751007 0 -0.035558611807184136 0.030094391535927828 0 -0.035312072204021952 0.030058466767135899 0 -0.035272090923096293 0.029821231870257515 0 -0.034643324813970741 0.030395978335751007 0 -0.035801294622063454 0.029521517716143163 0 -0.035272090923096293 0.029821231870257515 0 -0.034839446308373212 0.029417289007526416 0 -0.034320993988914292 0.031008294021143527 0 -0.032944504893743523 0.031392538714083214 0 -0.035801294622063454 0.029521517716143163 0 -0.034839446308373212 0.029417289007526416 0 -0.034683017857803082 0.028975368123986305 0 -0.035272090923096293 0.029821231870257515 0 -0.034839446308373212 0.029417289007526416 0 -0.034364512059075716 0.029950294092632695 0 -0.032110385714648138 0.028539938497567058 0 -0.033177451008216424 0.02958714426064844 0 -0.034520108092514087 0.028998570173207328 0 -0.033177451008216424 0.02958714426064844 0 -0.034520108092514087 0.028998570173207328 0 -0.034152055024402099 0.029606897092719041 0 -0.034839446308373212 0.029417289007526416 0 -0.034520108092514087 0.028998570173207328 0 -0.034152055024402099 0.029606897092719041 0 -0.034839446308373212 0.029417289007526416 0 -0.034683017857803082 0.028975368123986305 0 -0.034520108092514087 0.028998570173207328 0 -0.032944504893743523 0.031392538714083214 0 -0.032958077776645077 0.031382994318127411 0 -0.034839446308373212 0.029417289007526416 0 -0.034152055024402099 0.029606897092719041 0 -0.034364512059075716 0.029950294092632695 0 -0.034152055024402099 0.029606897092719041 0 -0.033749386311113516 0.029935493311412147 0 -0.034364512059075716 0.029950294092632695 0 -0.033177451008216424 0.02958714426064844 0 -0.034152055024402099 0.029606897092719041 0 -0.033749386311113516 0.029935493311412147 0 -0.033177451008216424 0.02958714426064844 0 -0.033749386311113516 0.029935493311412147 0 -0.033337471552096418 0.030496056366925928 0 -0.033749386311113516 0.029935493311412147 0 -0.034364512059075716 0.029950294092632695 0 -0.033337471552096418 0.030496056366925928 0 -0.034364512059075716 0.029950294092632695 0 -0.034643324813970741 0.030395978335751007 0 -0.033337471552096418 0.030496056366925928 0 -0.035272090923096293 0.029821231870257515 0 -0.034364512059075716 0.029950294092632695 0 -0.034643324813970741 0.030395978335751007 0 -0.034643324813970741 0.030395978335751007 0 -0.033378113656246586 0.031087127087671421 0 -0.033337471552096418 0.030496056366925928 0 -0.034643324813970741 0.030395978335751007 0 -0.034182545652266728 0.031409411664050604 0 -0.033378113656246586 0.031087127087671421 0 -0.034643324813970741 0.030395978335751007 0 -0.034182545652266728 0.031409411664050604 0 -0.035558611807184136 0.030094391535927828 0 -0.034182545652266728 0.031409411664050604 0 -0.035558611807184136 0.030094391535927828 0 -0.036628472576346056 0.02884488894142586 0 -0.036043386226548603 0.029490408857138755 0 -0.035558611807184136 0.030094391535927828 0 -0.036628472576346056 0.02884488894142586 0 -0.036043386226548603 0.029490408857138755 0 -0.035676239802561759 0.029817817480479222 0 -0.035558611807184136 0.030094391535927828 0 -0.035676239802561759 0.029817817480479222 0 -0.035312072204021952 0.030058466767135899 0 -0.035558611807184136 0.030094391535927828 0 -0.035212556066616364 0.030831701931003427 0 -0.036628472576346056 0.02884488894142586 0 -0.037049471433171985 0.028838288519510129 0 -0.036628472576346056 0.02884488894142586 0 -0.037049471433171985 0.028838288519510129 0 -0.036834048365240311 0.027470651263306379 0 -0.033670641704540455 0.031174147413825078 0 -0.034684260249566647 0.030936250381264727 0 -0.037049471433171985 0.028838288519510129 0 -0.039392124673518117 0.026981291673419623 0 -0.040653179598066164 0.028254277885963457 0 -0.035212556066616364 0.030831701931003427 0 -0.037049471433171985 0.028838288519510129 0 -0.033677568278553664 0.03276823476048854 0 -0.035720559518913314 0.029915987658978106 0 -0.035868723167799946 0.030224531178832486 0 -0.039392124673518117 0.026981291673419623 0 -0.037651410124061924 0.026140816493842086 0 -0.038868832614354205 0.025089352355475412 0 -0.037049471433171985 0.028838288519510129 0 -0.039392124673518117 0.026981291673419623 0 -0.037651410124061924 0.026140816493842086 0 -0.037049471433171985 0.028838288519510129 0 -0.036834048365240311 0.027470651263306379 0 -0.037651410124061924 0.026140816493842086 0 -0.036834048365240311 0.027470651263306379 0 -0.037651410124061924 0.026140816493842086 0 -0.036709916740369754 0.025747539644988625 0 -0.038898948623151901 0.023733926244256087 0 -0.036760027271191043 0.022512896694469032 0 -0.037651410124061924 0.026140816493842086 0 -0.036907156738282508 0.023395954989776674 0 -0.036709916740369754 0.025747539644988625 0 -0.037651410124061924 0.026140816493842086 0 -0.038868832614354205 0.025089352355475412 0 -0.036907156738282508 0.023395954989776674 0 -0.038401149943015835 0.02256772294839721 0 -0.038637760331041764 0.020325553916615377 0 -0.037127762435799037 0.01990511767394261 0 -0.038401149943015835 0.02256772294839721 0 -0.038637760331041764 0.020325553916615377 0 -0.040181813549046617 0.021540995858421043 0 -0.038637760331041764 0.020325553916615377 0 -0.040115736004021962 0.01901256764446483 0 -0.037459403659857927 0.018338097406759509 0 -0.038637760331041764 0.020325553916615377 0 -0.037127762435799037 0.01990511767394261 0 -0.037459403659857927 0.018338097406759509 0 -0.038401149943015835 0.02256772294839721 0 -0.037127762435799037 0.01990511767394261 0 -0.036557652898297779 0.021166378115571528 0 -0.037127762435799037 0.01990511767394261 0 -0.036198220028589197 0.019765777664459989 0 -0.036659948844509065 0.017978014687835612 0 -0.037127762435799037 0.01990511767394261 0 -0.036557652898297779 0.021166378115571528 0 -0.036198220028589197 0.019765777664459989 0 -0.036198220028589197 0.019765777664459989 0 -0.035369127153391994 0.020986637460811863 0 -0.035286821781760243 0.019527845700780047 0 -0.036907156738282508 0.023395954989776674 0 -0.035369127153391994 0.020986637460811863 0 -0.035894738030236351 0.022923003161833464 0 -0.036760027271191043 0.022512896694469032 0 -0.035705651645173905 0.021890856282429969 0 -0.036557652898297779 0.021166378115571528 0 -0.036198220028589197 0.019765777664459989 0 -0.035369127153391994 0.020986637460811863 0 -0.035369127153391994 0.020986637460811863 0 -0.035894738030236351 0.022923003161833464 0 -0.035388548490159787 0.022119323195305903 0 -0.035894738030236351 0.022923003161833464 0 -0.035683981413007181 0.023443224357972563 0 -0.035388548490159787 0.022119323195305903 0 -0.035683981413007181 0.023443224357972563 0 -0.035589423558352477 0.022969690257653969 0 -0.035388548490159787 0.022119323195305903 0 -0.035683981413007181 0.023443224357972563 0 -0.035561227489298824 0.023771883666797732 0 -0.035811930328031448 0.024699831704584355 0 -0.035683981413007181 0.023443224357972563 0 -0.035561227489298824 0.023771883666797732 0 -0.035589423558352477 0.022969690257653969 0 -0.035683981413007181 0.023443224357972563 0 -0.036160460333086133 0.024290116922119503 0 -0.035811930328031448 0.024699831704584355 0 -0.035894738030236351 0.022923003161833464 0 -0.035683981413007181 0.023443224357972563 0 -0.036160460333086133 0.024290116922119503 0 -0.036907156738282508 0.023395954989776674 0 -0.035894738030236351 0.022923003161833464 0 -0.036160460333086133 0.024290116922119503 0 -0.036907156738282508 0.023395954989776674 0 -0.036160460333086133 0.024290116922119503 0 -0.036709916740369754 0.025747539644988625 0 -0.036160460333086133 0.024290116922119503 0 -0.036100911748891205 0.025851499709558485 0 -0.036709916740369754 0.025747539644988625 0 -0.036100911748891205 0.025851499709558485 0 -0.036709916740369754 0.025747539644988625 0 -0.03632731018869375 0.027209086804742301 0 -0.036834048365240311 0.027470651263306379 0 -0.036709916740369754 0.025747539644988625 0 -0.03632731018869375 0.027209086804742301 0 -0.036100911748891205 0.025851499709558485 0 -0.03632731018869375 0.027209086804742301 0 -0.035785053431103477 0.026747938751622378 0 -0.036100911748891205 0.025851499709558485 0 -0.035785053431103477 0.026747938751622378 0 -0.035811930328031448 0.024699831704584355 0 -0.035785053431103477 0.026747938751622378 0 -0.035407802858597279 0.025506796737970683 0 -0.035811930328031448 0.024699831704584355 0 -0.035561227489298824 0.023771883666797732 0 -0.035407802858597279 0.025506796737970683 0 -0.035811930328031448 0.024699831704584355 0 -0.036160460333086133 0.024290116922119503 0 -0.036100911748891205 0.025851499709558485 0 -0.035811930328031448 0.024699831704584355 0 -0.036595561756358606 0.022729023130998404 0 -0.036147138989112759 0.022476961009649129 0 -0.03530145765843918 0.023221765713916962 0 -0.035504285511505022 0.025905303241471628 0 -0.035498545248500199 0.024886097624703968 0 -0.033927908166603384 0.028262884505377766 0 -0.035407802858597279 0.025506796737970683 0 -0.03530145765843918 0.023221765713916962 0 -0.036147138989112759 0.022476961009649129 0 -0.03588802690548297 0.022504122421896297 0 -0.03530145765843918 0.023221765713916962 0 -0.035561227489298824 0.023771883666797732 0 -0.035407802858597279 0.025506796737970683 0 -0.03530145765843918 0.023221765713916962 0 -0.036147138989112759 0.022476961009649129 0 -0.035931585809287639 0.021930125917931902 0 -0.03563938164668539 0.021889906675817954 0 -0.036147138989112759 0.022476961009649129 0 -0.035931585809287639 0.021930125917931902 0 -0.03588802690548297 0.022504122421896297 0 -0.035880585277442777 0.022183363646235913 0 -0.036136795389597409 0.021062916822747819 0 -0.035777352853370858 0.020637728355095395 0 -0.035931585809287639 0.021930125917931902 0 -0.035880585277442777 0.022183363646235913 0 -0.035777352853370858 0.020637728355095395 0 -0.035931585809287639 0.021930125917931902 0 -0.03588802690548297 0.022504122421896297 0 -0.035880585277442777 0.022183363646235913 0 -0.035880585277442777 0.022183363646235913 0 -0.035589423558352477 0.022969690257653969 0 -0.036136795389597409 0.021062916822747819 0 -0.03588802690548297 0.022504122421896297 0 -0.035880585277442777 0.022183363646235913 0 -0.03530145765843918 0.023221765713916962 0 -0.035880585277442777 0.022183363646235913 0 -0.03530145765843918 0.023221765713916962 0 -0.035589423558352477 0.022969690257653969 0 -0.035561227489298824 0.023771883666797732 0 -0.03530145765843918 0.023221765713916962 0 -0.035589423558352477 0.022969690257653969 0 -0.03585430698544205 0.020747377035845511 0 -0.035777736274560865 0.019630043258073614 0 -0.035369127153391994 0.020986637460811863 0 -0.035388548490159787 0.022119323195305903 0 -0.034361193988820794 0.020489342871230838 0 -0.035589423558352477 0.022969690257653969 0 -0.037276089435499787 0.019314725489292535 0 -0.036136795389597409 0.021062916822747819 0 -0.035589423558352477 0.022969690257653969 0 -0.035388548490159787 0.022119323195305903 0 -0.034361193988820794 0.020489342871230838 0 -0.035369127153391994 0.020986637460811863 0 -0.034361193988820794 0.020489342871230838 0 -0.035286821781760243 0.019527845700780047 0 -0.037276089435499787 0.019314725489292535 0 -0.036178892287242387 0.019352538428455364 0 -0.036763984663880631 0.016790585202039909 0 -0.037276089435499787 0.019314725489292535 0 -0.036178892287242387 0.019352538428455364 0 -0.036136795389597409 0.021062916822747819 0 -0.036178892287242387 0.019352538428455364 0 -0.036136795389597409 0.021062916822747819 0 -0.035777352853370858 0.020637728355095395 0 -0.035777352853370858 0.020637728355095395 0 -0.035759452870244256 0.018239981457592612 0 -0.034998282597220279 0.018904956740150806 0 -0.036178892287242387 0.019352538428455364 0 -0.035777352853370858 0.020637728355095395 0 -0.035759452870244256 0.018239981457592612 0 -0.034999665341375309 0.02278170638234514 0 -0.034998282597220279 0.018904956740150806 0 -0.03563938164668539 0.021889906675817954 0 -0.035777352853370858 0.020637728355095395 0 -0.034998282597220279 0.018904956740150806 0 -0.03563938164668539 0.021889906675817954 0 -0.035931585809287639 0.021930125917931902 0 -0.035777352853370858 0.020637728355095395 0 -0.03563938164668539 0.021889906675817954 0 -0.022571209341584731 0.033969667244253154 0 -0.022323068552296758 0.033872383848830512 0 -0.022395841072209415 0.033651198605415975 0 -0.033961102765175673 0.029247737778032405 0 -0.033255682938396751 0.029220605880513308 0 -0.033961102765175673 0.029247737778032405 0 -0.035475538939477032 0.030429342501735294 0 -0.022664139990540039 0.034350792149763193 0 -0.025147596382967354 0.034416066974694744 0 -0.02391423520615623 0.033804870484354141 0 -0.049485337196240334 0.029682251614345873 0 -0.046075964821880339 0.028945797732096747 0 -0.04815902966733239 0.02793651128330012 0 -0.046075964821880339 0.028945797732096747 0 -0.04815902966733239 0.02793651128330012 0 -0.047099535009228685 0.026166904986729293 0 -0.048537650052707514 0.02658583349082709 0 -0.04815902966733239 0.02793651128330012 0 -0.047099535009228685 0.026166904986729293 0 -0.048537650052707514 0.02658583349082709 0 -0.04815902966733239 0.02793651128330012 0 -0.049991413525949199 0.026929942727832723 0 -0.049485337196240334 0.029682251614345873 0 -0.04815902966733239 0.02793651128330012 0 -0.049991413525949199 0.026929942727832723 0 -0.033961102765175673 0.029247737778032405 0 -0.034998264943890252 0.029404800021848702 0 -0.022353956473495449 0.033874770148801657 0 -0.022267148181428369 0.034021511471673524 0 -0.022264532580933402 0.033936978391897139 0 -0.022267148181428369 0.034021511471673524 0 -0.022220679756711829 0.034034319775643487 0 -0.022220971576164761 0.033990890104094423 0 -0.022220679756711829 0.034034319775643487 0 -0.022144125208875556 0.03398970296830342 0 -0.022092611437392603 0.034064673249425775 0 -0.022220679756711829 0.034034319775643487 0 -0.022144125208875556 0.03398970296830342 0 -0.022220971576164761 0.033990890104094423 0 -0.022144125208875556 0.03398970296830342 0 -0.022197015622609638 0.033949681052958425 0 -0.022220971576164761 0.033990890104094423 0 -0.022144125208875556 0.03398970296830342 0 -0.022197015622609638 0.033949681052958425 0 -0.022089465425090587 0.033922889029933449 0 -0.022197015622609638 0.033949681052958425 0 -0.022220971576164761 0.033990890104094423 0 -0.022264532580933402 0.033936978391897139 0 -0.022267148181428369 0.034021511471673524 0 -0.022220971576164761 0.033990890104094423 0 -0.022264532580933402 0.033936978391897139 0 -0.021955554734353629 0.034102719350153812 0 -0.022014531571485162 0.033966521033754304 0 -0.022092611437392603 0.034064673249425775 0 -0.022144125208875556 0.03398970296830342 0 -0.022014531571485162 0.033966521033754304 0 -0.022092611437392603 0.034064673249425775 0 -0.022144125208875556 0.03398970296830342 0 -0.022014531571485162 0.033966521033754304 0 -0.022089465425090587 0.033922889029933449 0 -0.022014531571485162 0.033966521033754304 0 -0.022089465425090587 0.033922889029933449 0 -0.021931680833957679 0.033826666986671132 0 -0.022089465425090587 0.033922889029933449 0 -0.021931680833957679 0.033826666986671132 0 -0.02207966383712813 0.033840980678461419 0 -0.021931680833957679 0.033826666986671132 0 -0.02207966383712813 0.033840980678461419 0 -0.021963341307240085 0.033727036475865717 0 -0.022264532580933402 0.033936978391897139 0 -0.022204060930486956 0.03389828701923886 0 -0.022323068552296758 0.033872383848830512 0 -0.022353956473495449 0.033874770148801657 0 -0.022264532580933402 0.033936978391897139 0 -0.022323068552296758 0.033872383848830512 0 -0.022197015622609638 0.033949681052958425 0 -0.022264532580933402 0.033936978391897139 0 -0.022204060930486956 0.03389828701923886 0 -0.022197015622609638 0.033949681052958425 0 -0.022089465425090587 0.033922889029933449 0 -0.022204060930486956 0.03389828701923886 0 -0.022089465425090587 0.033922889029933449 0 -0.022204060930486956 0.03389828701923886 0 -0.02207966383712813 0.033840980678461419 0 -0.022173058857135382 0.03375521726349693 0 -0.02207966383712813 0.033840980678461419 0 -0.021963341307240085 0.033727036475865717 0 -0.022204060930486956 0.03389828701923886 0 -0.022173058857135382 0.03375521726349693 0 -0.02207966383712813 0.033840980678461419 0 -0.022204060930486956 0.03389828701923886 0 -0.022173058857135382 0.03375521726349693 0 -0.022323068552296758 0.033872383848830512 0 -0.022173058857135382 0.03375521726349693 0 -0.022323068552296758 0.033872383848830512 0 -0.022395841072209415 0.033651198605415975 0 -0.022173058857135382 0.03375521726349693 0 -0.022395841072209415 0.033651198605415975 0 -0.022142095507862138 0.033486417055091922 0 -0.022173058857135382 0.03375521726349693 0 -0.022142095507862138 0.033486417055091922 0 -0.021963341307240085 0.033727036475865717 0 -0.022395841072209415 0.033651198605415975 0 -0.022142095507862138 0.033486417055091922 0 -0.022795165556589416 0.033358537094696473 0 -0.021796786882187606 0.033703773955277731 0 -0.021931680833957679 0.033826666986671132 0 -0.021963341307240085 0.033727036475865717 0 -0.022142095507862138 0.033486417055091922 0 -0.021963341307240085 0.033727036475865717 0 -0.021820574929453013 0.033615900223490217 0 -0.021796786882187606 0.033703773955277731 0 -0.021963341307240085 0.033727036475865717 0 -0.021820574929453013 0.033615900223490217 0 -0.021863323493442274 0.033504921251489198 0 -0.021632962254609173 0.033757878702083743 0 -0.021820574929453013 0.033615900223490217 0 -0.021729339993823163 0.033663047665858398 0 -0.021632962254609173 0.033757878702083743 0 -0.021820574929453013 0.033615900223490217 0 -0.021863323493442274 0.033504921251489198 0 -0.022142095507862138 0.033486417055091922 0 -0.021820574929453013 0.033615900223490217 0 -0.021863323493442274 0.033504921251489198 0 -0.022142095507862138 0.033486417055091922 0 -0.022673148356769906 0.032978535064673034 0 -0.022673148356769906 0.032978535064673034 0 -0.022795165556589416 0.033358537094696473 0 -0.023796726112981122 0.032731088658031968 0 -0.022142095507862138 0.033486417055091922 0 -0.022673148356769906 0.032978535064673034 0 -0.022795165556589416 0.033358537094696473 0 -0.033961102765175673 0.029247737778032405 0 -0.032591072139263877 0.031101438486277826 0 -0.022571209341584731 0.033969667244253154 0 -0.022395841072209415 0.033651198605415975 0 -0.022795165556589416 0.033358537094696473 0 -0.022664139990540039 0.034350792149763193 0 -0.02391423520615623 0.033804870484354141 0 -0.022795165556589416 0.033358537094696473 0 -0.02391423520615623 0.033804870484354141 0 -0.023796726112981122 0.032731088658031968 0 -0.026421823383321479 0.0318549165746825 0 -0.02391423520615623 0.033804870484354141 0 -0.022795165556589416 0.033358537094696473 0 -0.023796726112981122 0.032731088658031968 0 -0.023762994680756377 0.031980663752818182 0 -0.022673148356769906 0.032978535064673034 0 -0.023796726112981122 0.032731088658031968 0 -0.023762994680756377 0.031980663752818182 0 -0.023796726112981122 0.032731088658031968 0 -0.026421823383321479 0.0318549165746825 0 -0.026279622549337245 0.030766572127677114 0 -0.023762994680756377 0.031980663752818182 0 -0.026421823383321479 0.0318549165746825 0 -0.026279622549337245 0.030766572127677114 0 -0.026421823383321479 0.0318549165746825 0 -0.028624738023293059 0.030743735798466783 0 -0.029310793806903341 0.030843987792171606 0 -0.031078854046898821 0.031102057066308825 0 -0.026421823383321479 0.0318549165746825 0 -0.030623945955044959 0.031169385421264285 0 -0.027918924778742065 0.032676239745254076 0 -0.026421823383321479 0.0318549165746825 0 -0.028624738023293059 0.030743735798466783 0 -0.030424701925752955 0.032222342601277515 0 -0.025147596382967354 0.034416066974694744 0 -0.02391423520615623 0.033804870484354141 0 -0.026421823383321479 0.0318549165746825 0 -0.025147596382967354 0.034416066974694744 0 -0.026421823383321479 0.0318549165746825 0 -0.027918924778742065 0.032676239745254076 0 -0.029803324704613509 0.029627553500787107 0 -0.032110385714648138 0.028539938497567058 0 -0.031289422194443611 0.030255967860917759 0 -0.033177451008216424 0.02958714426064844 0 -0.031289422194443611 0.030255967860917759 0 -0.033337471552096418 0.030496056366925928 0 -0.032110385714648138 0.028539938497567058 0 -0.033177451008216424 0.02958714426064844 0 -0.031289422194443611 0.030255967860917759 0 -0.028624738023293059 0.030743735798466783 0 -0.031289422194443611 0.030255967860917759 0 -0.030424701925752955 0.032222342601277515 0 -0.029803324704613509 0.029627553500787107 0 -0.028624738023293059 0.030743735798466783 0 -0.031289422194443611 0.030255967860917759 0 -0.031289422194443611 0.030255967860917759 0 -0.030424701925752955 0.032222342601277515 0 -0.033337471552096418 0.030496056366925928 0 -0.030424701925752955 0.032222342601277515 0 -0.033378113656246586 0.031087127087671421 0 -0.033337471552096418 0.030496056366925928 0 -0.035212556066616364 0.030831701931003427 0 -0.031359011165361127 0.032490687809481458 0 -0.033677568278553664 0.03276823476048854 0 -0.033670641704540455 0.031174147413825078 0 -0.031078854046898821 0.031102057066308825 0 -0.034182545652266728 0.031409411664050604 0 -0.030424701925752955 0.032222342601277515 0 -0.033378113656246586 0.031087127087671421 0 -0.035212556066616364 0.030831701931003427 0 -0.030623945955044959 0.031169385421264285 0 -0.031359011165361127 0.032490687809481458 0 -0.030623945955044959 0.031169385421264285 0 -0.031359011165361127 0.032490687809481458 0 -0.027918924778742065 0.032676239745254076 0 -0.031359011165361127 0.032490687809481458 0 -0.033677568278553664 0.03276823476048854 0 -0.028807507427827516 0.034230927705995264 0 -0.035868723167799946 0.030224531178832486 0 -0.035712605164165016 0.030534856431264211 0 -0.041974989043718054 0.027471146636552125 0 -0.040653179598066164 0.028254277885963457 0 -0.042981416750351921 0.02825855908218489 0 -0.035475538939477032 0.030429342501735294 0 -0.035712605164165016 0.030534856431264211 0 -0.025147596382967354 0.034416066974694744 0 -0.027918924778742065 0.032676239745254076 0 -0.028807507427827516 0.034230927705995264 0 -0.031359011165361127 0.032490687809481458 0 -0.027918924778742065 0.032676239745254076 0 -0.028807507427827516 0.034230927705995264 0 -0.041974989043718054 0.027471146636552125 0 -0.042981416750351921 0.02825855908218489 0 -0.044108216185878395 0.026417682512763194 0 -0.046075964821880339 0.028945797732096747 0 -0.042981416750351921 0.02825855908218489 0 -0.044108216185878395 0.026417682512763194 0 -0.046075964821880339 0.028945797732096747 0 -0.044108216185878395 0.026417682512763194 0 -0.047099535009228685 0.026166904986729293 0 -0.044108216185878395 0.026417682512763194 0 -0.045730857998511593 0.024353333413014263 0 -0.047099535009228685 0.026166904986729293 0 -0.044108216185878395 0.026417682512763194 0 -0.043580740053484959 0.02361569729934912 0 -0.045730857998511593 0.024353333413014263 0 -0.044108216185878395 0.026417682512763194 0 -0.043580740053484959 0.02361569729934912 0 -0.040809777673784839 0.024260887636421671 0 -0.042895517692270485 0.025687154191578104 0 -0.04136734201387323 0.024988253002620447 0 -0.043580740053484959 0.02361569729934912 0 -0.041785822858265327 0.022317311974304088 0 -0.042943060796437144 0.021176103724668976 0 -0.043580740053484959 0.02361569729934912 0 -0.045730857998511593 0.024353333413014263 0 -0.045613732242905228 0.022187678100206384 0 -0.043580740053484959 0.02361569729934912 0 -0.045613732242905228 0.022187678100206384 0 -0.042943060796437144 0.021176103724668976 0 -0.039392124673518117 0.026981291673419623 0 -0.038868832614354205 0.025089352355475412 0 -0.041631891946871176 0.026163546337481667 0 -0.039392124673518117 0.026981291673419623 0 -0.040653179598066164 0.028254277885963457 0 -0.041631891946871176 0.026163546337481667 0 -0.041974989043718054 0.027471146636552125 0 -0.040653179598066164 0.028254277885963457 0 -0.041631891946871176 0.026163546337481667 0 -0.041974989043718054 0.027471146636552125 0 -0.044108216185878395 0.026417682512763194 0 -0.041631891946871176 0.026163546337481667 0 -0.040809777673784839 0.024260887636421671 0 -0.041785822858265327 0.022317311974304088 0 -0.040181813549046617 0.021540995858421043 0 -0.043580740053484959 0.02361569729934912 0 -0.040809777673784839 0.024260887636421671 0 -0.041785822858265327 0.022317311974304088 0 -0.038401149943015835 0.02256772294839721 0 -0.040809777673784839 0.024260887636421671 0 -0.040181813549046617 0.021540995858421043 0 -0.038898948623151901 0.023733926244256087 0 -0.04136734201387323 0.024988253002620447 0 -0.041785822858265327 0.022317311974304088 0 -0.040181813549046617 0.021540995858421043 0 -0.041555487080400993 0.020752740126889817 0 -0.041785822858265327 0.022317311974304088 0 -0.041555487080400993 0.020752740126889817 0 -0.042943060796437144 0.021176103724668976 0 -0.041555487080400993 0.020752740126889817 0 -0.04257738146523566 0.019862594391308264 0 -0.040115736004021962 0.01901256764446483 0 -0.038656781581349463 0.018899569266116585 0 -0.038086593180572628 0.018517697791181755 0 -0.038637760331041764 0.020325553916615377 0 -0.040181813549046617 0.021540995858421043 0 -0.040115736004021962 0.01901256764446483 0 -0.040181813549046617 0.021540995858421043 0 -0.041555487080400993 0.020752740126889817 0 -0.040115736004021962 0.01901256764446483 0 -0.042843563048318947 0.024697887843504063 0 -0.042752938514060965 0.024122983580230899 0 -0.043583434803307355 0.021200976201069692 0 -0.042943060796437144 0.021176103724668976 0 -0.043751131389110208 0.020632454855849372 0 -0.041555487080400993 0.020752740126889817 0 -0.042943060796437144 0.021176103724668976 0 -0.04257738146523566 0.019862594391308264 0 -0.042943060796437144 0.021176103724668976 0 -0.04257738146523566 0.019862594391308264 0 -0.043751131389110208 0.020632454855849372 0 -0.035639731035082944 0.016807638056601071 0 -0.034966831308019614 0.016668595929240495 0 -0.035285175772665871 0.017088741403828392 0 -0.038656781581349463 0.018899569266116585 0 -0.038740412274210247 0.019580882498311698 0 -0.043751131389110208 0.020632454855849372 0 -0.043895279878782618 0.020992637177618685 0 -0.043856728233184497 0.021018944931433942 0 -0.034966831308019614 0.016668595929240495 0 -0.034454199398421613 0.01661688481046621 0 -0.03461346633974792 0.016883771494751766 0 -0.038740412274210247 0.019580882498311698 0 -0.037737956224376659 0.020731994920522787 0 -0.034454199398421613 0.01661688481046621 0 -0.034291827808986715 0.016889516326488305 0 -0.03461346633974792 0.016883771494751766 0 -0.043895279878782618 0.020992637177618685 0 -0.043882870471457856 0.021039974867850895 0 -0.043861668378237788 0.021058472567441908 0 -0.043895279878782618 0.020992637177618685 0 -0.043882870471457856 0.021039974867850895 0 -0.043856728233184497 0.021018944931433942 0 -0.043875948918652562 0.021082304441334881 0 -0.043856728233184497 0.021018944931433942 0 -0.043836662797612676 0.021146910844192131 0 -0.043882870471457856 0.021039974867850895 0 -0.043875948918652562 0.021082304441334881 0 -0.043856728233184497 0.021018944931433942 0 -0.043882870471457856 0.021039974867850895 0 -0.043875948918652562 0.021082304441334881 0 -0.043879374249474024 0.021077712169379179 0 -0.043583434803307355 0.021200976201069692 0 -0.043751131389110208 0.020632454855849372 0 -0.043856728233184497 0.021018944931433942 0 -0.043583434803307355 0.021200976201069692 0 -0.043856728233184497 0.021018944931433942 0 -0.043836662797612676 0.021146910844192131 0 -0.042843563048318947 0.024697887843504063 0 -0.041714341071640661 0.026118693327717241 0 -0.045730857998511593 0.024353333413014263 0 -0.045613732242905228 0.022187678100206384 0 -0.048079407352207747 0.023212284245064326 0 -0.048079407352207747 0.023212284245064326 0 -0.048907863190432305 0.025305088785787792 0 -0.050487242582627739 0.024154221881145924 0 -0.043875948918652562 0.021082304441334881 0 -0.043836662797612676 0.021146910844192131 0 -0.043892586195778849 0.021123327462390699 0 -0.041714341071640661 0.026118693327717241 0 -0.035801027099998516 0.027740582463673502 0 -0.043875948918652562 0.021082304441334881 0 -0.043892586195778849 0.021123327462390699 0 -0.043879374249474024 0.021077712169379179 0 -0.049991413525949199 0.026929942727832723 0 -0.048907863190432305 0.025305088785787792 0 -0.050487242582627739 0.024154221881145924 0 -0.048537650052707514 0.02658583349082709 0 -0.049991413525949199 0.026929942727832723 0 -0.048907863190432305 0.025305088785787792 0 -0.048537650052707514 0.02658583349082709 0 -0.048907863190432305 0.025305088785787792 0 -0.047099535009228685 0.026166904986729293 0 -0.048079407352207747 0.023212284245064326 0 -0.048907863190432305 0.025305088785787792 0 -0.047099535009228685 0.026166904986729293 0 -0.045730857998511593 0.024353333413014263 0 -0.048079407352207747 0.023212284245064326 0 -0.047099535009228685 0.026166904986729293 0 -0.021955554734353629 0.034102719350153812 0 -0.022092611437392603 0.034064673249425775 0 -0.022173100140797129 0.034190428480428942 0 -0.027342972325915687 0.028879176981828493 0 -0.032341900250783609 0.028029891244693583 0 -0.022220679756711829 0.034034319775643487 0 -0.022257712311772319 0.034029226737191311 0 -0.022266021943926531 0.034035303795160031 0 -0.030954039978435786 0.030348227092751107 0 -0.032341900250783609 0.028029891244693583 0 -0.022220679756711829 0.034034319775643487 0 -0.022092611437392603 0.034064673249425775 0 -0.022173100140797129 0.034190428480428942 0 -0.034998264943890252 0.029404800021848702 0 -0.035801027099998516 0.027740582463673502 0 -0.022267148181428369 0.034021511471673524 0 -0.022220679756711829 0.034034319775643487 0 -0.022266021943926531 0.034035303795160031 0 -0.032341900250783609 0.028029891244693583 0 -0.032504144090427067 0.026558340872405186 0 -0.032341900250783609 0.028029891244693583 0 -0.035801027099998516 0.027740582463673502 0 -0.043892586195778849 0.021123327462390699 0 -0.043879374249474024 0.021077712169379179 0 -0.043861668378237788 0.021058472567441908 0 -0.043737585242209852 0.021388386036908635 0 -0.043954475971897305 0.021266430219165022 0 -0.043855413054406045 0.021114038306020082 0 -0.043894180438972176 0.021458008508696193 0 -0.043737585242209852 0.021388386036908635 0 -0.043954475971897305 0.021266430219165022 0 -0.035801027099998516 0.027740582463673502 0 -0.037615436631059158 0.024015986999082639 0 -0.032504144090427067 0.026558340872405186 0 -0.033613065573955117 0.026652177557942337 0 -0.027342972325915687 0.028879176981828493 0 -0.032504144090427067 0.026558340872405186 0 -0.029833287407255053 0.028046271393603651 0 -0.031093086264525911 0.028500803467368503 0 -0.030910973539603131 0.029205198672656963 0 -0.025358108726388297 0.028992999004757217 0 -0.025273599057319757 0.029307393604637192 0 -0.025677753282164307 0.029326739939043871 0 -0.032504144090427067 0.026558340872405186 0 -0.032811462826539545 0.022569473345943128 0 -0.025273599057319757 0.029307393604637192 0 -0.025677753282164307 0.029326739939043871 0 -0.025596654026615852 0.029630202945320983 0 -0.043895279878782618 0.020992637177618685 0 -0.043846563698776306 0.021091364539639799 0 -0.043861668378237788 0.021058472567441908 0 -0.043837838413739387 0.021118447155234369 0 -0.043846563698776306 0.021091364539639799 0 -0.043855413054406045 0.021114038306020082 0 -0.037737956224376659 0.020731994920522787 0 -0.032811462826539545 0.022569473345943128 0 -0.043737585242209852 0.021388386036908635 0 -0.043855413054406045 0.021114038306020082 0 -0.043861668378237788 0.021058472567441908 0 -0.043882870471457856 0.021039974867850895 0 -0.043879374249474024 0.021077712169379179 0 -0.043861668378237788 0.021058472567441908 0 -0.043846563698776306 0.021091364539639799 0 -0.043855413054406045 0.021114038306020082 0 -0.043861668378237788 0.021058472567441908 0 -0.034454199398421613 0.01661688481046621 0 -0.034015539601890028 0.016566496852148411 0 -0.034291827808986715 0.016889516326488305 0 -0.032811462826539545 0.022569473345943128 0 -0.033830168850912397 0.018040836636250987 0 -0.034015539601890028 0.016566496852148411 0 -0.033910965432171029 0.017006629073575804 0 -0.034291827808986715 0.016889516326488305 0 -0.033817692058980137 0.017075828326056527 0 -0.033961777734551814 0.016992533701330408 0 -0.033896733237571169 0.017224976896280202 0 -0.033910965432171029 0.017006629073575804 0 -0.034291827808986715 0.016889516326488305 0 -0.034273207653639719 0.017145430363338345 0 -0.034273207653639719 0.017145430363338345 0 -0.034107342279752623 0.017345616098981526 0 -0.034429449518028031 0.01735615992744596 0 -0.033910965432171029 0.017006629073575804 0 -0.034273207653639719 0.017145430363338345 0 -0.034107342279752623 0.017345616098981526 0 -0.033910965432171029 0.017006629073575804 0 -0.034107342279752623 0.017345616098981526 0 -0.033835031738717096 0.017425167243052948 0 -0.034107342279752623 0.017345616098981526 0 -0.03397269517572072 0.017530196052481132 0 -0.033835031738717096 0.017425167243052948 0 -0.034107342279752623 0.017345616098981526 0 -0.034257601677413131 0.017479517574655268 0 -0.03397269517572072 0.017530196052481132 0 -0.034107342279752623 0.017345616098981526 0 -0.034257601677413131 0.017479517574655268 0 -0.034429449518028031 0.01735615992744596 0 -0.034257601677413131 0.017479517574655268 0 -0.03397269517572072 0.017530196052481132 0 -0.034332681860500237 0.017623282107045699 0 -0.03397269517572072 0.017530196052481132 0 -0.033835031738717096 0.017425167243052948 0 -0.033795312435896049 0.017558118693266123 0 -0.03397269517572072 0.017530196052481132 0 -0.033795312435896049 0.017558118693266123 0 -0.033729831305027116 0.017575847054137138 0 -0.034702699837603372 0.017669914799997247 0 -0.034491172664277793 0.017524264566208887 0 -0.034757808679370727 0.017417678471057445 0 -0.034257601677413131 0.017479517574655268 0 -0.034491172664277793 0.017524264566208887 0 -0.034332681860500237 0.017623282107045699 0 -0.034702699837603372 0.017669914799997247 0 -0.034491172664277793 0.017524264566208887 0 -0.034332681860500237 0.017623282107045699 0 -0.034491172664277793 0.017524264566208887 0 -0.034429449518028031 0.01735615992744596 0 -0.034757808679370727 0.017417678471057445 0 -0.034257601677413131 0.017479517574655268 0 -0.034491172664277793 0.017524264566208887 0 -0.034429449518028031 0.01735615992744596 0 -0.034702699837603372 0.017669914799997247 0 -0.034757808679370727 0.017417678471057445 0 -0.035115237310630751 0.017608606156521996 0 -0.034757808679370727 0.017417678471057445 0 -0.034526339706026407 0.017128836799990024 0 -0.034882175703620115 0.017109031103615994 0 -0.034757808679370727 0.017417678471057445 0 -0.034882175703620115 0.017109031103615994 0 -0.035190815286642189 0.017399802079759313 0 -0.034429449518028031 0.01735615992744596 0 -0.034757808679370727 0.017417678471057445 0 -0.034526339706026407 0.017128836799990024 0 -0.034273207653639719 0.017145430363338345 0 -0.034429449518028031 0.01735615992744596 0 -0.034526339706026407 0.017128836799990024 0 -0.034291827808986715 0.016889516326488305 0 -0.034526339706026407 0.017128836799990024 0 -0.03461346633974792 0.016883771494751766 0 -0.034291827808986715 0.016889516326488305 0 -0.034273207653639719 0.017145430363338345 0 -0.034526339706026407 0.017128836799990024 0 -0.034526339706026407 0.017128836799990024 0 -0.03461346633974792 0.016883771494751766 0 -0.034882175703620115 0.017109031103615994 0 -0.034966831308019614 0.016668595929240495 0 -0.03461346633974792 0.016883771494751766 0 -0.034882175703620115 0.017109031103615994 0 -0.034966831308019614 0.016668595929240495 0 -0.034882175703620115 0.017109031103615994 0 -0.035285175772665871 0.017088741403828392 0 -0.035639731035082944 0.016807638056601071 0 -0.035285175772665871 0.017088741403828392 0 -0.035859175008813658 0.017456288015951074 0 -0.035285175772665871 0.017088741403828392 0 -0.035190815286642189 0.017399802079759313 0 -0.035859175008813658 0.017456288015951074 0 -0.035190815286642189 0.017399802079759313 0 -0.035859175008813658 0.017456288015951074 0 -0.035511944976089435 0.017617683187597037 0 -0.034882175703620115 0.017109031103615994 0 -0.035285175772665871 0.017088741403828392 0 -0.035190815286642189 0.017399802079759313 0 -0.036505297674429851 0.017205259498327911 0 -0.035859175008813658 0.017456288015951074 0 -0.036664700406859985 0.017758906179835589 0 -0.035639731035082944 0.016807638056601071 0 -0.036505297674429851 0.017205259498327911 0 -0.035859175008813658 0.017456288015951074 0 -0.036664700406859985 0.017758906179835589 0 -0.036351117285523232 0.018008116577702227 0 -0.037129476063894003 0.017919077357743993 0 -0.035859175008813658 0.017456288015951074 0 -0.036664700406859985 0.017758906179835589 0 -0.036351117285523232 0.018008116577702227 0 -0.035859175008813658 0.017456288015951074 0 -0.036351117285523232 0.018008116577702227 0 -0.035511944976089435 0.017617683187597037 0 -0.036351117285523232 0.018008116577702227 0 -0.035511944976089435 0.017617683187597037 0 -0.035514605388909541 0.017700924364917943 0 -0.036318627083447193 0.017088424431353364 0 -0.035514605388909541 0.017700924364917943 0 -0.036084865183576759 0.017853437416684381 0 -0.036413884872232426 0.017611528034851082 0 -0.036170072515929241 0.017672959064784478 0 -0.036318627083447193 0.017088424431353364 0 -0.03647228182106832 0.01736762677198184 0 -0.036084865183576759 0.017853437416684381 0 -0.035190815286642189 0.017399802079759313 0 -0.035115237310630751 0.017608606156521996 0 -0.035511944976089435 0.017617683187597037 0 -0.034757808679370727 0.017417678471057445 0 -0.035190815286642189 0.017399802079759313 0 -0.035115237310630751 0.017608606156521996 0 -0.035115237310630751 0.017608606156521996 0 -0.035511944976089435 0.017617683187597037 0 -0.035514605388909541 0.017700924364917943 0 -0.035115237310630751 0.017608606156521996 0 -0.035514605388909541 0.017700924364917943 0 -0.03500369443560386 0.017810520818919685 0 -0.034702699837603372 0.017669914799997247 0 -0.035115237310630751 0.017608606156521996 0 -0.03500369443560386 0.017810520818919685 0 -0.03500369443560386 0.017810520818919685 0 -0.035226321859819248 0.017962019330222279 0 -0.035054724808620756 0.018007684737231924 0 -0.035514605388909541 0.017700924364917943 0 -0.03500369443560386 0.017810520818919685 0 -0.035226321859819248 0.017962019330222279 0 -0.034191280784544531 0.01799484312701535 0 -0.033920469334131169 0.018010294721459468 0 -0.035226321859819248 0.017962019330222279 0 -0.035054724808620756 0.018007684737231924 0 -0.034976050435847721 0.017822958859114446 0 -0.03500369443560386 0.017810520818919685 0 -0.035054724808620756 0.018007684737231924 0 -0.034600413548871993 0.017815799278914093 0 -0.034717010626073637 0.018150223548616205 0 -0.033790591779100806 0.018169933733310193 0 -0.034118069942492175 0.017902611839416372 0 -0.034717010626073637 0.018150223548616205 0 -0.034976050435847721 0.017822958859114446 0 -0.034118069942492175 0.017902611839416372 0 -0.035195780590948515 0.017489924901612431 0 -0.035052901307293813 0.017143788251970691 0 -0.03647228182106832 0.01736762677198184 0 -0.036084865183576759 0.017853437416684381 0 -0.036697707758075369 0.017354832292479683 0 -0.035226321859819248 0.017962019330222279 0 -0.034717010626073637 0.018150223548616205 0 -0.034976050435847721 0.017822958859114446 0 -0.035206686398854416 0.017593500356608002 0 -0.035195780590948515 0.017489924901612431 0 -0.035514605388909541 0.017700924364917943 0 -0.035226321859819248 0.017962019330222279 0 -0.036084865183576759 0.017853437416684381 0 -0.032937624650793536 0.018129504448604766 0 -0.032974340336105343 0.018049381803478197 0 -0.032947586921398465 0.018015520829548357 0 -0.033920469334131169 0.018010294721459468 0 -0.033596875985973412 0.018048537102860782 0 -0.032937624650793536 0.018129504448604766 0 -0.032974340336105343 0.018049381803478197 0 -0.033019425994191685 0.017989394073377688 0 -0.032974340336105343 0.018049381803478197 0 -0.0329972924034155 0.018035172882677961 0 -0.032947586921398465 0.018015520829548357 0 -0.032937624650793536 0.018129504448604766 0 -0.032947586921398465 0.018015520829548357 0 -0.032921748162542501 0.017961442030763244 0 -0.032947586921398465 0.018015520829548357 0 -0.032921748162542501 0.017961442030763244 0 -0.032977578337215915 0.01806564169337694 0 -0.03345751708223374 0.01693448208750168 0 -0.033404278111559604 0.016280838926693332 0 -0.032921748162542501 0.017961442030763244 0 -0.032092185983047715 0.01715403684549047 0 -0.032828085673616461 0.016881159955676874 0 -0.033017432477424231 0.018054118318859769 0 -0.033015245921647181 0.018068593916486155 0 -0.032977578337215915 0.01806564169337694 0 -0.0329972924034155 0.018035172882677961 0 -0.032947586921398465 0.018015520829548357 0 -0.032977578337215915 0.01806564169337694 0 -0.0329972924034155 0.018035172882677961 0 -0.033017432477424231 0.018054118318859769 0 -0.032977578337215915 0.01806564169337694 0 -0.033408981420324016 0.01825531318831964 0 -0.033406264027554582 0.017758679242176188 0 -0.03440309730903892 0.01799856253506768 0 -0.034191280784544531 0.01799484312701535 0 -0.034319960774567719 0.017972693532867342 0 -0.033408981420324016 0.01825531318831964 0 -0.032921748162542501 0.017961442030763244 0 -0.033406264027554582 0.017758679242176188 0 -0.033408981420324016 0.01825531318831964 0 -0.032937624650793536 0.018129504448604766 0 -0.032921748162542501 0.017961442030763244 0 -0.033406264027554582 0.017758679242176188 0 -0.033680833272335696 0.017267505963910908 0 -0.032828085673616461 0.016881159955676874 0 -0.032921748162542501 0.017961442030763244 0 -0.033406264027554582 0.017758679242176188 0 -0.032828085673616461 0.016881159955676874 0 -0.033406264027554582 0.017758679242176188 0 -0.03440309730903892 0.01799856253506768 0 -0.033680833272335696 0.017267505963910908 0 -0.03440309730903892 0.01799856253506768 0 -0.034466662233738801 0.017716914458634325 0 -0.034273969005806204 0.01724428049967475 0 -0.03440309730903892 0.01799856253506768 0 -0.034273969005806204 0.01724428049967475 0 -0.033680833272335696 0.017267505963910908 0 -0.03440309730903892 0.01799856253506768 0 -0.034380015800338982 0.01784580834656057 0 -0.034325118962486995 0.017760489186489824 0 -0.03440309730903892 0.01799856253506768 0 -0.034466662233738801 0.017716914458634325 0 -0.034380015800338982 0.01784580834656057 0 -0.034456397404303785 0.017733314668965133 0 -0.034466662233738801 0.017716914458634325 0 -0.034380015800338982 0.01784580834656057 0 -0.034456397404303785 0.017733314668965133 0 -0.034466662233738801 0.017716914458634325 0 -0.034723271980122754 0.017251606256411475 0 -0.032032256431970142 0.016386266664800704 0 -0.031934190478715388 0.016482118383366173 0 -0.030984593050482939 0.015497335532081569 0 -0.034456397404303785 0.017733314668965133 0 -0.03428456350125722 0.01791096245923153 0 -0.034723271980122754 0.017251606256411475 0 -0.033056311156156357 0.016761585887901446 0 -0.032749694736964194 0.016123679717223938 0 -0.032338142616262215 0.016010046335359417 0 -0.032727613829509804 0.015643613902886731 0 -0.032032256431970142 0.016386266664800704 0 -0.033182667824973838 0.015750481300015919 0 -0.033339381145775636 0.016642036330374213 0 -0.032032256431970142 0.016386266664800704 0 -0.033515620867416655 0.017557791243204057 0 -0.033339381145775636 0.016642036330374213 0 -0.032032256431970142 0.016386266664800704 0 -0.031934190478715388 0.016482118383366173 0 -0.033515620867416655 0.017557791243204057 0 -0.033056311156156357 0.016761585887901446 0 -0.03321596195067756 0.017037443714080978 0 -0.03428456350125722 0.01791096245923153 0 -0.034380015800338982 0.01784580834656057 0 -0.033515620867416655 0.017557791243204057 0 -0.034456397404303785 0.017733314668965133 0 -0.03428456350125722 0.01791096245923153 0 -0.034380015800338982 0.01784580834656057 0 -0.034380015800338982 0.01784580834656057 0 -0.033515620867416655 0.017557791243204057 0 -0.034325118962486995 0.017760489186489824 0 -0.033515620867416655 0.017557791243204057 0 -0.033936902220211097 0.017586476862136116 0 -0.034325118962486995 0.017760489186489824 0 -0.033515620867416655 0.017557791243204057 0 -0.033936902220211097 0.017586476862136116 0 -0.033729831305027116 0.017575847054137138 0 -0.03397269517572072 0.017530196052481132 0 -0.033936902220211097 0.017586476862136116 0 -0.033729831305027116 0.017575847054137138 0 -0.03397269517572072 0.017530196052481132 0 -0.033936902220211097 0.017586476862136116 0 -0.034332681860500237 0.017623282107045699 0 -0.033936902220211097 0.017586476862136116 0 -0.034332681860500237 0.017623282107045699 0 -0.034325118962486995 0.017760489186489824 0 -0.034332681860500237 0.017623282107045699 0 -0.034600413548871993 0.017815799278914093 0 -0.034325118962486995 0.017760489186489824 0 -0.034702699837603372 0.017669914799997247 0 -0.03500369443560386 0.017810520818919685 0 -0.034600413548871993 0.017815799278914093 0 -0.034702699837603372 0.017669914799997247 0 -0.034332681860500237 0.017623282107045699 0 -0.034600413548871993 0.017815799278914093 0 -0.03440309730903892 0.01799856253506768 0 -0.034600413548871993 0.017815799278914093 0 -0.034325118962486995 0.017760489186489824 0 -0.035054724808620756 0.018007684737231924 0 -0.03440309730903892 0.01799856253506768 0 -0.034600413548871993 0.017815799278914093 0 -0.034998282597220279 0.018904956740150806 0 -0.034999422499349876 0.013891671479940193 0 -0.035752284331544842 0.016222596050863517 0 -0.03500041207492486 0.013889047145084628 0 -0.035515796571737743 0.014262709430376294 0 -0.035000017971318596 0.013887731641115723 0 -0.036305296689798081 0.013436518336615086 0 -0.035684046972605236 0.012943702534211853 0 -0.035593438742242814 0.015022998039501528 0 -0.035752284331544842 0.016222596050863517 0 -0.035740113934118724 0.01590723208166633 0 -0.034999422499349876 0.013891671479940193 0 -0.035593438742242814 0.015022998039501528 0 -0.035752284331544842 0.016222596050863517 0 -0.035759452870244256 0.018239981457592612 0 -0.034998282597220279 0.018904956740150806 0 -0.035752284331544842 0.016222596050863517 0 -0.035759452870244256 0.018239981457592612 0 -0.035752284331544842 0.016222596050863517 0 -0.036763984663880631 0.016790585202039909 0 -0.035752284331544842 0.016222596050863517 0 -0.036763984663880631 0.016790585202039909 0 -0.035740113934118724 0.01590723208166633 0 -0.035671897876817807 0.018053452956917352 0 -0.035612242751856621 0.017261063040347906 0 -0.036178892287242387 0.019352538428455364 0 -0.035759452870244256 0.018239981457592612 0 -0.036763984663880631 0.016790585202039909 0 -0.034361193988820794 0.020489342871230838 0 -0.035286821781760243 0.019527845700780047 0 -0.034635012459383635 0.017903856604291758 0 -0.035777736274560865 0.019630043258073614 0 -0.035671897876817807 0.018053452956917352 0 -0.035286821781760243 0.019527845700780047 0 -0.034635012459383635 0.017903856604291758 0 -0.035818297033582649 0.01866284079654364 0 -0.034635012459383635 0.017903856604291758 0 -0.035615883913525291 0.016682628537512088 0 -0.035915044212671152 0.017576127493870088 0 -0.034635012459383635 0.017903856604291758 0 -0.035915044212671152 0.017576127493870088 0 -0.035818297033582649 0.01866284079654364 0 -0.0358233394476134 0.016619399195924749 0 -0.035615883913525291 0.016682628537512088 0 -0.035987675393184752 0.016920702058301672 0 -0.0358233394476134 0.016619399195924749 0 -0.035751903551402939 0.01637108086443239 0 -0.03593892043750798 0.01654179419634701 0 -0.0358233394476134 0.016619399195924749 0 -0.035615883913525291 0.016682628537512088 0 -0.035751903551402939 0.01637108086443239 0 -0.035615883913525291 0.016682628537512088 0 -0.035751903551402939 0.01637108086443239 0 -0.035704691431912065 0.016169149097537798 0 -0.035615883913525291 0.016682628537512088 0 -0.035740113934118724 0.01590723208166633 0 -0.035704691431912065 0.016169149097537798 0 -0.034635012459383635 0.017903856604291758 0 -0.035615883913525291 0.016682628537512088 0 -0.035740113934118724 0.01590723208166633 0 -0.035593438742242814 0.015022998039501528 0 -0.035740113934118724 0.01590723208166633 0 -0.035706195383779012 0.015969811830476972 0 -0.035515796571737743 0.014262709430376294 0 -0.036027341162092823 0.014632043902369484 0 -0.036305296689798081 0.013436518336615086 0 -0.037146738107236989 0.013036795073310917 0 -0.037359218884032402 0.013122185698318892 0 -0.035740113934118724 0.01590723208166633 0 -0.035706195383779012 0.015969811830476972 0 -0.035704691431912065 0.016169149097537798 0 -0.037146738107236989 0.013036795073310917 0 -0.037359218884032402 0.013122185698318892 0 -0.037365131408728748 0.012842398027045652 0 -0.037359218884032402 0.013122185698318892 0 -0.037365131408728748 0.012842398027045652 0 -0.037736371770279081 0.012827684368435602 0 -0.035706195383779012 0.015969811830476972 0 -0.03580361672746319 0.016240610924746518 0 -0.035936497041377892 0.016371709373335073 0 -0.036027341162092823 0.014632043902369484 0 -0.035911941069977603 0.015104886516751801 0 -0.037359218884032402 0.013122185698318892 0 -0.037736371770279081 0.012827684368435602 0 -0.038550967514256511 0.012927301420540742 0 -0.035895578149631617 0.016369350014970786 0 -0.03580361672746319 0.016240610924746518 0 -0.035927174500864176 0.016368672890091193 0 -0.03580361672746319 0.016240610924746518 0 -0.035927174500864176 0.016368672890091193 0 -0.035936497041377892 0.016371709373335073 0 -0.035895578149631617 0.016369350014970786 0 -0.035853391975195117 0.016371755418900694 0 -0.03580361672746319 0.016240610924746518 0 -0.035853391975195117 0.016371755418900694 0 -0.035751903551402939 0.01637108086443239 0 -0.03580361672746319 0.016240610924746518 0 -0.035853391975195117 0.016371755418900694 0 -0.035751903551402939 0.01637108086443239 0 -0.03593892043750798 0.01654179419634701 0 -0.035895578149631617 0.016369350014970786 0 -0.035853391975195117 0.016371755418900694 0 -0.03595977733596098 0.016455269877706555 0 -0.035751903551402939 0.01637108086443239 0 -0.035704691431912065 0.016169149097537798 0 -0.03580361672746319 0.016240610924746518 0 -0.035706195383779012 0.015969811830476972 0 -0.035704691431912065 0.016169149097537798 0 -0.03580361672746319 0.016240610924746518 0 -0.03597484013308249 0.016339503565930245 0 -0.036268721482059244 0.016619379468749498 0 -0.036600651724622651 0.016775377868306122 0 -0.035911941069977603 0.015104886516751801 0 -0.034957398819394574 0.01645685863125786 0 -0.036179303816803295 0.016630138020356518 0 -0.036268721482059244 0.016619379468749498 0 -0.036348783864785995 0.016759807709811579 0 -0.036179303816803295 0.016630138020356518 0 -0.036348783864785995 0.016759807709811579 0 -0.036162172942196334 0.016740388567374188 0 -0.036179303816803295 0.016630138020356518 0 -0.036056905132953336 0.016562721219888596 0 -0.036162172942196334 0.016740388567374188 0 -0.03593892043750798 0.01654179419634701 0 -0.036056905132953336 0.016562721219888596 0 -0.036162172942196334 0.016740388567374188 0 -0.035853391975195117 0.016371755418900694 0 -0.03593892043750798 0.01654179419634701 0 -0.03595977733596098 0.016455269877706555 0 -0.03593892043750798 0.01654179419634701 0 -0.03595977733596098 0.016455269877706555 0 -0.036056905132953336 0.016562721219888596 0 -0.03595977733596098 0.016455269877706555 0 -0.036056905132953336 0.016562721219888596 0 -0.036047553139912904 0.016455379165177381 0 -0.036179303816803295 0.016630138020356518 0 -0.036056905132953336 0.016562721219888596 0 -0.036047553139912904 0.016455379165177381 0 -0.036047553139912904 0.016455379165177381 0 -0.03597484013308249 0.016339503565930245 0 -0.036268721482059244 0.016619379468749498 0 -0.035895578149631617 0.016369350014970786 0 -0.03595977733596098 0.016455269877706555 0 -0.035959985712837025 0.016414768586710825 0 -0.035895578149631617 0.016369350014970786 0 -0.035959985712837025 0.016414768586710825 0 -0.035927174500864176 0.016368672890091193 0 -0.03595977733596098 0.016455269877706555 0 -0.036047553139912904 0.016455379165177381 0 -0.035959985712837025 0.016414768586710825 0 -0.036047553139912904 0.016455379165177381 0 -0.035978996003853125 0.016397347736604985 0 -0.03597484013308249 0.016339503565930245 0 -0.035959985712837025 0.016414768586710825 0 -0.035978996003853125 0.016397347736604985 0 -0.035927174500864176 0.016368672890091193 0 -0.036047553139912904 0.016455379165177381 0 -0.035959985712837025 0.016414768586710825 0 -0.035978996003853125 0.016397347736604985 0 -0.035908888543903006 0.015112197973476224 0 -0.035911941069977603 0.015104886516751801 0 -0.035978996003853125 0.016397347736604985 0 -0.035927174500864176 0.016368672890091193 0 -0.03597484013308249 0.016339503565930245 0 -0.036179303816803295 0.016630138020356518 0 -0.036047553139912904 0.016455379165177381 0 -0.036268721482059244 0.016619379468749498 0 -0.036268721482059244 0.016619379468749498 0 -0.036449180579087248 0.016762520004534574 0 -0.036600651724622651 0.016775377868306122 0 -0.036268721482059244 0.016619379468749498 0 -0.036449180579087248 0.016762520004534574 0 -0.036348783864785995 0.016759807709811579 0 -0.036550539695105133 0.016876176365026641 0 -0.036635774248479594 0.016944600865932476 0 -0.036600651724622651 0.016775377868306122 0 -0.036449180579087248 0.016762520004534574 0 -0.036550539695105133 0.016876176365026641 0 -0.036600651724622651 0.016775377868306122 0 -0.036550539695105133 0.016876176365026641 0 -0.036484771965278134 0.01695157289521395 0 -0.036695364838887287 0.017057285718292448 0 -0.036348783864785995 0.016759807709811579 0 -0.036484771965278134 0.01695157289521395 0 -0.036162172942196334 0.016740388567374188 0 -0.036449180579087248 0.016762520004534574 0 -0.036550539695105133 0.016876176365026641 0 -0.036348783864785995 0.016759807709811579 0 -0.036550539695105133 0.016876176365026641 0 -0.036348783864785995 0.016759807709811579 0 -0.036484771965278134 0.01695157289521395 0 -0.036484771965278134 0.01695157289521395 0 -0.036501326905365228 0.017235702334319796 0 -0.036162172942196334 0.016740388567374188 0 -0.036484771965278134 0.01695157289521395 0 -0.036501326905365228 0.017235702334319796 0 -0.036695364838887287 0.017057285718292448 0 -0.036501326905365228 0.017235702334319796 0 -0.036162172942196334 0.016740388567374188 0 -0.035987675393184752 0.016920702058301672 0 -0.036501326905365228 0.017235702334319796 0 -0.035987675393184752 0.016920702058301672 0 -0.035915044212671152 0.017576127493870088 0 -0.0358233394476134 0.016619399195924749 0 -0.03593892043750798 0.01654179419634701 0 -0.035987675393184752 0.016920702058301672 0 -0.03593892043750798 0.01654179419634701 0 -0.036162172942196334 0.016740388567374188 0 -0.035987675393184752 0.016920702058301672 0 -0.035615883913525291 0.016682628537512088 0 -0.035987675393184752 0.016920702058301672 0 -0.035915044212671152 0.017576127493870088 0 -0.035915044212671152 0.017576127493870088 0 -0.035818297033582649 0.01866284079654364 0 -0.036659948844509065 0.017978014687835612 0 -0.036198220028589197 0.019765777664459989 0 -0.035286821781760243 0.019527845700780047 0 -0.035818297033582649 0.01866284079654364 0 -0.036198220028589197 0.019765777664459989 0 -0.035818297033582649 0.01866284079654364 0 -0.036659948844509065 0.017978014687835612 0 -0.036501326905365228 0.017235702334319796 0 -0.035915044212671152 0.017576127493870088 0 -0.036659948844509065 0.017978014687835612 0 -0.036659948844509065 0.017978014687835612 0 -0.037459403659857927 0.018338097406759509 0 -0.037129476063894003 0.017919077357743993 0 -0.036501326905365228 0.017235702334319796 0 -0.036659948844509065 0.017978014687835612 0 -0.036855872668163668 0.017183403852327916 0 -0.036569108864613308 0.017729962762774498 0 -0.036631348104719658 0.017625991687309946 0 -0.037127762435799037 0.01990511767394261 0 -0.036659948844509065 0.017978014687835612 0 -0.037459403659857927 0.018338097406759509 0 -0.038086593180572628 0.018517697791181755 0 -0.03767951389174154 0.018398490600767745 0 -0.036505297674429851 0.017205259498327911 0 -0.036664700406859985 0.017758906179835589 0 -0.037459403659857927 0.018338097406759509 0 -0.036664700406859985 0.017758906179835589 0 -0.037459403659857927 0.018338097406759509 0 -0.037129476063894003 0.017919077357743993 0 -0.036318627083447193 0.017088424431353364 0 -0.036855872668163668 0.017183403852327916 0 -0.03668971005118709 0.017176313879994732 0 -0.036413884872232426 0.017611528034851082 0 -0.036631348104719658 0.017625991687309946 0 -0.036501326905365228 0.017235702334319796 0 -0.036855872668163668 0.017183403852327916 0 -0.036695364838887287 0.017057285718292448 0 -0.036855872668163668 0.017183403852327916 0 -0.036695364838887287 0.017057285718292448 0 -0.03668971005118709 0.017176313879994732 0 -0.036695364838887287 0.017057285718292448 0 -0.036683341964156499 0.017071955021937181 0 -0.03668971005118709 0.017176313879994732 0 -0.036550539695105133 0.016876176365026641 0 -0.036695364838887287 0.017057285718292448 0 -0.036635774248479594 0.016944600865932476 0 -0.036695364838887287 0.017057285718292448 0 -0.036635774248479594 0.016944600865932476 0 -0.036683341964156499 0.017071955021937181 0 -0.036635774248479594 0.016944600865932476 0 -0.036683341964156499 0.017071955021937181 0 -0.036600651724622651 0.016775377868306122 0 -0.036318627083447193 0.017088424431353364 0 -0.03647228182106832 0.01736762677198184 0 -0.03668971005118709 0.017176313879994732 0 -0.03647228182106832 0.01736762677198184 0 -0.03668971005118709 0.017176313879994732 0 -0.036697707758075369 0.017354832292479683 0 -0.036683341964156499 0.017071955021937181 0 -0.03668971005118709 0.017176313879994732 0 -0.036697707758075369 0.017354832292479683 0 -0.033596875985973412 0.018048537102860782 0 -0.033413010922058131 0.018087451588752756 0 -0.033790591779100806 0.018169933733310193 0 -0.034118069942492175 0.017902611839416372 0 -0.033232249344615168 0.018061465343158764 0 -0.033019425994191685 0.017989394073377688 0 -0.033232249344615168 0.018061465343158764 0 -0.033110744136333248 0.018024809538891726 0 -0.036683341964156499 0.017071955021937181 0 -0.036697707758075369 0.017354832292479683 0 -0.036600651724622651 0.016775377868306122 0 -0.035052901307293813 0.017143788251970691 0 -0.034957398819394574 0.01645685863125786 0 -0.033790591779100806 0.018169933733310193 0 -0.033232249344615168 0.018061465343158764 0 -0.032990783922250876 0.01811752509359104 0 -0.033232249344615168 0.018061465343158764 0 -0.033110744136333248 0.018024809538891726 0 -0.0331094542807117 0.018012575441862286 0 -0.033232249344615168 0.018061465343158764 0 -0.0331094542807117 0.018012575441862286 0 -0.033088280787571651 0.018059271696314712 0 -0.033110744136333248 0.018024809538891726 0 -0.0331094542807117 0.018012575441862286 0 -0.033086059407579603 0.018022477837331519 0 -0.0331094542807117 0.018012575441862286 0 -0.033086059407579603 0.018022477837331519 0 -0.033084998542080114 0.018017626821409189 0 -0.033110744136333248 0.018024809538891726 0 -0.033086059407579603 0.018022477837331519 0 -0.033042769061945983 0.018035875509236167 0 -0.033019425994191685 0.017989394073377688 0 -0.033110744136333248 0.018024809538891726 0 -0.033042769061945983 0.018035875509236167 0 -0.032974340336105343 0.018049381803478197 0 -0.033019425994191685 0.017989394073377688 0 -0.033042769061945983 0.018035875509236167 0 -0.032974340336105343 0.018049381803478197 0 -0.0329972924034155 0.018035172882677961 0 -0.033042769061945983 0.018035875509236167 0 -0.0329972924034155 0.018035172882677961 0 -0.033042769061945983 0.018035875509236167 0 -0.033051437801868679 0.01803414378851232 0 -0.0329972924034155 0.018035172882677961 0 -0.033051437801868679 0.01803414378851232 0 -0.033017432477424231 0.018054118318859769 0 -0.033086059407579603 0.018022477837331519 0 -0.033042769061945983 0.018035875509236167 0 -0.033051437801868679 0.01803414378851232 0 -0.033051437801868679 0.01803414378851232 0 -0.033017432477424231 0.018054118318859769 0 -0.033048939779928274 0.018061826526521666 0 -0.033017432477424231 0.018054118318859769 0 -0.033048939779928274 0.018061826526521666 0 -0.033015245921647181 0.018068593916486155 0 -0.033051437801868679 0.01803414378851232 0 -0.033084998542080114 0.018017626821409189 0 -0.033048939779928274 0.018061826526521666 0 -0.035328284751976038 0.0086705719011130351 0 -0.035383752108162463 0.0093800369547619531 0 -0.034963061198650926 0.0092424196711121797 0 -0.034510948549923183 0.013602307414855609 0 -0.033791958476247462 0.013545861774588483 0 -0.033086059407579603 0.018022477837331519 0 -0.033051437801868679 0.01803414378851232 0 -0.033084998542080114 0.018017626821409189 0 -0.035328284751976038 0.0086705719011130351 0 -0.035758277874357029 0.0090936465145044325 0 -0.035383752108162463 0.0093800369547619531 0 -0.035758277874357029 0.0090936465145044325 0 -0.036011661581365088 0.0085206034082604045 0 -0.036359932704274046 0.0089199420200846424 0 -0.035328284751976038 0.0086705719011130351 0 -0.035758277874357029 0.0090936465145044325 0 -0.036011661581365088 0.0085206034082604045 0 -0.035328284751976038 0.0086705719011130351 0 -0.036011661581365088 0.0085206034082604045 0 -0.035677732716503097 0.0081200271144174462 0 -0.035706550621272287 0.011599160959908393 0 -0.035346053186904272 0.013924747930619879 0 -0.038496545928668198 0.010770021698968164 0 -0.039270074750493177 0.011719091925597086 0 -0.038299873685163639 0.011545310118440606 0 -0.039270074750493177 0.011719091925597086 0 -0.038485464969414324 0.012178709865326539 0 -0.038299873685163639 0.011545310118440606 0 -0.0331094542807117 0.018012575441862286 0 -0.033084998542080114 0.018017626821409189 0 -0.03306618917692155 0.018014629840672848 0 -0.034510948549923183 0.013602307414855609 0 -0.035346053186904272 0.013924747930619879 0 -0.033084998542080114 0.018017626821409189 0 -0.033056094793778017 0.018009403233686133 0 -0.03306618917692155 0.018014629840672848 0 -0.035346053186904272 0.013924747930619879 0 -0.035381595782209022 0.014499195348190365 0 -0.032961680902297931 0.018085853609105397 0 -0.033019794670470254 0.018062463704832232 0 -0.032990783922250876 0.01811752509359104 0 -0.033056094793778017 0.018009403233686133 0 -0.03306618917692155 0.018014629840672848 0 -0.033019794670470254 0.018062463704832232 0 -0.0331094542807117 0.018012575441862286 0 -0.03306618917692155 0.018014629840672848 0 -0.033019794670470254 0.018062463704832232 0 -0.0331094542807117 0.018012575441862286 0 -0.033019794670470254 0.018062463704832232 0 -0.033088280787571651 0.018059271696314712 0 -0.033232249344615168 0.018061465343158764 0 -0.033088280787571651 0.018059271696314712 0 -0.032990783922250876 0.01811752509359104 0 -0.033019794670470254 0.018062463704832232 0 -0.033088280787571651 0.018059271696314712 0 -0.032990783922250876 0.01811752509359104 0 -0.035911941069977603 0.015104886516751801 0 -0.035346053186904272 0.013924747930619879 0 -0.032961680902297931 0.018085853609105397 0 -0.032998563148822206 0.018024463791147052 0 -0.033019794670470254 0.018062463704832232 0 -0.038550967514256511 0.012927301420540742 0 -0.039270074750493177 0.011719091925597086 0 -0.038485464969414324 0.012178709865326539 0 -0.038550967514256511 0.012927301420540742 0 -0.038485464969414324 0.012178709865326539 0 -0.038263374312898571 0.012487638710397193 0 -0.03767527002714114 0.012284446114746611 0 -0.038060525617196951 0.012147431094626517 0 -0.037954392259113942 0.012604015400995906 0 -0.03767527002714114 0.012284446114746611 0 -0.037362798915709573 0.012234169805379854 0 -0.037637546355341271 0.011852359871087199 0 -0.03767527002714114 0.012284446114746611 0 -0.038060525617196951 0.012147431094626517 0 -0.037637546355341271 0.011852359871087199 0 -0.038485464969414324 0.012178709865326539 0 -0.038060525617196951 0.012147431094626517 0 -0.038299873685163639 0.011545310118440606 0 -0.038485464969414324 0.012178709865326539 0 -0.038060525617196951 0.012147431094626517 0 -0.038263374312898571 0.012487638710397193 0 -0.038550967514256511 0.012927301420540742 0 -0.038263374312898571 0.012487638710397193 0 -0.037954392259113942 0.012604015400995906 0 -0.037736371770279081 0.012827684368435602 0 -0.038550967514256511 0.012927301420540742 0 -0.037954392259113942 0.012604015400995906 0 -0.038060525617196951 0.012147431094626517 0 -0.038263374312898571 0.012487638710397193 0 -0.037954392259113942 0.012604015400995906 0 -0.037736371770279081 0.012827684368435602 0 -0.037954392259113942 0.012604015400995906 0 -0.037484329760474097 0.012605272429631777 0 -0.03767527002714114 0.012284446114746611 0 -0.037954392259113942 0.012604015400995906 0 -0.037484329760474097 0.012605272429631777 0 -0.037146738107236989 0.013036795073310917 0 -0.037365131408728748 0.012842398027045652 0 -0.037057446495285785 0.012414455727491468 0 -0.037365131408728748 0.012842398027045652 0 -0.037736371770279081 0.012827684368435602 0 -0.037484329760474097 0.012605272429631777 0 -0.037146738107236989 0.013036795073310917 0 -0.037057446495285785 0.012414455727491468 0 -0.036043789310998817 0.011906756111572266 0 -0.037365131408728748 0.012842398027045652 0 -0.037484329760474097 0.012605272429631777 0 -0.037057446495285785 0.012414455727491468 0 -0.037484329760474097 0.012605272429631777 0 -0.037057446495285785 0.012414455727491468 0 -0.037362798915709573 0.012234169805379854 0 -0.03767527002714114 0.012284446114746611 0 -0.037484329760474097 0.012605272429631777 0 -0.037362798915709573 0.012234169805379854 0 -0.037057446495285785 0.012414455727491468 0 -0.037362798915709573 0.012234169805379854 0 -0.036919170932819864 0.011845328446642593 0 -0.037362798915709573 0.012234169805379854 0 -0.036919170932819864 0.011845328446642593 0 -0.037637546355341271 0.011852359871087199 0 -0.036919170932819864 0.011845328446642593 0 -0.03760508017574532 0.011061805019705122 0 -0.036852586726358133 0.010554430448371132 0 -0.036919170932819864 0.011845328446642593 0 -0.03760508017574532 0.011061805019705122 0 -0.037637546355341271 0.011852359871087199 0 -0.038496545928668198 0.010770021698968164 0 -0.03760508017574532 0.011061805019705122 0 -0.038299873685163639 0.011545310118440606 0 -0.03760508017574532 0.011061805019705122 0 -0.037637546355341271 0.011852359871087199 0 -0.038299873685163639 0.011545310118440606 0 -0.038060525617196951 0.012147431094626517 0 -0.037637546355341271 0.011852359871087199 0 -0.038299873685163639 0.011545310118440606 0 -0.038496545928668198 0.010770021698968164 0 -0.03760508017574532 0.011061805019705122 0 -0.037635402938213373 0.0098654582939560302 0 -0.035706550621272287 0.011599160959908393 0 -0.035980771406717481 0.010632257351014026 0 -0.036359932704274046 0.0089199420200846424 0 -0.036760098496756807 0.0093464589970896576 0 -0.036131872224317775 0.0092746268194662928 0 -0.035758277874357029 0.0090936465145044325 0 -0.036359932704274046 0.0089199420200846424 0 -0.036131872224317775 0.0092746268194662928 0 -0.035980771406717481 0.010632257351014026 0 -0.036061007579093682 0.010360162791256919 0 -0.037635402938213373 0.0098654582939560302 0 -0.036822795776673793 0.0098254973003676915 0 -0.036760098496756807 0.0093464589970896576 0 -0.037635402938213373 0.0098654582939560302 0 -0.036822795776673793 0.0098254973003676915 0 -0.036852586726358133 0.010554430448371132 0 -0.03760508017574532 0.011061805019705122 0 -0.037635402938213373 0.0098654582939560302 0 -0.036852586726358133 0.010554430448371132 0 -0.036852586726358133 0.010554430448371132 0 -0.035971102577284225 0.010916594026598793 0 -0.036185485442805296 0.009928902916812506 0 -0.036822795776673793 0.0098254973003676915 0 -0.036852586726358133 0.010554430448371132 0 -0.036185485442805296 0.009928902916812506 0 -0.036822795776673793 0.0098254973003676915 0 -0.036185485442805296 0.009928902916812506 0 -0.036327102004494044 0.0091801937192476316 0 -0.036185485442805296 0.009928902916812506 0 -0.035000612269184966 0.0095088050483137215 0 -0.036327102004494044 0.0091801937192476316 0 -0.035001015760603084 0.0095069912139227001 0 -0.035962003123504997 0.0088927131412979508 0 -0.035971102577284225 0.010916594026598793 0 -0.036185485442805296 0.009928902916812506 0 -0.035000612269184966 0.0095088050483137215 0 -0.035971102577284225 0.010916594026598793 0 -0.035000612269184966 0.0095088050483137215 0 -0.034999481553588362 0.010883010305440761 0 -0.035971102577284225 0.010916594026598793 0 -0.034999481553588362 0.010883010305440761 0 -0.036043789310998817 0.011906756111572266 0 -0.035000013143869156 0.010883958701969993 0 -0.03622846240429077 0.012170654736329495 0 -0.034999928033394613 0.012386007562240238 0 -0.035000963832426603 0.010884857898437171 0 -0.036007319683877048 0.011854234876788465 0 -0.036919170932819864 0.011845328446642593 0 -0.035971102577284225 0.010916594026598793 0 -0.036043789310998817 0.011906756111572266 0 -0.036919170932819864 0.011845328446642593 0 -0.036852586726358133 0.010554430448371132 0 -0.035971102577284225 0.010916594026598793 0 -0.036551045340779784 0.012371786030528895 0 -0.036007319683877048 0.011854234876788465 0 -0.037057446495285785 0.012414455727491468 0 -0.036919170932819864 0.011845328446642593 0 -0.036043789310998817 0.011906756111572266 0 -0.036305296689798081 0.013436518336615086 0 -0.037146738107236989 0.013036795073310917 0 -0.03622846240429077 0.012170654736329495 0 -0.036305296689798081 0.013436518336615086 0 -0.03622846240429077 0.012170654736329495 0 -0.035684046972605236 0.012943702534211853 0 -0.035000017971318596 0.013887731641115723 0 -0.035684046972605236 0.012943702534211853 0 -0.034999928033394613 0.012386007562240238 0 -0.03622846240429077 0.012170654736329495 0 -0.035684046972605236 0.012943702534211853 0 -0.034999928033394613 0.012386007562240238 0 -0.035998709385779919 0.0052565767610639426 0 -0.035000063935581797 0.0049735159609507005 0 -0.036339661349389783 0.0043874232659656164 0 -0.035001384739581275 0.0049726427808850027 0 -0.036289195834835988 0.004311908627679586 0 -0.035998709385779919 0.0052565767610639426 0 -0.036941693767063459 0.004342193711859876 0 -0.036339661349389783 0.0043874232659656164 0 -0.03599579466808716 0.0053663553068602253 0 -0.037003578671123562 0.0052060785168882677 0 -0.036941693767063459 0.004342193711859876 0 -0.03599579466808716 0.0053663553068602253 0 -0.037003578671123562 0.0052060785168882677 0 -0.036665733536386226 0.0058777576151901748 0 -0.035812536683733583 0.0055165128633732439 0 -0.036240359938797678 0.0050522961330053901 0 -0.03599579466808716 0.0053663553068602253 0 -0.036665733536386226 0.0058777576151901748 0 -0.036241419595346727 0.0066471758724174048 0 -0.036665733536386226 0.0058777576151901748 0 -0.036241419595346727 0.0066471758724174048 0 -0.03750028962994563 0.0069809416191320582 0 -0.03599579466808716 0.0053663553068602253 0 -0.034999996564608352 0.00640203262531469 0 -0.036241419595346727 0.0066471758724174048 0 -0.035812536683733583 0.0055165128633732439 0 -0.035000950276523835 0.0064008265203852671 0 -0.035998709385779919 0.0052565767610639426 0 -0.035000063935581797 0.0049735159609507005 0 -0.034999955754541491 0.0064016929235754137 0 -0.034999959309729663 0.0079545202540287161 0 -0.036294247100823761 0.0082236083141141256 0 -0.036241419595346727 0.0066471758724174048 0 -0.034999996564608352 0.00640203262531469 0 -0.034999959309729663 0.0079545202540287161 0 -0.036241419595346727 0.0066471758724174048 0 -0.035000007983137217 0.0095073811512150497 0 -0.034999959309729663 0.0079545202540287161 0 -0.036294247100823761 0.0082236083141141256 0 -0.036294247100823761 0.0082236083141141256 0 -0.036241419595346727 0.0066471758724174048 0 -0.03750028962994563 0.0069809416191320582 0 -0.035962003123504997 0.0088927131412979508 0 -0.036659591192967043 0.0084352665176258331 0 -0.036818954684654792 0.0097757225642374386 0 -0.036760098496756807 0.0093464589970896576 0 -0.036253252708116697 0.0096142377572052129 0 -0.036327102004494044 0.0091801937192476316 0 -0.036818954684654792 0.0097757225642374386 0 -0.036760098496756807 0.0093464589970896576 0 -0.036822795776673793 0.0098254973003676915 0 -0.036327102004494044 0.0091801937192476316 0 -0.036760098496756807 0.0093464589970896576 0 -0.036760098496756807 0.0093464589970896576 0 -0.036131872224317775 0.0092746268194662928 0 -0.036253252708116697 0.0096142377572052129 0 -0.036818954684654792 0.0097757225642374386 0 -0.036253252708116697 0.0096142377572052129 0 -0.036115631897941695 0.010939731735914433 0 -0.036659591192967043 0.0084352665176258331 0 -0.03690661030836688 0.0081717701747399934 0 -0.036665733536386226 0.0058777576151901748 0 -0.03750028962994563 0.0069809416191320582 0 -0.037487378238118006 0.0056989310414409704 0 -0.03750028962994563 0.0069809416191320582 0 -0.038619629227936506 0.0058370971873376587 0 -0.037487378238118006 0.0056989310414409704 0 -0.037003578671123562 0.0052060785168882677 0 -0.036665733536386226 0.0058777576151901748 0 -0.037487378238118006 0.0056989310414409704 0 -0.037003578671123562 0.0052060785168882677 0 -0.037487378238118006 0.0056989310414409704 0 -0.037956583333382608 0.0047912458394055576 0 -0.037003578671123562 0.0052060785168882677 0 -0.037956583333382608 0.0047912458394055576 0 -0.036941693767063459 0.004342193711859876 0 -0.038619629227936506 0.0058370971873376587 0 -0.037487378238118006 0.0056989310414409704 0 -0.037956583333382608 0.0047912458394055576 0 -0.038619629227936506 0.0058370971873376587 0 -0.037956583333382608 0.0047912458394055576 0 -0.039708592976492381 0.0047788713563167743 0 -0.036115631897941695 0.010939731735914433 0 -0.035096387673375196 0.01204740413929698 0 -0.034736219624359604 0.010919437363359779 0 -0.03690661030836688 0.0081717701747399934 0 -0.036721258689814969 0.0079290429187566496 0 -0.035096387673375196 0.01204740413929698 0 -0.034736219624359604 0.010919437363359779 0 -0.034209875963684307 0.011731842365446185 0 -0.036115631897941695 0.010939731735914433 0 -0.034736219624359604 0.010919437363359779 0 -0.035190971305281489 0.0098060367318456958 0 -0.035693685467582149 0.010804960212834931 0 -0.035316726223647919 0.011057837878597772 0 -0.036253252708116697 0.0096142377572052129 0 -0.036115631897941695 0.010939731735914433 0 -0.035190971305281489 0.0098060367318456958 0 -0.036131872224317775 0.0092746268194662928 0 -0.036253252708116697 0.0096142377572052129 0 -0.035726711244457567 0.0097074743131462735 0 -0.035758277874357029 0.0090936465145044325 0 -0.036131872224317775 0.0092746268194662928 0 -0.035726711244457567 0.0097074743131462735 0 -0.035758277874357029 0.0090936465145044325 0 -0.035726711244457567 0.0097074743131462735 0 -0.035383752108162463 0.0093800369547619531 0 -0.035316726223647919 0.011057837878597772 0 -0.034440175926729155 0.011850802784744876 0 -0.035726711244457567 0.0097074743131462735 0 -0.035383752108162463 0.0093800369547619531 0 -0.035180730124747546 0.0097951828299974193 0 -0.034736219624359604 0.010919437363359779 0 -0.035190971305281489 0.0098060367318456958 0 -0.034091957343600231 0.0099991065920772559 0 -0.035180730124747546 0.0097951828299974193 0 -0.034879453416695239 0.0096368879585237762 0 -0.034594285293394388 0.0098363843702181895 0 -0.034091957343600231 0.0099991065920772559 0 -0.032849351778305398 0.01008274366089798 0 -0.03364752199888818 0.011058293938504712 0 -0.034440175926729155 0.011850802784744876 0 -0.032916765198536709 0.013471664623900211 0 -0.035383752108162463 0.0093800369547619531 0 -0.035180730124747546 0.0097951828299974193 0 -0.034879453416695239 0.0096368879585237762 0 -0.035383752108162463 0.0093800369547619531 0 -0.034879453416695239 0.0096368879585237762 0 -0.034963061198650926 0.0092424196711121797 0 -0.033048939779928274 0.018061826526521666 0 -0.033015245921647181 0.018068593916486155 0 -0.03301708253713332 0.018096199739945439 0 -0.034879453416695239 0.0096368879585237762 0 -0.034963061198650926 0.0092424196711121797 0 -0.034594285293394388 0.0098363843702181895 0 -0.033791958476247462 0.013545861774588483 0 -0.032916765198536709 0.013471664623900211 0 -0.033015245921647181 0.018068593916486155 0 -0.03301708253713332 0.018096199739945439 0 -0.032977578337215915 0.01806564169337694 0 -0.031424487651813347 0.016340940673402835 0 -0.031464074287199509 0.016277736613591057 0 -0.031929410489957358 0.016604887022974309 0 -0.032918210025281822 0.010184089678051903 0 -0.032860678006274339 0.010268847803049897 0 -0.032944965350333415 0.010685381827632488 0 -0.032916765198536709 0.013471664623900211 0 -0.032702557859638846 0.013677416053224449 0 -0.032860678006274339 0.010268847803049897 0 -0.032944965350333415 0.010685381827632488 0 -0.032122401057548759 0.011528400592350814 0 -0.032916765198536709 0.013471664623900211 0 -0.032613295631084227 0.012532346307469527 0 -0.032918210025281822 0.010184089678051903 0 -0.032944965350333415 0.010685381827632488 0 -0.03364752199888818 0.011058293938504712 0 -0.032939633743150613 0.011197925506942985 0 -0.032983449692363685 0.011617038512902567 0 -0.032122401057548759 0.011528400592350814 0 -0.032944965350333415 0.010685381827632488 0 -0.032939633743150613 0.011197925506942985 0 -0.032122401057548759 0.011528400592350814 0 -0.03364752199888818 0.011058293938504712 0 -0.033589505610363203 0.011670188611729127 0 -0.032983449692363685 0.011617038512902567 0 -0.032939633743150613 0.011197925506942985 0 -0.03364752199888818 0.011058293938504712 0 -0.032983449692363685 0.011617038512902567 0 -0.032944965350333415 0.010685381827632488 0 -0.032939633743150613 0.011197925506942985 0 -0.03364752199888818 0.011058293938504712 0 -0.034736219624359604 0.010919437363359779 0 -0.034091957343600231 0.0099991065920772559 0 -0.03364752199888818 0.011058293938504712 0 -0.034736219624359604 0.010919437363359779 0 -0.03364752199888818 0.011058293938504712 0 -0.034209875963684307 0.011731842365446185 0 -0.03364752199888818 0.011058293938504712 0 -0.033589505610363203 0.011670188611729127 0 -0.034209875963684307 0.011731842365446185 0 -0.033589505610363203 0.011670188611729127 0 -0.034209875963684307 0.011731842365446185 0 -0.0335298331316242 0.012240311577987006 0 -0.035343174744320985 0.0099802792890700699 0 -0.03557932603167821 0.0096317516496182594 0 -0.032983449692363685 0.011617038512902567 0 -0.03350626914183702 0.012542982797631243 0 -0.032424923402915286 0.012588617522103541 0 -0.033589505610363203 0.011670188611729127 0 -0.032983449692363685 0.011617038512902567 0 -0.0335298331316242 0.012240311577987006 0 -0.032629989902682399 0.013090672411482377 0 -0.033112621675894176 0.013343088305834121 0 -0.032240869035762461 0.013433761198193147 0 -0.032629989902682399 0.013090672411482377 0 -0.03350626914183702 0.012542982797631243 0 -0.033112621675894176 0.013343088305834121 0 -0.032629989902682399 0.013090672411482377 0 -0.03350626914183702 0.012542982797631243 0 -0.032424923402915286 0.012588617522103541 0 -0.034209875963684307 0.011731842365446185 0 -0.0335298331316242 0.012240311577987006 0 -0.034070088273875858 0.012997301204541685 0 -0.03350626914183702 0.012542982797631243 0 -0.033987719755707253 0.013287405814162599 0 -0.033112621675894176 0.013343088305834121 0 -0.03557932603167821 0.0096317516496182594 0 -0.035796967690972036 0.007693680355860928 0 -0.035796967690972036 0.007693680355860928 0 -0.03365483579947208 0.0082220289780807893 0 -0.035743735152480131 0.0045039785453379767 0 -0.035095154576306575 0.0050884758395580787 0 -0.035675511190808439 0.0050936620771251297 0 -0.033112621675894176 0.013343088305834121 0 -0.032955002752240108 0.014176791171656799 0 -0.032240869035762461 0.013433761198193147 0 -0.033987719755707253 0.013287405814162599 0 -0.033112621675894176 0.013343088305834121 0 -0.032955002752240108 0.014176791171656799 0 -0.035095154576306575 0.0050884758395580787 0 -0.034962387333613981 0.0056005003030478121 0 -0.035487015074674173 0.0056347721550910959 0 -0.034724252029331333 0.0060626399501735734 0 -0.034962387333613981 0.0056005003030478121 0 -0.035487015074674173 0.0056347721550910959 0 -0.034098601826828792 0.0019758699381403535 0 -0.037382955129387246 0.0025584151524288843 0 -0.043263341077062992 -8.4055704594133493e-05 0 -0.042000419693058594 -0.00037994036247170673 0 -0.041763696150217654 0.00078218469690562143 0 -0.041078619556880233 -4.6108574291435146e-05 0 -0.041763696150217654 0.00078218469690562143 0 -0.040536054977194043 0.00060322844531433871 0 -0.042000419693058594 -0.00037994036247170673 0 -0.041078619556880233 -4.6108574291435146e-05 0 -0.041763696150217654 0.00078218469690562143 0 -0.035487015074674173 0.0056347721550910959 0 -0.035675511190808439 0.0050936620771251297 0 -0.036242289986575207 0.0052077660358135136 0 -0.035095154576306575 0.0050884758395580787 0 -0.035487015074674173 0.0056347721550910959 0 -0.035675511190808439 0.0050936620771251297 0 -0.037382955129387246 0.0025584151524288843 0 -0.037769712385024204 0.0039146228677247423 0 -0.041763696150217654 0.00078218469690562143 0 -0.040289392048500364 0.0016337186193857056 0 -0.040536054977194043 0.00060322844531433871 0 -0.040289392048500364 0.0016337186193857056 0 -0.040536054977194043 0.00060322844531433871 0 -0.039683792021324445 0.00076007232278963008 0 -0.039879159297901721 -0.00052192472843202021 0 -0.040536054977194043 0.00060322844531433871 0 -0.039683792021324445 0.00076007232278963008 0 -0.037769712385024204 0.0039146228677247423 0 -0.038370126448115077 0.0033385464009493822 0 -0.040346352980145758 0.0017061915670344037 0 -0.039033606189786837 0.0024781654908603099 0 -0.038946371244482456 0.0014529684591321726 0 -0.040346352980145758 0.0017061915670344037 0 -0.039683792021324445 0.00076007232278963008 0 -0.038946371244482456 0.0014529684591321726 0 -0.037769712385024204 0.0039146228677247423 0 -0.037844357318210342 0.0033662905168628104 0 -0.039908794665719054 0.0025122306037470231 0 -0.039666053241615026 0.0035997535514638115 0 -0.038761705525191002 0.0031525708509277119 0 -0.039666053241615026 0.0035997535514638115 0 -0.038756897070904461 0.0040108619866164397 0 -0.038761705525191002 0.0031525708509277119 0 -0.035796967690972036 0.007693680355860928 0 -0.037769712385024204 0.0039146228677247423 0 -0.035743735152480131 0.0045039785453379767 0 -0.035675511190808439 0.0050936620771251297 0 -0.036242289986575207 0.0052077660358135136 0 -0.040781540452850665 0.0037679898860477012 0 -0.039908794665719054 0.0025122306037470231 0 -0.039666053241615026 0.0035997535514638115 0 -0.035096387673375196 0.01204740413929698 0 -0.034209875963684307 0.011731842365446185 0 -0.034070088273875858 0.012997301204541685 0 -0.036721258689814969 0.0079290429187566496 0 -0.035796967690972036 0.007693680355860928 0 -0.039708592976492381 0.0047788713563167743 0 -0.040781540452850665 0.0037679898860477012 0 -0.039666053241615026 0.0035997535514638115 0 -0.039708592976492381 0.0047788713563167743 0 -0.039666053241615026 0.0035997535514638115 0 -0.038756897070904461 0.0040108619866164397 0 -0.037956583333382608 0.0047912458394055576 0 -0.039708592976492381 0.0047788713563167743 0 -0.038756897070904461 0.0040108619866164397 0 -0.037956583333382608 0.0047912458394055576 0 -0.038756897070904461 0.0040108619866164397 0 -0.03758112985841533 0.0037803440321199119 0 -0.037956583333382608 0.0047912458394055576 0 -0.03758112985841533 0.0037803440321199119 0 -0.036941693767063459 0.004342193711859876 0 -0.037727970062668086 0.0032814124319501228 0 -0.037889987997022617 0.0016619431134222418 0 -0.036502548429003287 0.0022300787506860475 0 -0.037507318183983965 0.0037023192453844765 0 -0.038370126448115077 0.0033385464009493822 0 -0.038756897070904461 0.0040108619866164397 0 -0.03758112985841533 0.0037803440321199119 0 -0.038761705525191002 0.0031525708509277119 0 -0.037727970062668086 0.0032814124319501228 0 -0.039033606189786837 0.0024781654908603099 0 -0.037889987997022617 0.0016619431134222418 0 -0.039033606189786837 0.0024781654908603099 0 -0.038946371244482456 0.0014529684591321726 0 -0.037889987997022617 0.0016619431134222418 0 -0.038342751563271056 1.5868045346054187e-05 0 -0.039683792021324445 0.00076007232278963008 0 -0.038946371244482456 0.0014529684591321726 0 -0.038342751563271056 1.5868045346054187e-05 0 -0.038946371244482456 0.0014529684591321726 0 -0.037889987997022617 0.0016619431134222418 0 -0.038340151344499245 -5.464165206217721e-05 0 -0.036931964675704004 0.00042771079992297295 0 -0.038342751563271056 1.5868045346054187e-05 0 -0.037889987997022617 0.0016619431134222418 0 -0.036757362700625761 0.00054434760128592951 0 -0.037889987997022617 0.0016619431134222418 0 -0.036757362700625761 0.00054434760128592951 0 -0.036502548429003287 0.0022300787506860475 0 -0.036757362700625761 0.00054434760128592951 0 -0.035123925795267352 0.0010562078823875185 0 -0.036502548429003287 0.0022300787506860475 0 -0.035000002031682548 -0.0010652541993444286 0 -0.035762803031065771 0.00015647921964054024 0 -0.03499998901304293 0.00094760882326062803 0 -0.036787592172041583 0.00043818049615052787 0 -0.035762803031065771 0.00015647921964054024 0 -0.035123925795267352 0.0010562078823875185 0 -0.036931964675704004 0.00042771079992297295 0 -0.036136154821240454 0.00069922271972421165 0 -0.035762803031065771 0.00015647921964054024 0 -0.035123925795267352 0.0010562078823875185 0 -0.03499998901304293 0.00094760882326062803 0 -0.035123925795267352 0.0010562078823875185 0 -0.03499998901304293 0.00094760882326062803 0 -0.034999973676156301 0.0029603986671920511 0 -0.035123925795267352 0.0010562078823875185 0 -0.034999973676156301 0.0029603986671920511 0 -0.036502548429003287 0.0022300787506860475 0 -0.034999973676156301 0.0029603986671920511 0 -0.036502548429003287 0.0022300787506860475 0 -0.03638479914556509 0.0041190496382834882 0 -0.037727970062668086 0.0032814124319501228 0 -0.036502548429003287 0.0022300787506860475 0 -0.03638479914556509 0.0041190496382834882 0 -0.03758112985841533 0.0037803440321199119 0 -0.036941693767063459 0.004342193711859876 0 -0.036339661349389783 0.0043874232659656164 0 -0.037507318183983965 0.0037023192453844765 0 -0.036289195834835988 0.004311908627679586 0 -0.034999986468805096 0.0049732114671764225 0 -0.034999973676156301 0.0029603986671920511 0 -0.03638479914556509 0.0041190496382834882 0 -0.030923909607806863 0.014041958736233163 0 -0.030417089378325921 0.013947191709918681 0 -0.030391337479398074 0.014656986686026861 0 -0.030923909607806863 0.014041958736233163 0 -0.031309699156100823 0.014652909663100191 0 -0.030391337479398074 0.014656986686026861 0 -0.030417089378325921 0.013947191709918681 0 -0.030391337479398074 0.014656986686026861 0 -0.029895741718875379 0.013912691319615146 0 -0.032333650272414347 0.0152636764636033 0 -0.031765095389901514 0.014218985556691873 0 -0.030417089378325921 0.013947191709918681 0 -0.029895741718875379 0.013912691319615146 0 -0.030169016820690425 0.013397192072477077 0 -0.030417089378325921 0.013947191709918681 0 -0.030614403854389016 0.013745270046537411 0 -0.030169016820690425 0.013397192072477077 0 -0.030614403854389016 0.013745270046537411 0 -0.030948092159695597 0.013591772547391454 0 -0.030169016820690425 0.013397192072477077 0 -0.030923909607806863 0.014041958736233163 0 -0.030417089378325921 0.013947191709918681 0 -0.030614403854389016 0.013745270046537411 0 -0.030923909607806863 0.014041958736233163 0 -0.030614403854389016 0.013745270046537411 0 -0.030948092159695597 0.013591772547391454 0 -0.030725199067052126 0.013308846390871727 0 -0.031096923105204458 0.013437028455481446 0 -0.030923909607806863 0.014041958736233163 0 -0.030948092159695597 0.013591772547391454 0 -0.03162400660495554 0.013704790104607036 0 -0.03162400660495554 0.013704790104607036 0 -0.031309699156100823 0.014652909663100191 0 -0.032116469839321725 0.014719447646062041 0 -0.030923909607806863 0.014041958736233163 0 -0.03162400660495554 0.013704790104607036 0 -0.031309699156100823 0.014652909663100191 0 -0.031309699156100823 0.014652909663100191 0 -0.031791585771213604 0.015394133633787071 0 -0.030984593050482939 0.015497335532081569 0 -0.031309699156100823 0.014652909663100191 0 -0.032116469839321725 0.014719447646062041 0 -0.031791585771213604 0.015394133633787071 0 -0.032032256431970142 0.016386266664800704 0 -0.031791585771213604 0.015394133633787071 0 -0.032374559414351863 0.0155679252051662 0 -0.032116469839321725 0.014719447646062041 0 -0.031791585771213604 0.015394133633787071 0 -0.032374559414351863 0.0155679252051662 0 -0.032032256431970142 0.016386266664800704 0 -0.031791585771213604 0.015394133633787071 0 -0.030984593050482939 0.015497335532081569 0 -0.034466662233738801 0.017716914458634325 0 -0.034723271980122754 0.017251606256411475 0 -0.034273969005806204 0.01724428049967475 0 -0.034723271980122754 0.017251606256411475 0 -0.034554086327981896 0.016156513446982095 0 -0.034273969005806204 0.01724428049967475 0 -0.032749694736964194 0.016123679717223938 0 -0.032333650272414347 0.0152636764636033 0 -0.031309699156100823 0.014652909663100191 0 -0.030984593050482939 0.015497335532081569 0 -0.030391337479398074 0.014656986686026861 0 -0.034554086327981896 0.016156513446982095 0 -0.034273969005806204 0.01724428049967475 0 -0.033727728428852764 0.016499355886147062 0 -0.034273969005806204 0.01724428049967475 0 -0.033680833272335696 0.017267505963910908 0 -0.033727728428852764 0.016499355886147062 0 -0.033680833272335696 0.017267505963910908 0 -0.033727728428852764 0.016499355886147062 0 -0.032828085673616461 0.016881159955676874 0 -0.032973205052179974 0.016011035822763042 0 -0.033727728428852764 0.016499355886147062 0 -0.032828085673616461 0.016881159955676874 0 -0.032973205052179974 0.016011035822763042 0 -0.033727728428852764 0.016499355886147062 0 -0.033427715211679608 0.015483497718348607 0 -0.034554086327981896 0.016156513446982095 0 -0.033727728428852764 0.016499355886147062 0 -0.033427715211679608 0.015483497718348607 0 -0.032916765198536709 0.013471664623900211 0 -0.033404278111559604 0.016280838926693332 0 -0.031424487651813347 0.016340940673402835 0 -0.032092185983047715 0.01715403684549047 0 -0.031929410489957358 0.016604887022974309 0 -0.032092185983047715 0.01715403684549047 0 -0.032828085673616461 0.016881159955676874 0 -0.031929410489957358 0.016604887022974309 0 -0.032828085673616461 0.016881159955676874 0 -0.032280284124006277 0.016174686345005056 0 -0.031929410489957358 0.016604887022974309 0 -0.032973205052179974 0.016011035822763042 0 -0.032828085673616461 0.016881159955676874 0 -0.032280284124006277 0.016174686345005056 0 -0.032266215786017662 0.014900897426228389 0 -0.032039991626312589 0.014667632425410285 0 -0.032702557859638846 0.013677416053224449 0 -0.032039991626312589 0.014667632425410285 0 -0.031464074287199509 0.016277736613591057 0 -0.032280284124006277 0.016174686345005056 0 -0.031929410489957358 0.016604887022974309 0 -0.029628057763015636 0.016438951876636621 0 -0.031283231419871486 0.016239653581045194 0 -0.030572957124787963 0.014860421693885212 0 -0.032702557859638846 0.013677416053224449 0 -0.032128385469663595 0.013512068341346632 0 -0.032973205052179974 0.016011035822763042 0 -0.031283231419871486 0.016239653581045194 0 -0.032125506862873791 0.015288028470722135 0 -0.030572957124787963 0.014860421693885212 0 -0.032125506862873791 0.015288028470722135 0 -0.031618072023339078 0.014358666733839285 0 -0.031283231419871486 0.016239653581045194 0 -0.030572957124787963 0.014860421693885212 0 -0.032125506862873791 0.015288028470722135 0 -0.030572957124787963 0.014860421693885212 0 -0.031618072023339078 0.014358666733839285 0 -0.031640757474114045 0.013127136907911004 0 -0.032125506862873791 0.015288028470722135 0 -0.031618072023339078 0.014358666733839285 0 -0.032617895328808301 0.014473750254366287 0 -0.031955751273420152 0.013749311359610362 0 -0.031618072023339078 0.014358666733839285 0 -0.032617895328808301 0.014473750254366287 0 -0.031955751273420152 0.013749311359610362 0 -0.031618072023339078 0.014358666733839285 0 -0.031640757474114045 0.013127136907911004 0 -0.032128385469663595 0.013512068341346632 0 -0.032037016820749095 0.013380869906713168 0 -0.032983449692363685 0.011617038512902567 0 -0.032122401057548759 0.011528400592350814 0 -0.032424923402915286 0.012588617522103541 0 -0.032122401057548759 0.011528400592350814 0 -0.032424923402915286 0.012588617522103541 0 -0.031640757474114045 0.013127136907911004 0 -0.034554086327981896 0.016156513446982095 0 -0.033427715211679608 0.015483497718348607 0 -0.03403593763793545 0.014708664121624736 0 -0.032973205052179974 0.016011035822763042 0 -0.032125506862873791 0.015288028470722135 0 -0.033427715211679608 0.015483497718348607 0 -0.032125506862873791 0.015288028470722135 0 -0.033427715211679608 0.015483497718348607 0 -0.032617895328808301 0.014473750254366287 0 -0.032617895328808301 0.014473750254366287 0 -0.03403593763793545 0.014708664121624736 0 -0.033002384827738297 0.013036353276747398 0 -0.031955751273420152 0.013749311359610362 0 -0.032617895328808301 0.014473750254366287 0 -0.032331718181904251 0.013575405081067617 0 -0.031765095389901514 0.014218985556691873 0 -0.030950800083167609 0.012924079761749637 0 -0.033427715211679608 0.015483497718348607 0 -0.032617895328808301 0.014473750254366287 0 -0.03403593763793545 0.014708664121624736 0 -0.030950800083167609 0.012924079761749637 0 -0.030293021066634236 0.013067215662007003 0 -0.028676035454641521 0.01291917216524314 0 -0.029193586550670253 0.012638649644387942 0 -0.029531864899867692 0.013138736155932484 0 -0.029895741718875379 0.013912691319615146 0 -0.029401770673548298 0.013210306056249302 0 -0.030169016820690425 0.013397192072477077 0 -0.030950800083167609 0.012924079761749637 0 -0.031233377933081199 0.012642207224409192 0 -0.032617895328808301 0.014473750254366287 0 -0.032331718181904251 0.013575405081067617 0 -0.033002384827738297 0.013036353276747398 0 -0.032331718181904251 0.013575405081067617 0 -0.033002384827738297 0.013036353276747398 0 -0.031874702181650665 0.013127636731815905 0 -0.03076814610669399 0.012745815001432523 0 -0.030884834693093135 0.012906682524821012 0 -0.031047024415864207 0.012812207833813767 0 -0.028676035454641521 0.01291917216524314 0 -0.028371555659751101 0.012494636792894127 0 -0.029193586550670253 0.012638649644387942 0 -0.030925987526956952 0.012274268008658945 0 -0.030042755987851638 0.012247669995349533 0 -0.029151838313955864 0.011977381720496007 0 -0.029546568574671458 0.011750476826469687 0 -0.029231825722882247 0.011663305269707503 0 -0.030950800083167609 0.012924079761749637 0 -0.030925987526956952 0.012274268008658945 0 -0.028371555659751101 0.012494636792894127 0 -0.029193586550670253 0.012638649644387942 0 -0.029019787080593773 0.012110358408418112 0 -0.029193586550670253 0.012638649644387942 0 -0.029019787080593773 0.012110358408418112 0 -0.029530957662232165 0.012266050153434379 0 -0.032424923402915286 0.012588617522103541 0 -0.032013139585688619 0.013056379900373808 0 -0.031640757474114045 0.013127136907911004 0 -0.032629989902682399 0.013090672411482377 0 -0.032013139585688619 0.013056379900373808 0 -0.032240869035762461 0.013433761198193147 0 -0.032629989902682399 0.013090672411482377 0 -0.032424923402915286 0.012588617522103541 0 -0.032013139585688619 0.013056379900373808 0 -0.032013139585688619 0.013056379900373808 0 -0.031711435554430054 0.013057985762751587 0 -0.032240869035762461 0.013433761198193147 0 -0.033002384827738297 0.013036353276747398 0 -0.031755259995884855 0.012916952364613238 0 -0.031874702181650665 0.013127636731815905 0 -0.032013139585688619 0.013056379900373808 0 -0.031792367528441418 0.013076566865309875 0 -0.031711435554430054 0.013057985762751587 0 -0.031792367528441418 0.013076566865309875 0 -0.031711435554430054 0.013057985762751587 0 -0.031874702181650665 0.013127636731815905 0 -0.031711435554430054 0.013057985762751587 0 -0.031755259995884855 0.012916952364613238 0 -0.031874702181650665 0.013127636731815905 0 -0.031237422670405374 0.012641353068130787 0 -0.031233377933081199 0.012642207224409192 0 -0.032013139585688619 0.013056379900373808 0 -0.031792367528441418 0.013076566865309875 0 -0.031640757474114045 0.013127136907911004 0 -0.031792367528441418 0.013076566865309875 0 -0.031640757474114045 0.013127136907911004 0 -0.031874702181650665 0.013127636731815905 0 -0.031955751273420152 0.013749311359610362 0 -0.031640757474114045 0.013127136907911004 0 -0.031874702181650665 0.013127636731815905 0 -0.031955751273420152 0.013749311359610362 0 -0.032331718181904251 0.013575405081067617 0 -0.031874702181650665 0.013127636731815905 0 -0.031711435554430054 0.013057985762751587 0 -0.031632618717829554 0.013090685878196295 0 -0.032240869035762461 0.013433761198193147 0 -0.030925987526956952 0.012274268008658945 0 -0.031233377933081199 0.012642207224409192 0 -0.030927230628620631 0.013570733096960708 0 -0.03148050375562543 0.013249318907178231 0 -0.031430051184807364 0.013611838212316499 0 -0.030927230628620631 0.013570733096960708 0 -0.031430051184807364 0.013611838212316499 0 -0.03156971984721358 0.013977745551814191 0 -0.030927230628620631 0.013570733096960708 0 -0.03156971984721358 0.013977745551814191 0 -0.031445196120454919 0.014285508814728894 0 -0.030925987526956952 0.012274268008658945 0 -0.031596854353061754 0.010195597751272304 0 -0.031430051184807364 0.013611838212316499 0 -0.03156971984721358 0.013977745551814191 0 -0.031742793517313829 0.01364947198593987 0 -0.03148050375562543 0.013249318907178231 0 -0.031430051184807364 0.013611838212316499 0 -0.031742793517313829 0.01364947198593987 0 -0.032955002752240108 0.014176791171656799 0 -0.032118564230501669 0.013922467146833454 0 -0.032240869035762461 0.013433761198193147 0 -0.03148050375562543 0.013249318907178231 0 -0.031742793517313829 0.01364947198593987 0 -0.032240869035762461 0.013433761198193147 0 -0.031233377933081199 0.012642207224409192 0 -0.031553548013595056 0.012773044365349777 0 -0.031742793517313829 0.01364947198593987 0 -0.032118564230501669 0.013922467146833454 0 -0.032240869035762461 0.013433761198193147 0 -0.03156971984721358 0.013977745551814191 0 -0.031742793517313829 0.01364947198593987 0 -0.032118564230501669 0.013922467146833454 0 -0.03365483579947208 0.0082220289780807893 0 -0.032877686125019977 0.0063417507571240503 0 -0.032955002752240108 0.014176791171656799 0 -0.032108200520765545 0.014380733502040844 0 -0.031975054055253957 0.015023730171813634 0 -0.032955002752240108 0.014176791171656799 0 -0.032118564230501669 0.013922467146833454 0 -0.032108200520765545 0.014380733502040844 0 -0.035095154576306575 0.0050884758395580787 0 -0.034962387333613981 0.0056005003030478121 0 -0.034441768403998978 0.0056758676518522868 0 -0.03156971984721358 0.013977745551814191 0 -0.032118564230501669 0.013922467146833454 0 -0.032108200520765545 0.014380733502040844 0 -0.032108200520765545 0.014380733502040844 0 -0.031444300614043533 0.014293075785285721 0 -0.031975054055253957 0.015023730171813634 0 -0.031596854353061754 0.010195597751272304 0 -0.030761926922806711 0.0089355726927981584 0 -0.028908654704779619 0.01164023702805019 0 -0.029059796399147728 0.011244058410927786 0 -0.029231825722882247 0.011663305269707503 0 -0.031596854353061754 0.010195597751272304 0 -0.032877686125019977 0.0063417507571240503 0 -0.03156971984721358 0.013977745551814191 0 -0.032108200520765545 0.014380733502040844 0 -0.031444300614043533 0.014293075785285721 0 -0.031518180376083157 0.0104666612873796 0 -0.031596854353061754 0.010195597751272304 0 -0.030683091187640437 0.0064997502338538246 0 -0.032877686125019977 0.0063417507571240503 0 -0.031191613710206449 0.0071883313350247181 0 -0.031173668341408303 0.0073126162298969817 0 -0.031046857257370285 0.0073287027101502358 0 -0.031126627881901146 0.0074431976511888358 0 -0.031173668341408303 0.0073126162298969817 0 -0.031046857257370285 0.0073287027101502358 0 -0.034724252029331333 0.0060626399501735734 0 -0.034962387333613981 0.0056005003030478121 0 -0.034441768403998978 0.0056758676518522868 0 -0.031967589279732082 0.003682087552659172 0 -0.032815529941247791 0.003367801329072577 0 -0.032240897439439156 0.0025774371070741236 0 -0.034098601826828792 0.0019758699381403535 0 -0.032877686125019977 0.0063417507571240503 0 -0.030042755987851638 0.012247669995349533 0 -0.030061445730490032 0.011978880378224198 0 -0.029546568574671458 0.011750476826469687 0 -0.029684735166663263 0.011415065700062883 0 -0.029951292229690743 0.011531474570205445 0 -0.029546568574671458 0.011750476826469687 0 -0.029390307105006473 0.011402689117456587 0 -0.029684735166663263 0.011415065700062883 0 -0.029546568574671458 0.011750476826469687 0 -0.029231825722882247 0.011663305269707503 0 -0.029390307105006473 0.011402689117456587 0 -0.029059796399147728 0.011244058410927786 0 -0.029231825722882247 0.011663305269707503 0 -0.029390307105006473 0.011402689117456587 0 -0.029151838313955864 0.011977381720496007 0 -0.028908654704779619 0.01164023702805019 0 -0.029231825722882247 0.011663305269707503 0 -0.029059796399147728 0.011244058410927786 0 -0.029390307105006473 0.011402689117456587 0 -0.02929838575373072 0.011152074838479241 0 -0.0292119946526384 0.010839539336208749 0 -0.029059796399147728 0.011244058410927786 0 -0.02929838575373072 0.011152074838479241 0 -0.029390307105006473 0.011402689117456587 0 -0.02929838575373072 0.011152074838479241 0 -0.029550216087471142 0.011117666340746278 0 -0.029550216087471142 0.011117666340746278 0 -0.029684735166663263 0.011415065700062883 0 -0.03004656194218432 0.011132800517309603 0 -0.029390307105006473 0.011402689117456587 0 -0.029550216087471142 0.011117666340746278 0 -0.029684735166663263 0.011415065700062883 0 -0.03004656194218432 0.011132800517309603 0 -0.030377132775874012 0.011333064305300034 0 -0.029951292229690743 0.011531474570205445 0 -0.029684735166663263 0.011415065700062883 0 -0.03004656194218432 0.011132800517309603 0 -0.029951292229690743 0.011531474570205445 0 -0.030562122385382629 0.011022194198279536 0 -0.03004656194218432 0.011132800517309603 0 -0.030377132775874012 0.011333064305300034 0 -0.030193409619024329 0.011827507416654878 0 -0.030061445730490032 0.011978880378224198 0 -0.030377132775874012 0.011333064305300034 0 -0.029689951471502746 0.011716273629483456 0 -0.030691055507428733 0.012219721611996534 0 -0.029019787080593773 0.012110358408418112 0 -0.029689951471502746 0.011716273629483456 0 -0.029530957662232165 0.012266050153434379 0 -0.029689951471502746 0.011716273629483456 0 -0.029530957662232165 0.012266050153434379 0 -0.030028118551241812 0.012588726540881258 0 -0.029193586550670253 0.012638649644387942 0 -0.029530957662232165 0.012266050153434379 0 -0.030028118551241812 0.012588726540881258 0 -0.029689951471502746 0.011716273629483456 0 -0.030028118551241812 0.012588726540881258 0 -0.030691055507428733 0.012219721611996534 0 -0.030028118551241812 0.012588726540881258 0 -0.030285447768006544 0.013305565226237735 0 -0.030691055507428733 0.012219721611996534 0 -0.030725199067052126 0.013308846390871727 0 -0.030293021066634236 0.013067215662007003 0 -0.030453135068481966 0.012649626228602077 0 -0.030662151177037814 0.012018256268670547 0 -0.030411453059187434 0.013387882214573791 0 -0.030285447768006544 0.013305565226237735 0 -0.029531864899867692 0.013138736155932484 0 -0.030028118551241812 0.012588726540881258 0 -0.030285447768006544 0.013305565226237735 0 -0.029531864899867692 0.013138736155932484 0 -0.029193586550670253 0.012638649644387942 0 -0.030028118551241812 0.012588726540881258 0 -0.029531864899867692 0.013138736155932484 0 -0.03162400660495554 0.013704790104607036 0 -0.031077600689823535 0.012830014349890116 0 -0.031966188625551416 0.012617889025551401 0 -0.030411453059187434 0.013387882214573791 0 -0.03162400660495554 0.013704790104607036 0 -0.031077600689823535 0.012830014349890116 0 -0.030285447768006544 0.013305565226237735 0 -0.031077600689823535 0.012830014349890116 0 -0.030660382964367225 0.01201997620117337 0 -0.030411453059187434 0.013387882214573791 0 -0.030285447768006544 0.013305565226237735 0 -0.031077600689823535 0.012830014349890116 0 -0.031077600689823535 0.012830014349890116 0 -0.030660382964367225 0.01201997620117337 0 -0.031411180379263701 0.0120388166801277 0 -0.031077600689823535 0.012830014349890116 0 -0.031411180379263701 0.0120388166801277 0 -0.031966188625551416 0.012617889025551401 0 -0.031411180379263701 0.0120388166801277 0 -0.031928484721633413 0.011515369457589186 0 -0.031966188625551416 0.012617889025551401 0 -0.031411180379263701 0.0120388166801277 0 -0.030988521684757003 0.010699854630401625 0 -0.031928484721633413 0.011515369457589186 0 -0.030377132775874012 0.011333064305300034 0 -0.030691055507428733 0.012219721611996534 0 -0.030989198741811275 0.011241147522183697 0 -0.030660382964367225 0.01201997620117337 0 -0.031411180379263701 0.0120388166801277 0 -0.030988521684757003 0.010699854630401625 0 -0.030662151177037814 0.012018256268670547 0 -0.030999469449682543 0.010949226263847272 0 -0.030562122385382629 0.011022194198279536 0 -0.030377132775874012 0.011333064305300034 0 -0.030989198741811275 0.011241147522183697 0 -0.030988521684757003 0.010699854630401625 0 -0.031987694254919791 0.010685473945470408 0 -0.031928484721633413 0.011515369457589186 0 -0.031752193864199307 0.010035178972599729 0 -0.030988521684757003 0.010699854630401625 0 -0.031987694254919791 0.010685473945470408 0 -0.031987694254919791 0.010685473945470408 0 -0.032518190648946732 0.010580961091344794 0 -0.032571062761784592 0.011347937861799559 0 -0.03218219170984251 0.010011300795607881 0 -0.031987694254919791 0.010685473945470408 0 -0.032518190648946732 0.010580961091344794 0 -0.032901192778587975 0.010080816396333792 0 -0.032518190648946732 0.010580961091344794 0 -0.033142602657742999 0.011019032943177793 0 -0.032518190648946732 0.010580961091344794 0 -0.032571062761784592 0.011347937861799559 0 -0.033142602657742999 0.011019032943177793 0 -0.032571062761784592 0.011347937861799559 0 -0.033117098586470772 0.011793071396840582 0 -0.033142602657742999 0.011019032943177793 0 -0.032571062761784592 0.011347937861799559 0 -0.033117098586470772 0.011793071396840582 0 -0.032717366720084198 0.012379623241599457 0 -0.031987694254919791 0.010685473945470408 0 -0.032571062761784592 0.011347937861799559 0 -0.031928484721633413 0.011515369457589186 0 -0.032571062761784592 0.011347937861799559 0 -0.031928484721633413 0.011515369457589186 0 -0.032717366720084198 0.012379623241599457 0 -0.032901192778587975 0.010080816396333792 0 -0.033927817742280209 0.01062815742336062 0 -0.033142602657742999 0.011019032943177793 0 -0.033927817742280209 0.01062815742336062 0 -0.033142602657742999 0.011019032943177793 0 -0.033860108384237302 0.011655238123686924 0 -0.033117098586470772 0.011793071396840582 0 -0.033142602657742999 0.011019032943177793 0 -0.033860108384237302 0.011655238123686924 0 -0.033860108384237302 0.011655238123686924 0 -0.034601572592695647 0.012034991851316214 0 -0.034801499125988268 0.01135339589224014 0 -0.033927817742280209 0.01062815742336062 0 -0.033860108384237302 0.011655238123686924 0 -0.034801499125988268 0.01135339589224014 0 -0.033746773896439014 0.012741073598041755 0 -0.034948710730986439 0.012824194954123793 0 -0.034601572592695647 0.012034991851316214 0 -0.033860108384237302 0.011655238123686924 0 -0.033746773896439014 0.012741073598041755 0 -0.034601572592695647 0.012034991851316214 0 -0.033117098586470772 0.011793071396840582 0 -0.033860108384237302 0.011655238123686924 0 -0.033746773896439014 0.012741073598041755 0 -0.033117098586470772 0.011793071396840582 0 -0.033746773896439014 0.012741073598041755 0 -0.032717366720084198 0.012379623241599457 0 -0.033746773896439014 0.012741073598041755 0 -0.03282407103719507 0.013233409944425288 0 -0.033558708058841015 0.013549388039583124 0 -0.033746773896439014 0.012741073598041755 0 -0.034681255449887129 0.013639668974254457 0 -0.034948710730986439 0.012824194954123793 0 -0.033746773896439014 0.012741073598041755 0 -0.033558708058841015 0.013549388039583124 0 -0.034681255449887129 0.013639668974254457 0 -0.03162400660495554 0.013704790104607036 0 -0.031966188625551416 0.012617889025551401 0 -0.03282407103719507 0.013233409944425288 0 -0.031928484721633413 0.011515369457589186 0 -0.031966188625551416 0.012617889025551401 0 -0.032717366720084198 0.012379623241599457 0 -0.033746773896439014 0.012741073598041755 0 -0.032717366720084198 0.012379623241599457 0 -0.03282407103719507 0.013233409944425288 0 -0.031966188625551416 0.012617889025551401 0 -0.032717366720084198 0.012379623241599457 0 -0.03282407103719507 0.013233409944425288 0 -0.03162400660495554 0.013704790104607036 0 -0.03282407103719507 0.013233409944425288 0 -0.032704291563860018 0.014133016479037336 0 -0.03162400660495554 0.013704790104607036 0 -0.032116469839321725 0.014719447646062041 0 -0.032704291563860018 0.014133016479037336 0 -0.032116469839321725 0.014719447646062041 0 -0.032704291563860018 0.014133016479037336 0 -0.032970139326016099 0.014937102557993631 0 -0.032704291563860018 0.014133016479037336 0 -0.033740476910109438 0.01430520510174289 0 -0.032970139326016099 0.014937102557993631 0 -0.03282407103719507 0.013233409944425288 0 -0.032704291563860018 0.014133016479037336 0 -0.033558708058841015 0.013549388039583124 0 -0.032704291563860018 0.014133016479037336 0 -0.033558708058841015 0.013549388039583124 0 -0.033740476910109438 0.01430520510174289 0 -0.033974403557841926 0.014429968522170402 0 -0.034348200601661695 0.01407175342045895 0 -0.033558708058841015 0.013549388039583124 0 -0.033740476910109438 0.01430520510174289 0 -0.034681255449887129 0.013639668974254457 0 -0.034742029574956021 0.014745172438296343 0 -0.03413992182410356 0.014508949966731466 0 -0.034681255449887129 0.013639668974254457 0 -0.033974403557841926 0.014429968522170402 0 -0.033353459528882821 0.015036677370211681 0 -0.03413992182410356 0.014508949966731466 0 -0.034283850595599241 0.015269994059388741 0 -0.033676019868980861 0.015206719575650739 0 -0.034742029574956021 0.014745172438296343 0 -0.034283850595599241 0.015269994059388741 0 -0.0351567090463316 0.015526806069318144 0 -0.034742029574956021 0.014745172438296343 0 -0.03413992182410356 0.014508949966731466 0 -0.034283850595599241 0.015269994059388741 0 -0.034283850595599241 0.015269994059388741 0 -0.0351567090463316 0.015526806069318144 0 -0.034506618510468032 0.015953049231747157 0 -0.034283850595599241 0.015269994059388741 0 -0.033887052807156641 0.016095499870130505 0 -0.034506618510468032 0.015953049231747157 0 -0.034283850595599241 0.015269994059388741 0 -0.033676019868980861 0.015206719575650739 0 -0.033887052807156641 0.016095499870130505 0 -0.033182667824973838 0.015750481300015919 0 -0.033676019868980861 0.015206719575650739 0 -0.033887052807156641 0.016095499870130505 0 -0.032727613829509804 0.015643613902886731 0 -0.033353459528882821 0.015036677370211681 0 -0.032116469839321725 0.014719447646062041 0 -0.032374559414351863 0.0155679252051662 0 -0.032970139326016099 0.014937102557993631 0 -0.036110471761819127 0.014978684529954078 0 -0.036197617853194745 0.015594051700379953 0 -0.0357763271427569 0.015386600652382204 0 -0.036110471761819127 0.014978684529954078 0 -0.036781423277003122 0.014963013730117949 0 -0.036197617853194745 0.015594051700379953 0 -0.024708873696593546 0.010948732381411216 0 -0.027285167950156911 0.010712441516724973 0 -0.036552930694357125 0.015064804537164651 0 -0.036491263498292993 0.015228165040498683 0 -0.036197617853194745 0.015594051700379953 0 -0.017312149419822957 0.012732951120884661 0 -0.0176338923106025 0.012317358194211037 0 -0.018146729567566983 0.013056956517770286 0 -0.024708873696593546 0.010948732381411216 0 -0.021465886388844481 0.0096897775101104141 0 -0.021195139287386089 0.0084611209672505721 0 -0.0215340611179618 0.0080255246305662043 0 -0.021325953675890567 0.0079865055902844408 0 -0.017312149419822957 0.012732951120884661 0 -0.017306494798576367 0.013372064850768806 0 -0.018146729567566983 0.013056956517770286 0 -0.036552930694357125 0.015064804537164651 0 -0.036491263498292993 0.015228165040498683 0 -0.036555179963112805 0.01535137352976898 0 -0.024708873696593546 0.010948732381411216 0 -0.025848526812883896 0.013383884270743822 0 -0.026031636545713548 0.01355723449051641 0 -0.025848526812883896 0.013383884270743822 0 -0.03657538095723567 0.015360235503618381 0 -0.036197617853194745 0.015594051700379953 0 -0.036590053417890421 0.016263424813080084 0 -0.025975123214473445 0.014821433945022786 0 -0.026319950370718173 0.015443067215450631 0 -0.025971845770678167 0.015713078732533425 0 -0.036491263498292993 0.015228165040498683 0 -0.03657538095723567 0.015360235503618381 0 -0.036197617853194745 0.015594051700379953 0 -0.017306494798576367 0.013372064850768806 0 -0.018146729567566983 0.013056956517770286 0 -0.018030976392570362 0.014692232813025164 0 -0.025848526812883896 0.013383884270743822 0 -0.02390950259704307 0.014487210539379861 0 -0.025848526812883896 0.013383884270743822 0 -0.028725036767101704 0.015677478776650315 0 -0.036197617853194745 0.015594051700379953 0 -0.0357763271427569 0.015386600652382204 0 -0.035911589326471746 0.016077559690359389 0 -0.0357763271427569 0.015386600652382204 0 -0.0351567090463316 0.015526806069318144 0 -0.035911589326471746 0.016077559690359389 0 -0.034742029574956021 0.014745172438296343 0 -0.0351567090463316 0.015526806069318144 0 -0.035516452503713457 0.014647348053490213 0 -0.0357763271427569 0.015386600652382204 0 -0.0351567090463316 0.015526806069318144 0 -0.035516452503713457 0.014647348053490213 0 -0.036110471761819127 0.014978684529954078 0 -0.0357763271427569 0.015386600652382204 0 -0.035516452503713457 0.014647348053490213 0 -0.036110471761819127 0.014978684529954078 0 -0.035516452503713457 0.014647348053490213 0 -0.036183758945256828 0.014170980710564518 0 -0.035516452503713457 0.014647348053490213 0 -0.035592556189916254 0.013529993683295003 0 -0.036183758945256828 0.014170980710564518 0 -0.034742029574956021 0.014745172438296343 0 -0.035516452503713457 0.014647348053490213 0 -0.034681255449887129 0.013639668974254457 0 -0.035516452503713457 0.014647348053490213 0 -0.034681255449887129 0.013639668974254457 0 -0.035592556189916254 0.013529993683295003 0 -0.035592556189916254 0.013529993683295003 0 -0.036183758945256828 0.014170980710564518 0 -0.036226205102615747 0.013108299627072949 0 -0.036183758945256828 0.014170980710564518 0 -0.036864647370328046 0.013699133067785979 0 -0.036226205102615747 0.013108299627072949 0 -0.036110471761819127 0.014978684529954078 0 -0.036781423277003122 0.014963013730117949 0 -0.036183758945256828 0.014170980710564518 0 -0.036781423277003122 0.014963013730117949 0 -0.036183758945256828 0.014170980710564518 0 -0.036864647370328046 0.013699133067785979 0 -0.021195139287386089 0.0084611209672505721 0 -0.021325953675890567 0.0079865055902844408 0 -0.021203742423302557 0.006302662846124147 0 -0.024708873696593546 0.010948732381411216 0 -0.025052266206833533 0.0094068212916459931 0 -0.021325953675890567 0.0079865055902844408 0 -0.021203742423302557 0.006302662846124147 0 -0.022312662827475002 0.0069992511510015417 0 -0.021530792812925584 0.0080236627024415016 0 -0.021325953675890567 0.0079865055902844408 0 -0.022312662827475002 0.0069992511510015417 0 -0.021465886388844481 0.0096897775101104141 0 -0.0214618300876077 0.0096832719814154231 0 -0.021203742423302557 0.006302662846124147 0 -0.022155779786821136 0.0050727571827570662 0 -0.022190634597128018 0.0060883989408781871 0 -0.021203742423302557 0.006302662846124147 0 -0.021223207682644948 0.0041627161949961541 0 -0.022155779786821136 0.0050727571827570662 0 -0.036864647370328046 0.013699133067785979 0 -0.036226205102615747 0.013108299627072949 0 -0.03690896727524963 0.012339146684645733 0 -0.025052266206833533 0.0094068212916459931 0 -0.022139459227627268 0.004751860331704761 0 -0.036226205102615747 0.013108299627072949 0 -0.036037409520720064 0.012308460161045158 0 -0.035675927335835439 0.012705634042065065 0 -0.036226205102615747 0.013108299627072949 0 -0.036037409520720064 0.012308460161045158 0 -0.03690896727524963 0.012339146684645733 0 -0.036037409520720064 0.012308460161045158 0 -0.03690896727524963 0.012339146684645733 0 -0.035994751160514177 0.011385102632717298 0 -0.012795165609092603 -0.0069273461332432472 0 -0.012684331145847112 -0.0072648829502257751 0 -0.013663166628529193 -0.0062503089492902146 0 -0.022058741766135093 0.0043424462223644843 0 -0.022139459227627268 0.004751860331704761 0 -0.012795165609092603 -0.0069273461332432472 0 -0.01245637444004281 -0.0064444244043595621 0 -0.012346036709655842 -0.0068254147747604226 0 -0.012795165609092603 -0.0069273461332432472 0 -0.012784101678605051 -0.0069742512834479863 0 -0.012346036709655842 -0.0068254147747604226 0 -0.022139459227627268 0.004751860331704761 0 -0.017602651331376944 0.0021730813437832817 0 -0.012784101678605051 -0.0069742512834479863 0 -0.01222581034218642 -0.0073972446475081832 0 -0.012346036709655842 -0.0068254147747604226 0 -0.034681255449887129 0.013639668974254457 0 -0.035592556189916254 0.013529993683295003 0 -0.034948710730986439 0.012824194954123793 0 -0.035592556189916254 0.013529993683295003 0 -0.034948710730986439 0.012824194954123793 0 -0.035675927335835439 0.012705634042065065 0 -0.035592556189916254 0.013529993683295003 0 -0.036226205102615747 0.013108299627072949 0 -0.035675927335835439 0.012705634042065065 0 -0.034948710730986439 0.012824194954123793 0 -0.035675927335835439 0.012705634042065065 0 -0.035369587776020464 0.011987980949307751 0 -0.036037409520720064 0.012308460161045158 0 -0.035675927335835439 0.012705634042065065 0 -0.035369587776020464 0.011987980949307751 0 -0.034948710730986439 0.012824194954123793 0 -0.035369587776020464 0.011987980949307751 0 -0.034601572592695647 0.012034991851316214 0 -0.035369587776020464 0.011987980949307751 0 -0.034601572592695647 0.012034991851316214 0 -0.034801499125988268 0.01135339589224014 0 -0.035369587776020464 0.011987980949307751 0 -0.034801499125988268 0.01135339589224014 0 -0.035994751160514177 0.011385102632717298 0 -0.036037409520720064 0.012308460161045158 0 -0.035369587776020464 0.011987980949307751 0 -0.035994751160514177 0.011385102632717298 0 -0.035021799300178937 0.010387750319848234 0 -0.034801499125988268 0.01135339589224014 0 -0.035994751160514177 0.011385102632717298 0 -0.027625271775206899 0.0048482000076443344 0 -0.02512399731890062 0.0041560986879752926 0 -0.021164510609814481 -0.0025383282268028294 0 -0.015518176364844724 -0.006386844824861247 0 -0.01582310461508046 -0.0033638441579328117 0 -0.035021799300178937 0.010387750319848234 0 -0.033927817742280209 0.01062815742336062 0 -0.034801499125988268 0.01135339589224014 0 -0.012440124354309544 -0.0058585941490305275 0 -0.013663166628529193 -0.0062503089492902146 0 -0.012820835578790444 -0.0049699660283919816 0 -0.012440124354309544 -0.0058585941490305275 0 -0.012817026350132257 -0.0063933421011723082 0 -0.013663166628529193 -0.0062503089492902146 0 -0.012795165609092603 -0.0069273461332432472 0 -0.01245637444004281 -0.0064444244043595621 0 -0.012817026350132257 -0.0063933421011723082 0 -0.012440124354309544 -0.0058585941490305275 0 -0.01245637444004281 -0.0064444244043595621 0 -0.012817026350132257 -0.0063933421011723082 0 -0.012795165609092603 -0.0069273461332432472 0 -0.012817026350132257 -0.0063933421011723082 0 -0.013663166628529193 -0.0062503089492902146 0 -0.022139459227627268 0.004751860331704761 0 -0.02512399731890062 0.0041560986879752926 0 -0.015518176364844724 -0.006386844824861247 0 -0.013663166628529193 -0.0062503089492902146 0 -0.012820835578790444 -0.0049699660283919816 0 -0.012684331145847112 -0.0072648829502257751 0 -0.015518176364844724 -0.006386844824861247 0 -0.013663166628529193 -0.0062503089492902146 0 -0.015518176364844724 -0.006386844824861247 0 -0.01582310461508046 -0.0033638441579328117 0 -0.012820835578790444 -0.0049699660283919816 0 -0.012440124354309544 -0.0058585941490305275 0 -0.012820835578790444 -0.0049699660283919816 0 -0.012073051827831912 -0.0052544998413301437 0 -0.012440124354309544 -0.0058585941490305275 0 -0.012073051827831912 -0.0052544998413301437 0 -0.011834682777657467 -0.00567736028762208 0 -0.012440124354309544 -0.0058585941490305275 0 -0.011948940127844544 -0.0061337867001886879 0 -0.011834682777657467 -0.00567736028762208 0 -0.012440124354309544 -0.0058585941490305275 0 -0.01245637444004281 -0.0064444244043595621 0 -0.011948940127844544 -0.0061337867001886879 0 -0.011834682777657467 -0.00567736028762208 0 -0.011589429233640714 -0.005684543604798125 0 -0.011717740674333234 -0.0060681517713430076 0 -0.011948940127844544 -0.0061337867001886879 0 -0.011834682777657467 -0.00567736028762208 0 -0.011717740674333234 -0.0060681517713430076 0 -0.011589429233640714 -0.005684543604798125 0 -0.011520445839343859 -0.0058925600362914315 0 -0.011717740674333234 -0.0060681517713430076 0 -0.011834682777657467 -0.00567736028762208 0 -0.011688659329567355 -0.0053956516551055848 0 -0.011589429233640714 -0.005684543604798125 0 -0.012073051827831912 -0.0052544998413301437 0 -0.011834682777657467 -0.00567736028762208 0 -0.011688659329567355 -0.0053956516551055848 0 -0.011688659329567355 -0.0053956516551055848 0 -0.011405757929803362 -0.0055030206364894236 0 -0.011589429233640714 -0.005684543604798125 0 -0.011405757929803362 -0.0055030206364894236 0 -0.011259448987816735 -0.0055494185340988151 0 -0.011439501293293707 -0.0056470265992297312 0 -0.011405757929803362 -0.0055030206364894236 0 -0.011589429233640714 -0.005684543604798125 0 -0.011439501293293707 -0.0056470265992297312 0 -0.011405757929803362 -0.0055030206364894236 0 -0.011259448987816735 -0.0055494185340988151 0 -0.011260621392114109 -0.0055732550264988873 0 -0.011259448987816735 -0.0055494185340988151 0 -0.011260621392114109 -0.0055732550264988873 0 -0.011503647345184963 -0.0052505461644262686 0 -0.011259448987816735 -0.0055494185340988151 0 -0.010745918267078566 -0.0048200599178657997 0 -0.011503647345184963 -0.0052505461644262686 0 -0.012925364850595148 -0.0037875797718309677 0 -0.013253886233641573 -0.0029839050106414697 0 -0.011259448987816735 -0.0055494185340988151 0 -0.011520445839343859 -0.0058925600362914315 0 -0.011486263242814439 -0.0061686935027917512 0 -0.011259448987816735 -0.0055494185340988151 0 -0.011439501293293707 -0.0056470265992297312 0 -0.011520445839343859 -0.0058925600362914315 0 -0.011589429233640714 -0.005684543604798125 0 -0.011439501293293707 -0.0056470265992297312 0 -0.011520445839343859 -0.0058925600362914315 0 -0.011259448987816735 -0.0055494185340988151 0 -0.010745918267078566 -0.0048200599178657997 0 -0.010279152011891288 -0.0047038287805526626 0 -0.011520445839343859 -0.0058925600362914315 0 -0.011486263242814439 -0.0061686935027917512 0 -0.011617840946413034 -0.0061126740291785591 0 -0.010745918267078566 -0.0048200599178657997 0 -0.010279152011891288 -0.0047038287805526626 0 -0.010782120967267933 -0.0036312356148309978 0 -0.0093965185875784854 0.00014167608155091113 0 -0.010152031808316388 -0.0027940375942199715 0 -0.010745918267078566 -0.0048200599178657997 0 -0.011482672068420583 -0.0038995890379427281 0 -0.011503647345184963 -0.0052505461644262686 0 -0.0092282417024296664 -0.001739125466071505 0 -0.0093965185875784854 0.00014167608155091113 0 -0.012478890547101763 -0.0029267846222058931 0 -0.010782120967267933 -0.0036312356148309978 0 -0.010737521227337924 -0.0027376827327236708 0 -0.010745918267078566 -0.0048200599178657997 0 -0.012478890547101763 -0.0029267846222058931 0 -0.010782120967267933 -0.0036312356148309978 0 -0.010279152011891288 -0.0047038287805526626 0 -0.010782120967267933 -0.0036312356148309978 0 -0.009919793697376349 -0.0026821634396651567 0 -0.010782120967267933 -0.0036312356148309978 0 -0.010737521227337924 -0.0027376827327236708 0 -0.009919793697376349 -0.0026821634396651567 0 -0.011780891787563459 -0.0064960199940301347 0 -0.01169358627972584 -0.0062141960206362019 0 -0.011851002547571892 -0.0062413021846445971 0 -0.014460032595368783 6.411268413681773e-06 0 -0.013030019924765294 -0.0039512137232197292 0 -0.010279152011891288 -0.0047038287805526626 0 -0.009919793697376349 -0.0026821634396651567 0 -0.0086703599399071685 -0.0027543115791996411 0 -0.011524666647570929 -0.0076847984366156495 0 -0.011810039363023031 -0.0074317430445716799 0 -0.011707965460060669 -0.0070506981409038105 0 -0.013253886233641573 -0.0029839050106414697 0 -0.014460032595368783 6.411268413681773e-06 0 -0.011486263242814439 -0.0061686935027917512 0 -0.011780891787563459 -0.0064960199940301347 0 -0.01169358627972584 -0.0062141960206362019 0 -0.011524666647570929 -0.0076847984366156495 0 -0.011810039363023031 -0.0074317430445716799 0 -0.01167480083802171 -0.0078810747161608147 0 -0.022155779786821136 0.0050727571827570662 0 -0.022190634597128018 0.0060883989408781871 0 -0.023087401222884878 0.0059812881882082862 0 -0.017602651331376944 0.0021730813437832817 0 -0.015133636708818296 0.0024312988273575932 0 -0.01222581034218642 -0.0073972446475081832 0 -0.011810039363023031 -0.0074317430445716799 0 -0.01167480083802171 -0.0078810747161608147 0 -0.01222581034218642 -0.0073972446475081832 0 -0.011810039363023031 -0.0074317430445716799 0 -0.011707965460060669 -0.0070506981409038105 0 -0.011948940127844544 -0.0061337867001886879 0 -0.012346036709655842 -0.0068254147747604226 0 -0.011707965460060669 -0.0070506981409038105 0 -0.012706958092007774 -0.0048123788610312905 0 -0.013030019924765294 -0.0039512137232197292 0 -0.01222581034218642 -0.0073972446475081832 0 -0.012346036709655842 -0.0068254147747604226 0 -0.011707965460060669 -0.0070506981409038105 0 -0.01245637444004281 -0.0064444244043595621 0 -0.011948940127844544 -0.0061337867001886879 0 -0.012346036709655842 -0.0068254147747604226 0 -0.011948940127844544 -0.0061337867001886879 0 -0.011717740674333234 -0.0060681517713430076 0 -0.011851002547571892 -0.0062413021846445971 0 -0.011617840946413034 -0.0061126740291785591 0 -0.011717740674333234 -0.0060681517713430076 0 -0.01169358627972584 -0.0062141960206362019 0 -0.011520445839343859 -0.0058925600362914315 0 -0.011617840946413034 -0.0061126740291785591 0 -0.011717740674333234 -0.0060681517713430076 0 -0.011486263242814439 -0.0061686935027917512 0 -0.011617840946413034 -0.0061126740291785591 0 -0.01169358627972584 -0.0062141960206362019 0 -0.011717740674333234 -0.0060681517713430076 0 -0.01169358627972584 -0.0062141960206362019 0 -0.011851002547571892 -0.0062413021846445971 0 -0.013716879720965683 -0.0014056850015875667 0 -0.012430488754979005 -0.0012641501891344858 0 -0.012812918458425164 -0.0026793558669411461 0 -0.012430488754979005 -0.0012641501891344858 0 -0.012812918458425164 -0.0026793558669411461 0 -0.011711823487717805 -0.0020050258722277138 0 -0.012812918458425164 -0.0026793558669411461 0 -0.011820552635290181 -0.0029678119179256833 0 -0.011711823487717805 -0.0020050258722277138 0 -0.012430488754979005 -0.0012641501891344858 0 -0.011711823487717805 -0.0020050258722277138 0 -0.011584773893513893 -0.00080511979070676002 0 -0.011711823487717805 -0.0020050258722277138 0 -0.010435305277939401 -0.0013091484905004452 0 -0.011584773893513893 -0.00080511979070676002 0 -0.011711823487717805 -0.0020050258722277138 0 -0.010435305277939401 -0.0013091484905004452 0 -0.01043353195392562 -0.0026109176159335632 0 -0.010435305277939401 -0.0013091484905004452 0 -0.01043353195392562 -0.0026109176159335632 0 -0.0098139328157568571 -0.0020991728143664574 0 -0.011469507514764138 -0.0030013069104877156 0 -0.011158215225430179 -0.003297937866899078 0 -0.011550476871925616 -0.0036479486176195595 0 -0.011820552635290181 -0.0029678119179256833 0 -0.011335404333746113 -0.0027651311932268916 0 -0.011820552635290181 -0.0029678119179256833 0 -0.011711823487717805 -0.0020050258722277138 0 -0.011335404333746113 -0.0027651311932268916 0 -0.01043353195392562 -0.0026109176159335632 0 -0.0092160915594950866 -0.0032232777364974243 0 -0.0098139328157568571 -0.0020991728143664574 0 -0.0092160915594950866 -0.0032232777364974243 0 -0.0098139328157568571 -0.0020991728143664574 0 -0.0091748962509825196 -0.001258902429111212 0 -0.011158215225430179 -0.003297937866899078 0 -0.010727359549482696 -0.0039257365338310566 0 -0.010727359549482696 -0.0039257365338310566 0 -0.010152031808316388 -0.0027940375942199715 0 -0.010435305277939401 -0.0013091484905004452 0 -0.0098139328157568571 -0.0020991728143664574 0 -0.0091748962509825196 -0.001258902429111212 0 -0.010435305277939401 -0.0013091484905004452 0 -0.0091748962509825196 -0.001258902429111212 0 -0.010002696201127044 -0.00031129013844142638 0 -0.009167960862757122 0.00057262424366335608 0 -0.0091748962509825196 -0.001258902429111212 0 -0.010002696201127044 -0.00031129013844142638 0 -0.009167960862757122 0.00057262424366335608 0 -0.010002696201127044 -0.00031129013844142638 0 -0.010577565161600043 0.00066357959423317761 0 -0.010577565161600043 0.00066357959423317761 0 -0.010875425329923588 -0.00022512488526020238 0 -0.011636874837087894 0.00026358343917874227 0 -0.010002696201127044 -0.00031129013844142638 0 -0.010577565161600043 0.00066357959423317761 0 -0.010875425329923588 -0.00022512488526020238 0 -0.010435305277939401 -0.0013091484905004452 0 -0.010002696201127044 -0.00031129013844142638 0 -0.010875425329923588 -0.00022512488526020238 0 -0.010435305277939401 -0.0013091484905004452 0 -0.010875425329923588 -0.00022512488526020238 0 -0.011584773893513893 -0.00080511979070676002 0 -0.010875425329923588 -0.00022512488526020238 0 -0.011584773893513893 -0.00080511979070676002 0 -0.011636874837087894 0.00026358343917874227 0 -0.011584773893513893 -0.00080511979070676002 0 -0.011636874837087894 0.00026358343917874227 0 -0.012165803020923783 -0.00037044396543428908 0 -0.012430488754979005 -0.0012641501891344858 0 -0.011584773893513893 -0.00080511979070676002 0 -0.012165803020923783 -0.00037044396543428908 0 -0.010577565161600043 0.00066357959423317761 0 -0.011636874837087894 0.00026358343917874227 0 -0.011336058497092624 0.0014313754102889763 0 -0.011636874837087894 0.00026358343917874227 0 -0.012409518892533375 9.5416984485032419e-05 0 -0.012165803020923783 -0.00037044396543428908 0 -0.011636874837087894 0.00026358343917874227 0 -0.012409518892533375 9.5416984485032419e-05 0 -0.012153245729715796 0.0010432592986926732 0 -0.012409518892533375 9.5416984485032419e-05 0 -0.012715832785763543 -0.00027836472483571783 0 -0.012165803020923783 -0.00037044396543428908 0 -0.013716879720965683 -0.0014056850015875667 0 -0.012430488754979005 -0.0012641501891344858 0 -0.012715832785763543 -0.00027836472483571783 0 -0.01263752400999991 -1.1249592704068485e-05 0 -0.012409518892533375 9.5416984485032419e-05 0 -0.012715832785763543 -0.00027836472483571783 0 -0.012430488754979005 -0.0012641501891344858 0 -0.012715832785763543 -0.00027836472483571783 0 -0.012165803020923783 -0.00037044396543428908 0 -0.013095846917044997 0.0015640516434289331 0 -0.012163466620986055 0.0019236350224282367 0 -0.012506373362944792 0.0028612059682062208 0 -0.011707534961486259 0.0016474566888582873 0 -0.011822637874342732 0.0011264757787630105 0 -0.013095846917044997 0.0015640516434289331 0 -0.012409518892533375 9.5416984485032419e-05 0 -0.012153245729715796 0.0010432592986926732 0 -0.013095846917044997 0.0015640516434289331 0 -0.012163466620986055 0.0019236350224282367 0 -0.012153245729715796 0.0010432592986926732 0 -0.012163466620986055 0.0019236350224282367 0 -0.012153245729715796 0.0010432592986926732 0 -0.011336058497092624 0.0014313754102889763 0 -0.011636874837087894 0.00026358343917874227 0 -0.012153245729715796 0.0010432592986926732 0 -0.011336058497092624 0.0014313754102889763 0 -0.012163466620986055 0.0019236350224282367 0 -0.011076569816216762 0.0028536707284392998 0 -0.012506373362944792 0.0028612059682062208 0 -0.012163466620986055 0.0019236350224282367 0 -0.011336058497092624 0.0014313754102889763 0 -0.011076569816216762 0.0028536707284392998 0 -0.007381073431583474 0.0060759434153366829 0 -0.0075569576122503481 0.0080198569551948144 0 -0.0089254339769173213 0.0080203000846706864 0 -0.011336058497092624 0.0014313754102889763 0 -0.010158506111915048 0.0017313086315465481 0 -0.011076569816216762 0.0028536707284392998 0 -0.0095180079290471311 0.0031224518384832928 0 -0.0098820369990282077 0.0054338705069373596 0 -0.010577565161600043 0.00066357959423317761 0 -0.011336058497092624 0.0014313754102889763 0 -0.010158506111915048 0.0017313086315465481 0 -0.0093965185875784854 0.00014167608155091113 0 -0.0095180079290471311 0.0031224518384832928 0 -0.009167960862757122 0.00057262424366335608 0 -0.010577565161600043 0.00066357959423317761 0 -0.010158506111915048 0.0017313086315465481 0 -0.0058195898779518579 0.0041181275069892328 0 -0.007381073431583474 0.0060759434153366829 0 -0.0057311706654166262 0.0064521248295166091 0 -0.007381073431583474 0.0060759434153366829 0 -0.0065156748998563205 0.0076526414876522172 0 -0.0057311706654166262 0.0064521248295166091 0 -0.007381073431583474 0.0060759434153366829 0 -0.0065156748998563205 0.0076526414876522172 0 -0.0075569576122503481 0.0080198569551948144 0 -0.0065156748998563205 0.0076526414876522172 0 -0.0057311706654166262 0.0064521248295166091 0 -0.0056485680915562379 0.0088853705079764613 0 -0.0065156748998563205 0.0076526414876522172 0 -0.0067083113618203643 0.0089687864999779716 0 -0.0075569576122503481 0.0080198569551948144 0 -0.0065156748998563205 0.0076526414876522172 0 -0.0067083113618203643 0.0089687864999779716 0 -0.0056485680915562379 0.0088853705079764613 0 -0.0095598430652085592 0.0078759801379401206 0 -0.010202121713016684 0.0078607501430599316 0 -0.0067083113618203643 0.0089687864999779716 0 -0.0072974912313973185 0.010506231485651246 0 -0.0056581796171580141 0.0088843565128319049 0 -0.0091473368250676902 0.0090927970312210549 0 -0.010202121713016684 0.0078607501430599316 0 -0.0067083113618203643 0.0089687864999779716 0 -0.0072974912313973185 0.010506231485651246 0 -0.008103198886797381 0.0093034245560229961 0 -0.0073562227732774464 0.010711319069359923 0 -0.0057976204553166905 0.0091931869839714415 0 -0.0056975784202932178 0.011856505768108743 0 -0.0072974912313973185 0.010506231485651246 0 -0.008103198886797381 0.0093034245560229961 0 -0.0089629121909025247 0.010645427824240949 0 -0.008103198886797381 0.0093034245560229961 0 -0.0075569576122503481 0.0080198569551948144 0 -0.0089254339769173213 0.0080203000846706864 0 -0.0067083113618203643 0.0089687864999779716 0 -0.008103198886797381 0.0093034245560229961 0 -0.0075569576122503481 0.0080198569551948144 0 -0.0098820369990282077 0.0054338705069373596 0 -0.010063593938102404 0.007600428730009056 0 -0.011076569816216762 0.0028536707284392998 0 -0.011969509053764663 0.0039803839252337894 0 -0.012506373362944792 0.0028612059682062208 0 -0.008103198886797381 0.0093034245560229961 0 -0.0089254339769173213 0.0080203000846706864 0 -0.01047345550024823 0.0099614872670607015 0 -0.008103198886797381 0.0093034245560229961 0 -0.0089629121909025247 0.010645427824240949 0 -0.01047345550024823 0.0099614872670607015 0 -0.0089629121909025247 0.010645427824240949 0 -0.01047345550024823 0.0099614872670607015 0 -0.0100156334867128 0.011344675203280795 0 -0.013182134811666402 0.0040530688410839837 0 -0.011969509053764663 0.0039803839252337894 0 -0.012506373362944792 0.0028612059682062208 0 -0.013182134811666402 0.0040530688410839837 0 -0.012858774014967423 0.0051102409567363701 0 -0.011969509053764663 0.0039803839252337894 0 -0.014254817645855879 0.0027229870575805051 0 -0.014880326086440026 0.005091382330163363 0 -0.015235956040510921 0.0063656285660292321 0 -0.015151330242232438 0.007111389650523825 0 -0.014705068129498124 0.0057874787723180849 0 -0.015494508436972429 0.0066230264908426579 0 -0.015235956040510921 0.0063656285660292321 0 -0.015151330242232438 0.007111389650523825 0 -0.015494508436972429 0.0066230264908426579 0 -0.015235956040510921 0.0063656285660292321 0 -0.015594246632207742 0.0059390727222337261 0 -0.016641783107638749 0.0061333464954055191 0 -0.016093358428799089 0.0068180009752097075 0 -0.015594246632207742 0.0059390727222337261 0 -0.015494508436972429 0.0066230264908426579 0 -0.016093358428799089 0.0068180009752097075 0 -0.015594246632207742 0.0059390727222337261 0 -0.021465886388844481 0.0096897775101104141 0 -0.018388759460796343 0.0061859833287786397 0 -0.018388759460796343 0.0061859833287786397 0 -0.015133636708818296 0.0024312988273575932 0 -0.015494508436972429 0.0066230264908426579 0 -0.016093358428799089 0.0068180009752097075 0 -0.015552815867788677 0.0074958879052088867 0 -0.022312662827475002 0.0069992511510015417 0 -0.022190634597128018 0.0060883989408781871 0 -0.023087401222884878 0.0059812881882082862 0 -0.021203742423302557 0.006302662846124147 0 -0.022312662827475002 0.0069992511510015417 0 -0.022190634597128018 0.0060883989408781871 0 -0.014460032595368783 6.411268413681773e-06 0 -0.015133636708818296 0.0024312988273575932 0 -0.014460032595368783 6.411268413681773e-06 0 -0.014254817645855879 0.0027229870575805051 0 -0.015133636708818296 0.0024312988273575932 0 -0.014254817645855879 0.0027229870575805051 0 -0.015494508436972429 0.0066230264908426579 0 -0.015552815867788677 0.0074958879052088867 0 -0.015151330242232438 0.007111389650523825 0 -0.013752946157239881 0.0034801632310637151 0 -0.014179193768739697 0.0029341516394326391 0 -0.013288776343464885 0.0020783451831660172 0 -0.009919793697376349 -0.0026821634396651567 0 -0.0086703599399071685 -0.0027543115791996411 0 -0.0090695003915409675 -0.0015121892520440067 0 -0.009919793697376349 -0.0026821634396651567 0 -0.0090695003915409675 -0.0015121892520440067 0 -0.010649776688423492 -0.001407818798053897 0 -0.010737521227337924 -0.0027376827327236708 0 -0.009919793697376349 -0.0026821634396651567 0 -0.010649776688423492 -0.001407818798053897 0 -0.0093965185875784854 0.00014167608155091113 0 -0.0096567609462742832 0.0033211111466097992 0 -0.012478890547101763 -0.0029267846222058931 0 -0.010649776688423492 -0.001407818798053897 0 -0.012427623628244016 -0.00066364473895032315 0 -0.012478890547101763 -0.0029267846222058931 0 -0.010737521227337924 -0.0027376827327236708 0 -0.010649776688423492 -0.001407818798053897 0 -0.010649776688423492 -0.001407818798053897 0 -0.012427623628244016 -0.00066364473895032315 0 -0.010620069291759241 2.7681831290151612e-05 0 -0.012427623628244016 -0.00066364473895032315 0 -0.010620069291759241 2.7681831290151612e-05 0 -0.012201851161675501 0.0015899612214139199 0 -0.0090695003915409675 -0.0015121892520440067 0 -0.010649776688423492 -0.001407818798053897 0 -0.010620069291759241 2.7681831290151612e-05 0 -0.014254817645855879 0.0027229870575805051 0 -0.012116220621375299 0.0044984055913423479 0 -0.01502170395669862 0.0068197807068414726 0 -0.014391267022694183 0.0062230814658995491 0 -0.014705068129498124 0.0057874787723180849 0 -0.014391267022694183 0.0062230814658995491 0 -0.014571823911391142 0.0057342641817001317 0 -0.013720574853215435 0.0056065439401105435 0 -0.014391267022694183 0.0062230814658995491 0 -0.014705068129498124 0.0057874787723180849 0 -0.014571823911391142 0.0057342641817001317 0 -0.0092995762136363208 0.0097188207630303017 0 -0.01044541566356904 0.010503709030739593 0 -0.011785731264680511 0.010129500826154322 0 -0.012116220621375299 0.0044984055913423479 0 -0.010732469266164299 0.0078096904865576546 0 -0.012427623628244016 -0.00066364473895032315 0 -0.012347920468829847 0.0017325315007324475 0 -0.012201851161675501 0.0015899612214139199 0 -0.0096567609462742832 0.0033211111466097992 0 -0.010202121713016684 0.0078607501430599316 0 -0.014708202775836877 0.010637337432592679 0 -0.010732469266164299 0.0078096904865576546 0 -0.01044541566356904 0.010503709030739593 0 -0.011961692701855188 0.010299712063868888 0 -0.011785731264680511 0.010129500826154322 0 -0.010202121713016684 0.0078607501430599316 0 -0.010732469266164299 0.0078096904865576546 0 -0.010202121713016684 0.0078607501430599316 0 -0.0090446758006591139 0.01248476491560805 0 -0.01044541566356904 0.010503709030739593 0 -0.011961692701855188 0.010299712063868888 0 -0.01075184730383138 0.012219972472214229 0 -0.011961692701855188 0.010299712063868888 0 -0.01075184730383138 0.012219972472214229 0 -0.011841038522082598 0.013651247232427223 0 -0.0092995762136363208 0.0097188207630303017 0 -0.01044541566356904 0.010503709030739593 0 -0.0091971512479479284 0.012695462744743122 0 -0.014708202775836877 0.010637337432592679 0 -0.014533146554104896 0.013552231182835517 0 -0.01044541566356904 0.010503709030739593 0 -0.01075184730383138 0.012219972472214229 0 -0.0091971512479479284 0.012695462744743122 0 -0.020507971595289803 0.012874281279956993 0 -0.019287969564427493 0.013839344463899766 0 -0.020464624094865935 0.014642274116340295 0 -0.020507971595289803 0.012874281279956993 0 -0.019287969564427493 0.013839344463899766 0 -0.019075413954280179 0.012584760103667787 0 -0.014708202775836877 0.010637337432592679 0 -0.017660403237065487 0.0099656448225467851 0 -0.015235956040510921 0.0063656285660292321 0 -0.014705068129498124 0.0057874787723180849 0 -0.015594246632207742 0.0059390727222337261 0 -0.014705068129498124 0.0057874787723180849 0 -0.014571823911391142 0.0057342641817001317 0 -0.015594246632207742 0.0059390727222337261 0 -0.0176338923106025 0.012317358194211037 0 -0.019075413954280179 0.012584760103667787 0 -0.018146729567566983 0.013056956517770286 0 -0.021465886388844481 0.0096897775101104141 0 -0.017660403237065487 0.0099656448225467851 0 -0.019287969564427493 0.013839344463899766 0 -0.019075413954280179 0.012584760103667787 0 -0.018146729567566983 0.013056956517770286 0 -0.019287969564427493 0.013839344463899766 0 -0.018146729567566983 0.013056956517770286 0 -0.018030976392570362 0.014692232813025164 0 -0.018030976392570362 0.014692232813025164 0 -0.018761770732423785 0.016032732405846736 0 -0.019461638315974007 0.015291327068993396 0 -0.02390950259704307 0.014487210539379861 0 -0.022963799964367083 0.015845676823288597 0 -0.019287969564427493 0.013839344463899766 0 -0.018030976392570362 0.014692232813025164 0 -0.019461638315974007 0.015291327068993396 0 -0.026319950370718173 0.015443067215450631 0 -0.026654479838820501 0.016056481159477918 0 -0.026209509757502743 0.016102343047403447 0 -0.026654479838820501 0.016056481159477918 0 -0.02649099222293301 0.016492833440902591 0 -0.026209509757502743 0.016102343047403447 0 -0.019709766910164177 0.016344350080710411 0 -0.019461638315974007 0.015291327068993396 0 -0.020425431021261681 0.016435768920512964 0 -0.018761770732423785 0.016032732405846736 0 -0.019709766910164177 0.016344350080710411 0 -0.019509474320351515 0.017378872937232656 0 -0.018761770732423785 0.016032732405846736 0 -0.019709766910164177 0.016344350080710411 0 -0.019461638315974007 0.015291327068993396 0 -0.019287969564427493 0.013839344463899766 0 -0.019461638315974007 0.015291327068993396 0 -0.020464624094865935 0.014642274116340295 0 -0.0091971512479479284 0.012695462744743122 0 -0.01031310850686472 0.013953470077336711 0 -0.0090930236347798472 0.015682997531410028 0 -0.014533146554104896 0.013552231182835517 0 -0.014196771200880458 0.016087063328275558 0 -0.019461638315974007 0.015291327068993396 0 -0.020464624094865935 0.014642274116340295 0 -0.020425431021261681 0.016435768920512964 0 -0.01075184730383138 0.012219972472214229 0 -0.0091971512479479284 0.012695462744743122 0 -0.01031310850686472 0.013953470077336711 0 -0.01075184730383138 0.012219972472214229 0 -0.01031310850686472 0.013953470077336711 0 -0.011841038522082598 0.013651247232427223 0 -0.0090446758006591139 0.01248476491560805 0 -0.0081188787409067851 0.01593967324585855 0 -0.011841038522082598 0.013651247232427223 0 -0.010563789677491475 0.015542262148218043 0 -0.011713439339110548 0.017013976340820941 0 -0.0056975784202932178 0.011856505768108743 0 -0.0057263212789466786 0.014305453123175811 0 -0.0060387604632091757 0.014009989060344575 0 -0.01031310850686472 0.013953470077336711 0 -0.011841038522082598 0.013651247232427223 0 -0.010563789677491475 0.015542262148218043 0 -0.01031310850686472 0.013953470077336711 0 -0.010563789677491475 0.015542262148218043 0 -0.0090930236347798472 0.015682997531410028 0 -0.019709766910164177 0.016344350080710411 0 -0.020425431021261681 0.016435768920512964 0 -0.020359251996216039 0.01667246416654157 0 -0.020425431021261681 0.016435768920512964 0 -0.020359251996216039 0.01667246416654157 0 -0.020302549588291363 0.01849003922592805 0 -0.014196771200880458 0.016087063328275558 0 -0.013539275858178566 0.018695324669352704 0 -0.020359251996216039 0.01667246416654157 0 -0.020106374468748783 0.017704885022041886 0 -0.020302549588291363 0.01849003922592805 0 -0.0090930236347798472 0.015682997531410028 0 -0.010195903265636845 0.017149162286397939 0 -0.0089946743987436937 0.018674201167622213 0 -0.010563789677491475 0.015542262148218043 0 -0.0090930236347798472 0.015682997531410028 0 -0.010195903265636845 0.017149162286397939 0 -0.010563789677491475 0.015542262148218043 0 -0.010195903265636845 0.017149162286397939 0 -0.011713439339110548 0.017013976340820941 0 -0.010195903265636845 0.017149162286397939 0 -0.011713439339110548 0.017013976340820941 0 -0.010449808737522456 0.018660646444599551 0 -0.0057263212789466786 0.014305453123175811 0 -0.0061246167843546778 0.014517277556255934 0 -0.0058550643739317598 0.015031452576358977 0 -0.0081188787409067851 0.01593967324585855 0 -0.0066725367032114177 0.021639414742350448 0 -0.011713439339110548 0.017013976340820941 0 -0.010449808737522456 0.018660646444599551 0 -0.011580988300804704 0.020369482890953063 0 -0.010449808737522456 0.018660646444599551 0 -0.010152317221236695 0.020067623347019538 0 -0.011580988300804704 0.020369482890953063 0 -0.020106374468748783 0.017704885022041886 0 -0.020302549588291363 0.01849003922592805 0 -0.020031119417375422 0.018091117649954667 0 -0.020302549588291363 0.01849003922592805 0 -0.019931336820543769 0.018485131756769246 0 -0.020031119417375422 0.018091117649954667 0 -0.010195903265636845 0.017149162286397939 0 -0.010449808737522456 0.018660646444599551 0 -0.0089946743987436937 0.018674201167622213 0 -0.010449808737522456 0.018660646444599551 0 -0.009689510954488334 0.019495281558206699 0 -0.010152317221236695 0.020067623347019538 0 -0.010449808737522456 0.018660646444599551 0 -0.0089946743987436937 0.018674201167622213 0 -0.009689510954488334 0.019495281558206699 0 -0.019885660364140308 0.018819925610658376 0 -0.019481293616350502 0.018876784926342441 0 -0.019907678164347541 0.01930408493176507 0 -0.019931336820543769 0.018485131756769246 0 -0.019481293616350502 0.018876784926342441 0 -0.019584144742830153 0.017873627359755149 0 -0.019481293616350502 0.018876784926342441 0 -0.018742634059282212 0.018635819475065641 0 -0.019584144742830153 0.017873627359755149 0 -0.019885660364140308 0.018819925610658376 0 -0.019931336820543769 0.018485131756769246 0 -0.019481293616350502 0.018876784926342441 0 -0.020302549588291363 0.01849003922592805 0 -0.019885660364140308 0.018819925610658376 0 -0.019907678164347541 0.01930408493176507 0 -0.020302549588291363 0.01849003922592805 0 -0.019885660364140308 0.018819925610658376 0 -0.019931336820543769 0.018485131756769246 0 -0.019931336820543769 0.018485131756769246 0 -0.020031119417375422 0.018091117649954667 0 -0.019350688235799943 0.017515362504589679 0 -0.021903680202760411 0.01711439807311706 0 -0.022082142248298898 0.017050028948658928 0 -0.019481293616350502 0.018876784926342441 0 -0.018742634059282212 0.018635819475065641 0 -0.01919417924526071 0.01926389679062954 0 -0.023861689590231511 0.01799708284837738 0 -0.022082142248298898 0.017050028948658928 0 -0.026478654175279847 0.017093280503057272 0 -0.02649099222293301 0.016492833440902591 0 -0.026983463822833738 0.016658608311042069 0 -0.026654479838820501 0.016056481159477918 0 -0.02649099222293301 0.016492833440902591 0 -0.026983463822833738 0.016658608311042069 0 -0.026478654175279847 0.017093280503057272 0 -0.02649099222293301 0.016492833440902591 0 -0.026126148006175756 0.016546906317084952 0 -0.022963799964367083 0.015845676823288597 0 -0.022082142248298898 0.017050028948658928 0 -0.020359251996216039 0.01667246416654157 0 -0.020106374468748783 0.017704885022041886 0 -0.019350688235799943 0.017515362504589679 0 -0.019709766910164177 0.016344350080710411 0 -0.020359251996216039 0.01667246416654157 0 -0.019509474320351515 0.017378872937232656 0 -0.021628481102365957 0.017255698984056798 0 -0.022082142248298898 0.017050028948658928 0 -0.020106374468748783 0.017704885022041886 0 -0.020031119417375422 0.018091117649954667 0 -0.019350688235799943 0.017515362504589679 0 -0.0091917554373533925 0.0096348932960763321 0 -0.0081879898743268415 0.011453260295342192 0 -0.0066987082991677707 0.014633655163307648 0 -0.0066713103543531906 0.014637237197953384 0 -0.006684816825863491 0.014647783079124045 0 -0.008185900466266563 0.0099336362038720417 0 -0.0066011707312447401 0.012694137660875474 0 -0.0081912045260183752 0.013468370005688316 0 -0.0072859588034560737 0.01358417557317756 0 -0.0073666572238921387 0.014027527918741213 0 -0.0081912045260183752 0.013468370005688316 0 -0.0080496830849576713 0.01329354741334364 0 -0.0072859588034560737 0.01358417557317756 0 -0.0091917554373533925 0.0096348932960763321 0 -0.010063593938102404 0.007600428730009056 0 -0.012034615360778411 0.011899156112798376 0 -0.01047345550024823 0.0099614872670607015 0 -0.0100156334867128 0.011344675203280795 0 -0.012034615360778411 0.011899156112798376 0 -0.0100156334867128 0.011344675203280795 0 -0.0099776453487499077 0.012650140122258121 0 -0.0100156334867128 0.011344675203280795 0 -0.0089484520450704395 0.012165478387544362 0 -0.0099776453487499077 0.012650140122258121 0 -0.0089629121909025247 0.010645427824240949 0 -0.0100156334867128 0.011344675203280795 0 -0.0089484520450704395 0.012165478387544362 0 -0.0072859588034560737 0.01358417557317756 0 -0.0065585531131993448 0.013876009129283195 0 -0.0073666572238921387 0.014027527918741213 0 -0.0089484520450704395 0.012165478387544362 0 -0.0099776453487499077 0.012650140122258121 0 -0.0079602911374093283 0.013365806258163028 0 -0.0081879898743268415 0.011453260295342192 0 -0.0072092570473862262 0.012487532445884979 0 -0.0079602911374093283 0.013365806258163028 0 -0.0075379836010920111 0.012027355059046931 0 -0.0067540914374264608 0.01279821427301565 0 -0.0089484520450704395 0.012165478387544362 0 -0.0079602911374093283 0.013365806258163028 0 -0.0075379836010920111 0.012027355059046931 0 -0.0073562227732774464 0.010711319069359923 0 -0.0089484520450704395 0.012165478387544362 0 -0.0075379836010920111 0.012027355059046931 0 -0.0072974912313973185 0.010506231485651246 0 -0.0089629121909025247 0.010645427824240949 0 -0.0089484520450704395 0.012165478387544362 0 -0.0091473368250676902 0.0090927970312210549 0 -0.0093422210338905722 0.0099256807668414385 0 -0.0073562227732774464 0.010711319069359923 0 -0.0056975784202932178 0.011856505768108743 0 -0.0075379836010920111 0.012027355059046931 0 -0.0056975784202932178 0.011856505768108743 0 -0.0075379836010920111 0.012027355059046931 0 -0.0067540914374264608 0.01279821427301565 0 -0.0056975784202932178 0.011856505768108743 0 -0.0067540914374264608 0.01279821427301565 0 -0.0060387604632091757 0.014009989060344575 0 -0.0079602911374093283 0.013365806258163028 0 -0.0067540914374264608 0.01279821427301565 0 -0.0060387604632091757 0.014009989060344575 0 -0.0065585531131993448 0.013876009129283195 0 -0.0060387604632091757 0.014009989060344575 0 -0.0063234064544514107 0.014231505233563695 0 -0.0063234064544514107 0.014231505233563695 0 -0.0061246167843546778 0.014517277556255934 0 -0.0065594198449500773 0.014545901898105878 0 -0.0072092570473862262 0.012487532445884979 0 -0.00668965270799028 0.012870895748839149 0 -0.0057263212789466786 0.014305453123175811 0 -0.0060387604632091757 0.014009989060344575 0 -0.0061246167843546778 0.014517277556255934 0 -0.0060387604632091757 0.014009989060344575 0 -0.0063234064544514107 0.014231505233563695 0 -0.0061246167843546778 0.014517277556255934 0 -0.0061246167843546778 0.014517277556255934 0 -0.0062837628355223172 0.014789148037324661 0 -0.0065594198449500773 0.014545901898105878 0 -0.0061246167843546778 0.014517277556255934 0 -0.0062837628355223172 0.014789148037324661 0 -0.0058550643739317598 0.015031452576358977 0 -0.0065594198449500773 0.014545901898105878 0 -0.0066016407631947693 0.014697721156270282 0 -0.0066512507140026956 0.014672511248836138 0 -0.0062837628355223172 0.014789148037324661 0 -0.0065594198449500773 0.014545901898105878 0 -0.0065249123667138285 0.014797482949631242 0 -0.0065594198449500773 0.014545901898105878 0 -0.0065249123667138285 0.014797482949631242 0 -0.0066016407631947693 0.014697721156270282 0 -0.0065249123667138285 0.014797482949631242 0 -0.0066016407631947693 0.014697721156270282 0 -0.0066123532252406088 0.014769879431825516 0 -0.0065585531131993448 0.013876009129283195 0 -0.0065594198449500773 0.014545901898105878 0 -0.0073666572238921387 0.014027527918741213 0 -0.0065585531131993448 0.013876009129283195 0 -0.0063234064544514107 0.014231505233563695 0 -0.0065594198449500773 0.014545901898105878 0 -0.0063047443093406834 0.013349105890304717 0 -0.0066011707312447401 0.012694137660875474 0 -0.0065594198449500773 0.014545901898105878 0 -0.0066594793919763154 0.014638489354314877 0 -0.0066512507140026956 0.014672511248836138 0 -0.0065594198449500773 0.014545901898105878 0 -0.0066713103543531906 0.014637237197953384 0 -0.0066594793919763154 0.014638489354314877 0 -0.0066594793919763154 0.014638489354314877 0 -0.0066512507140026956 0.014672511248836138 0 -0.0066827411842861626 0.014663779962046916 0 -0.0066016407631947693 0.014697721156270282 0 -0.0066549669553282462 0.014742782496026256 0 -0.0066512507140026956 0.014672511248836138 0 -0.0066016407631947693 0.014697721156270282 0 -0.0066123532252406088 0.014769879431825516 0 -0.0066549669553282462 0.014742782496026256 0 -0.0066549669553282462 0.014742782496026256 0 -0.0066512507140026956 0.014672511248836138 0 -0.0066834043370014645 0.01469564656950691 0 -0.0066512507140026956 0.014672511248836138 0 -0.0066834043370014645 0.01469564656950691 0 -0.0066827411842861626 0.014663779962046916 0 -0.0066834043370014645 0.01469564656950691 0 -0.0066951478407516699 0.014683971572011107 0 -0.0066827411842861626 0.014663779962046916 0 -0.0066549669553282462 0.014742782496026256 0 -0.0066834043370014645 0.01469564656950691 0 -0.0067037205365385625 0.01470993565708268 0 -0.0066834043370014645 0.01469564656950691 0 -0.0066951478407516699 0.014683971572011107 0 -0.0067037205365385625 0.01470993565708268 0 -0.0066933330331480226 0.014661425300377489 0 -0.0066951478407516699 0.014683971572011107 0 -0.0066827411842861626 0.014663779962046916 0 -0.0066594793919763154 0.014638489354314877 0 -0.0066827411842861626 0.014663779962046916 0 -0.006684816825863491 0.014647783079124045 0 -0.0066713103543531906 0.014637237197953384 0 -0.0066594793919763154 0.014638489354314877 0 -0.006684816825863491 0.014647783079124045 0 -0.0066933330331480226 0.014661425300377489 0 -0.0066827411842861626 0.014663779962046916 0 -0.006684816825863491 0.014647783079124045 0 -0.0066933330331480226 0.014661425300377489 0 -0.006694301856628654 0.014649622582371534 0 -0.006684816825863491 0.014647783079124045 0 0.0028829119822365713 0.03116136835158911 0 0.0038131706037241018 0.030871504698657036 0 0.0036976370253542605 0.031654512843706302 0 0.0038131706037241018 0.030871504698657036 0 0.0036976370253542605 0.031654512843706302 0 0.0048747804880662424 0.031770888899300603 0 0.0028202919466609948 0.030862426767583499 0 0.0027345167662846987 0.03051074498708908 0 0.0032584567944651715 0.03061042020541754 0 0.0028202919466609948 0.030862426767583499 0 0.0032584567944651715 0.03061042020541754 0 0.0033163065606770167 0.030724130987156754 0 -0.001705940017291338 0.022283961198593469 0 -0.0014245801884656404 0.024536996645862296 0 0.0022050675989660875 0.028354282699989086 0 -0.000733485228290002 0.026208229568910411 0 -0.0066549669553282462 0.014742782496026256 0 -0.0067037205365385625 0.01470993565708268 0 -0.0066173967580128255 0.014859443337391701 0 -0.0066123532252406088 0.014769879431825516 0 -0.0066549669553282462 0.014742782496026256 0 -0.0066173967580128255 0.014859443337391701 0 0.0038131706037241018 0.030871504698657036 0 0.0056194718357358633 0.030480151206570567 0 0.0048747804880662424 0.031770888899300603 0 -0.000733485228290002 0.026208229568910411 0 -0.00035655796927185719 0.02911594103194071 0 0.0056194718357358633 0.030480151206570567 0 0.0063176860301001163 0.031813693247623363 0 0.0048747804880662424 0.031770888899300603 0 -0.0050826834178003709 0.025707199751005515 0 -0.0042972919292266478 0.025539286413883051 0 -0.0045267501494940261 0.026791692384224384 0 -0.0014245801884656404 0.024536996645862296 0 -0.0040501840022233379 0.023865779257317411 0 -0.0065249123667138285 0.014797482949631242 0 -0.0066173967580128255 0.014859443337391701 0 -0.0063008873101983026 0.015052845152966135 0 -0.00011659593713668565 0.024788480679575939 0 -0.00064889881945133304 0.023775114378377715 0 -0.0030670336675980348 0.024282951057351777 0 -0.0014245801884656404 0.024536996645862296 0 -0.000733485228290002 0.026208229568910411 0 -0.0065249123667138285 0.014797482949631242 0 -0.0066123532252406088 0.014769879431825516 0 -0.0066173967580128255 0.014859443337391701 0 -0.0062837628355223172 0.014789148037324661 0 -0.0065249123667138285 0.014797482949631242 0 -0.0063008873101983026 0.015052845152966135 0 -0.000733485228290002 0.026208229568910411 0 -0.0040501840022233379 0.023865779257317411 0 -0.0048430227736071833 0.02322087822314357 0 -0.0072513190978810141 0.023722617864927225 0 -0.0072836947934375191 0.022798659280271055 0 -0.0042972919292266478 0.025539286413883051 0 -0.0038573905794414883 0.026315088077316365 0 -0.0033289085820123478 0.025704402991491664 0 -0.0040501840022233379 0.023865779257317411 0 -0.0067750608934184844 0.023010660337838159 0 -0.0040501840022233379 0.023865779257317411 0 -0.0066725367032114177 0.021639414742350448 0 -0.0062837628355223172 0.014789148037324661 0 -0.0063008873101983026 0.015052845152966135 0 -0.0058550643739317598 0.015031452576358977 0 -0.0042972919292266478 0.025539286413883051 0 -0.0038573905794414883 0.026315088077316365 0 -0.0045267501494940261 0.026791692384224384 0 -0.003968516892363807 0.027886889375865798 0 -0.0045267501494940261 0.026791692384224384 0 -0.0032744940603146124 0.027227552616670567 0 -0.0038573905794414883 0.026315088077316365 0 -0.0045267501494940261 0.026791692384224384 0 -0.0032744940603146124 0.027227552616670567 0 -0.0012454254835544229 0.030633110010198573 0 -0.00035655796927185719 0.02911594103194071 0 0.0056264587250679744 0.033739251806792124 0 0.0070017104907529812 0.033149142455337066 0 0.0058434454298933935 0.032701693813021154 0 0.0056264587250679744 0.033739251806792124 0 0.0058434454298933935 0.032701693813021154 0 0.0049465415710594424 0.032840872383327988 0 0.0063176860301001163 0.031813693247623363 0 0.0058434454298933935 0.032701693813021154 0 0.0048747804880662424 0.031770888899300603 0 0.0070017104907529812 0.033149142455337066 0 0.0063176860301001163 0.031813693247623363 0 0.0058434454298933935 0.032701693813021154 0 0.0048747804880662424 0.031770888899300603 0 0.0049465415710594424 0.032840872383327988 0 0.0039243645022849537 0.032411017843730981 0 0.0058434454298933935 0.032701693813021154 0 0.0048747804880662424 0.031770888899300603 0 0.0049465415710594424 0.032840872383327988 0 0.0056264587250679744 0.033739251806792124 0 0.0049465415710594424 0.032840872383327988 0 0.0042415893372342991 0.033484369682691563 0 0.0028941254149407892 0.032921215891026173 0 0.0042415893372342991 0.033484369682691563 0 0.0039243645022849537 0.032411017843730981 0 0.0049465415710594424 0.032840872383327988 0 0.0042415893372342991 0.033484369682691563 0 0.0039243645022849537 0.032411017843730981 0 0.0036976370253542605 0.031654512843706302 0 0.0048747804880662424 0.031770888899300603 0 0.0039243645022849537 0.032411017843730981 0 0.0030164919929085618 0.032076013366491969 0 0.0036976370253542605 0.031654512843706302 0 0.0039243645022849537 0.032411017843730981 0 -0.016387967230888097 0.022423818989325852 0 -0.012226290448366574 0.021955787600748965 0 -0.016387967230888097 0.022423818989325852 0 -0.010851918232600132 0.025931628281155104 0 -0.01194507382128376 0.022822720745947985 0 -0.012615640631814466 0.022734428222562678 0 -0.012583384843486502 0.023632070848235105 0 -0.015121885485725536 0.025026815365535814 0 -0.015605849861832208 0.024568913509467622 0 -0.015624331233842872 0.025109893442269507 0 -0.01851348578437054 0.020523132006362545 0 -0.018492811165517119 0.020116229035531809 0 -0.019085274007102603 0.019981018127929493 0 -0.019348289014345627 0.022209428883051816 0 -0.016387967230888097 0.022423818989325852 0 -0.018492811165517119 0.020116229035531809 0 -0.019111613170304378 0.019968393781175486 0 -0.018741387251722311 0.019505252613220107 0 -0.017009198257618968 0.022153456710372593 0 -0.016387967230888097 0.022423818989325852 0 -0.018742634059282212 0.018635819475065641 0 -0.018741387251722311 0.019505252613220107 0 -0.017961703318487957 0.019352620514850552 0 -0.016387967230888097 0.022423818989325852 0 -0.016476770373148392 0.022197011323648291 0 -0.018742634059282212 0.018635819475065641 0 -0.018741387251722311 0.019505252613220107 0 -0.01919417924526071 0.01926389679062954 0 -0.019121315177298027 0.019994666670379486 0 -0.018741387251722311 0.019505252613220107 0 -0.01919417924526071 0.01926389679062954 0 -0.018964104082175113 0.020180365107980582 0 -0.019907678164347541 0.01930408493176507 0 -0.020203573106735571 0.019998124530088177 0 -0.019481293616350502 0.018876784926342441 0 -0.01919417924526071 0.01926389679062954 0 -0.019907678164347541 0.01930408493176507 0 -0.019121315177298027 0.019994666670379486 0 -0.01919417924526071 0.01926389679062954 0 -0.019907678164347541 0.01930408493176507 0 -0.016387967230888097 0.022423818989325852 0 -0.017894714485507196 0.021037376439501491 0 -0.009689510954488334 0.019495281558206699 0 -0.010152317221236695 0.020067623347019538 0 -0.0089098482022255607 0.021639366250725059 0 -0.020302549588291363 0.01849003922592805 0 -0.019907678164347541 0.01930408493176507 0 -0.020203573106735571 0.019998124530088177 0 -0.013539275858178566 0.018695324669352704 0 -0.012226290448366574 0.021955787600748965 0 -0.0089946743987436937 0.018674201167622213 0 -0.009689510954488334 0.019495281558206699 0 -0.0089098482022255607 0.021639366250725059 0 -0.0067750608934184844 0.023010660337838159 0 -0.012226290448366574 0.021955787600748965 0 -0.010152317221236695 0.020067623347019538 0 -0.011533332292582459 0.021180889371517134 0 -0.0089098482022255607 0.021639366250725059 0 -0.010152317221236695 0.020067623347019538 0 -0.011559685514544876 0.0203708389600856 0 -0.011533332292582459 0.021180889371517134 0 -0.0074576730670328339 0.021664131937784964 0 -0.0066725367032114177 0.021639414742350448 0 -0.0066725367032114177 0.021639414742350448 0 -0.0067750608934184844 0.023010660337838159 0 -0.0067750608934184844 0.023010660337838159 0 -0.0060595826434670721 0.0262501555813709 0 -0.008685673901648424 0.02308984009448552 0 -0.0076549981757887626 0.024454752910304765 0 -0.0086064243027897877 0.025316042489323218 0 -0.0038573905794414883 0.026315088077316365 0 -0.0033289085820123478 0.025704402991491664 0 -0.0032744940603146124 0.027227552616670567 0 -0.008685673901648424 0.02308984009448552 0 -0.0069305475043372911 0.023394177521519757 0 -0.0076549981757887626 0.024454752910304765 0 -0.0069305475043372911 0.023394177521519757 0 -0.0076549981757887626 0.024454752910304765 0 -0.0068615976407599612 0.025467769878407501 0 -0.012226290448366574 0.021955787600748965 0 -0.010851918232600132 0.025931628281155104 0 -0.0076549981757887626 0.024454752910304765 0 -0.0068615976407599612 0.025467769878407501 0 -0.0086064243027897877 0.025316042489323218 0 -0.0032251233945786405 0.028763697412987656 0 -0.003968516892363807 0.027886889375865798 0 -0.0032744940603146124 0.027227552616670567 0 -0.0054367821635397514 0.029370587301369475 0 -0.0060595826434670721 0.0262501555813709 0 -0.008520331820330863 0.027543897548766887 0 -0.0086064243027897877 0.025316042489323218 0 -0.0076908328000540793 0.026505281128300549 0 -0.010443541176919324 0.028883892291395291 0 -0.010851918232600132 0.025931628281155104 0 -0.0068615976407599612 0.025467769878407501 0 -0.0086064243027897877 0.025316042489323218 0 -0.0076908328000540793 0.026505281128300549 0 -0.0062827757928043326 0.030784782822397824 0 -0.0062896017418915236 0.030700235963123809 0 -0.0063091379543803892 0.030748066386678152 0 -0.010851918232600132 0.025931628281155104 0 -0.0080229801757580477 0.02776493561248581 0 -0.016314947889862819 0.026522308666953612 0 -0.01635149355757758 0.025512240384590712 0 -0.015455406493459008 0.025804434280957897 0 -0.015605849861832208 0.024568913509467622 0 -0.01635149355757758 0.025512240384590712 0 -0.015624331233842872 0.025109893442269507 0 -0.01635149355757758 0.025512240384590712 0 -0.015624331233842872 0.025109893442269507 0 -0.015455406493459008 0.025804434280957897 0 -0.015121885485725536 0.025026815365535814 0 -0.015624331233842872 0.025109893442269507 0 -0.015455406493459008 0.025804434280957897 0 -0.015121885485725536 0.025026815365535814 0 -0.015455406493459008 0.025804434280957897 0 -0.014684104285684193 0.02544359816922339 0 -0.015342153158380525 0.026613758931294373 0 -0.014678408687869141 0.026306189980890373 0 -0.015455406493459008 0.025804434280957897 0 -0.023416668798903504 0.023377499381125592 0 -0.022280586215866881 0.023510497635266636 0 -0.022777464760025481 0.020058812170894367 0 -0.014678408687869141 0.026306189980890373 0 -0.015455406493459008 0.025804434280957897 0 -0.014684104285684193 0.02544359816922339 0 -0.021595277297832425 0.024425189164178424 0 -0.023743122707075077 0.020800008700138272 0 -0.023416668798903504 0.023377499381125592 0 -0.022777464760025481 0.020058812170894367 0 -0.023432589211584351 0.01944215091515417 0 -0.025500753561473449 0.021783987992806043 0 -0.026212055906203378 0.019669827561977288 0 -0.030987884923406546 0.017145214128157917 0 -0.026212055906203378 0.019669827561977288 0 -0.032935040837679092 0.017087473568326583 0 -0.032650131586460039 0.017285361284873065 0 -0.032886557423897601 0.017285270095388931 0 -0.032095996375681488 0.018032322380470076 0 -0.031092373957045106 0.018094755088768739 0 -0.030925440282962752 0.019129807881009587 0 -0.032803088047202056 0.017357390222855713 0 -0.032723840008568705 0.017439310888228782 0 -0.032933726137039029 0.017422795708591791 0 -0.032803088047202056 0.017357390222855713 0 -0.032650131586460039 0.017285361284873065 0 -0.032886557423897601 0.017285270095388931 0 -0.032803088047202056 0.017357390222855713 0 -0.032723840008568705 0.017439310888228782 0 -0.032650131586460039 0.017285361284873065 0 -0.026212055906203378 0.019669827561977288 0 -0.027586244351440137 0.018173906150701972 0 -0.023743122707075077 0.020800008700138272 0 -0.025427647536170914 0.019246455501856677 0 -0.032536612853264278 0.017409343222019015 0 -0.032519050544847432 0.017435745831939284 0 -0.032562857686157347 0.017563398290355272 0 -0.01851348578437054 0.020523132006362545 0 -0.017991007952023075 0.021026297839124297 0 -0.017977469259129207 0.020204293709216982 0 -0.032723840008568705 0.017439310888228782 0 -0.032650131586460039 0.017285361284873065 0 -0.032569692903870046 0.017584113475124299 0 -0.026212055906203378 0.019669827561977288 0 -0.023743122707075077 0.020800008700138272 0 -0.019348289014345627 0.022209428883051816 0 -0.023743122707075077 0.020800008700138272 0 -0.032536612853264278 0.017409343222019015 0 -0.032569692903870046 0.017584113475124299 0 -0.032562857686157347 0.017563398290355272 0 -0.018492811165517119 0.020116229035531809 0 -0.017977469259129207 0.020204293709216982 0 -0.017961703318487957 0.019352620514850552 0 -0.01851348578437054 0.020523132006362545 0 -0.018492811165517119 0.020116229035531809 0 -0.017977469259129207 0.020204293709216982 0 -0.032569692903870046 0.017584113475124299 0 -0.032562857686157347 0.017563398290355272 0 -0.032555234453297763 0.017777490380278562 0 -0.032723840008568705 0.017439310888228782 0 -0.032847075109595239 0.017547151880883346 0 -0.032933726137039029 0.017422795708591791 0 -0.032723840008568705 0.017439310888228782 0 -0.032569692903870046 0.017584113475124299 0 -0.032847075109595239 0.017547151880883346 0 -0.032569692903870046 0.017584113475124299 0 -0.032847075109595239 0.017547151880883346 0 -0.032555234453297763 0.017777490380278562 0 -0.032847075109595239 0.017547151880883346 0 -0.032854294204134812 0.017777547636534264 0 -0.032601523622056948 0.017732510174431053 0 -0.029818733719470334 0.016832939380144647 0 -0.027152202948654433 0.018133846634939561 0 -0.018492811165517119 0.020116229035531809 0 -0.018741387251722311 0.019505252613220107 0 -0.017961703318487957 0.019352620514850552 0 -0.025427647536170914 0.019246455501856677 0 -0.027152202948654433 0.018133846634939561 0 -0.033126966108677137 0.017572677059378757 0 -0.033387138899148197 0.017692153131217782 0 -0.033095804219159336 0.01781939051722356 0 -0.032847075109595239 0.017547151880883346 0 -0.032854294204134812 0.017777547636534264 0 -0.033126966108677137 0.017572677059378757 0 -0.032854294204134812 0.017777547636534264 0 -0.033126966108677137 0.017572677059378757 0 -0.033095804219159336 0.01781939051722356 0 -0.032847075109595239 0.017547151880883346 0 -0.033126966108677137 0.017572677059378757 0 -0.032933726137039029 0.017422795708591791 0 -0.033126966108677137 0.017572677059378757 0 -0.033098846068917658 0.017360012487679422 0 -0.032933726137039029 0.017422795708591791 0 -0.033126966108677137 0.017572677059378757 0 -0.033098846068917658 0.017360012487679422 0 -0.033299203210762705 0.017406357988706433 0 -0.033098846068917658 0.017360012487679422 0 -0.033218324486341863 0.017261352633712753 0 -0.033299203210762705 0.017406357988706433 0 -0.033098846068917658 0.017360012487679422 0 -0.032933726137039029 0.017422795708591791 0 -0.032886557423897601 0.017285270095388931 0 -0.033098846068917658 0.017360012487679422 0 -0.032886557423897601 0.017285270095388931 0 -0.033039939574849346 0.017205021278307097 0 -0.032803088047202056 0.017357390222855713 0 -0.032933726137039029 0.017422795708591791 0 -0.032886557423897601 0.017285270095388931 0 -0.032935040837679092 0.017087473568326583 0 -0.032886557423897601 0.017285270095388931 0 -0.033039939574849346 0.017205021278307097 0 -0.033060113884356881 0.017077109205659639 0 -0.032935040837679092 0.017087473568326583 0 -0.033039939574849346 0.017205021278307097 0 -0.033098846068917658 0.017360012487679422 0 -0.033039939574849346 0.017205021278307097 0 -0.033218324486341863 0.017261352633712753 0 -0.033167837372382679 0.017128894473215209 0 -0.033060113884356881 0.017077109205659639 0 -0.033039939574849346 0.017205021278307097 0 -0.033167837372382679 0.017128894473215209 0 -0.033039939574849346 0.017205021278307097 0 -0.033218324486341863 0.017261352633712753 0 -0.033167837372382679 0.017128894473215209 0 -0.033218324486341863 0.017261352633712753 0 -0.033346502566999392 0.017172069550706114 0 -0.033218324486341863 0.017261352633712753 0 -0.033346502566999392 0.017172069550706114 0 -0.033382715189536075 0.017301429417974121 0 -0.033346502566999392 0.017172069550706114 0 -0.033524497729795683 0.017239201050127034 0 -0.033382715189536075 0.017301429417974121 0 -0.033514853389110345 0.017058460270022387 0 -0.033346502566999392 0.017172069550706114 0 -0.033524497729795683 0.017239201050127034 0 -0.033514853389110345 0.017058460270022387 0 -0.033524497729795683 0.017239201050127034 0 -0.033697182428227515 0.017155101287092109 0 -0.033504547188522707 0.017401796068329457 0 -0.033685458472401175 0.017340876849617728 0 -0.03364950846268025 0.01749598423200165 0 -0.033524497729795683 0.017239201050127034 0 -0.033504547188522707 0.017401796068329457 0 -0.033382715189536075 0.017301429417974121 0 -0.033524497729795683 0.017239201050127034 0 -0.033504547188522707 0.017401796068329457 0 -0.033685458472401175 0.017340876849617728 0 -0.033504547188522707 0.017401796068329457 0 -0.033299203210762705 0.017406357988706433 0 -0.033382715189536075 0.017301429417974121 0 -0.033218324486341863 0.017261352633712753 0 -0.033299203210762705 0.017406357988706433 0 -0.033382715189536075 0.017301429417974121 0 -0.033896733237571169 0.017224976896280202 0 -0.033697182428227515 0.017155101287092109 0 -0.033685458472401175 0.017340876849617728 0 -0.033817692058980137 0.017075828326056527 0 -0.033896733237571169 0.017224976896280202 0 -0.033697182428227515 0.017155101287092109 0 -0.033524497729795683 0.017239201050127034 0 -0.033697182428227515 0.017155101287092109 0 -0.033685458472401175 0.017340876849617728 0 -0.033896733237571169 0.017224976896280202 0 -0.033685458472401175 0.017340876849617728 0 -0.033835031738717096 0.017425167243052948 0 -0.033830168850912397 0.018040836636250987 0 -0.033914798453772876 0.017554289193041406 0 -0.033835031738717096 0.017425167243052948 0 -0.033729185436629804 0.017622703765769552 0 -0.033795312435896049 0.017558118693266123 0 -0.033685458472401175 0.017340876849617728 0 -0.033835031738717096 0.017425167243052948 0 -0.03364950846268025 0.01749598423200165 0 -0.033835031738717096 0.017425167243052948 0 -0.03364950846268025 0.01749598423200165 0 -0.033729185436629804 0.017622703765769552 0 -0.033729185436629804 0.017622703765769552 0 -0.033795312435896049 0.017558118693266123 0 -0.033783098909388215 0.017579573795259304 0 -0.03364950846268025 0.01749598423200165 0 -0.033729185436629804 0.017622703765769552 0 -0.03361233260127347 0.017615199478538509 0 -0.033126966108677137 0.017572677059378757 0 -0.033299203210762705 0.017406357988706433 0 -0.033445898596370802 0.017542180355194056 0 -0.033504547188522707 0.017401796068329457 0 -0.033299203210762705 0.017406357988706433 0 -0.033445898596370802 0.017542180355194056 0 -0.033504547188522707 0.017401796068329457 0 -0.03364950846268025 0.01749598423200165 0 -0.033445898596370802 0.017542180355194056 0 -0.03364950846268025 0.01749598423200165 0 -0.033445898596370802 0.017542180355194056 0 -0.03361233260127347 0.017615199478538509 0 -0.03361233260127347 0.017615199478538509 0 -0.033387138899148197 0.017692153131217782 0 -0.033736119571940455 0.017697585730796182 0 -0.033729185436629804 0.017622703765769552 0 -0.03361233260127347 0.017615199478538509 0 -0.033736119571940455 0.017697585730796182 0 -0.033445898596370802 0.017542180355194056 0 -0.03361233260127347 0.017615199478538509 0 -0.033387138899148197 0.017692153131217782 0 -0.033126966108677137 0.017572677059378757 0 -0.033445898596370802 0.017542180355194056 0 -0.033387138899148197 0.017692153131217782 0 -0.034695523836401433 0.017679800346567728 0 -0.033736119571940455 0.017697585730796182 0 -0.034226823531050769 0.017370737200109222 0 -0.033387138899148197 0.017692153131217782 0 -0.033309961709737539 0.017920839779137193 0 -0.033736119571940455 0.017697585730796182 0 -0.033819101235403583 0.017330397893470288 0 -0.033798209083101945 0.017440308070402772 0 -0.033736119571940455 0.017697585730796182 0 -0.033756759141449807 0.017606752471874255 0 -0.034226823531050769 0.017370737200109222 0 -0.033756759141449807 0.017606752471874255 0 -0.034226823531050769 0.017370737200109222 0 -0.034099609232621828 0.016761314327001533 0 -0.033967546576391602 0.017330043170859274 0 -0.034167870609179626 0.016853727509120297 0 -0.034011045256822275 0.017531462647359483 0 -0.033981303127360765 0.017239654011054224 0 -0.034360013707553635 0.016882110819190589 0 -0.034226823531050769 0.017370737200109222 0 -0.034099609232621828 0.016761314327001533 0 -0.034909639998188018 0.016877805806973633 0 -0.034695523836401433 0.017679800346567728 0 -0.034226823531050769 0.017370737200109222 0 -0.034909639998188018 0.016877805806973633 0 -0.033795312435896049 0.017558118693266123 0 -0.033729831305027116 0.017575847054137138 0 -0.033783098909388215 0.017579573795259304 0 -0.033729831305027116 0.017575847054137138 0 -0.033783098909388215 0.017579573795259304 0 -0.033805491459883631 0.017452109012902776 0 -0.033890262507973785 0.017485119775879257 0 -0.033967546576391602 0.017330043170859274 0 -0.033729185436629804 0.017622703765769552 0 -0.034011045256822275 0.017531462647359483 0 -0.033783098909388215 0.017579573795259304 0 -0.033729185436629804 0.017622703765769552 0 -0.033736119571940455 0.017697585730796182 0 -0.033756759141449807 0.017606752471874255 0 -0.034011045256822275 0.017531462647359483 0 -0.033783098909388215 0.017579573795259304 0 -0.033805491459883631 0.017452109012902776 0 -0.033981303127360765 0.017239654011054224 0 -0.033805491459883631 0.017452109012902776 0 -0.033784751731258507 0.017053038904953549 0 -0.034011045256822275 0.017531462647359483 0 -0.033981303127360765 0.017239654011054224 0 -0.033805491459883631 0.017452109012902776 0 -0.033515620867416655 0.017557791243204057 0 -0.033729831305027116 0.017575847054137138 0 -0.033805491459883631 0.017452109012902776 0 -0.033515620867416655 0.017557791243204057 0 -0.033805491459883631 0.017452109012902776 0 -0.033784751731258507 0.017053038904953549 0 -0.033515620867416655 0.017557791243204057 0 -0.033339381145775636 0.016642036330374213 0 -0.033784751731258507 0.017053038904953549 0 -0.033339381145775636 0.016642036330374213 0 -0.033784751731258507 0.017053038904953549 0 -0.033887052807156641 0.016095499870130505 0 -0.033784751731258507 0.017053038904953549 0 -0.033887052807156641 0.016095499870130505 0 -0.034360013707553635 0.016882110819190589 0 -0.033981303127360765 0.017239654011054224 0 -0.033784751731258507 0.017053038904953549 0 -0.034360013707553635 0.016882110819190589 0 -0.033182667824973838 0.015750481300015919 0 -0.033339381145775636 0.016642036330374213 0 -0.033887052807156641 0.016095499870130505 0 -0.034099609232621828 0.016761314327001533 0 -0.034506618510468032 0.015953049231747157 0 -0.034909639998188018 0.016877805806973633 0 -0.034167870609179626 0.016853727509120297 0 -0.034302134406429111 0.016504732127104193 0 -0.033887052807156641 0.016095499870130505 0 -0.034360013707553635 0.016882110819190589 0 -0.034506618510468032 0.015953049231747157 0 -0.0351567090463316 0.015526806069318144 0 -0.034506618510468032 0.015953049231747157 0 -0.035297281469604563 0.016273450423881067 0 -0.034506618510468032 0.015953049231747157 0 -0.035297281469604563 0.016273450423881067 0 -0.034909639998188018 0.016877805806973633 0 -0.035297281469604563 0.016273450423881067 0 -0.034909639998188018 0.016877805806973633 0 -0.035845767492174933 0.016726391541313647 0 -0.0351567090463316 0.015526806069318144 0 -0.035297281469604563 0.016273450423881067 0 -0.035911589326471746 0.016077559690359389 0 -0.035297281469604563 0.016273450423881067 0 -0.035845767492174933 0.016726391541313647 0 -0.035911589326471746 0.016077559690359389 0 -0.035845767492174933 0.016726391541313647 0 -0.035911589326471746 0.016077559690359389 0 -0.036590053417890421 0.016263424813080084 0 -0.036197617853194745 0.015594051700379953 0 -0.035911589326471746 0.016077559690359389 0 -0.036590053417890421 0.016263424813080084 0 -0.026319950370718173 0.015443067215450631 0 -0.025971845770678167 0.015713078732533425 0 -0.026209509757502743 0.016102343047403447 0 -0.028725036767101704 0.015677478776650315 0 -0.029889091240873307 0.016750963196376634 0 -0.025971845770678167 0.015713078732533425 0 -0.026209509757502743 0.016102343047403447 0 -0.025974609810911025 0.016586234657654953 0 -0.035845767492174933 0.016726391541313647 0 -0.036590053417890421 0.016263424813080084 0 -0.036577238024232711 0.01720276181374451 0 -0.029889091240873307 0.016750963196376634 0 -0.03339359913685408 0.016990460973446718 0 -0.035845767492174933 0.016726391541313647 0 -0.036577238024232711 0.01720276181374451 0 -0.03566308531233716 0.017441769065647452 0 -0.026478654175279847 0.017093280503057272 0 -0.026126148006175756 0.016546906317084952 0 -0.025976615817269635 0.016585638129133225 0 -0.02649099222293301 0.016492833440902591 0 -0.026209509757502743 0.016102343047403447 0 -0.026126148006175756 0.016546906317084952 0 -0.026209509757502743 0.016102343047403447 0 -0.026126148006175756 0.016546906317084952 0 -0.025974609810911025 0.016586234657654953 0 -0.02974796490649749 0.016775149278184385 0 -0.029889091240873307 0.016750963196376634 0 -0.027152202948654433 0.018133846634939561 0 -0.029889091240873307 0.016750963196376634 0 -0.023861689590231511 0.01799708284837738 0 -0.027152202948654433 0.018133846634939561 0 -0.026478654175279847 0.017093280503057272 0 -0.025974474588377303 0.01752820767356859 0 -0.025976615817269635 0.016585638129133225 0 -0.032854294204134812 0.017777547636534264 0 -0.032592060949818091 0.018101513222241673 0 -0.032939765181231935 0.018019049641960994 0 -0.032854294204134812 0.017777547636534264 0 -0.032601523622056948 0.017732510174431053 0 -0.032592060949818091 0.018101513222241673 0 -0.032854294204134812 0.017777547636534264 0 -0.033095804219159336 0.01781939051722356 0 -0.032939765181231935 0.018019049641960994 0 -0.033309961709737539 0.017920839779137193 0 -0.033095804219159336 0.01781939051722356 0 -0.032939765181231935 0.018019049641960994 0 -0.033819101235403583 0.017330397893470288 0 -0.03339359913685408 0.016990460973446718 0 -0.033387138899148197 0.017692153131217782 0 -0.033309961709737539 0.017920839779137193 0 -0.033095804219159336 0.01781939051722356 0 -0.034695523836401433 0.017679800346567728 0 -0.034909639998188018 0.016877805806973633 0 -0.03566308531233716 0.017441769065647452 0 -0.034909639998188018 0.016877805806973633 0 -0.035845767492174933 0.016726391541313647 0 -0.03566308531233716 0.017441769065647452 0 
</DataArray>
</PointData>
<CellData Scalars="region_id,cross_section_updated," Vectors="" Tensors="stress,">
<DataArray type="Float64" Name="region_id" format="ascii">
5 5 6 5 5 5 5 6 5 5 5 5 5 5 5 5 5 5 5 5 6 5 5 5 5 6 5 5 5 5 5 5 5 6 5 5 5 5 5 5 5 5 6 5 5 5 5 5 5 5 5 5 5 5 6 6 5 5 5 5 5 5 5 5 6 5 5 5 5 5 5 5 5 5 5 5 5 5 5 5 5 5 5 5 5 5 5 6 5 5 5 5 5 5 5 5 5 5 5 6 5 5 5 6 5 5 5 5 5 5 5 5 5 5 5 5 5 5 5 5 5 5 5 5 5 5 5 5 5 5 5 5 5 5 5 5 5 5 5 5 5 5 5 5 5 5 5 5 5 6 5 6 5 5 5 5 5 5 5 5 5 5 5 5 5 5 5 5 5 5 5 5 5 5 5 5 5 5 6 5 5 6 5 6 5 5 5 5 5 5 5 5 5 5 5 5 5 5 6 5 6 5 5 5 5 5 5 5 6 5 6 5 5 5 5 5 5 6 5 5 6 5 5 5 5 5 5 6 6 5 5 6 5 6 5 6 6 5 5 5 6 5 5 5 5 5 5 5 5 5 5 5 5 5 6 5 5 5 5 5 5 5 6 5 5 5 5 5 5 5 6 5 5 5 5 6 5 5 5 5 5 5 6 5 5 5 6 5 5 5 5 5 5 5 6 5 5 5 5 5 5 6 5 5 5 5 5 5 6 5 5 5 5 5 5 5 6 5 5 5 5 5 5 5 5 5 5 5 5 5 5 5 5 5 5 5 5 5 6 6 5 5 5 5 5 6 5 5 5 5 5 5 5 6 5 6 5 5 5 6 5 5 5 6 5 6 5 5 5 5 5 5 5 6 5 5 5 5 5 5 5 6 5 5 5 6 5 5 5 5 5 5 5 5 5 5 5 5 5 5 5 5 5 5 5 5 5 5 5 5 5 5 5 5 5 5 5 5 6 5 5 5 5 5 5 5 5 5 5 5 5 5 5 5 5 5 5 5 5 5 5 5 5 5 5 5 5 5 5 5 5 6 5 5 5 5 5 5 5 5 5 5 5 5 5 5 5 5 5 5 5 5 6 5 5 5 5 5 5 5 6 5 5 5 5 5 6 5 5 6 5 6 5 5 5 5 6 5 5 6 5 5 5 5 5 5 6 5 5 5 5 5 5 5 5 5 5 5 5 5 5 5 5 5 5 5 6 5 5 5 5 5 5 5 5 5 5 5 6 6 5 5 5 5 5 5 5 5 5 5 5 5 5 5 5 5 5 5 5 5 5 6 5 6 6 5 5 6 5 5 5 5 5 5 5 5 5 5 5 5 5 6 5 5 5 5 5 5 5 6 6 5 5 5 5 5 5 5 5 6 6 5 5 5 6 5 5 5 5 5 5 5 5 5 5 5 5 5 5 5 5 5 5 5 5 5 5 5 5 5 5 5 5 5 5 5 5 5 5 5 6 5 5 6 5 5 5 5 6 5 5 5 6 5 5 5 6 5 5 6 5 5 5 5 5 5 5 5 5 5 5 5 5 5 5 5 5 5 5 5 5 6 5 5 5 6 5 5 5 5 5 6 5 5 5 5 5 5 6 5 5 5 5 5 5 5 5 5 5 5 5 5 5 5 5 5 5 6 5 5 5 5 5 5 5 5 5 5 5 5 5 5 5 5 5 5 5 5 5 6 5 5 5 5 5 5 5 5 5 5 5 5 5 5 5 6 5 5 5 5 5 5 5 5 5 5 5 5 5 5 5 5 5 5 6 5 5 5 5 5 5 5 6 5 5 5 5 5 5 5 5 5 5 5 5 5 5 5 5 5 5 5 5 5 6 5 5 5 5 5 5 5 5 5 6 5 5 5 5 5 5 5 5 6 5 5 5 5 5 5 5 5 5 5 5 5 5 5 5 5 5 5 5 6 5 5 5 5 5 6 5 5 5 6 5 5 5 5 5 5 6 5 5 5 5 5 5 5 5 5 5 6 5 5 5 5 5 5 5 5 5 5 5 5 6 5 6 5 5 5 5 5 5 5 6 5 6 5 5 5 5 5 5 5 5 5 5 5 5 5 5 5 5 5 5 5 5 5 5 5 5 5 5 5 5 5 5 5 5 5 5 5 5 5 5 5 5 5 5 5 5 5 6 6 5 5 6 5 5 5 5 5 5 5 5 5 5 5 5 5 5 5 5 6 5 5 5 5 6 5 5 6 5 5 5 5 5 5 6 5 6 5 5 6 5 5 5 5 5 5 5 5 5 5 6 5 5 5 5 5 6 6 5 5 5 5 6 5 5 6 5 6 5 5 5 5 5 6 5 5 6 5 5 5 5 5 5 5 5 5 5 5 5 6 5 5 5 5 5 5 5 5 5 5 5 5 5 5 5 6 5 6 5 6 6 5 6 5 5 6 5 5 5 5 5 5 6 5 6 5 5 6 5 5 5 6 5 5 6 5 5 5 5 5 6 5 5 6 5 5 5 5 5 6 5 6 5 5 6 5 5 6 5 5 5 5 5 5 5 5 6 5 5 5 5 5 5 5 5 5 5 6 5 5 5 5 6 5 5 6 5 5 5 5 5 6 5 5 5 5 5 6 5 6 5 5 5 5 5 5 6 5 5 5 5 5 5 5 5 6 6 6 5 5 5 5 6 5 6 5 5 5 6 6 5 5 5 6 5 5 5 6 5 6 5 6 6 5 6 5 5 5 5 6 5 5 5 6 5 6 5 6 5 5 5 5 5 5 5 6 5 5 5 5 6 5 5 5 5 5 5 5 5 6 5 6 6 5 5 5 6 5 5 5 5 6 6 5 5 6 6 5 5 5 5 5 6 5 5 5 5 5 5 5 5 6 5 6 5 5 5 5 5 5 5 5 5 5 5 5 5 5 5 5 5 6 5 5 5 5 5 5 5 5 5 5 5 5 5 5 5 5 5 5 5 5 5 5 5 5 5 6 5 6 5 5 5 5 5 6 6 5 5 5 5 6 6 5 6 5 5 6 5 5 6 5 5 5 5 6 6 5 5 5 5 5 5 5 5 6 5 5 6 5 5 5 6 5 5 6 5 5 5 5 5 5 6 5 5 5 5 5 5 6 5 5 5 5 5 6 5 5 6 6 5 5 6 5 5 6 5 5 5 5 5 5 5 5 5 5 5 5 6 5 6 5 5 6 5 5 5 5 5 5 6 5 5 5 6 6 6 5 5 5 6 6 5 6 6 5 5 6 5 5 6 5 6 5 6 5 5 5 6 6 5 5 6 6 6 6 5 5 5 6 6 5 5 6 6 6 5 6 6 5 5 6 5 6 6 5 6 5 5 6 5 6 6 5 5 5 5 6 6 5 5 6 5 5 5 6 5 5 5 5 5 5 5 5 5 5 5 5 5 5 5 5 5 5 5 5 5 5 5 5 5 5 5 5 5 5 5 5 5 5 5 5 5 5 5 5 5 5 5 5 5 5 5 5 5 5 5 5 5 5 5 5 5 5 6 5 6 5 5 5 5 5 5 5 5 5 5 5 5 5 5 6 5 5 5 5 5 5 5 5 5 5 6 5 5 5 5 5 5 5 5 5 5 5 5 5 5 5 5 5 5 5 5 5 5 5 5 5 5 5 5 5 5 5 5 5 5 5 5 5 5 5 5 5 5 5 5 5 5 6 5 5 5 6 5 6 5 5 5 5 5 6 5 6 5 5 5 5 5 5 5 5 5 5 5 5 5 5 5 5 5 5 5 5 5 5 5 5 5 6 5 5 5 5 5 5 6 5 6 5 5 5 6 5 5 6 5 5 5 5 5 5 5 5 5 5 5 5 5 5 5 5 5 5 5 5 5 5 5 5 5 5 5 5 5 5 5 5 5 5 5 5 5 6 5 6 5 5 5 5 5 5 5 5 5 5 6 5 5 5 5 5 5 5 5 5 5 5 5 5 5 5 5 5 6 5 5 5 6 6 5 6 5 5 5 5 5 5 5 5 6 5 5 5 5 6 5 5 5 5 5 5 5 6 5 5 6 5 6 5 5 6 5 5 6 6 5 5 5 5 5 5 5 5 5 5 5 5 5 5 5 6 5 6 5 5 5 6 5 6 5 5 5 5 5 5 5 5 5 5 5 5 6 5 6 5 5 5 5 5 5 5 5 6 5 5 6 5 5 5 6 6 5 5 5 5 5 5 5 5 5 5 5 5 5 5 5 5 5 5 5 5 5 6 5 5 5 5 5 6 5 6 5 5 5 5 6 5 5 6 5 5 5 5 5 6 5 5 5 5 6 5 5 5 5 5 5 5 6 5 5 5 6 5 5 5 5 5 5 5 5 5 5 5 6 5 5 5 5 5 5 5 5 6 5 5 5 5 5 5 6 5 5 5 5 5 5 6 5 5 5 5 5 5 5 5 5 5 5 6 5 5 5 6 5 5 5 6 5 6 5 5 5 5 5 5 6 5 5 5 5 5 5 5 5 5 5 5 5 5 5 5 6 5 5 5 5 5 6 5 5 5 5 5 5 5 5 6 5 5 5 5 5 5 5 5 5 5 5 5 5 5 5 5 6 5 5 5 5 6 5 5 5 5 5 5 5 5 5 5 5 5 5 5 5 5 5 5 5 5 5 5 5 5 5 5 6 5 5 5 6 5 6 5 5 5 5 6 5 6 5 5 5 5 5 6 5 5 5 5 5 5 5 5 5 6 5 5 5 5 5 5 5 5 5 5 5 5 5 5 5 5 5 5 5 5 5 5 5 5 6 6 5 5 5 5 5 6 5 5 5 6 5 5 5 6 5 5 6 5 6 5 5 5 5 6 5 5 5 5 6 6 5 5 5 5 5 5 5 5 5 5 5 5 6 5 5 5 5 6 5 5 5 5 5 6 5 5 6 5 5 5 5 5 5 5 5 5 5 5 5 5 5 5 5 6 5 5 6 5 5 5 6 5 5 5 5 5 5 5 5 5 5 5 6 5 5 5 5 5 5 5 5 5 5 5 5 5 5 5 5 6 5 5 6 5 6 5 5 6 5 6 5 6 5 5 5 5 5 5 5 5 5 5 5 5 5 6 5 6 6 5 5 6 6 5 5 6 6 5 5 5 6 5 6 5 5 6 5 5 5 5 6 6 5 6 5 5 6 6 5 5 6 5 5 5 6 5 5 5 6 6 6 5 5 6 5 6 6 5 5 5 5 5 5 5 5 5 5 5 6 6 5 6 5 6 5 6 5 5 5 6 5 5 5 5 5 6 5 5 5 5 5 5 5 5 5 5 5 5 5 5 5 5 5 5 5 5 5 5 5 5 6 5 5 5 5 5 5 5 5 5 5 5 5 5 5 5 5 5 5 6 5 5 5 5 5 5 5 5 5 5 5 6 5 5 5 5 5 6 5 5 5 5 5 5 5 5 5 5 5 5 5 5 6 5 5 5 5 5 5 5 5 5 5 5 5 5 5 6 5 6 5 5 5 5 6 5 5 5 5 5 5 5 5 5 5 5 5 6 5 6 5 5 5 5 6 5 5 5 5 5 5 5 6 5 5 5 5 5 5 5 6 5 5 5 6 5 6 5 5 5 5 5 5 5 5 5 6 5 5 5 5 5 5 5 5 5 5 5 5 5 5 5 5 5 5 5 5 5 5 5 5 5 5 5 5 5 5 5 5 5 5 5 5 5 5 5 5 5 5 5 6 5 5 6 5 5 5 5 5 5 5 5 5 5 6 5 5 5 5 5 6 5 5 6 5 5 5 5 5 5 6 5 5 5 5 6 5 5 6 5 6 5 5 5 5 5 5 5 5 5 5 5 6 5 6 5 5 5 5 6 5 5 5 5 5 5 5 5 5 5 5 5 5 5 5 5 5 5 5 5 5 6 5 5 5 5 6 5 5 5 5 5 5 5 6 5 5 5 5 5 6 5 5 5 6 5 5 5 6 5 5 6 5 5 5 6 5 5 6 5 5 5 5 5 5 5 5 5 5 5 5 5 5 5 5 5 5 5 5 5 5 5 5 5 5 5 5 5 5 5 6 5 5 5 5 5 5 5 5 5 5 5 6 5 5 5 5 5 5 5 5 5 5 5 5 5 5 5 6 6 5 5 5 6 5 5 5 5 6 5 5 6 5 5 5 5 5 5 5 5 5 5 5 5 5 6 6 5 5 5 5 5 5 5 5 5 5 5 6 5 5 6 5 5 5 5 5 5 5 5 5 5 5 5 5 5 5 5 5 5 5 6 5 5 5 6 5 5 5 5 5 6 5 5 5 5 5 5 5 5 5 5 5 5 5 5 5 5 5 5 5 5 6 5 5 6 5 5 5 5 5 5 5 5 5 5 5 5 5 5 5 5 5 5 5 6 5 5 5 5 5 5 5 5 5 5 5 5 5 5 5 5 5 5 5 5 5 5 5 5 5 5 5 5 5 5 5 5 6 5 5 5 5 5 5 6 5 5 5 5 5 6 5 5 5 5 6 5 5 5 5 5 5 5 5 5 5 5 5 5 5 5 5 5 5 5 5 5 5 6 5 5 5 5 5 5 5 6 5 5 6 5 5 6 5 5 5 5 5 5 6 5 5 5 5 5 5 5 5 5 5 6 5 6 5 5 5 5 5 5 5 5 6 5 5 6 5 5 5 6 5 5 5 6 5 5 5 6 6 5 5 6 5 5 6 5 5 6 5 5 5 5 5 5 5 5 5 6 5 5 5 6 5 5 5 6 5 5 5 6 5 6 5 5 6 5 5 5 5 5 5 5 5 6 5 5 6 5 5 5 5 5 5 5 5 5 5 5 5 5 6 5 6 5 5 5 6 6 5 6 5 5 5 5 6 5 6 5 5 5 5 5 5 5 5 5 6 5 5 5 5 5 5 5 5 5 5 5 5 5 5 5 5 5 5 5 5 5 5 5 5 5 5 5 5 6 5 5 5 5 5 5 6 5 5 5 5 5 5 6 5 5 5 5 5 5 6 5 5 5 6 5 5 5 6 5 5 6 5 5 5 5 5 5 6 5 5 5 6 6 5 5 5 5 5 5 5 5 5 5 5 5 5 5 5 5 5 6 5 5 5 5 5 5 5 6 5 5 5 5 5 6 5 5 5 5 5 6 5 5 6 5 5 5 5 6 5 5 5 5 5 5 6 5 6 5 6 6 5 6 5 5 5 6 5 5 5 5 5 6 5 5 5 6 5 5 5 5 6 6 6 5 5 5 5 6 6 5 6 5 5 5 5 5 5 6 5 6 5 5 6 5 5 5 6 5 5 6 5 5 5 5 5 5 5 5 5 5 5 5 6 5 5 5 5 6 5 5 5 5 6 5 5 5 5 5 5 5 5 5 6 6 6 5 5 5 6 6 5 5 6 5 6 5 5 5 5 5 5 5 6 5 5 5 5 5 5 5 5 5 5 5 5 5 5 5 5 6 5 5 5 5 5 5 5 5 5 6 5 5 6 5 6 5 6 5 5 6 5 5 5 6 6 5 5 6 5 5 5 6 5 5 5 5 6 5 5 5 5 5 5 5 5 5 5 5 6 6 5 5 5 5 5 5 5 5 5 5 5 5 5 5 5 5 5 5 5 5 5 5 5 5 5 5 5 5 5 5 5 5 6 5 5 5 5 5 5 5 5 5 5 5 5 5 5 5 5 5 5 5 6 5 5 5 5 5 5 6 6 5 5 6 6 5 5 5 6 5 5 5 5 5 5 5 5 5 5 5 5 5 5 5 5 5 5 5 5 5 5 5 6 5 6 5 6 5 5 5 5 5 5 6 5 6 6 5 5 6 5 5 5 5 5 5 6 6 5 5 6 6 5 5 6 6 5 5 5 5 5 5 5 5 6 5 5 5 5 5 6 5 5 6 5 5 5 6 5 5 5 5 5 5 5 5 5 5 5 5 5 5 5 5 5 5 5 5 5 5 5 5 5 5 5 5 5 5 5 5 5 5 6 5 5 6 5 6 6 5 5 5 5 5 5 5 5 5 6 5 5 5 5 5 6 5 5 5 5 5 5 5 6 5 5 5 5 5 5 5 5 6 5 5 5 5 5 6 5 5 5 5 5 5 5 5 5 5 5 5 5 5 5 5 5 5 5 5 5 5 5 5 5 5 5 5 5 5 6 6 5 5 5 5 5 5 5 6 5 5 5 6 5 6 5 5 5 5 5 5 5 5 5 5 5 5 5 5 5 5 5 5 5 5 5 6 5 5 5 5 5 5 6 5 5 5 5 5 5 5 6 5 5 6 5 5 5 5 5 5 6 5 5 5 6 5 5 6 6 5 5 5 5 5 5 5 5 5 5 5 5 5 5 5 5 5 5 5 5 5 5 5 5 5 5 5 5 6 5 5 5 5 5 5 5 5 5 5 5 5 5 5 5 5 5 5 5 6 5 5 5 6 6 5 5 5 5 5 6 5 5 5 6 5 5 5 5 5 6 5 5 5 5 5 5 5 5 5 5 5 5 5 5 5 5 5 5 5 5 5 6 5 5 5 5 5 5 6 5 5 5 5 5 5 5 5 5 5 5 5 6 5 5 5 5 6 5 6 5 5 5 5 5 5 5 5 5 5 5 5 5 6 5 5 5 5 5 6 5 5 5 5 5 5 6 5 5 5 5 5 5 5 5 5 5 5 5 6 5 5 6 5 5 6 5 5 6 5 5 5 5 5 5 5 5 5 5 6 5 5 5 5 5 5 5 5 6 5 5 5 6 5 5 5 6 5 5 6 5 5 5 6 5 5 5 5 5 6 5 6 5 5 5 5 6 6 5 5 5 6 5 5 5 5 6 5 5 5 5 5 5 5 5 5 5 5 5 5 5 5 6 5 5 6 6 5 5 5 5 6 5 5 5 5 5 5 6 5 5 5 5 5 5 6 5 5 5 5 5 5 5 5 6 5 5 5 5 5 5 5 5 5 5 6 5 5 6 5 5 6 5 5 5 5 5 6 6 5 5 6 6 5 6 5 6 5 6 6 5 5 6 5 6 5 6 5 6 5 6 5 5 6 5 6 5 6 5 5 5 5 5 5 6 5 5 5 6 5 5 5 5 5 5 5 5 5 6 5 5 6 5 6 5 6 5 5 5 6 6 5 5 5 5 5 5 5 5 5 5 5 6 5 5 5 5 5 6 5 5 5 5 5 5 5 5 5 5 5 5 5 5 5 5 5 6 5 5 5 5 5 5 6 5 5 5 6 5 5 6 5 5 5 6 5 6 6 5 5 5 5 5 5 5 5 5 6 5 5 5 5 5 5 5 6 5 6 5 6 5 5 5 5 5 5 5 5 5 5 5 5 5 5 5 5 5 5 5 5 5 5 5 5 5 5 5 5 5 5 5 5 5 5 5 5 5 6 5 5 6 6 5 5 5 5 6 5 5 5 5 5 6 5 5 6 6 5 5 5 5 5 5 6 5 6 5 5 6 6 5 6 5 5 5 6 5 5 5 5 6 5 5 5 6 5 5 6 6 5 5 5 6 5 5 5 5 6 5 5 6 5 5 5 6 5 5 6 5 5 5 6 5 6 5 5 6 5 5 6 6 5 5 6 5 6 6 5 5 5 5 6 5 5 5 5 6 5 5 5 5 5 5 5 5 5 5 5 5 6 5 5 5 5 6 5 6 5 5 5 5 5 6 6 6 5 5 5 5 5 5 5 5 6 5 5 5 5 5 5 6 5 5 5 5 6 5 5 5 5 5 5 5 5 5 5 5 5 5 5 5 5 5 5 6 5 6 5 5 6 6 5 6 5 5 6 5 6 5 6 5 6 5 5 5 5 6 5 5 5 6 5 5 5 5 5 5 5 5 5 5 5 5 5 5 5 5 5 5 5 5 5 5 5 5 5 6 5 5 5 5 5 6 5 5 5 5 5 5 5 5 5 5 5 6 5 5 5 5 5 6 5 5 6 6 5 5 5 6 5 5 6 6 5 6 5 5 5 5 5 5 5 5 5 5 5 5 5 5 5 5 6 5 5 5 5 6 5 5 5 5 5 5 5 5 6 6 5 5 6 5 5 5 5 5 5 5 5 5 6 6 5 5 6 5 5 5 6 5 5 5 5 5 5 5 5 5 5 5 5 5 5 5 5 5 5 5 5 5 5 5 5 5 5 6 5 5 5 5 5 5 5 5 5 5 5 5 5 5 5 5 5 5 5 5 6 5 5 5 6 6 5 5 5 6 5 5 6 5 5 5 5 5 6 5 6 5 5 5 5 5 5 5 5 6 5 5 5 6 5 5 6 5 6 5 5 5 6 5 5 5 6 5 5 5 5 5 5 5 5 5 5 5 5 5 5 5 5 5 6 5 5 5 5 5 5 5 5 5 6 5 5 5 5 5 5 5 5 6 5 5 5 5 5 5 5 5 5 5 5 5 5 6 5 5 5 6 5 5 5 5 5 5 5 5 5 5 5 5 5 5 5 5 5 5 5 6 5 5 5 6 5 6 5 5 5 6 5 5 5 6 6 5 5 5 5 5 5 5 5 5 5 5 5 5 5 5 5 5 5 5 5 5 5 6 5 5 5 5 6 5 5 5 5 6 5 5 5 5 5 5 5 6 5 5 5 5 6 5 5 5 5 5 5 6 5 5 5 5 5 5 6 5 5 5 6 5 5 5 5 5 5 5 5 5 6 5 5 5 5 5 5 6 5 5 5 5 5 5 5 5 5 5 5 6 5 5 6 5 5 5 5 5 6 5 5 6 5 5 5 5 5 5 5 6 6 5 5 5 5 6 5 5 5 5 5 5 6 5 5 5 5 5 5 5 5 5 5 6 5 5 5 5 5 5 5 5 5 5 5 5 6 5 6 5 5 5 6 5 5 6 5 5 5 5 6 5 5 5 5 5 6 5 5 5 5 5 5 5 5 6 5 5 5 5 6 5 5 5 5 5 5 5 6 5 5 5 5 5 5 5 5 5 5 6 5 5 5 6 5 6 5 5 5 5 5 5 6 5 6 5 6 5 5 5 5 6 5 5 5 5 5 5 5 5 5 5 5 5 5 5 6 5 6 5 5 5 5 5 5 5 6 5 5 5 5 5 5 5 5 5 5 5 5 5 6 5 5 5 5 6 5 5 5 5 5 5 5 5 5 5 5 5 5 5 5 5 5 5 5 5 5 5 5 5 6 5 5 5 5 6 5 5 5 6 5 5 6 5 5 6 5 5 5 5 5 5 5 5 5 5 5 5 5 5 5 6 5 5 6 5 5 5 5 5 5 5 6 5 5 5 5 5 6 5 5 5 6 5 5 5 6 5 5 5 5 5 5 5 6 5 5 5 6 5 6 6 5 5 5 5 5 6 5 5 5 5 5 5 5 5 5 5 6 5 5 5 5 5 5 5 5 5 5 5 5 5 5 5 5 5 5 5 5 5 5 5 5 5 5 5 5 5 5 5 5 5 5 5 5 5 6 5 5 5 5 5 5 5 5 5 5 5 5 5 5 5 5 6 5 5 5 5 5 5 5 5 5 6 5 5 5 5 5 5 5 6 5 5 5 5 5 5 5 5 5 5 5 5 5 5 5 5 5 5 5 5 5 6 5 5 5 5 5 5 5 5 5 5 5 5 5 5 5 5 5 6 5 5 5 5 5 5 5 5 5 5 5 5 5 5 5 5 5 5 5 5 5 5 5 5 5 5 5 5 5 5 5 5 5 5 5 5 5 5 5 5 5 5 5 5 5 5 6 5 5 5 5 5 5 5 5 5 5 5 5 5 6 5 6 5 5 5 5 5 6 5 5 5 5 5 6 6 5 5 5 5 5 5 5 5 5 5 5 5 5 5 5 5 5 6 6 5 5 5 5 5 5 6 5 6 5 5 5 5 5 5 5 5 5 6 5 5 5 5 5 5 5 5 5 5 5 5 5 5 5 5 5 5 5 6 5 5 5 5 5 6 5 6 5 5 5 5 5 5 5 6 5 5 5 6 5 5 5 6 5 5 6 5 5 5 6 5 5 6 5 6 5 6 5 5 6 5 5 5 5 5 5 5 5 5 5 5 5 5 5 5 5 5 5 5 5 5 6 5 6 5 5 5 5 5 5 5 6 5 5 5 5 5 5 5 5 5 5 5 5 5 5 5 5 5 5 5 6 5 5 5 6 5 5 5 5 5 5 5 5 5 5 6 5 5 5 5 6 5 5 6 5 5 5 5 5 6 5 5 5 5 6 5 6 5 5 6 5 5 5 5 5 5 5 6 5 5 6 5 6 5 5 5 5 5 5 5 5 5 5 5 5 5 5 5 5 5 5 6 5 5 5 5 5 5 5 6 5 5 5 5 6 5 5 5 5 5 5 5 5 5 6 5 5 5 5 6 5 5 5 5 5 5 5 5 5 5 5 5 6 5 5 5 5 5 5 5 5 5 6 5 5 5 5 5 5 5 5 5 5 5 5 6 5 5 6 5 5 5 5 5 5 5 5 5 6 6 6 5 5 5 6 5 5 5 5 5 5 6 5 5 5 6 6 5 5 5 5 5 5 5 5 5 5 5 5 6 5 5 5 6 6 5 5 5 5 5 6 5 5 5 5 6 5 5 5 5 6 5 5 5 5 5 6 6 6 5 5 5 6 6 5 5 5 5 5 5 5 5 5 6 6 5 5 5 6 6 5 5 5 5 5 5 5 5 5 5 5 5 5 5 5 5 5 6 5 6 5 5 5 5 6 5 5 5 5 5 5 5 6 5 5 5 5 5 5 5 6 5 5 6 5 6 6 5 5 5 6 6 5 5 5 6 6 5 5 5 5 5 5 5 5 5 5 6 5 5 5 5 5 5 5 6 5 5 5 5 6 5 5 5 5 5 5 6 5 5 5 5 6 5 6 5 5 5 5 5 5 5 5 5 5 5 5 5 5 6 5 5 5 5 5 5 5 6 5 5 5 5 6 5 5 5 6 5 5 5 5 5 5 5 5 5 5 5 5 5 5 5 5 5 5 5 5 5 5 6 5 6 5 5 6 5 5 5 6 5 5 6 5 5 5 5 5 5 5 5 5 5 5 5 5 5 5 5 5 5 5 5 6 6 6 5 5 5 5 5 5 5 5 5 5 5 5 5 6 5 5 5 6 5 5 6 5 5 5 5 6 5 5 6 6 5 5 5 5 6 5 5 6 5 6 5 5 5 5 5 5 5 5 5 5 5 5 6 5 5 5 5 5 5 5 6 5 6 5 5 5 5 6 5 5 5 5 5 5 5 5 5 5 5 5 5 5 5 5 5 5 5 5 5 5 5 6 5 5 5 6 5 6 5 5 5 6 5 5 5 5 5 6 5 5 6 5 5 5 5 5 5 5 5 6 5 5 5 5 5 6 5 5 5 5 5 5 5 5 5 5 5 5 5 5 6 5 5 5 5 6 5 5 5 5 5 5 5 5 5 5 5 5 6 5 5 5 5 6 5 5 5 5 5 5 5 5 5 5 5 5 5 6 5 5 6 5 5 5 6 5 5 5 5 5 5 5 5 5 5 5 5 5 6 6 5 6 6 5 5 5 6 6 5 6 5 6 5 6 5 5 5 6 5 6 5 5 5 5 6 5 5 5 5 5 5 6 5 5 5 5 5 6 5 5 6 5 5 6 5 5 6 5 5 5 5 5 6 5 6 5 5 5 5 5 5 5 5 5 5 5 5 5 6 5 5 6 5 5 5 5 5 5 5 5 5 6 5 5 5 5 5 5 5 5 5 6 5 5 6 5 6 5 5 5 5 5 5 5 6 5 5 5 5 5 5 5 6 5 6 5 5 6 5 5 5 6 5 5 5 5 6 5 5 5 5 5 6 5 5 5 5 5 5 5 5 5 5 5 5 5 5 5 5 5 5 5 5 5 6 5 5 6 5 5 5 6 5 5 5 5 6 5 5 5 5 5 5 5 5 5 5 5 5 5 5 5 5 5 5 5 5 5 5 5 6 5 5 5 5 5 5 6 5 5 5 5 5 5 5 5 5 5 5 5 5 6 5 6 5 5 6 5 5 5 5 6 6 5 6 5 6 5 5 5 5 5 6 5 5 6 6 5 5 5 5 5 6 5 5 6 5 5 5 5 5 5 5 5 6 6 5 5 5 6 5 6 5 5 5 5 5 6 5 6 5 5 5 5 5 6 6 5 5 5 5 6 5 5 5 5 6 5 5 5 5 5 5 5 5 5 5 5 5 5 5 5 5 5 6 5 5 6 5 5 5 6 5 5 5 5 5 5 5 5 5 5 5 5 5 5 5 5 5 5 5 6 5 5 5 5 5 5 5 5 5 5 5 5 5 5 6 6 5 5 5 6 5 5 5 5 5 6 5 5 5 5 5 5 5 5 5 5 5 6 5 5 6 5 5 5 5 5 5 5 5 5 5 6 5 5 5 6 5 6 5 6 5 5 5 6 6 5 6 5 5 6 5 5 6 6 5 5 5 6 5 5 6 5 6 5 5 5 6 5 5 6 6 5 6 5 5 6 5 6 5 5 5 5 5 5 5 5 5 6 5 5 5 5 5 6 5 5 5 5 5 5 5 5 5 5 6 5 5 5 5 6 6 5 5 6 5 6 5 5 5 5 5 6 5 5 6 5 6 5 5 5 5 5 5 5 6 5 5 5 5 5 5 5 5 5 6 5 6 5 6 5 6 5 5 5 5 6 5 5 5 5 5 6 6 5 5 5 5 5 5 6 5 5 5 5 5 6 5 5 5 5 6 5 5 6 5 6 5 5 5 6 5 6 5 5 6 6 6 5 5 5 5 5 5 6 6 6 5 5 5 5 6 5 6 5 6 5 5 5 5 5 5 6 5 5 5 5 5 5 5 5 5 5 5 5 5 5 5 5 5 5 5 5 5 5 5 5 5 5 5 5 5 5 5 5 5 5 5 5 5 5 5 5 5 5 5 5 5 5 5 5 5 6 5 5 5 6 6 5 5 5 5 5 5 5 5 5 5 5 5 5 5 5 5 5 5 5 6 5 5 5 5 5 5 5 6 5 5 6 5 5 6 5 5 6 5 6 5 5 6 5 5 5 6 5 6 5 6 6 5 5 5 6 6 5 5 6 5 5 6 5 5 5 5 5 5 5 5 5 5 5 5 6 5 5 5 5 6 5 5 5 5 6 5 5 5 5 5 5 5 5 5 6 5 6 5 5 5 5 6 5 5 5 6 5 5 5 5 5 5 6 5 5 6 5 5 5 6 5 5 5 5 5 5 5 6 5 5 5 5 5 6 5 5 5 5 5 5 5 5 5 5 5 5 5 5 5 6 5 5 5 5 5 6 5 5 6 5 6 5 5 5 5 6 6 5 5 6 5 5 5 5 5 5 5 5 5 5 5 6 5 6 5 5 5 5 5 6 5 5 5 6 5 5 5 6 5 5 5 5 5 5 5 5 5 5 5 5 5 6 5 5 5 5 5 5 5 6 5 6 5 5 5 5 5 5 5 6 6 5 5 5 5 5 5 5 5 5 6 5 5 5 5 5 5 6 6 6 5 6 5 5 5 5 5 5 6 5 6 5 6 5 6 5 5 5 5 5 5 6 5 5 6 5 5 5 5 6 5 5 5 5 5 5 5 5 5 5 5 5 5 5 5 5 5 5 5 5 5 6 5 6 5 5 5 5 5 5 5 5 5 5 5 5 5 5 5 5 5 5 5 5 5 5 5 5 5 5 5 5 5 5 5 5 5 5 5 5 5 5 5 5 5 5 5 5 5 5 5 5 5 5 5 5 5 5 5 5 5 5 6 5 5 5 5 5 5 5 5 5 5 5 5 5 5 5 5 5 5 5 5 5 5 5 6 5 5 5 6 5 6 5 5 5 5 5 5 5 5 5 5 5 5 5 5 5 5 5 5 5 5 5 5 5 5 5 5 5 5 5 5 5 5 5 5 5 5 5 5 5 6 5 6 5 5 5 5 5 5 5 5 5 5 5 5 5 5 5 5 5 5 5 5 5 5 5 5 5 6 5 5 5 5 5 5 5 5 5 5 5 5 5 5 5 5 5 5 5 5 5 5 5 5 5 5 5 5 5 5 5 5 5 5 5 5 5 5 5 5 5 5 5 5 5 5 5 5 5 5 5 5 5 5 5 5 5 5 5 5 5 5 5 5 5 5 5 5 5 6 5 5 5 5 5 5 5 6 5 5 6 5 5 5 5 5 5 5 5 5 5 5 5 5 5 5 5 5 5 5 5 6 5 5 5 5 5 5 5 5 5 5 5 5 5 5 5 5 5 5 5 5 5 5 5 5 5 5 5 5 5 5 5 5 6 5 5 5 5 6 5 6 5 5 5 5 5 5 6 5 5 6 5 5 6 6 5 6 5 5 5 6 5 5 5 5 5 5 5 5 5 5 5 5 5 5 5 6 5 5 5 5 5 5 5 5 6 5 5 5 5 5 5 5 5 5 5 5 5 5 5 5 5 5 5 5 5 5 5 5 5 5 5 5 5 5 5 5 5 5 5 5 5 6 5 5 5 5 5 5 5 6 5 5 6 5 6 5 5 5 5 5 5 5 5 5 5 5 6 6 5 5 6 5 5 6 6 5 5 5 5 6 5 6 5 5 6 5 6 6 5 6 5 6 5 5 5 5 5 5 5 6 5 6 5 5 5 5 5 6 5 5 5 6 5 5 6 5 6 5 6 6 5 5 6 5 5 5 5 5 5 6 5 5 5 5 5 5 5 5 6 6 5 5 5 6 5 5 5 5 6 6 5 6 5 5 5 6 5 5 5 5 5 5 5 5 5 5 5 5 5 5 5 5 6 5 5 5 5 5 5 6 5 6 5 5 5 6 6 5 5 6 5 6 5 5 5 5 5 5 5 5 5 5 5 5 6 6 5 5 5 5 5 6 5 5 5 5 5 5 5 6 5 5 5 6 5 6 5 5 6 5 5 5 5 5 5 5 5 5 6 5 5 6 5 5 5 5 5 5 5 5 5 5 5 6 5 5 5 5 5 5 5 5 5 5 5 5 5 5 5 5 5 5 5 5 5 5 6 5 5 5 5 5 5 5 5 5 5 5 6 5 5 5 5 6 5 5 5 5 5 5 5 5 5 5 5 6 5 5 5 5 5 6 5 6 5 5 5 5 5 5 5 5 5 6 5 5 6 5 5 6 5 5 5 5 6 5 5 5 5 5 5 5 5 5 5 5 5 5 5 5 5 5 5 5 5 5 6 5 5 6 5 6 5 5 5 5 5 5 5 5 5 6 5 5 6 6 6 5 5 5 6 5 5 5 5 5 5 6 6 5 6 5 5 6 5 5 6 5 5 5 5 6 5 5 5 5 6 5 5 5 5 5 5 5 5 5 5 5 6 5 5 6 5 6 6 5 5 6 6 6 5 5 5 5 5 5 5 5 5 5 6 5 5 5 5 5 5 5 5 5 6 5 5 5 5 5 6 5 5 5 5 5 5 5 5 5 5 6 5 5 5 5 5 5 5 5 5 5 5 5 5 5 5 5 5 5 5 5 5 5 5 5 6 6 5 5 5 5 5 5 5 5 6 5 5 5 5 5 5 5 5 5 5 5 5 5 5 5 5 6 5 5 5 5 6 5 5 5 6 6 5 5 5 5 5 5 6 5 6 5 5 5 6 5 5 5 5 5 5 5 5 6 5 6 6 5 5 5 5 5 5 5 5 5 5 5 5 6 5 5 6 5 6 5 5 5 5 5 5 5 5 5 5 5 5 5 5 5 5 5 5 5 5 5 5 5 6 5 5 5 5 5 6 5 5 5 5 5 5 5 5 5 5 6 5 5 5 6 5 5 5 5 5 5 5 5 5 5 5 6 6 5 5 5 5 5 6 5 5 5 6 5 5 5 5 5 5 5 5 5 5 6 5 5 5 5 5 5 5 6 6 5 6 5 5 5 5 6 5 5 5 5 5 6 5 5 5 5 5 5 5 5 5 5 6 5 5 5 5 5 5 5 5 5 5 6 5 5 5 5 5 5 5 6 5 5 5 5 5 5 5 5 5 5 5 5 5 5 5 5 5 5 5 5 6 5 5 5 6 5 5 5 5 5 5 5 5 5 5 5 5 5 6 5 6 6 5 6 6 5 5 5 5 5 6 5 5 5 5 5 5 5 6 5 5 6 5 5 6 5 5 6 5 5 6 6 6 6 5 5 6 6 5 5 6 5 5 6 5 5 5 5 6 6 6 6 5 5 5 6 5 6 5 6 5 6 6 5 5 5 5 5 5 5 6 5 5 6 5 6 5 5 6 6 5 5 5 5 5 5 5 5 5 5 5 5 5 5 5 5 5 6 5 5 5 5 5 5 5 5 5 5 5 5 5 5 5 5 5 6 5 5 5 5 5 5 5 5 5 5 5 5 5 5 6 6 5 5 5 5 6 5 6 5 5 5 6 6 5 6 5 5 5 5 5 5 5 5 5 5 5 5 5 5 5 5 5 5 5 6 5 6 5 5 5 5 6 5 5 5 5 5 5 5 5 5 5 5 5 5 5 5 5 5 5 5 5 6 5 5 5 5 5 5 5 5 5 5 5 5 5 5 6 5 5 5 5 5 5 5 5 5 5 5 5 5 5 5 5 5 5 5 5 5 5 5 5 5 5 5 5 5 5 5 5 5 5 5 5 5 5 5 5 5 5 5 5 5 5 5 5 5 5 5 5 5 5 5 5 5 5 5 5 5 5 6 5 5 5 6 5 5 6 5 5 5 5 5 5 5 5 5 5 5 6 5 5 5 5 6 5 5 5 5 5 5 5 5 5 5 5 5 5 5 5 5 5 5 5 5 5 5 5 5 5 5 5 5 5 6 5 5 5 5 6 5 5 5 5 5 5 5 5 5 5 6 5 5 6 5 5 5 5 5 5 5 5 5 5 5 5 6 5 5 5 5 5 5 5 5 6 5 5 5 5 5 5 5 5 5 5 6 5 6 5 5 5 6 5 5 5 6 5 6 5 6 6 5 5 5 5 5 6 5 5 5 5 5 5 5 5 5 5 5 5 5 5 5 5 5 5 5 5 5 5 5 6 5 5 6 5 5 5 6 5 6 5 5 5 5 5 5 5 5 5 5 5 5 6 5 5 5 5 5 5 5 5 5 5 5 5 5 5 5 5 5 5 5 6 5 5 5 5 5 5 5 5 5 5 5 5 5 5 5 5 5 5 5 5 5 5 5 5 5 5 5 6 5 5 5 5 5 5 5 5 5 5 5 5 5 5 5 5 5 5 6 5 5 5 6 5 5 5 6 6 5 5 5 5 5 6 5 5 5 5 5 5 5 6 6 5 5 5 6 5 6 5 5 5 5 5 5 6 6 5 5 6 6 5 5 5 5 5 5 5 5 5 5 6 5 5 5 5 5 5 6 5 5 5 5 5 5 5 5 5 5 5 5 5 5 5 5 5 6 5 5 5 5 6 5 5 6 5 5 5 5 5 5 5 5 5 5 5 6 5 6 5 6 5 5 5 5 5 5 5 5 5 5 5 5 5 5 5 5 5 5 5 6 5 5 6 5 5 5 6 5 5 6 5 5 5 5 6 5 5 5 5 5 5 5 6 5 5 5 5 5 5 5 5 5 5 5 5 5 5 5 5 5 5 5 5 5 5 5 5 5 5 5 5 5 6 5 5 5 5 5 5 5 5 5 5 5 5 5 5 5 5 5 5 5 5 5 5 5 5 5 5 5 5 5 5 5 5 5 5 5 5 5 6 6 6 5 5 6 5 5 5 6 5 6 5 5 5 5 5 6 5 5 5 5 5 5 5 6 5 5 5 5 5 5 5 5 5 5 5 5 5 5 6 5 5 5 6 5 6 5 5 5 5 5 5 5 5 6 5 5 5 5 5 5 5 6 5 6 5 6 5 5 5 5 5 5 5 5 6 5 5 6 6 6 5 6 5 6 5 5 5 5 5 5 5 5 5 5 5 5 5 5 5 5 5 5 5 5 5 6 5 5 6 6 5 5 5 6 5 5 5 5 5 5 5 6 5 6 5 5 5 5 6 5 5 6 5 5 5 5 5 5 5 6 5 5 6 5 5 5 6 5 5 5 5 5 5 5 5 5 6 5 5 5 5 5 5 6 5 5 6 5 5 5 5 6 5 5 5 5 5 5 6 6 6 5 5 5 6 5 6 5 6 5 5 5 5 5 5 6 5 5 5 6 5 5 5 6 5 5 5 5 5 5 5 5 5 5 5 5 6 5 5 5 6 5 5 5 5 5 6 6 5 5 6 5 6 6 6 5 5 5 6 5 5 5 5 5 6 5 5 5 5 5 5 5 5 5 5 5 5 6 5 5 5 5 5 5 6 5 5 6 5 5 6 5 5 5 5 5 6 5 5 6 5 6 5 6 5 5 5 5 5 5 6 5 5 5 5 6 5 5 5 5 5 5 5 5 5 5 6 5 5 5 5 5 6 5 5 5 5 5 5 5 5 5 5 5 5 5 5 5 6 5 5 5 5 5 6 5 6 5 5 5 5 5 6 5 5 5 5 5 6 5 5 5 5 5 6 5 5 5 5 5 5 5 5 5 5 6 5 6 5 6 5 5 6 5 5 5 5 5 5 5 5 6 5 6 5 5 5 5 5 5 5 5 5 5 6 5 5 5 5 5 5 5 5 5 5 6 5 5 5 6 5 6 6 5 5 5 6 5 5 5 6 6 5 5 5 5 5 5 5 5 5 5 6 6 5 5 5 5 5 6 5 5 5 5 5 5 5 5 5 5 6 5 6 6 6 5 5 5 5 5 5 5 5 6 5 5 5 5 5 5 5 5 5 5 5 5 5 5 5 5 5 5 5 5 5 5 5 5 5 5 5 5 5 6 5 5 5 5 6 5 5 5 5 5 5 5 5 6 5 5 5 5 5 5 5 5 6 5 5 5 5 5 5 5 5 5 5 5 5 5 5 5 5 5 5 5 5 5 5 5 5 5 5 6 5 5 5 5 5 5 6 5 6 5 5 6 5 5 5 6 5 6 5 5 5 6 5 5 5 6 5 5 5 5 5 5 6 5 5 5 5 5 5 5 5 5 5 5 5 5 5 5 5 5 5 5 5 5 5 5 5 5 5 5 6 5 6 5 5 5 5 6 5 5 5 5 5 5 5 5 5 5 5 5 5 6 5 5 6 5 5 6 5 5 5 5 5 6 5 5 5 5 5 5 5 5 6 5 6 5 5 5 5 5 6 6 5 5 6 5 5 5 6 5 5 5 5 5 5 5 6 5 5 5 5 5 5 5 5 5 5 5 5 5 5 5 5 6 5 5 5 5 5 6 5 6 5 5 5 5 5 5 5 5 5 5 5 5 6 5 6 5 5 5 5 5 5 6 6 5 5 5 5 5 5 5 5 5 5 5 5 5 5 5 5 5 5 5 5 5 6 5 5 6 5 5 5 5 5 6 5 5 5 5 5 5 6 5 5 5 5 5 5 5 5 5 5 5 5 5 5 5 5 6 5 5 6 5 5 5 5 6 5 5 5 5 5 5 5 5 5 5 5 6 5 5 5 5 5 5 5 5 5 5 5 5 5 5 5 5 5 5 5 6 5 5 5 5 5 5 5 5 5 5 5 5 6 5 5 5 5 5 5 5 5 5 5 5 5 5 6 6 5 5 5 5 5 5 6 5 5 5 5 5 5 5 5 5 5 5 5 5 5 5 5 5 5 5 5 5 5 5 5 5 5 5 5 5 5 5 5 5 5 5 6 5 5 5 5 5 5 5 5 6 5 5 5 5 5 5 5 5 5 5 5 5 6 5 5 5 5 6 5 6 5 5 5 5 5 5 5 5 6 5 5 5 5 5 5 5 5 5 5 6 5 5 5 6 5 5 6 5 5 5 5 6 5 5 6 5 5 5 5 5 5 5 5 6 5 5 5 6 5 5 5 5 5 5 5 6 5 6 5 6 5 6 6 5 5 5 6 6 6 5 5 6 5 5 5 6 5 5 5 5 6 5 5 5 5 5 5 5 5 5 5 5 5 5 5 5 5 5 5 5 5 5 5 5 5 5 5 5 5 5 5 5 5 5 5 5 5 5 5 6 5 5 5 5 5 5 5 5 6 5 5 5 5 6 5 5 6 5 5 6 5 5 5 5 6 5 5 5 5 5 6 5 5 5 5 5 5 5 5 5 5 5 5 5 6 6 5 5 5 6 5 5 5 5 5 5 5 5 5 5 5 5 5 5 6 5 5 5 5 5 5 6 5 5 6 5 5 5 5 5 5 5 5 5 5 6 5 5 5 5 5 6 5 5 5 5 5 5 5 5 5 5 6 5 5 5 5 5 5 5 5 5 5 5 5 5 5 5 6 5 5 5 5 5 5 5 5 5 5 5 5 5 5 5 5 5 5 5 5 5 5 5 6 5 6 5 5 5 6 5 5 5 5 5 5 5 5 5 6 5 5 5 6 5 5 5 5 5 5 5 5 5 5 5 5 5 5 5 5 6 5 5 5 5 5 6 5 5 5 6 5 6 5 5 5 5 5 5 6 5 5 5 5 5 5 5 5 5 5 5 5 5 5 5 5 5 5 5 5 5 5 5 5 5 5 5 6 5 5 6 5 5 5 5 5 5 5 6 5 5 5 5 6 5 5 6 5 5 5 5 5 5 6 5 5 5 6 5 5 5 6 5 5 5 5 5 6 5 5 5 5 5 6 5 5 5 5 5 5 5 5 6 5 5 6 5 5 5 5 6 5 5 5 5 6 5 5 5 5 6 5 5 5 6 5 6 5 5 5 5 5 5 5 5 5 5 6 5 5 5 5 5 5 5 6 6 5 5 5 5 5 6 5 5 5 5 5 6 5 5 5 6 5 5 6 5 5 6 5 5 5 6 5 5 5 5 5 5 6 5 5 5 5 5 6 5 5 5 5 5 6 5 5 5 5 5 5 6 5 5 5 5 6 5 5 5 5 5 6 5 5 5 5 5 5 5 5 5 5 6 5 5 5 5 5 5 5 6 5 5 5 5 6 6 5 5 6 5 5 5 5 5 5 5 6 5 5 5 5 5 5 5 6 5 6 5 5 6 5 5 5 5 6 5 6 5 5 5 5 5 5 5 5 5 5 6 5 5 5 5 5 6 5 5 5 6 5 5 5 5 6 5 5 6 5 5 5 5 5 6 5 6 5 6 6 5 5 5 5 6 6 5 5 5 5 5 5 5 5 5 5 5 5 5 6 5 5 5 5 5 5 6 6 5 5 5 5 5 5 5 5 5 5 5 5 5 6 5 5 5 5 5 5 5 5 5 5 5 5 5 5 5 5 5 5 5 5 5 5 5 5 5 5 5 5 5 5 5 5 5 6 5 5 6 5 5 5 5 5 5 5 6 5 5 5 6 5 5 6 5 5 5 6 6 5 5 5 5 6 6 5 5 5 5 5 5 5 5 5 5 5 5 5 5 6 5 5 6 5 5 5 6 5 5 5 5 6 5 5 6 5 5 5 5 5 5 5 5 5 5 5 6 5 5 5 5 5 5 5 6 5 5 5 5 5 5 5 5 5 5 5 5 5 5 5 5 5 5 6 5 5 5 5 5 5 6 5 6 5 5 5 5 5 6 5 5 6 5 5 5 6 5 5 5 6 5 5 5 5 5 5 5 5 5 5 5 5 5 5 6 5 5 5 5 6 6 5 5 5 5 5 5 5 5 5 5 5 5 5 5 5 5 5 5 5 6 5 5 5 5 5 5 5 5 6 5 6 5 5 5 5 5 5 5 6 5 6 5 5 5 5 5 6 5 5 5 5 5 5 6 5 5 5 5 5 6 6 5 5 5 6 6 6 5 5 5 5 5 6 5 5 5 5 5 6 5 5 5 5 6 5 6 6 5 6 6 5 5 5 6 5 5 5 6 5 5 5 6 5 5 5 6 5 5 5 5 5 5 5 5 6 5 5 5 6 5 5 5 5 5 5 6 5 5 5 5 5 5 6 5 5 5 5 5 5 5 5 5 5 5 5 5 5 6 5 6 5 5 5 6 5 5 6 5 6 5 6 5 5 6 5 5 5 5 5 5 6 5 5 5 5 6 5 5 5 5 5 5 6 5 5 5 5 5 5 5 5 5 5 6 5 5 5 5 5 5 5 5 5 5 5 5 5 5 5 5 5 5 5 6 6 5 5 5 6 5 5 6 5 5 6 5 5 6 5 5 6 6 5 5 5 5 6 5 5 5 5 5 5 5 5 5 5 5 6 6 5 5 5 6 5 6 5 6 5 5 5 5 5 6 5 5 6 5 6 5 5 6 6 6 5 5 5 5 6 5 5 6 5 6 5 5 6 5 5 5 5 5 5 5 5 6 5 6 6 5 5 5 5 5 6 6 5 5 5 6 6 5 5 5 5 5 5 5 5 6 5 6 5 5 5 5 5 5 5 5 5 5 5 5 5 5 5 5 5 5 5 5 5 5 5 5 5 5 5 5 5 6 5 5 5 5 5 5 5 5 5 5 5 5 5 5 5 6 5 5 6 5 5 5 5 5 6 5 5 5 5 5 5 5 5 5 5 5 5 5 6 5 5 5 5 5 5 5 5 5 6 5 5 6 5 5 5 5 6 6 6 5 5 5 5 5 6 5 5 5 
</DataArray>
<DataArray type="Float64" Name="stress" NumberOfComponents="9" format="ascii">
-1243620827.0802155 2069199444.1892738 0 2069199444.1892738 1047644.2437745361 0 0 0 0 -1992809.7715034485 442034470.09775162 0 442034470.09775162 -731385868.51121521 0 0 0 0 -955466.82845101506 2793346.1099094599 0 2793346.1099094599 -1152617.7916521505 0 0 0 0 1030677728.7097244 1401279428.3134117 0 1401279428.3134117 -620768539.25785065 0 0 0 0 -261730382.54847717 2109268906.7960091 0 2109268906.7960091 -442343.36032104492 0 0 0 0 -267454457.13046265 1596462722.1222115 0 1596462722.1222115 -484752026.27088928 0 0 0 0 -776419850.46788025 1152380033.6526718 0 1152380033.6526718 -644564076.32479572 0 0 0 0 -1072347.2567277439 2737856.8116646968 0 2737856.8116646968 -1098414.5157402605 0 0 0 0 -1874116887.8445168 1673963060.8265381 0 1673963060.8265381 -150741989.03276062 0 0 0 0 -661560836.43846893 1837119604.1952209 0 1837119604.1952209 -191186252.50241852 0 0 0 0 -665700403.85535038 1348061861.3534873 0 1348061861.3534873 -334718369.03904724 0 0 0 0 -223111838.43480682 1407526185.3695145 0 1407526185.3695145 -476788547.86445618 0 0 0 0 -192209980.75146484 1594003492.489109 0 1594003492.489109 -642212251.67798996 0 0 0 0 -193357763.19438171 1621262328.8826904 0 1621262328.8826904 -1074689000.1871109 0 0 0 0 -4318065.3952407837 1928929667.286953 0 1928929667.286953 -618306940.69831085 0 0 0 0 180151283.34547424 1425470367.0512924 0 1425470367.0512924 -1029484873.2865486 0 0 0 0 -269970676.42919159 1286001551.595829 0 1286001551.595829 -645957903.04690456 0 0 0 0 227254057.08662415 1151964457.9344864 0 1151964457.9344864 -665311775.20288944 0 0 0 0 316107912.06955719 670946473.70501328 0 670946473.70501328 -149810818.54918671 0 0 0 0 1129906417.9515953 1127204350.7048035 0 1127204350.7048035 -942494580.85140228 0 0 0 0 -474964.72066938225 1308014.8711333722 0 1308014.8711333722 -1192075.8472147137 0 0 0 0 -956068604.33940887 1099502459.9108582 0 1099502459.9108582 181570881.84409904 0 0 0 0 -420386118.11289597 1704685410.7199173 0 1704685410.7199173 -243617488.64144897 0 0 0 0 -681937774.0233078 1614934983.1538467 0 1614934983.1538467 -254559394.48185825 0 0 0 0 -1079572434.0529823 1988170852.3492889 0 1988170852.3492889 -51201.655639648438 0 0 0 0 -862876.76420591958 1860371.0470123924 0 1860371.0470123924 -997602.93945325911 0 0 0 0 819477141.39571953 649569790.66448402 0 649569790.66448402 -365284949.4380188 0 0 0 0 -2184670574.3622818 1425509005.8423615 0 1425509005.8423615 313957317.74663925 0 0 0 0 -110126612.85878754 805465606.70256805 0 805465606.70256805 484859.86009979248 0 0 0 0 -1163261442.5156097 425981877.92072678 0 425981877.92072678 247778636.82193756 0 0 0 0 -1163732242.4700398 854745453.44748223 0 854745453.44748223 -264062568.36351013 0 0 0 0 27166637.49407959 186120466.86413956 0 186120466.86413956 -54883877.128288269 0 0 0 0 -1327439098.0923061 708808654.79434872 0 708808654.79434872 -326481252.34237671 0 0 0 0 -750212.49247902259 315828.63864120096 0 315828.63864120096 -79098.195315673947 0 0 0 0 -1345115138.4038849 662696103.72757339 0 662696103.72757339 -186036738.48029327 0 0 0 0 -1351613788.6167145 782763537.24801636 0 782763537.24801636 -168443.69050795329 0 0 0 0 -1177018882.504097 714484387.33626938 0 714484387.33626938 -483587522.25653839 0 0 0 0 -1563648600.84552 1441919544.1631203 0 1441919544.1631203 -559466915.41614294 0 0 0 0 -723053925.11180878 149085611.40028381 0 149085611.40028381 200321987.51115417 0 0 0 0 -595526161.30736542 -31177909.417358398 0 -31177909.417358398 102082836.52677917 0 0 0 0 -727446018.92485809 28598896.221740723 0 28598896.221740723 129859524.0968399 0 0 0 0 -219193847.21980762 218355147.16367817 0 218355147.16367817 -47281454.568710327 0 0 0 0 -453915.9709126465 1023520.5700001419 0 1023520.5700001419 -1634805.127324909 0 0 0 0 -75359604.342907906 -314391891.7765851 0 -314391891.7765851 157081898.86104584 0 0 0 0 82497009.541145325 9566956.6318740845 0 9566956.6318740845 39701716.096721649 0 0 0 0 -556138231.65066528 -41402937.215736389 0 -41402937.215736389 139942349.1942215 0 0 0 0 -4884194.4915618896 70722421.914356232 0 70722421.914356232 29927616.996055603 0 0 0 0 -570764249.46383667 -111491962.62358093 0 -111491962.62358093 -191843183.40461731 0 0 0 0 -1218868142.2326469 324617213.11940384 0 324617213.11940384 59341047.926223755 0 0 0 0 -1690142255.0946579 1370889630.1704216 0 1370889630.1704216 -724236278.26517487 0 0 0 0 -1643344460.3640289 798578061.07431793 0 798578061.07431793 336243770.91810417 0 0 0 0 -1730022537.3792419 1614305852.5065536 0 1614305852.5065536 -1080114410.0846994 0 0 0 0 -1131161362.987587 1025365326.6706409 0 1025365326.6706409 -1078011808.0981598 0 0 0 0 340371598.33422089 -359299023.05181885 0 -359299023.05181885 183951601.31471252 0 0 0 0 296124.66277714074 1536583.3076737933 0 1536583.3076737933 -3285830.6115471795 0 0 0 0 -446822.44064965099 334379.5395107083 0 334379.5395107083 -373419.72867556289 0 0 0 0 -1363510349.0690279 1463473013.8594983 0 1463473013.8594983 -1108119511.6471558 0 0 0 0 -1371416899.7909317 1565600058.9574165 0 1565600058.9574165 -1447163094.0298233 0 0 0 0 -512665104.86650085 732884207.99492645 0 732884207.99492645 -634882560.79193878 0 0 0 0 -392054584.85333252 712302327.35746765 0 712302327.35746765 -177159465.4997406 0 0 0 0 -340776942.72340393 944684383.15831757 0 944684383.15831757 -420992310.70362091 0 0 0 0 575286741.11948013 -57658570.591570854 0 -57658570.591570854 -376236007.94044495 0 0 0 0 -158644516.03036499 -99424890.400512695 0 -99424890.400512695 364586529.70375061 0 0 0 0 193420235.06624222 356310166.99372292 0 356310166.99372292 -107420507.41641235 0 0 0 0 -190081.79446659237 4021975.327121323 0 4021975.327121323 -5591393.5815332681 0 0 0 0 -110863767.92250824 283308351.07283783 0 283308351.07283783 242694767.92537689 0 0 0 0 332866190.9342804 82307869.352966309 0 82307869.352966309 125302314.77924347 0 0 0 0 442102081.38204765 403728488.83251762 0 403728488.83251762 -93960170.491134644 0 0 0 0 159030869.42670059 669484914.88750839 0 669484914.88750839 -293645205.25387573 0 0 0 0 -1423526886.9743576 92564503.779594421 0 92564503.779594421 -237736167.38116455 0 0 0 0 -926693234.06162262 311215153.75502777 0 311215153.75502777 -223118882.59785461 0 0 0 0 -543796665.66819 -157355263.46465302 0 -157355263.46465302 -97066033.566482544 0 0 0 0 102195489.83584595 -52098824.083580017 0 -52098824.083580017 -245517500.71263123 0 0 0 0 -419863986.88420105 655853150.00243759 0 655853150.00243759 -327930398.58293915 0 0 0 0 -630237995.89072418 341545133.32839203 0 341545133.32839203 -380945706.85099411 0 0 0 0 -252196681.5550766 -156073777.71084213 0 -156073777.71084213 142916093.20526886 0 0 0 0 -670462153.99620438 193471462.72235107 0 193471462.72235107 -904390418.76493835 0 0 0 0 -1562657316.5398712 462877366.51978302 0 462877366.51978302 -392000953.707901 0 0 0 0 -1463507597.505806 255070575.61430359 0 255070575.61430359 -265533809.26313782 0 0 0 0 -1006558725.0741501 747050698.39792633 0 747050698.39792633 -680713740.2350769 0 0 0 0 -692830338.78474426 337725593.75305939 0 337725593.75305939 -185368182.45002747 0 0 0 0 -892150987.51935577 350865443.07021713 0 350865443.07021713 -72047941.523525238 0 0 0 0 -873046447.90789032 620146779.10084534 0 620146779.10084534 117195816.90233612 0 0 0 0 -842211325.13279724 725093056.82778168 0 725093056.82778168 -201800253.91681671 0 0 0 0 -841550203.61394739 218570686.94410548 0 218570686.94410548 34854710.884063721 0 0 0 0 902047164.85166168 324201426.5694294 0 324201426.5694294 -20235762.553283691 0 0 0 0 95614720.118114471 342614488.92477417 0 342614488.92477417 -362743720.41538239 0 0 0 0 -217594.94108282542 3965705.4909967184 0 3965705.4909967184 -4624998.8821110129 0 0 0 0 1221371483.7597961 214572504.3848114 0 214572504.3848114 179419467.58145142 0 0 0 0 572512670.85691833 345332110.8477478 0 345332110.8477478 273218212.60417175 0 0 0 0 503768895.75959587 535601061.39465714 0 535601061.39465714 227605637.52554321 0 0 0 0 602491390.93638611 202059145.53656387 0 202059145.53656387 243457714.98019409 0 0 0 0 176053922.45336151 556255059.24284172 0 556255059.24284172 63589870.899269104 0 0 0 0 326540488.9345932 349813788.18346214 0 349813788.18346214 33032436.311653137 0 0 0 0 277808441.0260849 407307560.92325974 0 407307560.92325974 -443012500.00398254 0 0 0 0 125083351.04974365 266652734.64691925 0 266652734.64691925 249510811.01983261 0 0 0 0 78842426.424797058 360927126.25777435 0 360927126.25777435 202251059.84923553 0 0 0 0 161690347.31413269 317392993.61871338 0 317392993.61871338 144416910.08567047 0 0 0 0 165862915.91957092 237431408.49030304 0 237431408.49030304 -4182844.4545440674 0 0 0 0 623367.95588986296 3122290.3580163419 0 3122290.3580163419 -6805642.1339662261 0 0 0 0 -1806586.9022064209 -125614529.39662933 0 -125614529.39662933 194330622.96411896 0 0 0 0 93202211.022045135 -28800603.748882771 0 -28800603.748882771 8498450.6805114746 0 0 0 0 386710976.38831329 251056572.57064056 0 251056572.57064056 122339911.21100235 0 0 0 0 178731.87616160698 809845.76237495989 0 809845.76237495989 -2644952.8181885704 0 0 0 0 322047569.42538452 -53597203.652114868 0 -53597203.652114868 63032059.522699356 0 0 0 0 -962996924.29724884 1159672999.2346611 0 1159672999.2346611 -1462741824.1393585 0 0 0 0 1007835882.7977753 -161682095.5851593 0 -161682095.5851593 -1017177515.4846115 0 0 0 0 213896286.88415527 363326391.08005524 0 363326391.08005524 -81647664.852077484 0 0 0 0 335561642.84515381 173738318.1497879 0 173738318.1497879 -845125197.62277222 0 0 0 0 450268446.62604523 574760325.69884872 0 574760325.69884872 -1068659184.1991119 0 0 0 0 878085989.89048004 624556992.22071075 0 624556992.22071075 -2541813187.6297531 0 0 0 0 458196962.22232056 532136016.42555618 0 532136016.42555618 -889830558.02263975 0 0 0 0 -219371101.11462402 1834127165.9550323 0 1834127165.9550323 -1760595725.2174187 0 0 0 0 431230.99513244629 1268217083.7718163 0 1268217083.7718163 -2832900879.2829666 0 0 0 0 -504883855.44556427 1559381560.2728481 0 1559381560.2728481 -1292638449.5188522 0 0 0 0 -305745441.78233337 1374670889.7704849 0 1374670889.7704849 -1138003095.1293488 0 0 0 0 54486174.372436523 1443451181.424984 0 1443451181.424984 -1111335944.6272507 0 0 0 0 235652975.3243866 1250355116.7812252 0 1250355116.7812252 -1022183389.9971237 0 0 0 0 63617324.111053467 1599624527.1182632 0 1599624527.1182632 -1580274687.9866104 0 0 0 0 364417734.96790314 1215383846.0651779 0 1215383846.0651779 -953347210.18757629 0 0 0 0 364591793.40118408 995095230.04532623 0 995095230.04532623 -718846687.26229095 0 0 0 0 234535636.05740356 1188570328.6945038 0 1188570328.6945038 -958490382.5909977 0 0 0 0 -670342092.47390938 1341051090.3820734 0 1341051090.3820734 -628483028.63557434 0 0 0 0 29235233.42414856 1117480057.8624802 0 1117480057.8624802 -584392893.85262299 0 0 0 0 82355749.443019867 1052014430.7172222 0 1052014430.7172222 -505798213.54246521 0 0 0 0 142780395.1402359 739153765.15880585 0 739153765.15880585 -152310066.79674149 0 0 0 0 291383558.91385746 706624370.51937628 0 706624370.51937628 -454802120.91653442 0 0 0 0 273816690.36808872 861839023.10650778 0 861839023.10650778 -831538135.78971863 0 0 0 0 244907914.0969696 651226009.07688141 0 651226009.07688141 -401791387.30269527 0 0 0 0 350348973.20983124 1159657407.8155975 0 1159657407.8155975 -1292756725.251091 0 0 0 0 -3819061.1783943176 12098465.31411171 0 12098465.31411171 -4920702.417175293 0 0 0 0 767455.00539016724 20222536.290267944 0 20222536.290267944 -16496944.389953613 0 0 0 0 -26108922.534896851 45671162.943275452 0 45671162.943275452 -55479810.017044067 0 0 0 0 4312974.6021499634 4681860.1042938232 0 4681860.1042938232 -40317740.469055176 0 0 0 0 3935903.9206323624 2908908.2803583145 0 2908908.2803583145 -41594673.352005005 0 0 0 0 59198980.804481506 14586011.204208374 0 14586011.204208374 -33382170.793106079 0 0 0 0 16999009.775760651 -4034287.7395744324 0 -4034287.7395744324 -34455273.658416748 0 0 0 0 37360544.974098206 -856160.52670288086 0 -856160.52670288086 -68215191.411743164 0 0 0 0 148113924.55498123 81433837.614908218 0 81433837.614908218 488955.97441101074 0 0 0 0 35597778.896648407 149764002.16230392 0 149764002.16230392 24710602.417633057 0 0 0 0 -2879977.2720184326 14972921.701160431 0 14972921.701160431 45705355.527702332 0 0 0 0 -22991355.082544327 73061027.79769516 0 73061027.79769516 -115246892.72146606 0 0 0 0 -165238240.48835754 106522984.57004166 0 106522984.57004166 13379431.598625183 0 0 0 0 -63348496.570569992 64204309.427061081 0 64204309.427061081 -222750.06774139404 0 0 0 0 -169715563.88717669 237978052.53979957 0 237978052.53979957 -235478982.57437134 0 0 0 0 -93383656.580060005 98571637.217850685 0 98571637.217850685 -72135150.353782654 0 0 0 0 -33723590.763462067 -23651182.575023651 0 -23651182.575023651 -60303561.952461243 0 0 0 0 -27621175.95526886 -16589642.707382202 0 -16589642.707382202 -11237087.875213623 0 0 0 0 42063592.557678223 37636743.964950562 0 37636743.964950562 -62365403.293258667 0 0 0 0 548659.29778602719 561699.95524729788 0 561699.95524729788 614005.88255070895 0 0 0 0 189444725.87711716 57307851.319217682 0 57307851.319217682 -205319724.63633347 0 0 0 0 -1307930.4955051914 442076.019362716 0 442076.019362716 -1560676.378302373 0 0 0 0 -203857846.30152512 476166110.55665207 0 476166110.55665207 -559348309.90676498 0 0 0 0 -196718317.80525589 30935475.500934601 0 30935475.500934601 -113808804.63643646 0 0 0 0 -518967521.3611145 174886758.8397789 0 174886758.8397789 -103740.12769317627 0 0 0 0 -600639840.04537392 344851012.24964333 0 344851012.24964333 -69926952.762588501 0 0 0 0 -955444400.94687653 222020850.83908081 0 222020850.83908081 213223.89456500584 0 0 0 0 -1131017873.7172165 452620939.25203705 0 452620939.25203705 -64625863.267410278 0 0 0 0 -1067684410.4714127 142293884.63715363 0 142293884.63715363 -65393037.721443176 0 0 0 0 -1006836088.1223297 233605693.26277161 0 233605693.26277161 30337481.113716125 0 0 0 0 -918590106.87289429 183251773.7114296 0 183251773.7114296 40988453.873626709 0 0 0 0 -890681572.33554077 213617185.55680084 0 213617185.55680084 -29377494.594696045 0 0 0 0 -1026234101.5574951 235531194.88613892 0 235531194.88613892 -471764.88502107532 0 0 0 0 -626328051.87844086 132864414.19356537 0 132864414.19356537 -26737345.873153687 0 0 0 0 -711622119.47673798 151987716.29223633 0 151987716.29223633 -23303967.795772552 0 0 0 0 -934585478.33600044 80845891.5229702 0 80845891.5229702 52555628.98348999 0 0 0 0 -961226418.389534 440687970.05410004 0 440687970.05410004 -201179329.50624084 0 0 0 0 -996787858.60850525 149444253.59393311 0 149444253.59393311 60674668.867889404 0 0 0 0 -979165401.16767883 348685172.32563782 0 348685172.32563782 -465250243.38938904 0 0 0 0 -1351824153.1098251 808063900.94778824 0 808063900.94778824 -372760235.53805447 0 0 0 0 -1739747672.4028702 635026211.91611862 0 635026211.91611862 -98410176.892875671 0 0 0 0 -1116286273.0865479 459367412.33208466 0 459367412.33208466 -53090409.252044678 0 0 0 0 -1249301450.0736942 454027947.95388317 0 454027947.95388317 28483629.185531616 0 0 0 0 -1374267251.4288368 467591392.36007881 0 467591392.36007881 -994989047.760849 0 0 0 0 -2004381326.5893784 314607233.57011414 0 314607233.57011414 -45372875.861858368 0 0 0 0 -1273460212.9030037 1148455528.357132 0 1148455528.357132 -673150213.05693054 0 0 0 0 -623698596.53760529 129908149.14200401 0 129908149.14200401 108743603.08354187 0 0 0 0 264201234.20093536 149097853.69698334 0 149097853.69698334 -483298145.3800993 0 0 0 0 -9773853.9193148538 4724878.1850924827 0 4724878.1850924827 1700053.2134029157 0 0 0 0 -285609392.43335724 -7375042.7863616943 0 -7375042.7863616943 215319579.41359711 0 0 0 0 -3317576124.287117 526788360.15148544 0 526788360.15148544 -77016138.127655029 0 0 0 0 -983716.28450229764 -60520.375176995993 0 -60520.375176995993 358973.45034970855 0 0 0 0 -3248315619.7726822 716739440.92340088 0 716739440.92340088 -430359137.14403534 0 0 0 0 -1766942.8909804262 2203410.69194372 0 2203410.69194372 -287589.46062252671 0 0 0 0 -1569345516.5016298 165016763.96506441 0 165016763.96506441 -967487818.53384399 0 0 0 0 -2102338634.3162689 826257329.61332703 0 826257329.61332703 -755464488.6048584 0 0 0 0 -1221488952.47995 -889424937.73921204 0 -889424937.73921204 -605896549.35801697 0 0 0 0 -3075813587.4434586 -396349802.13399124 0 -396349802.13399124 38610680.033050537 0 0 0 0 -2186580051.5470581 -1417851569.0139465 0 -1417851569.0139465 -437735286.39561272 0 0 0 0 -1494664841.5235138 -197170611.88620758 0 -197170611.88620758 18883251.721969604 0 0 0 0 -1772986709.1844711 -65072116.117298126 0 -65072116.117298126 -33236421.808074951 0 0 0 0 -1322787140.1585999 531884971.64881134 0 531884971.64881134 -149081766.49389648 0 0 0 0 -912649602.11395264 28462575.212730408 0 28462575.212730408 89474687.308280945 0 0 0 0 -1140345562.5796967 189018076.41570282 0 189018076.41570282 296553036.96958923 0 0 0 0 -1181811112.1207047 -444757120.89554977 0 -444757120.89554977 15175574.978805542 0 0 0 0 -1068977526.7522507 -390112515.84351921 0 -390112515.84351921 -186478184.85646057 0 0 0 0 -36711490.811569214 6508292.2879180908 0 6508292.2879180908 10788162.261047363 0 0 0 0 -23184823.268333435 4492754.2408370972 0 4492754.2408370972 5647351.2311859131 0 0 0 0 -5429049.738411203 1266130.6517433878 0 1266130.6517433878 7527770.21002841 0 0 0 0 -9602767.5053939819 13653349.854808807 0 13653349.854808807 1480057.0925979614 0 0 0 0 -9006068.7390534412 5891849.0942642465 0 5891849.0942642465 7172141.6124510467 0 0 0 0 -27113229.331794739 18313102.22542572 0 18313102.22542572 6242605.9783248901 0 0 0 0 -23038793.056747437 -20334917.700790405 0 -20334917.700790405 -16584138.333400726 0 0 0 0 -49174908.207626343 1698610.0456886292 0 1698610.0456886292 12761974.239044189 0 0 0 0 -40537045.287479401 16361299.479139328 0 16361299.479139328 6888692.0049209595 0 0 0 0 -24421569.008392334 7062555.7162265778 0 7062555.7162265778 12479452.044435501 0 0 0 0 -32912481.425590515 4394425.2139320374 0 4394425.2139320374 22417784.179718018 0 0 0 0 -24804934.389095306 26413703.390678406 0 26413703.390678406 35416542.593719482 0 0 0 0 -16289365.339966312 10847171.118043549 0 10847171.118043549 2630326.7457337333 0 0 0 0 -137104530.61888885 283811193.87922668 0 283811193.87922668 -382361987.87625885 0 0 0 0 -5264167.0694169533 5148624.7399707697 0 5148624.7399707697 -2767630.1635829955 0 0 0 0 46960485.275048256 68748100.492002487 0 68748100.492002487 18293978.962722778 0 0 0 0 -18714067.56690979 20702689.095413208 0 20702689.095413208 39795053.131809235 0 0 0 0 -113773361.61857605 70352906.410022736 0 70352906.410022736 77315454.723014832 0 0 0 0 -118892668.45551181 -49628415.339303613 0 -49628415.339303613 3656207.7705688477 0 0 0 0 -41403897.735198975 16813729.80904007 0 16813729.80904007 32008615.906784058 0 0 0 0 -5329501.2947502136 47534240.562614441 0 47534240.562614441 35615987.021056652 0 0 0 0 -3561611.724977836 2540081.4242220335 0 2540081.4242220335 7776032.5158163235 0 0 0 0 1744489.5170059204 15530153.454544067 0 15530153.454544067 7179104.0567817688 0 0 0 0 -33874417.311580658 -3296823.6861343384 0 -3296823.6861343384 42340159.850723267 0 0 0 0 -20172469.247134514 14966476.962350357 0 14966476.962350357 3951783.3090966782 0 0 0 0 -31813796.266372681 21480926.833747864 0 21480926.833747864 13926395.872351646 0 0 0 0 -25619522.38851738 20357495.086821556 0 20357495.086821556 9026379.5429916382 0 0 0 0 -51594103.450267792 27317445.735864639 0 27317445.735864639 8646081.6371612549 0 0 0 0 -34186681.224838257 35923828.752223969 0 35923828.752223969 -1994770.2943224907 0 0 0 0 -32001472.062107086 34524574.596487045 0 34524574.596487045 -3711822.4984321594 0 0 0 0 -24806675.950139999 30109080.450161934 0 30109080.450161934 -2214509.9057617188 0 0 0 0 -5153905.1770661678 19207463.455144562 0 19207463.455144562 1148844.4850495979 0 0 0 0 14246821.079222899 21724224.810386166 0 21724224.810386166 -2973858.5997429714 0 0 0 0 33302271.82844162 10771779.850851059 0 10771779.850851059 -17489689.811855316 0 0 0 0 746416036.92055511 -179286438.80986404 0 -179286438.80986404 -126368981.27052307 0 0 0 0 6221385.0740983151 1677696.2025206471 0 1677696.2025206471 -1031487.9660146311 0 0 0 0 150926674.98546028 304054759.04896545 0 304054759.04896545 265315663.98683929 0 0 0 0 4543920.1092736237 11393888.74131415 0 11393888.74131415 368146.07226220518 0 0 0 0 569561891.03007126 -416315627.06229401 0 -416315627.06229401 -181820574.15287781 0 0 0 0 -107313.02879062667 3502453.9805920143 0 3502453.9805920143 973756.49568935158 0 0 0 0 -338808.52216018364 12699379.127885673 0 12699379.127885673 2480744.4873270476 0 0 0 0 -6047846.8964385986 18548451.843101501 0 18548451.843101501 21912960.358901024 0 0 0 0 2945495.0547561646 9868719.3463077545 0 9868719.3463077545 643258.89003753662 0 0 0 0 -9162632.7481765747 5056146.7412490845 0 5056146.7412490845 5639745.8875427246 0 0 0 0 2607580.7819451913 10229164.888734508 0 10229164.888734508 7431115.8355445638 0 0 0 0 41003.191665649414 9373065.3807830811 0 9373065.3807830811 -7915991.2137298584 0 0 0 0 645584417.62092018 44372080.063465118 0 44372080.063465118 9396459.2206573486 0 0 0 0 101934078.04224014 217945653.71846676 0 217945653.71846676 -19816324.889846802 0 0 0 0 33414850.136894226 180947302.35297012 0 180947302.35297012 7103186.4209918976 0 0 0 0 28857429.866836548 170394693.90842819 0 170394693.90842819 -983067.99122238159 0 0 0 0 23417704.026468158 130964761.19555426 0 130964761.19555426 -39710683.527519226 0 0 0 0 145049431.8853817 178312164.51900101 0 178312164.51900101 -97406114.420747757 0 0 0 0 92150560.784235001 190000114.20538139 0 190000114.20538139 -90618981.846698761 0 0 0 0 148804399.74433517 208873828.44675636 0 208873828.44675636 -198221077.48329926 0 0 0 0 444528076.92120171 151854868.306427 0 151854868.306427 -196914302.4082489 0 0 0 0 220498124.15603352 -38964446.014368057 0 -38964446.014368057 -41287754.576778412 0 0 0 0 -14808061.080209732 92014265.024333954 0 92014265.024333954 -63353766.435094833 0 0 0 0 73678580.96552825 77538588.264995575 0 77538588.264995575 -71716334.809467316 0 0 0 0 17134213.237892158 22385365.119232066 0 22385365.119232066 -164176.33559670299 0 0 0 0 -61587062.989089966 46111433.639045715 0 46111433.639045715 -7576318.3510398865 0 0 0 0 -61273633.857620239 46137092.699781418 0 46137092.699781418 -7606668.0347595215 0 0 0 0 -50737952.991165161 31042474.762643814 0 31042474.762643814 1436446.7915802002 0 0 0 0 -95444052.274581909 41213827.896434784 0 41213827.896434784 -840022.17093658447 0 0 0 0 -120472876.44606018 61227044.815593719 0 61227044.815593719 -9856409.2850112915 0 0 0 0 -65840134.726760864 50376268.309942245 0 50376268.309942245 -7711252.2528381348 0 0 0 0 -128770533.32633972 52652781.633514404 0 52652781.633514404 -16129318.280990601 0 0 0 0 17412056.024274252 23801653.288157105 0 23801653.288157105 2389531.5931039713 0 0 0 0 -141160923.8193512 69611046.222038269 0 69611046.222038269 -36989394.161659241 0 0 0 0 -80302030.967841148 103267898.22802162 0 103267898.22802162 -29009942.516921997 0 0 0 0 -100398324.42470253 150122872.36281252 0 150122872.36281252 -53932532.592697144 0 0 0 0 -76321033.308499336 107443591.78757286 0 107443591.78757286 -8453184.0773658752 0 0 0 0 -76446920.021206856 104861973.34562874 0 104861973.34562874 30627275.005619049 0 0 0 0 -181384427.98907328 127426811.30029678 0 127426811.30029678 5209301.0446777344 0 0 0 0 -130033347.67956924 77043993.248149872 0 77043993.248149872 -21982283.23311615 0 0 0 0 14869454.731960457 25928582.819847912 0 25928582.819847912 4692383.7589942068 0 0 0 0 399054717.95407867 359043869.15307236 0 359043869.15307236 -238933669.33293915 0 0 0 0 -181691215.2219696 202890238.887146 0 202890238.887146 102152175.02725601 0 0 0 0 -262398929.11927032 36196455.52008152 0 36196455.52008152 1617310.8885192871 0 0 0 0 -218528641.83973694 81179933.372795105 0 81179933.372795105 -36106234.86101532 0 0 0 0 -643859.6727612149 686653.90534757078 0 686653.90534757078 657057.40818683803 0 0 0 0 466857325.22692871 188941029.99069214 0 188941029.99069214 112368717.13900757 0 0 0 0 -166205168.43565369 -202354382.66049194 0 -202354382.66049194 127571500.74051857 0 0 0 0 280625086.87342453 -138025373.345644 0 -138025373.345644 -7351023.6050109863 0 0 0 0 -137554264.67030334 -178250543.51070404 0 -178250543.51070404 65620882.829421997 0 0 0 0 -139487932.76297379 -95751072.235145569 0 -95751072.235145569 239518581.6954422 0 0 0 0 758633905.64648438 616741208.91973877 0 616741208.91973877 -592257510.93612671 0 0 0 0 -1402419.928990433 1218216.2410956658 0 1218216.2410956658 1739333.1353360154 0 0 0 0 61745587.269622803 440801746.07472992 0 440801746.07472992 98648521.925064087 0 0 0 0 -199161895.95048523 6343589.9508171082 0 6343589.9508171082 -335791.52543640137 0 0 0 0 -116866497.96707153 1607903.5886611938 0 1607903.5886611938 -1026905.9756832123 0 0 0 0 -2062025.6826357543 1484778.4906495139 0 1484778.4906495139 2148381.5928382315 0 0 0 0 -103398600.78160095 10061990.347286224 0 10061990.347286224 1241710.3435592651 0 0 0 0 -52038003.131767273 6769711.01121521 0 6769711.01121521 6566816.8617248535 0 0 0 0 -85570005.23796463 2184895.0285000801 0 2184895.0285000801 4174703.8665466309 0 0 0 0 -54971604.099697113 3290803.7540588379 0 3290803.7540588379 2953912.6531066895 0 0 0 0 -70085622.30027771 18447000.109306335 0 18447000.109306335 7099673.1691827774 0 0 0 0 20011188.742172241 39080240.589523315 0 39080240.589523315 -2828743.3452453613 0 0 0 0 -101431509.51268768 57127348.728496552 0 57127348.728496552 75894027.101974487 0 0 0 0 -4301263.6062336406 2331336.8954252973 0 2331336.8954252973 4175848.2329846174 0 0 0 0 -124792891.5246582 -17055197.547786713 0 -17055197.547786713 51624675.016242981 0 0 0 0 52711764.130443573 -26531134.306651115 0 -26531134.306651115 -124038325.84162903 0 0 0 0 -1035498203.4540405 666128038.49475861 0 666128038.49475861 319858901.87791824 0 0 0 0 496194050.90660095 131650963.1053772 0 131650963.1053772 -898186796.14967346 0 0 0 0 -845037148.19134521 -8519612.3554458618 0 -8519612.3554458618 234960702.53453827 0 0 0 0 -751826036.04139328 204113778.01207542 0 204113778.01207542 718212446.61759186 0 0 0 0 -3453187.9215698168 1843462.2704716083 0 1843462.2704716083 4865306.0922753662 0 0 0 0 -328610481.29315948 155295599.00603485 0 155295599.00603485 293799751.02028489 0 0 0 0 -916470711.16565323 -214863823.28479576 0 -214863823.28479576 1133180817.4230881 0 0 0 0 -1042714776.1786346 558725503.26072693 0 558725503.26072693 1411446981.9515438 0 0 0 0 -756800755.19161987 -349405975.9996376 0 -349405975.9996376 3068522889.672905 0 0 0 0 -1624374651.6935349 835576518.417696 0 835576518.417696 -266426663.41561127 0 0 0 0 17786374.220371246 997160930.5520649 0 997160930.5520649 -3225885229.2860985 0 0 0 0 -3104921.9185418189 1065822.1055232361 0 1065822.1055232361 -133855.53560288704 0 0 0 0 -487288960.01307678 -232124951.28574371 0 -232124951.28574371 -476684447.56377411 0 0 0 0 -121103922.43972015 438286386.73187065 0 438286386.73187065 -508710083.70214081 0 0 0 0 -545020965.38526917 193471178.51502609 0 193471178.51502609 25344269.782592773 0 0 0 0 -132811796.09094238 -41772385.969322205 0 -41772385.969322205 7553725.0702552795 0 0 0 0 51423706.096954346 214646702.1955719 0 214646702.1955719 -361716914.70919037 0 0 0 0 178918333.94949722 70639024.549095154 0 70639024.549095154 -201425713.32427979 0 0 0 0 -551546230.01314926 358036323.62976265 0 358036323.62976265 -361099618.47981262 0 0 0 0 -982089.7807257995 700596.30456313491 0 700596.30456313491 1157791.2461190224 0 0 0 0 -30584632.973876953 -41139159.506797791 0 -41139159.506797791 109401808.93484497 0 0 0 0 -215805240.978302 -3666446.7640037537 0 -3666446.7640037537 28546348.611748695 0 0 0 0 -206228728.70500183 32570948.835418701 0 32570948.835418701 18628750.064468384 0 0 0 0 -58934584.837341309 -3669602.3074874878 0 -3669602.3074874878 5915338.1618041992 0 0 0 0 -141049391.58937073 -33851719.356391907 0 -33851719.356391907 33773144.842468262 0 0 0 0 -68452741.377593994 -75157055.220741272 0 -75157055.220741272 39114849.534301758 0 0 0 0 -87701358.139923096 -104566904.06252289 0 -104566904.06252289 24309239.553329468 0 0 0 0 -110368583.54370117 -48072656.29359436 0 -48072656.29359436 68593573.270080566 0 0 0 0 -30445834.468345642 -39934609.353325844 0 -39934609.353325844 50536614.777923584 0 0 0 0 -55227126.955535889 -38334145.842376709 0 -38334145.842376709 59500415.465545654 0 0 0 0 -79877275.988067627 -17361412.865631104 0 -17361412.865631104 114729796.66699219 0 0 0 0 -29338605.075531006 12262311.448425293 0 12262311.448425293 88496824.073196411 0 0 0 0 23730617.393180847 30154282.18453598 0 30154282.18453598 15773851.164039612 0 0 0 0 -42507510.694961548 -8249654.7163124084 0 -8249654.7163124084 59361743.30670166 0 0 0 0 -11028464.080078125 -13250375.955463409 0 -13250375.955463409 45375225.36063385 0 0 0 0 -36529295.230499268 -19069422.521766663 0 -19069422.521766663 76753045.431274414 0 0 0 0 -45400804.833534241 -46914997.444248199 0 -46914997.444248199 23997859.622879028 0 0 0 0 -20070724.754386902 3825060.4550409317 0 3825060.4550409317 20442094.570663452 0 0 0 0 -8730100.9679260254 21738784.064609528 0 21738784.064609528 33422024.430801392 0 0 0 0 -14913448.760025024 27292238.875205994 0 27292238.875205994 79910369.188587189 0 0 0 0 -4758937.2400474548 13023777.445482254 0 13023777.445482254 -10806768.276786804 0 0 0 0 -4436091.6933795046 4490138.9472506531 0 4490138.9472506531 5058586.2890598401 0 0 0 0 -502752.97216543555 1108407.257874947 0 1108407.257874947 -1513338.5731652342 0 0 0 0 -131644831.30514526 -126450207.35802078 0 -126450207.35802078 305615247.73889542 0 0 0 0 34560735.564163208 62495061.448829651 0 62495061.448829651 60500400.711788177 0 0 0 0 28526655.520910263 -57048124.253155708 0 -57048124.253155708 105435229.92541504 0 0 0 0 -46346802.540023804 26648949.26738739 0 26648949.26738739 158703496.88167572 0 0 0 0 70495762.314418793 84487861.998103142 0 84487861.998103142 49330895.145645142 0 0 0 0 -6981666.682447575 7653713.1453232327 0 7653713.1453232327 -731900.17292895168 0 0 0 0 -773762.95848846436 -2575620.9192562103 0 -2575620.9192562103 -12415561.993204117 0 0 0 0 -16046038.497497559 8390260.4896659851 0 8390260.4896659851 4404513.73204422 0 0 0 0 -29481236.713394165 -5801118.4985589981 0 -5801118.4985589981 11780257.232204437 0 0 0 0 -11886667.87084198 -9819091.7197160721 0 -9819091.7197160721 7767450.9291343689 0 0 0 0 4222817.0331420898 9258972.5300331116 0 9258972.5300331116 2888403.1619491577 0 0 0 0 -39514498.517364502 17299459.309942245 0 17299459.309942245 42031572.214942932 0 0 0 0 -1051753.2455749512 17558890.348228455 0 17558890.348228455 3669592.5871925354 0 0 0 0 -5736191.1267951839 4164514.3496938385 0 4164514.3496938385 6225362.0118853711 0 0 0 0 -2498736.0766906738 10960809.417976379 0 10960809.417976379 2178244.3353633881 0 0 0 0 -6059523.7393602207 9484915.9783576224 0 9484915.9783576224 477362.72182972729 0 0 0 0 11856216.923950195 19112638.481723785 0 19112638.481723785 6153611.9543762207 0 0 0 0 -11142694.12802124 14725590.032699585 0 14725590.032699585 13062852.147655487 0 0 0 0 -12646401.585899353 20068788.739452362 0 20068788.739452362 15649785.548103333 0 0 0 0 -17456783.655059971 5148317.5893500037 0 5148317.5893500037 8203669.494272165 0 0 0 0 -19998229.702682495 13080344.392858505 0 13080344.392858505 15947753.877365112 0 0 0 0 -13432415.331787109 14195907.283721924 0 14195907.283721924 15199671.862289429 0 0 0 0 -27262121.549682617 -5699177.4933319092 0 -5699177.4933319092 -895706.47574996948 0 0 0 0 -6034707.5449959487 -1926688.1091391179 0 -1926688.1091391179 5140272.197032596 0 0 0 0 -21764421.525283813 20244580.893482208 0 20244580.893482208 65694515.063713074 0 0 0 0 -468417.70751754194 712573.02407375351 0 712573.02407375351 -571438.67297066003 0 0 0 0 -18864714.283966064 28318529.149551392 0 28318529.149551392 68627467.872009277 0 0 0 0 -3131088.8703460693 -702152.41186904907 0 -702152.41186904907 83029242.317207336 0 0 0 0 96441233.718254089 -43238173.839300156 0 -43238173.839300156 -101905138.23838997 0 0 0 0 -65193595.414245605 -71868154.093326569 0 -71868154.093326569 4263506.7431335449 0 0 0 0 -75375832.644561768 3361576.9392089844 0 3361576.9392089844 101209072.22676718 0 0 0 0 -70706094.030124664 -36195607.410623074 0 -36195607.410623074 101943050.84272766 0 0 0 0 -89054595.572563648 34057008.147346497 0 34057008.147346497 9783160.3810119629 0 0 0 0 -16670233.851063695 26877368.592785876 0 26877368.592785876 5317477.1243770681 0 0 0 0 -84765396.003106236 12643796.828909874 0 12643796.828909874 10959524.835769653 0 0 0 0 -26921293.439987183 34931809.150123596 0 34931809.150123596 49397148.921600342 0 0 0 0 -105970386.76418447 44216186.45627594 0 44216186.45627594 3801171.4501190186 0 0 0 0 -101176355.53053451 36816444.45488739 0 36816444.45488739 14288483.611793518 0 0 0 0 -117025575.74067545 54972934.226234436 0 54972934.226234436 14358018.858047485 0 0 0 0 -114683997.61769533 57316417.954982758 0 57316417.954982758 11211103.930587769 0 0 0 0 -28223873.379435539 76992267.622636795 0 76992267.622636795 -52609263.92527771 0 0 0 0 6086571.5971819684 28008186.601519696 0 28008186.601519696 8089188.3663631044 0 0 0 0 -113663532.17878389 50780996.522819519 0 50780996.522819519 19584671.262180328 0 0 0 0 -114699069.44182748 56039664.243927211 0 56039664.243927211 14798212.309127808 0 0 0 0 -109272504.10564232 53722937.587692261 0 53722937.587692261 4559790.7327575684 0 0 0 0 279123.93365549296 1068483.5818541348 0 1068483.5818541348 1313324.2048860453 0 0 0 0 -34272380.671005249 8178212.2450027466 0 8178212.2450027466 13491224.086208344 0 0 0 0 -16755667.764892578 16184684.511959076 0 16184684.511959076 -10526105.340774536 0 0 0 0 -19658003.25378418 22745709.533233643 0 22745709.533233643 9381712.3248901367 0 0 0 0 -5335934.2015838623 -7756338.3298568726 0 -7756338.3298568726 -3465344.3004894257 0 0 0 0 -12043690.178695679 12235935.76197052 0 12235935.76197052 -43114454.827194214 0 0 0 0 71527956.014755249 -39129285.295074463 0 -39129285.295074463 -28707570.698484421 0 0 0 0 14917542.658493042 -73013745.077293396 0 -73013745.077293396 33295327.77809906 0 0 0 0 16793622.131103516 -67471911.516197205 0 -67471911.516197205 -34280358.678085327 0 0 0 0 62263774.356109619 -165444216.50233459 0 -165444216.50233459 22734665.678436279 0 0 0 0 84771201.033508301 -33004218.639701843 0 -33004218.639701843 77986211.768763542 0 0 0 0 148145158.26241302 -83258357.613609314 0 -83258357.613609314 -37215563.055221558 0 0 0 0 135752304.98761749 -75254979.225715637 0 -75254979.225715637 -96685423.074012756 0 0 0 0 54486488.731736183 53679556.918515205 0 53679556.918515205 -119960183.30961609 0 0 0 0 -124524498.82233429 111145761.65492249 0 111145761.65492249 -25742457.629071236 0 0 0 0 -108736698.33312225 62855920.555465698 0 62855920.555465698 -10446076.838766098 0 0 0 0 -111428325.60696507 64455655.685691833 0 64455655.685691833 26580308.459840775 0 0 0 0 -134435051.87142205 87385091.898136616 0 87385091.898136616 43209523.421424866 0 0 0 0 -104064685.48203468 44480580.554330826 0 44480580.554330826 76048452.717666626 0 0 0 0 -105738401.44529772 87099674.96732235 0 87099674.96732235 99942307.103580475 0 0 0 0 -122345650.70846558 31111095.799518585 0 31111095.799518585 46385173.560466766 0 0 0 0 -122547543.15049458 40434244.101665497 0 40434244.101665497 58815014.791194916 0 0 0 0 -127671157.06183863 77488740.951280594 0 77488740.951280594 35825484.675636292 0 0 0 0 -124584470.66610718 48001343.64692688 0 48001343.64692688 35909415.369130611 0 0 0 0 -111171464.60274887 28958552.542503357 0 28958552.542503357 26007470.151618958 0 0 0 0 -112534676.66516018 27825356.486206055 0 27825356.486206055 33856384.962717056 0 0 0 0 -117882172.32189035 27475492.059764862 0 27475492.059764862 49132166.075458527 0 0 0 0 -111896817.94703388 -6306350.4397449493 0 -6306350.4397449493 35899708.283550262 0 0 0 0 -116079306.20089436 5329814.7413063049 0 5329814.7413063049 53677741.48009491 0 0 0 0 -105298462.23230553 17148800.393623352 0 17148800.393623352 23657101.468482018 0 0 0 0 -109600975.82936001 8757013.6394538879 0 8757013.6394538879 27806979.430145264 0 0 0 0 -109252904.42938232 -4325366.0480880737 0 -4325366.0480880737 27208191.945563078 0 0 0 0 -117115815.18129158 -45221070.826921463 0 -45221070.826921463 1021411.7142715454 0 0 0 0 -23061166.37946406 24174656.52432549 0 24174656.52432549 6743244.0710868668 0 0 0 0 -98185686.878763199 -27084960.430469513 0 -27084960.430469513 -17284839.748216629 0 0 0 0 -93931213.627484322 725072.26669883728 0 725072.26669883728 -4095174.3996658325 0 0 0 0 -112160700.39175224 -24675294.942798615 0 -24675294.942798615 23605492.584632158 0 0 0 0 -106509347.45153522 -19427782.458833694 0 -19427782.458833694 21090860.368530273 0 0 0 0 -106488735.32637739 -1338480.9332351685 0 -1338480.9332351685 22065919.686897278 0 0 0 0 -93649420.903043747 -43852732.029918671 0 -43852732.029918671 34510630.757679939 0 0 0 0 -93668857.202003479 -41477417.153295517 0 -41477417.153295517 11528379.853385925 0 0 0 0 -99624774.724651337 -32169716.153018951 0 -32169716.153018951 40574459.086074829 0 0 0 0 -95310086.668558121 -36399603.872423172 0 -36399603.872423172 50854545.655605316 0 0 0 0 -94976083.197841644 -29011607.285331726 0 -29011607.285331726 32497468.677625179 0 0 0 0 -112735003.56766033 -16512879.369707108 0 -16512879.369707108 83793671.948799133 0 0 0 0 -112341020.55764198 -6113399.252456665 0 -6113399.252456665 46779691.921052933 0 0 0 0 -122390300.12165222 29643197.029698581 0 29643197.029698581 104623755.87835693 0 0 0 0 -118462131.92562866 2241819.6672039032 0 2241819.6672039032 72108957.389511108 0 0 0 0 -110289755.66191864 -44971895.102687836 0 -44971895.102687836 104112769.49381638 0 0 0 0 -121418356.75055695 -1324215.9312591553 0 -1324215.9312591553 168212202.13978767 0 0 0 0 -95831468.508277893 -35826512.727810383 0 -35826512.727810383 71095728.650836945 0 0 0 0 -48862312.087638855 -85684118.681171417 0 -85684118.681171417 37760112.760653496 0 0 0 0 -98070746.662372589 -138915489.30216384 0 -138915489.30216384 235707596.95661926 0 0 0 0 -87091854.788049698 -167220555.35974503 0 -167220555.35974503 73778621.259455681 0 0 0 0 -112456269.12276649 -63092015.954685211 0 -63092015.954685211 287942421.32794952 0 0 0 0 -102901344.63704109 -19342269.829081535 0 -19342269.829081535 165087429.28214264 0 0 0 0 -60289126.54086113 138637024.22662354 0 138637024.22662354 276918017.80412674 0 0 0 0 -90680607.303508759 73933292.099294662 0 73933292.099294662 136930153.10054302 0 0 0 0 -97910249.625247955 74461539.528425217 0 74461539.528425217 175439598.28051758 0 0 0 0 -42964664.053836346 133669741.90902877 0 133669741.90902877 86063160.649887085 0 0 0 0 -46017596.160093307 110321190.39129257 0 110321190.39129257 26810802.949619293 0 0 0 0 -6352891.7270393372 179709345.12621307 0 179709345.12621307 135042341.05498028 0 0 0 0 1379781.8946437836 169426982.40225983 0 169426982.40225983 84502190.307121277 0 0 0 0 40307583.555583954 210059241.87416506 0 210059241.87416506 95289246.685600281 0 0 0 0 154312507.39309692 81122868.84330368 0 81122868.84330368 -192680651.8162384 0 0 0 0 129212405.35848808 -119773831.13331914 0 -119773831.13331914 -102376468.78343964 0 0 0 0 -825345.65347901732 1240297.7250317484 0 1240297.7250317484 -2008394.8236710769 0 0 0 0 -36571513.479003906 124002149.62080383 0 124002149.62080383 32726586.251724243 0 0 0 0 -266811807.05343628 -93768382.742359161 0 -93768382.742359161 297138693.96353912 0 0 0 0 -120608489.11470032 -55473917.674819946 0 -55473917.674819946 -44367489.364490509 0 0 0 0 -62006146.811759949 -115252936.63436317 0 -115252936.63436317 -569597648.31161499 0 0 0 0 -156455655.47317505 101489485.6149025 0 101489485.6149025 -525464073.11666107 0 0 0 0 49614589.482727051 42701537.087677002 0 42701537.087677002 -947402434.09195709 0 0 0 0 120510407.3339386 58166115.145792007 0 58166115.145792007 -604326894.05568695 0 0 0 0 59519428.158256531 76853072.198209763 0 76853072.198209763 -257487954.59050751 0 0 0 0 26545945.533294678 113671761.96609879 0 113671761.96609879 -484067850.71692276 0 0 0 0 45576833.062301636 -111941647.33397675 0 -111941647.33397675 -387493632.2023468 0 0 0 0 89518379.294830322 197278377.32942581 0 197278377.32942581 -506036123.17464447 0 0 0 0 49082195.524360657 175214147.89720154 0 175214147.89720154 -236229515.36496234 0 0 0 0 49789752.445968628 62103909.852905273 0 62103909.852905273 -263912909.70497131 0 0 0 0 30338800.682037354 109552564.41384888 0 109552564.41384888 -229831209.68837976 0 0 0 0 73040374.100479126 136118673.76600647 0 136118673.76600647 -217515497.33910656 0 0 0 0 92381651.213806152 211558496.53353882 0 211558496.53353882 -184628569.51561737 0 0 0 0 121579.11868286133 67360065.893890381 0 67360065.893890381 133387007.03697205 0 0 0 0 115409544.25593567 -84425133.533760071 0 -84425133.533760071 -160958085.55989838 0 0 0 0 36971746.722595215 174901372.01560211 0 174901372.01560211 60103043.637115479 0 0 0 0 -74985716.56703186 6947703.0193328857 0 6947703.0193328857 209073384.51750565 0 0 0 0 -422660.31877415627 -313992.04041350074 0 -313992.04041350074 -525254.69079547224 0 0 0 0 -44849770.580307007 -41510540.056091309 0 -41510540.056091309 74046358.44088918 0 0 0 0 -46464407.19960022 29554559.393844604 0 29554559.393844604 -10548371.192565918 0 0 0 0 19906400.994552612 17197541.78371048 0 17197541.78371048 -15962380.89213562 0 0 0 0 -15167620.774734497 62618237.072502136 0 62618237.072502136 -39217547.632392883 0 0 0 0 23932809.692321777 24216938.073722839 0 24216938.073722839 -80887488.529997826 0 0 0 0 -34627520.756599426 14136537.860168457 0 14136537.860168457 35510000.700195312 0 0 0 0 5065345.8423156738 863069.98349761963 0 863069.98349761963 -6665095.8004341125 0 0 0 0 -177518.54644003138 978988.87670490146 0 978988.87670490146 251659.73849190399 0 0 0 0 34906916.302688599 35723383.774536133 0 35723383.774536133 34438775.366455078 0 0 0 0 19904.785705566406 -5098739.5903396606 0 -5098739.5903396606 -12210636.400779724 0 0 0 0 -61973360.01802063 46739339.603767395 0 46739339.603767395 49882814.20741272 0 0 0 0 -11603766.445526123 -11964216.744392395 0 -11964216.744392395 47689513.43695116 0 0 0 0 14313931.111732483 -13013363.592823029 0 -13013363.592823029 32254485.294086456 0 0 0 0 -644543.82295870408 2751237.3793032952 0 2751237.3793032952 852580.28214608133 0 0 0 0 -7334523.4490585327 2173511.7342338562 0 2173511.7342338562 32276763.150413513 0 0 0 0 -4097065.578245163 2293087.563642025 0 2293087.563642025 -2531528.9909973145 0 0 0 0 2018838.3277042583 976575.68462808616 0 976575.68462808616 -6004424.5758226626 0 0 0 0 118656280.10321045 204064149.56693649 0 204064149.56693649 156836760.09634018 0 0 0 0 -2271537.395742476 4960710.4094860666 0 4960710.4094860666 -4962156.4421916883 0 0 0 0 99093663.001914978 232942312.18366337 0 232942312.18366337 290082817.84957886 0 0 0 0 59865073.017660141 260079196.11532307 0 260079196.11532307 488893963.99797058 0 0 0 0 60375490.6381073 268156992.10668182 0 268156992.10668182 395515933.31333923 0 0 0 0 81540455.240234375 194915873.36647797 0 194915873.36647797 377775566.41040993 0 0 0 0 -4355377.4858064428 5725949.2997567132 0 5725949.2997567132 -3430625.9330772646 0 0 0 0 -3716441.9873094559 34772326.775688648 0 34772326.775688648 6696022.1530761719 0 0 0 0 -39598383.909133911 -12232474.380149841 0 -12232474.380149841 -906876.25244522095 0 0 0 0 -7223326.914483659 5782763.440384334 0 5782763.440384334 -1040556.6901712306 0 0 0 0 196102743.7529335 282931308.34406853 0 282931308.34406853 468158769.32843018 0 0 0 0 15028882.305618286 11420275.323724747 0 11420275.323724747 -17640823.855247498 0 0 0 0 203823794.45719719 422813722.48342514 0 422813722.48342514 615838681.68630981 0 0 0 0 193553988.98474884 339731001.16997147 0 339731001.16997147 311659507.85312653 0 0 0 0 80572415.723876953 171343582.55431366 0 171343582.55431366 472876579.90910339 0 0 0 0 800071026.58689499 688350183.03670692 0 688350183.03670692 462997701.43690491 0 0 0 0 -159572.98797155777 1835825.5385217741 0 1835825.5385217741 -1594097.8298161253 0 0 0 0 1830338371.1255989 961231932.11646843 0 961231932.11646843 271512754.38912201 0 0 0 0 89083852.077301025 741541038.96575928 0 741541038.96575928 1229183631.0490494 0 0 0 0 343596220.57345581 898712729.15593719 0 898712729.15593719 687770919.34907532 0 0 0 0 -259413936.86982727 958632495.91964722 0 958632495.91964722 1104946877.4254913 0 0 0 0 296673157.08233643 211806027.31885147 0 211806027.31885147 463648854.58355522 0 0 0 0 277392100.13355255 384048801.4887619 0 384048801.4887619 810608321.09665298 0 0 0 0 473376210.53173828 620442630.41277885 0 620442630.41277885 938901421.59231567 0 0 0 0 -332883048.69465637 421179233.95721054 0 421179233.95721054 101851962.6550374 0 0 0 0 -665205957.61525345 345093993.09575272 0 345093993.09575272 1028973258.2098465 0 0 0 0 -1962006393.6720791 490324652.90815639 0 490324652.90815639 574776415.55583191 0 0 0 0 -1148455617.1277237 1180286718.9479256 0 1180286718.9479256 644868183.49557495 0 0 0 0 116602659.66340637 524838396.49978638 0 524838396.49978638 543658689.11219025 0 0 0 0 -810607569.5839386 251049759.73197174 0 251049759.73197174 3102858950.5203705 0 0 0 0 -103374469.44078064 -317965630.1975975 0 -317965630.1975975 1753085989.5042267 0 0 0 0 395238365.11051178 273913550.8134346 0 273913550.8134346 1018188441.8587184 0 0 0 0 -401168922.0719223 895799150.25263214 0 895799150.25263214 2263520441.1477127 0 0 0 0 -271725117.08063507 693471803.38505936 0 693471803.38505936 -938842697.23967743 0 0 0 0 -241066550.57068634 800501868.68186951 0 800501868.68186951 -1156373440.5398636 0 0 0 0 -18776042.045326233 665382063.4267807 0 665382063.4267807 -1533497391.079216 0 0 0 0 -7741856.1524660438 4281831.6823623963 0 4281831.6823623963 -550370.8050758515 0 0 0 0 -178970794.34629822 756778742.6475563 0 756778742.6475563 -1017268362.6888657 0 0 0 0 23579899.498199463 323531620.39812851 0 323531620.39812851 -952176676.81694794 0 0 0 0 -134862016.57185364 832162527.91131973 0 832162527.91131973 -1129359097.1811218 0 0 0 0 -30399457.515350342 627460012.45570374 0 627460012.45570374 -1109828957.1133704 0 0 0 0 -132319617.99508667 775325755.04719925 0 775325755.04719925 -1015069322.0418091 0 0 0 0 -127294455.55093145 634011676.75394595 0 634011676.75394595 -969695444.81944275 0 0 0 0 -214183890.80356598 639860204.17009354 0 639860204.17009354 -924650244.05241776 0 0 0 0 -165770511.07269287 580564288.37026215 0 580564288.37026215 -910873121.54902649 0 0 0 0 61451273.752731323 -57335818.566997528 0 -57335818.566997528 -581942575.90753174 0 0 0 0 -130543399.30377197 -258283379.48815918 0 -258283379.48815918 -1668853.6091918945 0 0 0 0 -266064112.93373108 561985629.81172943 0 561985629.81172943 -514100608.38542938 0 0 0 0 -1215652.841542609 -1136666.2048255354 0 -1136666.2048255354 1895492.0871864464 0 0 0 0 -9039877.0484762639 7069839.6219253913 0 7069839.6219253913 -1877660.7579686707 0 0 0 0 -447215009.85340881 486493063.85397339 0 486493063.85397339 -115177329.84228134 0 0 0 0 -301239321.00924683 89250696.662979126 0 89250696.662979126 -8625600.8883187771 0 0 0 0 76843368.094467163 573946478.81643677 0 573946478.81643677 -907325966.23045349 0 0 0 0 -484725303.2936306 333147222.85713243 0 333147222.85713243 -674372251.98406982 0 0 0 0 -284143486.87194824 732204950.56993103 0 732204950.56993103 -885797919.83195686 0 0 0 0 -598781526.9743042 987394008.23442841 0 987394008.23442841 -1092770523.1424866 0 0 0 0 -81885876.278564453 754928065.96160889 0 754928065.96160889 -1391615924.872345 0 0 0 0 -1157215965.0203247 846188657.40157318 0 846188657.40157318 -1049387218.5007782 0 0 0 0 -653913770.98223877 57992130.149299622 0 57992130.149299622 -1236883879.3224792 0 0 0 0 -510498401.66256714 331870068.71777725 0 331870068.71777725 -741568671.03774452 0 0 0 0 -215741835.26184082 -96290390.395866394 0 -96290390.395866394 -1021883931.6071777 0 0 0 0 -422550326.53499031 465006932.76587224 0 465006932.76587224 -982613028.82661438 0 0 0 0 -424944062.0022974 410450085.96832252 0 410450085.96832252 -2224818099.3867188 0 0 0 0 -1294650876.0593109 1340942090.805088 0 1340942090.805088 -1142590613.3086395 0 0 0 0 -1730844969.656601 377964553.69985962 0 377964553.69985962 -1239898992.1652374 0 0 0 0 -623429228.26971436 500573855.74351501 0 500573855.74351501 -1658848536.4467468 0 0 0 0 -1343155947.372612 1504887528.840066 0 1504887528.840066 -2761147171.0498657 0 0 0 0 -604061266.28272438 1039153861.9976852 0 1039153861.9976852 -1545111960.3140564 0 0 0 0 195396322.38790894 293265050.56822968 0 293265050.56822968 -2031783157.6595879 0 0 0 0 15261608.754679203 -833787389.34502208 0 -833787389.34502208 -742416396.67840576 0 0 0 0 -1552070016.914032 -80285778.141593933 0 -80285778.141593933 346341913.94246292 0 0 0 0 -1119409.0941359475 893399.84857660905 0 893399.84857660905 -112779.01493052393 0 0 0 0 -304474101.40966797 988932536.43867493 0 988932536.43867493 -3178640432.5477066 0 0 0 0 5639.3579572727904 773182.83215011284 0 773182.83215011284 -518118.28697990626 0 0 0 0 -646442.32872836292 3305480.5914861849 0 3305480.5914861849 -2695548.2382177487 0 0 0 0 -1114702.6325433254 3340159.8426867723 0 3340159.8426867723 1295351.3788909912 0 0 0 0 -140990311.49206352 180960393.62818861 0 180960393.62818861 -310146321.15341187 0 0 0 0 -1668677.1655655701 3722065.6493356079 0 3722065.6493356079 1056064.7962922156 0 0 0 0 -742089478.69004822 139740197.18587685 0 139740197.18587685 154725558.78727341 0 0 0 0 -494123289.65222168 504767844.58256817 0 504767844.58256817 -327749524.42224121 0 0 0 0 -819440266.89222717 633781057.12901497 0 633781057.12901497 -248318397.9420433 0 0 0 0 49388004.119445801 352929118.43220139 0 352929118.43220139 -715728447.10569382 0 0 0 0 -315806636.22477722 192020748.61490631 0 192020748.61490631 -18199055.602645874 0 0 0 0 19927409.565856934 38635373.287284851 0 38635373.287284851 -112206955.3862915 0 0 0 0 -152227595.0841217 415231381.95701218 0 415231381.95701218 -605202453.07943726 0 0 0 0 216046981.00537109 119103671.09487915 0 119103671.09487915 -790522305.01370239 0 0 0 0 -43048691.799850464 278043021.23403168 0 278043021.23403168 -520078482.20343781 0 0 0 0 -62352413.334251404 616086594.20183945 0 616086594.20183945 -1099646315.4059372 0 0 0 0 189279399.64389038 114522431.9115448 0 114522431.9115448 -668363312.21688843 0 0 0 0 28261450.309158325 244464614.12361526 0 244464614.12361526 -693961360.31936646 0 0 0 0 -238972942.84875488 233738856.13584137 0 233738856.13584137 -209641336.12668037 0 0 0 0 -3060458.8879826069 3524871.6748830918 0 3524871.6748830918 -905991.22532214411 0 0 0 0 -907100.08305358887 2943228.6329612732 0 2943228.6329612732 -466003.67998504639 0 0 0 0 -846129.0150604248 1603293.1675186157 0 1603293.1675186157 -715429.56564331055 0 0 0 0 165358745.29174519 -162698222.20638585 0 -162698222.20638585 -25702159.1743927 0 0 0 0 -89307560.922836304 169256706.98022842 0 169256706.98022842 228832573.04649353 0 0 0 0 22019183.963394165 146700288.39767838 0 146700288.39767838 -22295544.506824493 0 0 0 0 -12794289.292495728 -110306496.79370117 0 -110306496.79370117 77747670.252029419 0 0 0 0 -4212150.4493331909 12804803.203996658 0 12804803.203996658 -13100895.231119156 0 0 0 0 -3219195.9841276035 3237051.9839464352 0 3237051.9839464352 -1517694.2652336061 0 0 0 0 -2000511.8069853708 2783215.4714503661 0 2783215.4714503661 -625241.70237847045 0 0 0 0 -3887064.9307022095 22198420.908454418 0 22198420.908454418 -8667032.1371765137 0 0 0 0 19385497.132751465 -4930656.4557342529 0 -4930656.4557342529 1647675.1874172688 0 0 0 0 -10301391.73225975 6141638.9342055321 0 6141638.9342055321 1241143.0472984314 0 0 0 0 -12140915.871490479 28286911.362192154 0 28286911.362192154 17075174.54416275 0 0 0 0 -194669974.89356995 239156015.7787571 0 239156015.7787571 -235018411.97261047 0 0 0 0 -374747782.2699585 337785673.39775848 0 337785673.39775848 -130663233.52856636 0 0 0 0 -28077316.975997925 76838970.920509338 0 76838970.920509338 -107890732.47440338 0 0 0 0 -761061.66796875 3496590.8760070801 0 3496590.8760070801 -2633850.2593650818 0 0 0 0 -840772.44431256806 4178060.6178488322 0 4178060.6178488322 -930356.10542514175 0 0 0 0 -1280627.5945152617 3186678.1261678673 0 3186678.1261678673 1320049.3089086935 0 0 0 0 -2750424.4498901367 7311304.8068084717 0 7311304.8068084717 16935351.294715881 0 0 0 0 -34865958.099952698 10556032.787845612 0 10556032.787845612 6122479.1367683411 0 0 0 0 -313567658.13657379 130179944.04712105 0 130179944.04712105 -66199135.961387634 0 0 0 0 948086.40649944544 1099407.3324450441 0 1099407.3324450441 -1052428.8802863825 0 0 0 0 -167987241.78230286 333945164.00614548 0 333945164.00614548 -335647268.39750957 0 0 0 0 -227848098.43553162 338033541.5635643 0 338033541.5635643 -270027752.96031189 0 0 0 0 36362630.321662903 418682867.29268265 0 418682867.29268265 -379064712.07217503 0 0 0 0 -99088733.101356506 441021448.62482643 0 441021448.62482643 -415616872.94870758 0 0 0 0 3764322.905708313 430527719.79802895 0 430527719.79802895 -416164330.0908699 0 0 0 0 -394643219.23477173 481468435.84925842 0 481468435.84925842 -292527066.11609173 0 0 0 0 -108321691.38519287 462631122.97709274 0 462631122.97709274 -556517482.73905945 0 0 0 0 -210624812.28533936 586741782.70772934 0 586741782.70772934 -701145039.94169617 0 0 0 0 -139151511.4054184 523685018.45989609 0 523685018.45989609 -559589283.01291656 0 0 0 0 -219192384.9593277 677428254.99979019 0 677428254.99979019 -1221863919.3936691 0 0 0 0 20708168.393218994 434179472.69967651 0 434179472.69967651 -577804965.24656296 0 0 0 0 56061942.864624023 361953939.8197155 0 361953939.8197155 -550831998.81973267 0 0 0 0 969660.90004730225 473826309.04767609 0 473826309.04767609 -754849343.74717712 0 0 0 0 53988392.322784424 313100878.67107773 0 313100878.67107773 -662133079.38243294 0 0 0 0 84698589.384563446 304448403.78705215 0 304448403.78705215 -702266893.06756592 0 0 0 0 -74870869.211212158 247862809.26130676 0 247862809.26130676 -802109548.28125763 0 0 0 0 -72247195.188919067 373607135.83532715 0 373607135.83532715 -1319772163.8960571 0 0 0 0 48410105.262261391 382613271.40081048 0 382613271.40081048 -1062776259.9264984 0 0 0 0 203941.23669433594 279434106.85140228 0 279434106.85140228 -405332113.4185524 0 0 0 0 73864222.773468018 362411473.56708145 0 362411473.56708145 -580812063.33147621 0 0 0 0 118203106.56139565 208178673.37503052 0 208178673.37503052 -502746337.70025635 0 0 0 0 86658367.332683563 336679995.79810333 0 336679995.79810333 -530964600.77852249 0 0 0 0 64959575.81880188 296083738.21749306 0 296083738.21749306 -410266602.32373047 0 0 0 0 3894174.1109542847 388480995.68087196 0 388480995.68087196 -321266028.46875381 0 0 0 0 13448.242374592339 335821248.46164817 0 335821248.46164817 -419277869.40096283 0 0 0 0 4134041.1766967773 406595465.12210083 0 406595465.12210083 -428327010.06165314 0 0 0 0 29203551.903060913 397769808.79840088 0 397769808.79840088 -425482655.99211884 0 0 0 0 -31610716.975448608 453933956.74015141 0 453933956.74015141 -313578877.35520172 0 0 0 0 -82069816.06993103 415759190.45483398 0 415759190.45483398 -287243762.28145409 0 0 0 0 12238.603660583496 338162807.22341537 0 338162807.22341537 -303164836.15550995 0 0 0 0 -65985834.102813721 363892952.3502903 0 363892952.3502903 -130639115.17805099 0 0 0 0 -146692406.69377136 342927097.89684868 0 342927097.89684868 -135772776.07381821 0 0 0 0 -160963140.39560366 164164262.193304 0 164164262.193304 103601128.14090729 0 0 0 0 -197447.05023193359 225529529.51615906 0 225529529.51615906 -41749081.298725128 0 0 0 0 -17259256.648723602 76045448.241366386 0 76045448.241366386 575860265.32988739 0 0 0 0 827402.50337542593 109550.5307434462 0 109550.5307434462 -715915.71586258896 0 0 0 0 -10146975.796104431 622306959.20467949 0 622306959.20467949 -34847096.936031342 0 0 0 0 235977696.3380127 324256490.05501556 0 324256490.05501556 186508203.98535919 0 0 0 0 -1177514.7504007593 316836.0937985871 0 316836.0937985871 1121231.285929868 0 0 0 0 88387613.248138428 17395966.625442505 0 17395966.625442505 81497976.852869987 0 0 0 0 224887039.87564087 323355556.35861206 0 323355556.35861206 445156324.34813595 0 0 0 0 93995809.477752686 158575764.51922798 0 158575764.51922798 268441140.35498047 0 0 0 0 158165099.72468185 191782359.70252323 0 191782359.70252323 159986827.50428772 0 0 0 0 -1840284.4842277355 541624.05639680475 0 541624.05639680475 1700755.6302037146 0 0 0 0 -92040333.622756958 102944730.02422333 0 102944730.02422333 235188059.30478668 0 0 0 0 72957000.025260925 137180924.15348816 0 137180924.15348816 268180368.67420197 0 0 0 0 105603584.29972076 17232617.682340622 0 17232617.682340622 79281737.407855988 0 0 0 0 -1044267.8041296452 -1019547.6466360944 0 -1019547.6466360944 1010628.3727770345 0 0 0 0 -25452955.356758118 124805641.19174576 0 124805641.19174576 153964308.89156723 0 0 0 0 7526348.7834320068 -4524347.6186065674 0 -4524347.6186065674 59312546.712713242 0 0 0 0 310622334.40952301 127038691.17573547 0 127038691.17573547 187395091.80467033 0 0 0 0 -466302.69035123289 -509605.97107640654 0 -509605.97107640654 485837.32541820128 0 0 0 0 44079928.146339417 88192738.843717575 0 88192738.843717575 -186436571.00157928 0 0 0 0 66517117.777778625 52157953.45475769 0 52157953.45475769 -130365535.69934082 0 0 0 0 -1174990.8169437945 -1243288.3319991995 0 -1243288.3319991995 1207604.7556237206 0 0 0 0 -27743541.034210205 46973031.025949478 0 46973031.025949478 227838310.68278503 0 0 0 0 -43812268.412460327 125982615.08801079 0 125982615.08801079 -124405885.11651611 0 0 0 0 -24527652.931488037 45037142.201543808 0 45037142.201543808 106707864.45940781 0 0 0 0 75730202.53969574 96057423.080359459 0 96057423.080359459 -5209084.7397956848 0 0 0 0 -11320604.5728302 34796917.838132858 0 34796917.838132858 -6908254.3295753002 0 0 0 0 67534.899040222168 104499809.11399841 0 104499809.11399841 31123681.45488739 0 0 0 0 -3093274.4339599609 -12662379.54602623 0 -12662379.54602623 -68498444.999567032 0 0 0 0 -58098.581001281738 102658406.998353 0 102658406.998353 -238766215.53511429 0 0 0 0 41996783.075626373 33117514.897807121 0 33117514.897807121 -449325144.59129333 0 0 0 0 -45447175.127891541 92193501.732279778 0 92193501.732279778 -252211580.52691269 0 0 0 0 16176254.928359985 20254837.472082138 0 20254837.472082138 -216296963.18165398 0 0 0 0 11498086.961050987 99396138.196853757 0 99396138.196853757 -136255698.45919418 0 0 0 0 17580791.077314377 110424389.02697039 0 110424389.02697039 -87748582.669841766 0 0 0 0 1323667.8843078613 41705331.257745743 0 41705331.257745743 -137157347.88535118 0 0 0 0 2870027.0846405029 108325901.38537216 0 108325901.38537216 -221152511.91087341 0 0 0 0 7429286.9455337524 125096254.98910904 0 125096254.98910904 -146481046.51686859 0 0 0 0 -3015955.077545166 92831526.804084778 0 92831526.804084778 -112802715.5345192 0 0 0 0 5870619.3980407715 75070844.936008453 0 75070844.936008453 -208066043.75598907 0 0 0 0 14021175.039786339 123820132.51230431 0 123820132.51230431 -156877714.51284027 0 0 0 0 -14440603.995914459 118054474.38218498 0 118054474.38218498 -115791078.2277298 0 0 0 0 -37891580.020042419 101627587.45611 0 101627587.45611 -306801049.81572342 0 0 0 0 -63099.056180499494 -1047103.98194406 0 -1047103.98194406 -591699.14911979949 0 0 0 0 25665929.384414673 87091214.609201431 0 87091214.609201431 -279182418.65320969 0 0 0 0 -46707243.96031189 88365691.084669113 0 88365691.084669113 -211372701.81940556 0 0 0 0 45338580.553100586 85651817.645294189 0 85651817.645294189 -417694288.53718185 0 0 0 0 -28601.006286606193 -1513697.2260388508 0 -1513697.2260388508 -810886.37818384124 0 0 0 0 -11750624.700485229 6721737.3165855408 0 6721737.3165855408 -292165198.40481186 0 0 0 0 -291104142.99813843 -86858426.350399017 0 -86858426.350399017 -164797243.52804804 0 0 0 0 156312493.93516541 193924980.73726177 0 193924980.73726177 -625325402.99979019 0 0 0 0 19642419.374832153 -152670330.77870941 0 -152670330.77870941 -686108426.84075522 0 0 0 0 33834004.23248291 -10348821.081611633 0 -10348821.081611633 15425199.81325829 0 0 0 0 -1062593.0527464449 463129.64421543851 0 463129.64421543851 530581.1849124711 0 0 0 0 -45774041.382856846 223690120.31142771 0 223690120.31142771 -233174109.38537025 0 0 0 0 -44978875.524658203 136961894.56863976 0 136961894.56863976 31967965.225124359 0 0 0 0 -16699263.008125305 77763919.322048187 0 77763919.322048187 -95830850.049167633 0 0 0 0 11324784.335449219 56312987.822038651 0 56312987.822038651 -124920634.30937004 0 0 0 0 262982.19841003418 80577382.593135834 0 80577382.593135834 -198833369.08450603 0 0 0 0 73904151.577925682 38381982.348078966 0 38381982.348078966 -298258846.5486145 0 0 0 0 261588.89848170429 -1797387.8253123816 0 -1797387.8253123816 -942510.87212420884 0 0 0 0 26616.201560974121 30007029.804973602 0 30007029.804973602 -230765680.32124329 0 0 0 0 80658994.596122742 50164595.074981689 0 50164595.074981689 -444089574.34856796 0 0 0 0 45229654.360946655 13667485.572049141 0 13667485.572049141 -190135378.64382744 0 0 0 0 48806197.412940979 31383578.312454224 0 31383578.312454224 -129040225.05411196 0 0 0 0 36763102.852165222 38775773.99040699 0 38775773.99040699 -46280565.84437561 0 0 0 0 38377298.727508545 -11207794.68520546 0 -11207794.68520546 -129771080.44277954 0 0 0 0 47699911.601821899 18684027.606164932 0 18684027.606164932 -141598825.22757721 0 0 0 0 49785076.087051392 8833891.4066410065 0 8833891.4066410065 -97843055.70331955 0 0 0 0 21020029.851631165 -4430215.0117664337 0 -4430215.0117664337 -93092161.628498077 0 0 0 0 28267513.696517944 -17619173.618254662 0 -17619173.618254662 -154033793.71051407 0 0 0 0 -4868902.5292816162 14481072.149604797 0 14481072.149604797 -145356261.1147666 0 0 0 0 -20842094.282691956 -48554170.912467003 0 -48554170.912467003 -76288308.918769836 0 0 0 0 -51139954.077590942 -31712720.059528351 0 -31712720.059528351 -152402267.40259314 0 0 0 0 -4660787.6515045166 -7637236.1585388184 0 -7637236.1585388184 -147803426.46060491 0 0 0 0 -15107984.593704224 70809435.634370804 0 70809435.634370804 -400621381.92274761 0 0 0 0 -22224257.621620178 -83547845.89208746 0 -83547845.89208746 -313043331.35768509 0 0 0 0 1103368.9944763184 15623456.204452515 0 15623456.204452515 -295822865.72502422 0 0 0 0 19888591.4193573 28972734.866716385 0 28972734.866716385 -290340422.62483215 0 0 0 0 50288.567989885807 -484315.6608828418 0 -484315.6608828418 -255611.3495770609 0 0 0 0 21080256.788640976 125857342.18940759 0 125857342.18940759 -428942508.74381828 0 0 0 0 2571399.1139984131 105840900.29377365 0 105840900.29377365 -28874357.393031597 0 0 0 0 -12198304.646575928 31315529.930013657 0 31315529.930013657 -190851177.90652847 0 0 0 0 48688216.356582642 135382763.69710922 0 135382763.69710922 -176678092.13541412 0 0 0 0 29616113.014648438 147630379.77309418 0 147630379.77309418 -130686472.41524124 0 0 0 0 94139060.249969482 276201849.31319046 0 276201849.31319046 56850058.509197235 0 0 0 0 57964050.599014282 148122147.29753304 0 148122147.29753304 -163328243.31915283 0 0 0 0 -10460419.665252686 210620277.2218399 0 210620277.2218399 -84259966.990090847 0 0 0 0 -5575270.9320526123 130530931.35881615 0 130530931.35881615 -53043314.426811218 0 0 0 0 11531502.065494537 124832588.74205303 0 124832588.74205303 -97181744.424900055 0 0 0 0 43105070.276893616 126723422.21134853 0 126723422.21134853 -160986397.23761177 0 0 0 0 4732530.4632511139 83937153.864301205 0 83937153.864301205 -132481669.16915131 0 0 0 0 38137622.952629089 104392881.25491524 0 104392881.25491524 -72780319.925479889 0 0 0 0 39554994.266319275 113006149.86880445 0 113006149.86880445 -41255989.705219269 0 0 0 0 23634986.517181396 145641075.5033989 0 145641075.5033989 -36754705.615890741 0 0 0 0 12841961.094860077 154594764.38623953 0 154594764.38623953 -8894033.3862304688 0 0 0 0 5092515.457359314 171753295.5387907 0 171753295.5387907 85101085.009635925 0 0 0 0 -15771360.319404602 158183540.9759655 0 158183540.9759655 211588480.13557434 0 0 0 0 -7666248.8334503174 148498008.70992851 0 148498008.70992851 88777300.064176559 0 0 0 0 -14629515.445304871 138781032.40997791 0 138781032.40997791 142844023.13915253 0 0 0 0 158746008.70422363 318127118.31322479 0 318127118.31322479 -46429299.695083618 0 0 0 0 -1007968.296248816 273440.66819451191 0 273440.66819451191 948288.58789765462 0 0 0 0 13052423.172180176 13674421.542366028 0 13674421.542366028 70329951.226303101 0 0 0 0 -95663209.639511108 42652896.433139801 0 42652896.433139801 68866389.697181702 0 0 0 0 -71898510.109039307 91772954.189283371 0 91772954.189283371 116935987.8302002 0 0 0 0 -131746882.83875275 181294385.72944736 0 181294385.72944736 33493623.986274719 0 0 0 0 1473957.1868743896 135867528.31859207 0 135867528.31859207 44049486.567905426 0 0 0 0 -40995713.624343872 163060800.89352417 0 163060800.89352417 102407857.97966003 0 0 0 0 69063449.047485352 161727436.95022964 0 161727436.95022964 102222892.90173864 0 0 0 0 144465425.5982666 76395223.431829453 0 76395223.431829453 196371847.61547422 0 0 0 0 57475717.894729614 118041576.80160522 0 118041576.80160522 115986428.62485456 0 0 0 0 -6941753.7376785278 107303955.53272152 0 107303955.53272152 198816466.04852295 0 0 0 0 68555283.611526489 112654423.48353958 0 112654423.48353958 187870149.13237381 0 0 0 0 64246420.362533569 31095954.198898315 0 31095954.198898315 70672302.34066695 0 0 0 0 11368010.865257263 163871316.2793293 0 163871316.2793293 367445637.02148438 0 0 0 0 -45561449.455123901 137479286.10113907 0 137479286.10113907 397934774.32013893 0 0 0 0 10056498.081169128 60203694.18813324 0 60203694.18813324 381661982.05576706 0 0 0 0 -386763.53967489093 1039749.9134012349 0 1039749.9134012349 523139.07192508504 0 0 0 0 92878047.346857071 195032050.26293957 0 195032050.26293957 247826783.14565277 0 0 0 0 -3817236.9379284382 -99103324.603967905 0 -99103324.603967905 173138803.49922943 0 0 0 0 80040141.905929565 23142400.303585052 0 23142400.303585052 3776051.4972896576 0 0 0 0 -44688320.703548431 -5564568.9796819687 0 -5564568.9796819687 340484792.74150848 0 0 0 0 -28562636.137382507 66957641.290860176 0 66957641.290860176 150458085.28069687 0 0 0 0 -41008332.767250061 56899945.483642578 0 56899945.483642578 153857159.5403595 0 0 0 0 68103725.77740097 210867609.04601717 0 210867609.04601717 242141877.3377037 0 0 0 0 -68737262.219451904 54398114.745620728 0 54398114.745620728 385896415.70761299 0 0 0 0 -803555.23323059082 -34674269.48063755 0 -34674269.48063755 129193001.70107269 0 0 0 0 24939967.580657959 -7179117.7897377014 0 -7179117.7897377014 9211064.4034042358 0 0 0 0 1023971.497467041 13329174.336288452 0 13329174.336288452 40763492.035495758 0 0 0 0 -2758451.03166008 21068.456552028656 0 21068.456552028656 34546351.142585754 0 0 0 0 -13874351.548538208 30042246.478580475 0 30042246.478580475 85066315.160495758 0 0 0 0 -540363.86071777344 22766707.315712929 0 22766707.315712929 9153351.854724884 0 0 0 0 -2010446.3875427246 44873130.800547123 0 44873130.800547123 52079602.921977997 0 0 0 0 7742716.889251709 63882014.213693619 0 63882014.213693619 76438494.678444386 0 0 0 0 -69459284.228458405 -17434813.29686451 0 -17434813.29686451 9302307.6769485474 0 0 0 0 2904932.9244842529 43367464.946016312 0 43367464.946016312 51981070.250062943 0 0 0 0 -2447713.8486930095 1181929.6325073875 0 1181929.6325073875 3631188.1319735553 0 0 0 0 -7152862.5520172119 -23569300.134780884 0 -23569300.134780884 -6384351.3649940491 0 0 0 0 6214776.6922988892 26298632.306176186 0 26298632.306176186 10958061.232643127 0 0 0 0 -9541264.681060791 15947399.435787201 0 15947399.435787201 2494485.7524490356 0 0 0 0 -34833334.808364868 40743807.910993576 0 40743807.910993576 -4946250.6593780518 0 0 0 0 -27503041.726810455 40687117.154575825 0 40687117.154575825 -11188564.535736084 0 0 0 0 -23557860.003189087 1785341.444355011 0 1785341.444355011 -7077961.1658592224 0 0 0 0 -22070808.342727661 124615323.88434982 0 124615323.88434982 -277197074.00949097 0 0 0 0 -1689583.2508228868 -424444.9288807651 0 -424444.9288807651 1350209.6187892603 0 0 0 0 10856711.904418945 39762848.097511292 0 39762848.097511292 -126411332.26092529 0 0 0 0 23718720.614318848 122546.64695358276 0 122546.64695358276 -65134903.255027771 0 0 0 0 -17642907.396697998 2109245.9556846619 0 2109245.9556846619 63593156.054375172 0 0 0 0 -30728491.36819458 97250264.257892609 0 97250264.257892609 -38698565.454016685 0 0 0 0 -40666860.498428345 82950806.515525818 0 82950806.515525818 -16746498.862987518 0 0 0 0 -139101867.6341095 173608271.79691696 0 173608271.79691696 63409979.675338745 0 0 0 0 -57950095.74307251 157264895.34483337 0 157264895.34483337 -152265684.98842812 0 0 0 0 -41815370.167816162 17033953.816160202 0 17033953.816160202 31950854.332567215 0 0 0 0 -108207843.43933487 59739774.764493942 0 59739774.764493942 86723697.188270569 0 0 0 0 -98783594.717330933 81062098.322055817 0 81062098.322055817 2661759.3441696167 0 0 0 0 -77187211.003143311 57035702.133598328 0 57035702.133598328 27070346.742084503 0 0 0 0 -62147374.391067505 11478221.606107712 0 11478221.606107712 -3405994.4031562805 0 0 0 0 -49270323.294219971 14187135.133029938 0 14187135.133029938 -6728666.638961792 0 0 0 0 -78737582.363861084 46483346.979219437 0 46483346.979219437 -4006791.1163806915 0 0 0 0 -101212348.16570282 29144159.722275734 0 29144159.722275734 5121598.0413951874 0 0 0 0 -136254924.97602844 -688842.30884361267 0 -688842.30884361267 9541839.8128814697 0 0 0 0 -80238571.409965515 42391030.055262566 0 42391030.055262566 20878709.764289856 0 0 0 0 -91517723.892715454 18158047.73503685 0 18158047.73503685 17286995.123507977 0 0 0 0 -60387461.015335083 16877763.231681824 0 16877763.231681824 10405221.262081146 0 0 0 0 -83928214.8879776 43023941.625573158 0 43023941.625573158 -7328341.9336166382 0 0 0 0 -105938542.4445343 9939084.1842918396 0 9939084.1842918396 -7980250.9571219087 0 0 0 0 -373408.08656045794 293759.10683213919 0 293759.10683213919 725861.56118049473 0 0 0 0 -266339793.92472839 -23648813.003076553 0 -23648813.003076553 37706730.653482437 0 0 0 0 -127093597.50615692 -2859592.3755512238 0 -2859592.3755512238 -12381239.109928131 0 0 0 0 63602177.53692627 102109989.1814003 0 102109989.1814003 85244446.7372756 0 0 0 0 381181453.34166718 234097354.89361858 0 234097354.89361858 26243802.170167923 0 0 0 0 18179626.19437027 132522644.82082033 0 132522644.82082033 85386242.931545258 0 0 0 0 56992389.316162109 129940839.70900917 0 129940839.70900917 365191.24509811401 0 0 0 0 61508933.704360962 89462053.771699905 0 89462053.771699905 72207790.643413544 0 0 0 0 6337359.2115097046 133871714.32375526 0 133871714.32375526 85670514.055526733 0 0 0 0 124305296.61528397 143198651.95777988 0 143198651.95777988 77291927.135105133 0 0 0 0 -1156622.8816008605 630611.85573422536 0 630611.85573422536 2111206.9909314588 0 0 0 0 13045344.171394348 -26318775.257462502 0 -26318775.257462502 -67835218.409107208 0 0 0 0 -23269191.559506416 -20273800.612511158 0 -20273800.612511158 -48030159.210680008 0 0 0 0 -15006130.459814072 -45093940.020360947 0 -45093940.020360947 -77848533.250845343 0 0 0 0 -46060848.963857651 -97390595.815828323 0 -97390595.815828323 -78874856.718130112 0 0 0 0 -39989537.000226974 -37034168.384617805 0 -37034168.384617805 -46974386.946071625 0 0 0 0 -54612804.497897148 -22243693.425644398 0 -22243693.425644398 -28072942.952064514 0 0 0 0 -31755303.503562927 -32651505.997667313 0 -32651505.997667313 -48084365.192870378 0 0 0 0 -70581006.394416809 -43495896.421728611 0 -43495896.421728611 -36166893.567956924 0 0 0 0 -22676753.06640001 21916151.160607189 0 21916151.160607189 7088841.6946934238 0 0 0 0 112199818.71796417 63610085.499652863 0 63610085.499652863 24909518.159873962 0 0 0 0 -54669713.284139156 -45168217.384364128 0 -45168217.384364128 -30860095.115688324 0 0 0 0 -66379502.336522579 -31712424.471265793 0 -31712424.471265793 -44409299.363945007 0 0 0 0 -64176345.728779793 -52575567.894839287 0 -52575567.894839287 -27669487.601573944 0 0 0 0 -294454084.17773438 333541724.59205627 0 333541724.59205627 -258270592.76934814 0 0 0 0 -117934991.81387138 -20384909.434427261 0 -20384909.434427261 -5987762.7017726898 0 0 0 0 -134888760.87007141 -175471353.09822845 0 -175471353.09822845 305937243.08295536 0 0 0 0 -255448114.47436523 369812582.08927917 0 369812582.08927917 -216945211.44442368 0 0 0 0 -808509031.4838562 203198918.52379227 0 203198918.52379227 484053213.57264709 0 0 0 0 -158986281.30711365 107200966.54668808 0 107200966.54668808 42377519.602557182 0 0 0 0 -41061583.09022522 23627222.681413651 0 23627222.681413651 41233335.512348175 0 0 0 0 119904307.30516815 -58132418.941740036 0 -58132418.941740036 52131717.838699341 0 0 0 0 18313037.33782959 29110176.836845398 0 29110176.836845398 -2726401.0418777466 0 0 0 0 -29853614.738822937 40576079.575839043 0 40576079.575839043 2896147.2924041748 0 0 0 0 -31234937.575073242 44278898.329219818 0 44278898.329219818 -5530409.5273895264 0 0 0 0 8559495.8409194946 39615412.626073837 0 39615412.626073837 -23267540.950897217 0 0 0 0 -23944667.895126343 34665406.138629913 0 34665406.138629913 -15030416.080188751 0 0 0 0 -59897771.527511597 35335614.365442276 0 35335614.365442276 -6608104.8174324036 0 0 0 0 -22505577.707660675 29535319.954193592 0 29535319.954193592 -36791.064544677734 0 0 0 0 14840411.022344088 21504249.041770764 0 21504249.041770764 4450385.2275321539 0 0 0 0 8584883.7858200073 38838455.077108383 0 38838455.077108383 172232.1783285141 0 0 0 0 22250852.663478851 53141204.331393242 0 53141204.331393242 -2869105.5004768372 0 0 0 0 8015980.0253295898 43451546.37818718 0 43451546.37818718 26152913.440594912 0 0 0 0 -29321721.293658972 -9397123.0164849758 0 -9397123.0164849758 -48149172.660085678 0 0 0 0 -28588693.890748978 -4737988.5754089355 0 -4737988.5754089355 -30603641.867836952 0 0 0 0 -15943155.918659274 19637666.160442293 0 19637666.160442293 5626212.1922062738 0 0 0 0 -583655285.13107681 -329389891.71493149 0 -329389891.71493149 277103843.36424375 0 0 0 0 -51230722.811775208 5974648.4431858063 0 5974648.4431858063 -115590585.80856895 0 0 0 0 -1606783968.5715256 144983189.82971382 0 144983189.82971382 175287231.61407471 0 0 0 0 541544.05406773649 198896.72787644994 0 198896.72787644994 -148506.60425440222 0 0 0 0 825826794.04005051 318889048.40134048 0 318889048.40134048 -245626047.59247017 0 0 0 0 35291318.049144745 172422677.96619034 0 172422677.96619034 135562934.17427635 0 0 0 0 -94917325.084056854 66288792.786182404 0 66288792.786182404 240082604.37755966 0 0 0 0 -58738363.894826889 48717264.827622414 0 48717264.827622414 25478197.791706085 0 0 0 0 9542700.9180488586 426525206.51054764 0 426525206.51054764 -178487432.83784246 0 0 0 0 -209796706.4158802 4989420.3268961906 0 4989420.3268961906 45903544.563426971 0 0 0 0 -10888094.14855258 -201241.02665283997 0 -201241.02665283997 2599580.3100938685 0 0 0 0 -1249769.229631424 71376603.125573158 0 71376603.125573158 86959869.215680122 0 0 0 0 -12599708.899364471 33568371.38037014 0 33568371.38037014 125923893.12766743 0 0 0 0 34820075.572814941 38042255.120645523 0 38042255.120645523 26352821.926403046 0 0 0 0 33821885.40645504 61538498.093894958 0 61538498.093894958 5952233.1113357544 0 0 0 0 -47117218.159383774 63344018.903867245 0 63344018.903867245 34842731.532804489 0 0 0 0 111032362.4758358 104036642.33938503 0 104036642.33938503 -9761887.7998313904 0 0 0 0 33150430.621844292 63539856.554925442 0 63539856.554925442 5617309.456451416 0 0 0 0 55130487.23595047 72364496.980236053 0 72364496.980236053 -4417922.6945953369 0 0 0 0 79652341.180295944 62868741.274575233 0 62868741.274575233 -32992873.425945282 0 0 0 0 25760495.600120544 21628599.540857315 0 21628599.540857315 -6863261.8561897278 0 0 0 0 -1687537.0497103669 2050291.0590199539 0 2050291.0590199539 979024.53973664902 0 0 0 0 71857407.726226807 53639160.368051529 0 53639160.368051529 -29333816.958341599 0 0 0 0 45738668.492181778 23853535.551968575 0 23853535.551968575 -56988308.230808258 0 0 0 0 8344528.5522232056 -8760186.9063367844 0 -8760186.9063367844 -41704066.612258911 0 0 0 0 -58395981.701896667 10447864.428258896 0 10447864.428258896 14416448.741114199 0 0 0 0 -35813832.964736938 13443812.411945343 0 13443812.411945343 14301379.798446655 0 0 0 0 34899329.089363933 37377343.075987995 0 37377343.075987995 5544477.401184082 0 0 0 0 6886717.0564651489 7793010.1148986816 0 7793010.1148986816 40921293.635440826 0 0 0 0 28967958.968032837 -7359332.6113510132 0 -7359332.6113510132 38154611.126982212 0 0 0 0 16288392.299880981 17735919.381187439 0 17735919.381187439 22071689.516579151 0 0 0 0 2762624.3246512413 32873641.722285748 0 32873641.722285748 20367010.783817291 0 0 0 0 -48199864.163162231 42451828.168148041 0 42451828.168148041 24268701.143753052 0 0 0 0 -31796041.69985199 34601216.937345505 0 34601216.937345505 21460432.809207916 0 0 0 0 -7284243.3010222446 10849316.56481095 0 10849316.56481095 2418984.8766382504 0 0 0 0 -51905489.619400024 40782238.746191025 0 40782238.746191025 23518895.671588898 0 0 0 0 -9740996.0426414423 7472982.0243337937 0 7472982.0243337937 6352416.0585706783 0 0 0 0 -60347226.060829163 31188823.476650238 0 31188823.476650238 19533467.192541122 0 0 0 0 -34369891.379508972 40839077.788860321 0 40839077.788860321 22819304.074150085 0 0 0 0 -149908719.5222702 -45796547.465393066 0 -45796547.465393066 39042762.031881332 0 0 0 0 119896124.88368797 207715809.50968742 0 207715809.50968742 -84584017.667942047 0 0 0 0 -33696775.799163818 41995962.762674332 0 41995962.762674332 -16317383.783205986 0 0 0 0 -23535880.762268066 49949765.392543793 0 49949765.392543793 -13817328.854839325 0 0 0 0 -26998370.723960876 41688133.578458786 0 41688133.578458786 -21212364.759521484 0 0 0 0 16972054.209977608 18825755.322793052 0 18825755.322793052 1597440.04642497 0 0 0 0 -36055760.986436844 78427340.634794235 0 78427340.634794235 -26647200.04675293 0 0 0 0 -30394200.436213594 28145975.810017668 0 28145975.810017668 10825405.532899177 0 0 0 0 -4864618.2755947113 35308092.026248932 0 35308092.026248932 -14682277.36328125 0 0 0 0 8896796.9170846939 10134842.784976482 0 10134842.784976482 -32928328.998397827 0 0 0 0 12549815.453889847 15329757.255917549 0 15329757.255917549 -91324454.574718475 0 0 0 0 -21234975.613952637 54554910.445863724 0 54554910.445863724 -54114762.298616409 0 0 0 0 -3449698.7261810303 33419362.202129364 0 33419362.202129364 -39838467.789321899 0 0 0 0 -12283805.761329651 33767317.503290176 0 33767317.503290176 2147126.6739654541 0 0 0 0 -31698781.058372498 44151824.712057114 0 44151824.712057114 10553767.677368164 0 0 0 0 -28914219.259376526 55232046.677518845 0 55232046.677518845 -21204114.800632477 0 0 0 0 -34617971.081546783 45586759.624026775 0 45586759.624026775 -12674446.944843292 0 0 0 0 -58472926.985527039 57766978.480258942 0 57766978.480258942 7834549.9085388184 0 0 0 0 -30199488.462905884 29602822.615991592 0 29602822.615991592 27346171.617586136 0 0 0 0 -59521619.530502319 29475967.95945549 0 29475967.95945549 37842639.665195465 0 0 0 0 -33045109.083427429 3496250.0385398865 0 3496250.0385398865 55459888.284196854 0 0 0 0 -61865279.049880981 22049888.123338103 0 22049888.123338103 28681160.133460999 0 0 0 0 -45871009.485671997 117897570.99860001 0 117897570.99860001 -190859692.38130283 0 0 0 0 -108988554.21041107 56944956.955116272 0 56944956.955116272 10447546.415283203 0 0 0 0 3370246.8064956665 37866675.144899368 0 37866675.144899368 -128597544.61920547 0 0 0 0 -105936293.72497559 82420439.449623108 0 82420439.449623108 -28869907.841364861 0 0 0 0 -72554922.648345947 51980177.663738251 0 51980177.663738251 -20730738.868091583 0 0 0 0 -22252591.657546997 51206849.276054382 0 51206849.276054382 -64658906.370735168 0 0 0 0 -69580257.671203613 80126271.310493469 0 80126271.310493469 -37756694.935161591 0 0 0 0 -58509922.811233521 105576583.12682152 0 105576583.12682152 -119847696.44849396 0 0 0 0 -120491040.18595123 92436797.796832085 0 92436797.796832085 -30470835.836688995 0 0 0 0 -320557800.68486023 288304066.47761154 0 288304066.47761154 -54737279.364031792 0 0 0 0 -287121976.31080627 -33661602.875095367 0 -33661602.875095367 142506688.98827744 0 0 0 0 -649357802.16702271 193497605.9223671 0 193497605.9223671 403389877.87942505 0 0 0 0 -24173327.250915527 -158251610.92787361 0 -158251610.92787361 113221026.13299561 0 0 0 0 -685561374.55838776 -34115658.560947895 0 -34115658.560947895 657702966.64152527 0 0 0 0 -255170342.10474968 -281307228.85450697 0 -281307228.85450697 426681286.99658203 0 0 0 0 -124467212.48882294 -53553102.213956833 0 -53553102.213956833 11874897.280441284 0 0 0 0 -62900858.60333252 -45121196.190860748 0 -45121196.190860748 10406329.68525362 0 0 0 0 -88099497.780151367 12873941.947219849 0 12873941.947219849 37107591.33999157 0 0 0 0 -187263108.90516663 -85839285.71415329 0 -85839285.71415329 168978512.82010269 0 0 0 0 -230316455.11755371 69385213.338636398 0 69385213.338636398 18088652.564369202 0 0 0 0 -46670800.380401611 7074289.9710712433 0 7074289.9710712433 32053377.18447113 0 0 0 0 -108952442.64795685 -7468043.8777770996 0 -7468043.8777770996 28742448.490066528 0 0 0 0 -62879975.491276264 -7926296.2666943073 0 -7926296.2666943073 70972885.758033752 0 0 0 0 -29250504.121414185 26720455.555782318 0 26720455.555782318 89262036.5313797 0 0 0 0 -45056228.815841675 -28410392.367072105 0 -28410392.367072105 9292661.1107597351 0 0 0 0 -41810267.117833138 -24268871.771350622 0 -24268871.771350622 5767113.944984436 0 0 0 0 31556687.71232605 14974629.551550865 0 14974629.551550865 -52316196.368534088 0 0 0 0 7225486.1016540527 -54807617.540276527 0 -54807617.540276527 -81400021.932037354 0 0 0 0 -70576055.631309509 -41949653.361689568 0 -41949653.361689568 55090614.777059555 0 0 0 0 329758344.6294651 262158674.0460391 0 262158674.0460391 -281667881.09185123 0 0 0 0 301674313.02723122 -272064462.85486841 0 -272064462.85486841 -262158340.97228622 0 0 0 0 -3702253.4030696098 3052946.108737906 0 3052946.108737906 1107022.9208155938 0 0 0 0 -61768.16723898612 -730055.85698335245 0 -730055.85698335245 281635.63584235683 0 0 0 0 -38874959.702334404 -104204684.57039857 0 -104204684.57039857 -28329700.344978333 0 0 0 0 -43808537.591705322 126654604.58509064 0 126654604.58509064 328384679.57892704 0 0 0 0 263153.1348362118 1264971.6204664856 0 1264971.6204664856 147143.9637253182 0 0 0 0 156609963.7820282 -54680557.728513718 0 -54680557.728513718 -482628591.67366028 0 0 0 0 85931929.367279053 196242530.12160683 0 196242530.12160683 123926127.84454346 0 0 0 0 112415814.26937866 86898420.256008148 0 86898420.256008148 -103029653.68775749 0 0 0 0 9286121.0593299866 121150691.91838264 0 121150691.91838264 -1228330.0863265991 0 0 0 0 99751025.41268158 156302092.17738533 0 156302092.17738533 -275370034.53648376 0 0 0 0 -42390604.254623413 155573747.72067547 0 155573747.72067547 134853403.943367 0 0 0 0 -43779899.77772522 -135297218.7715416 0 -135297218.7715416 -82090148.428264618 0 0 0 0 -179268187.37458801 66791220.296030045 0 66791220.296030045 57995012.622085571 0 0 0 0 -89876461.007492065 124590443.67481613 0 124590443.67481613 90727098.209192276 0 0 0 0 131678876.62472534 240372087.64896584 0 240372087.64896584 -67579060.634181976 0 0 0 0 -37993165.101760864 37463839.248071671 0 37463839.248071671 -16593328.266280174 0 0 0 0 -62318170.049358368 45012031.263293266 0 45012031.263293266 3856187.4198608398 0 0 0 0 -112093256.10935974 64335383.06936264 0 64335383.06936264 -3397328.1896133423 0 0 0 0 -36244880.237785339 63877441.853218079 0 63877441.853218079 -28324155.678871155 0 0 0 0 52345760.194793701 98207694.963362694 0 98207694.963362694 -223702172.59817123 0 0 0 0 43139962.949813843 81133347.037408829 0 81133347.037408829 58407873.141504765 0 0 0 0 1603380.9930636585 9276273.6667917538 0 9276273.6667917538 -431428.46387557453 0 0 0 0 18861729.608431816 78648644.991832972 0 78648644.991832972 102404639.79263306 0 0 0 0 190354009.09848022 99298779.231391907 0 99298779.231391907 -248767886.40112686 0 0 0 0 98254613.607757568 -17339763.868377686 0 -17339763.868377686 -48224793.30947876 0 0 0 0 -8928682.7358703613 58189846.933944702 0 58189846.933944702 111797315.28781319 0 0 0 0 7967264.9082009941 17809035.24446018 0 17809035.24446018 5321031.8148967102 0 0 0 0 -143961908.15774536 17160235.434137344 0 17160235.434137344 180470078.92601013 0 0 0 0 -63318551.614242554 90176111.461965561 0 90176111.461965561 -23450928.570264101 0 0 0 0 -5952950.3384990692 2079587.4354371727 0 2079587.4354371727 3338440.7580872774 0 0 0 0 -11015782.653242111 35421644.476848602 0 35421644.476848602 141041.3369178772 0 0 0 0 -2944400.7923965454 37918414.039632797 0 37918414.039632797 -15025336.104007959 0 0 0 0 -8390660.0420341492 44277106.376915693 0 44277106.376915693 -5013904.1104736328 0 0 0 0 -11620092.02432251 11721916.089458466 0 11721916.089458466 2673604.6901454926 0 0 0 0 -11974438.067932129 17846996.979624748 0 17846996.979624748 -124224237.5520401 0 0 0 0 -63678993.628082275 119673780.2660656 0 119673780.2660656 -85951104.22309494 0 0 0 0 11043436.54664921 13870904.703415891 0 13870904.703415891 849583.00681198016 0 0 0 0 31532078.179519653 219702187.72539139 0 219702187.72539139 -209099774.76342869 0 0 0 0 10142763.520999596 12367910.908494946 0 12367910.908494946 -1150134.5603323262 0 0 0 0 -7818709.3896484375 36441984.483860016 0 36441984.483860016 -140406163.43684959 0 0 0 0 42416946.035568237 -8882584.0153007507 0 -8882584.0153007507 -205621268.24364853 0 0 0 0 2773813.6611831263 4633188.7065337943 0 4633188.7065337943 -1070722.4555590479 0 0 0 0 68252275.412467957 40913430.943292141 0 40913430.943292141 -188875122.32872009 0 0 0 0 10039861.038742065 75995779.153871536 0 75995779.153871536 -38439676.224784851 0 0 0 0 27416567.38130188 34924821.323713303 0 34924821.323713303 -22335028.592700958 0 0 0 0 53848007.048946381 37962183.594391346 0 37962183.594391346 -22663606.409519196 0 0 0 0 15119302.168484688 27116327.00188148 0 27116327.00188148 149649021.71569443 0 0 0 0 11247398.231369019 106957459.6364193 0 106957459.6364193 95285142.425884247 0 0 0 0 24468166.46963501 95228778.199934006 0 95228778.199934006 -55948918.205156326 0 0 0 0 29172198.804550171 -8938618.0972766876 0 -8938618.0972766876 -114465944.08817291 0 0 0 0 5907560.8648176193 43687762.245765328 0 43687762.245765328 3118982.0491924286 0 0 0 0 6466373.0016009808 55993213.058996916 0 55993213.058996916 -76025994.405754089 0 0 0 0 5213152.4371383861 3296235.1777931037 0 3296235.1777931037 -1828424.2265667105 0 0 0 0 5391260.7005882263 20194157.130752087 0 20194157.130752087 -18757472.125732422 0 0 0 0 872665.40823364258 2387915.5107536316 0 2387915.5107536316 -2813951.2820191383 0 0 0 0 383788.54327392578 2637021.7834339142 0 2637021.7834339142 -2497188.9930305481 0 0 0 0 310608.61066055298 3178954.0558543205 0 3178954.0558543205 -9952704.9598922729 0 0 0 0 3585780.3571472168 8952553.8748140335 0 8952553.8748140335 -18131682.199977875 0 0 0 0 786404.39473177493 2094473.3690833375 0 2094473.3690833375 -3904394.128243912 0 0 0 0 -173855.30240709335 3564310.9193554129 0 3564310.9193554129 787447.86473057454 0 0 0 0 -1983696.6716690063 7845029.6311101913 0 7845029.6311101913 3348834.4581370354 0 0 0 0 769239.45895385742 4040769.6776399612 0 4040769.6776399612 -3219114.7047729492 0 0 0 0 8494455.1467895508 -8011614.1681594849 0 -8011614.1681594849 -23707911.370903015 0 0 0 0 11671483.445724487 9267427.7002305984 0 9267427.7002305984 -7194755.0817623138 0 0 0 0 2891583.123036135 8292524.3491069414 0 8292524.3491069414 750966.49669793993 0 0 0 0 -7418428.0235290527 22315390.79681015 0 22315390.79681015 32183561.934173584 0 0 0 0 -1907108.5982131958 7389687.2649822235 0 7389687.2649822235 2291836.7975540161 0 0 0 0 1382787.420286715 10281294.092331138 0 10281294.092331138 3051564.7796212509 0 0 0 0 -1521131.4718170166 9598166.8265581131 0 9598166.8265581131 12940885.709486008 0 0 0 0 -7074126.2094112709 13307021.676933279 0 13307021.676933279 581129.30454699229 0 0 0 0 591742.7727432251 9956491.7582154274 0 9956491.7582154274 9188895.35916996 0 0 0 0 -11704956.025787354 36724758.635848999 0 36724758.635848999 15355588.902251244 0 0 0 0 -152042.52618408203 12582847.569559097 0 12582847.569559097 9784270.376147747 0 0 0 0 893944.37495422363 34916156.879236221 0 34916156.879236221 -681324.33133792877 0 0 0 0 -5190750.2263188362 -1247391.7128461003 0 -1247391.7128461003 -11551019.416549683 0 0 0 0 -1936596.6140249968 6450125.0961765172 0 6450125.0961765172 1692410.400841062 0 0 0 0 -25717214.050262451 4305279.8409934044 0 4305279.8409934044 18567753.870151997 0 0 0 0 13838017.393676758 28086553.620471954 0 28086553.620471954 -23420176.592972279 0 0 0 0 -82043.571134805679 1446614.5547841685 0 1446614.5547841685 266593.01628943847 0 0 0 0 -18903040.728317261 20649027.432243347 0 20649027.432243347 -12659400.824515462 0 0 0 0 -1607666.3642120361 11619607.423847198 0 11619607.423847198 17256774.480669022 0 0 0 0 730317.89178466797 13972009.425144672 0 13972009.425144672 3258920.9438362122 0 0 0 0 -21089240.529769897 9083824.7777118683 0 9083824.7777118683 6208795.8460454941 0 0 0 0 6511597.5649757385 -2148072.6584701538 0 -2148072.6584701538 11923201.65191555 0 0 0 0 -12145983.697341919 21738003.099529505 0 21738003.099529505 -15449148.677904129 0 0 0 0 -28969828.625534058 -4636949.8296751976 0 -4636949.8296751976 4444226.5270051956 0 0 0 0 -35925469.794557571 13839319.614597917 0 13839319.614597917 -5427961.7718811035 0 0 0 0 -19313221.914901733 19442993.438427925 0 19442993.438427925 -6392338.4147970676 0 0 0 0 -35894472.172718048 12176852.064922571 0 12176852.064922571 -29256361.644878387 0 0 0 0 -71820083.055999756 6241877.1362938881 0 6241877.1362938881 -2576945.5933237076 0 0 0 0 -49050718.150337219 35818730.606245518 0 35818730.606245518 -4940410.6235437393 0 0 0 0 739594.74064887874 721527.13903801516 0 721527.13903801516 -566252.34160212521 0 0 0 0 -34568224.161010742 29596940.998114109 0 29596940.998114109 -23656370.153327942 0 0 0 0 -34778247.401138306 32520564.549727201 0 32520564.549727201 -8235290.489397049 0 0 0 0 -11041990.148918152 28831651.727248192 0 28831651.727248192 -8024308.3537931442 0 0 0 0 -21592085.413730621 17394912.167527676 0 17394912.167527676 -2935688.4471817017 0 0 0 0 -3548759.0150604248 21389127.078872681 0 21389127.078872681 -5558529.8318090439 0 0 0 0 -5462179.7903747559 18055985.531733394 0 18055985.531733394 13892521.682318687 0 0 0 0 -10061968.19972229 15019640.760978222 0 15019640.760978222 193193.55709648132 0 0 0 0 16628483.194274902 12701050.904181957 0 12701050.904181957 -2283950.8772592545 0 0 0 0 1920877.3435935974 1294307.7926182747 0 1294307.7926182747 12393984.241704941 0 0 0 0 5360991.5472640991 3387981.3661680222 0 3387981.3661680222 1849138.7760257721 0 0 0 0 5216369.6113185883 3348301.9579380155 0 3348301.9579380155 6751466.7082681656 0 0 0 0 3335310.2188720703 239079.63212871552 0 239079.63212871552 7233156.249584198 0 0 0 0 4673345.1039581299 4754241.9564189911 0 4754241.9564189911 10686076.827715397 0 0 0 0 -210329.73434448242 2985112.937871933 0 2985112.937871933 -2691023.0777788162 0 0 0 0 4743637.4423694611 3522781.9096890986 0 3522781.9096890986 6706196.1685571671 0 0 0 0 1336387.5686302483 4185730.7731378376 0 4185730.7731378376 642648.56997194211 0 0 0 0 -10478131.970558167 3517300.7570829391 0 3517300.7570829391 -11289777.865692139 0 0 0 0 -65040.889693282545 160948.85166572966 0 160948.85166572966 -392352.32497914089 0 0 0 0 1390496.7988891602 838912.84365081787 0 838912.84365081787 -14346236.286605835 0 0 0 0 1821117.1475847363 5845735.3303174209 0 5845735.3303174209 2083176.7549756011 0 0 0 0 1172109.8277300298 -29762.547263551503 0 -29762.547263551503 -5068133.0853567496 0 0 0 0 -2291578.3307800293 12304995.844524384 0 12304995.844524384 -16456125.310247421 0 0 0 0 -307188.52220333368 6765070.5169217866 0 6765070.5169217866 2368691.858258679 0 0 0 0 1962494.4234237671 4784914.467320919 0 4784914.467320919 14939691.606255531 0 0 0 0 10433411.561508179 2623277.5154066086 0 2623277.5154066086 17467376.408963203 0 0 0 0 605911.10386770219 1089733.7105265614 0 1089733.7105265614 795895.51952821109 0 0 0 0 8874169.8440246582 9733360.1696643829 0 9733360.1696643829 -29500421.991143703 0 0 0 0 -14559968.223890305 13665151.465542853 0 13665151.465542853 -2804798.7396569252 0 0 0 0 -14060911.97851181 11954564.761273891 0 11954564.761273891 -2020983.9717137814 0 0 0 0 -33368888.370271683 30708222.815610886 0 30708222.815610886 -16977525.943286896 0 0 0 0 -26116445.820662498 14620033.761187077 0 14620033.761187077 17342234.68353653 0 0 0 0 -14933164.063013077 11011913.966700345 0 11011913.966700345 1355967.8453030586 0 0 0 0 -16028647.030141823 9902376.6376916841 0 9902376.6376916841 3092561.4360049199 0 0 0 0 -7568996.2977867126 -15878455.639358521 0 -15878455.639358521 52470782.514644623 0 0 0 0 -3593962.9361100905 2107191.2287583388 0 2107191.2287583388 -802458.90172233433 0 0 0 0 -17567439.872119904 -59715145.548023224 0 -59715145.548023224 107869769.85013151 0 0 0 0 -29940049.502063751 4686362.4826507568 0 4686362.4826507568 55086869.992847443 0 0 0 0 -19735829.456542123 9914090.8267946504 0 9914090.8267946504 6848154.1653260086 0 0 0 0 -13623258.132614136 10708458.096338034 0 10708458.096338034 -2363818.2011640072 0 0 0 0 -15338271.098548889 12608101.541371465 0 12608101.541371465 -501842.86268591881 0 0 0 0 -50225081.039505005 28518745.554063797 0 28518745.554063797 -13639890.396814346 0 0 0 0 -3340110.7302267365 7039009.7474881345 0 7039009.7474881345 -1907382.2093267038 0 0 0 0 -41244449.423362732 30324764.842615128 0 30324764.842615128 5944099.1026611328 0 0 0 0 -49731896.036010742 30906140.336773872 0 30906140.336773872 -10712030.070198059 0 0 0 0 -788373.94937932491 -1210243.091798116 0 -1210243.091798116 1282506.8805774145 0 0 0 0 -41111204.175735474 36352201.536446571 0 36352201.536446571 -22976091.613852024 0 0 0 0 -21308406.807983398 -3521521.0554447174 0 -3521521.0554447174 60980689.679517746 0 0 0 0 -46704294.41009903 33799433.507261753 0 33799433.507261753 42514536.585754395 0 0 0 0 -15287467.648822784 20364304.603741646 0 20364304.603741646 47767549.857303619 0 0 0 0 -34113904.109283447 31086133.489639282 0 31086133.489639282 54512505.9547472 0 0 0 0 -11350991.860378318 8107733.7413161695 0 8107733.7413161695 3210667.9009894617 0 0 0 0 -8449904.1286783218 14680299.662622929 0 14680299.662622929 35551704.142063141 0 0 0 0 -6726796.7883350849 17020550.360249221 0 17020550.360249221 7203857.1829938889 0 0 0 0 -4774494.9532123171 8262892.1587157119 0 8262892.1587157119 905863.1994865865 0 0 0 0 13880546.236877441 10375081.741952896 0 10375081.741952896 -26188401.058487892 0 0 0 0 -45399518.164489746 59554240.885176182 0 59554240.885176182 -11438078.203289866 0 0 0 0 -38801891.654651642 18126195.065781116 0 18126195.065781116 21246897.03545785 0 0 0 0 62273478.486194611 11900515.881748557 0 11900515.881748557 -36964727.257609367 0 0 0 0 -79905456.185775757 50856319.279495239 0 50856319.279495239 5843858.4921646118 0 0 0 0 -287110.75174560584 -306017.85300021246 0 -306017.85300021246 332720.31155010778 0 0 0 0 29898752.83310318 18445863.914966822 0 18445863.914966822 -28458401.863913059 0 0 0 0 -1053696.3841255829 5634672.75864866 0 5634672.75864866 928605.00392695097 0 0 0 0 -12627657.255569458 18028902.58787775 0 18028902.58787775 -6826247.0025035739 0 0 0 0 -13478716.358131409 10009426.682053566 0 10009426.682053566 -4666392.4640716016 0 0 0 0 -1347701.7560896985 5532190.2772306278 0 5532190.2772306278 337151.40228851466 0 0 0 0 -15163103.415182114 14740273.281864062 0 14740273.281864062 -3379848.719796896 0 0 0 0 -14468986.077423096 11908408.848318338 0 11908408.848318338 -9330886.5678875446 0 0 0 0 -10717414.849068072 5136453.4172954289 0 5136453.4172954289 4328542.1015342809 0 0 0 0 -14705732.447454929 15637882.674862653 0 15637882.674862653 -9827033.9178316593 0 0 0 0 -7399164.0888175964 -9261797.5233736038 0 -9261797.5233736038 35487686.503648758 0 0 0 0 280642801.35140991 27222808.011814117 0 27222808.011814117 -34844301.477409124 0 0 0 0 101416448.11294556 64687398.006952286 0 64687398.006952286 88039930.583065033 0 0 0 0 106700575.34952545 -25869767.350868225 0 -25869767.350868225 9813173.9292221069 0 0 0 0 126775362.99394226 -28270846.677139282 0 -28270846.677139282 -37672878.959529996 0 0 0 0 61101399.749004364 -90917671.832401276 0 -90917671.832401276 71482379.462450027 0 0 0 0 -2248989.835067749 -16396896.104875565 0 -16396896.104875565 9106346.029750824 0 0 0 0 -8640411.5851333588 4780835.0633384092 0 4780835.0633384092 5683455.632838523 0 0 0 0 -15082401.478248596 19836791.342875004 0 19836791.342875004 -15064017.014757872 0 0 0 0 22437675.244327545 15834510.916973591 0 15834510.916973591 -4216935.7893886566 0 0 0 0 17379694.77438736 -4328930.5917122364 0 -4328930.5917122364 1564994.4258003235 0 0 0 0 20585172.766708374 7008691.5214557648 0 7008691.5214557648 41620557.665805817 0 0 0 0 34791335.811828613 -12128369.878742218 0 -12128369.878742218 37052037.34930563 0 0 0 0 -10167932.663059235 5282573.4143304825 0 5282573.4143304825 15612529.15012455 0 0 0 0 -16050585.968238354 12974127.975265771 0 12974127.975265771 -13256952.586876869 0 0 0 0 -10149295.731328011 9556813.2129146457 0 9556813.2129146457 -9270746.2589511871 0 0 0 0 -18573484.135002136 18670910.061438322 0 18670910.061438322 -7687309.6666169167 0 0 0 0 -12992729.495254517 23029682.579134703 0 23029682.579134703 -20283795.666585207 0 0 0 0 -7417565.439155072 5165615.672417636 0 5165615.672417636 6675248.4972917568 0 0 0 0 -6924167.1319320202 -7249247.1580518484 0 -7249247.1580518484 32647794.714704514 0 0 0 0 -14500142.594478607 24455358.818489075 0 24455358.818489075 20176202.066436768 0 0 0 0 32212161.107292175 7635395.4501686096 0 7635395.4501686096 -48892763.092168331 0 0 0 0 8689020.9776144028 12224874.349595785 0 12224874.349595785 -3834525.6139984131 0 0 0 0 1457334.1908709183 363437.871528666 0 363437.871528666 1947738.7104064322 0 0 0 0 4041911.7409439087 1941575.2420635223 0 1941575.2420635223 39919012.820171356 0 0 0 0 36260432.654541016 -6499293.2678794861 0 -6499293.2678794861 18051651.419393539 0 0 0 0 950663.46155894548 297005.20780231245 0 297005.20780231245 1167327.435845234 0 0 0 0 -11190643.651069641 -13588140.09875679 0 -13588140.09875679 -28456934.162620544 0 0 0 0 24025864.182619095 -32192399.557631016 0 -32192399.557631016 -20404512.956241608 0 0 0 0 -30131401.560417175 -34339559.593297958 0 -34339559.593297958 7786961.3634338379 0 0 0 0 -14988140.622217178 77865482.178806782 0 77865482.178806782 -40629076.596172333 0 0 0 0 -41982755.019416809 -12806586.072036743 0 -12806586.072036743 -2184146.0291385651 0 0 0 0 700783.88492805138 805525.76678562164 0 805525.76678562164 -1817818.3184411637 0 0 0 0 -4691419.9217147827 84292284.93034935 0 84292284.93034935 -45908473.306404114 0 0 0 0 -14892149.676773071 90162452.633388519 0 90162452.633388519 -47540501.645534515 0 0 0 0 90821538.547210693 -143083928.37937164 0 -143083928.37937164 -33748623.197570801 0 0 0 0 55991122.596748352 118996442.14617157 0 118996442.14617157 -46804378.208374023 0 0 0 0 123557339.807724 51909410.783958435 0 51909410.783958435 9502858.6765174866 0 0 0 0 11316.347850315273 -7674.5356404716149 0 -7674.5356404716149 -17470.803030355368 0 0 0 0 -44810493.326263428 -12555662.361608505 0 -12555662.361608505 73640636.985103607 0 0 0 0 210661.6880742237 281045.80220552906 0 281045.80220552906 -5695.5499786622822 0 0 0 0 439932693.81364441 -84056548.719604492 0 -84056548.719604492 14507576.929048538 0 0 0 0 506899095.59309769 84712374.388106346 0 84712374.388106346 -58041913.371856689 0 0 0 0 -17185827.555374146 23935073.030722618 0 23935073.030722618 -2491685.0874557495 0 0 0 0 -12691170.849853516 25435251.048008919 0 25435251.048008919 -10869907.758378029 0 0 0 0 -8007522.5792999268 36573997.258850098 0 36573997.258850098 8684722.7039756775 0 0 0 0 -69778803.871917725 2929044.164768219 0 2929044.164768219 26860558.162286282 0 0 0 0 1116168.7936517075 -4907.0351200960577 0 -4907.0351200960577 -179462.98576717731 0 0 0 0 24395017.365112305 33147595.421251774 0 33147595.421251774 -7002749.8232402802 0 0 0 0 12237909.035636902 -12795017.224599004 0 -12795017.224599004 8516827.5202026367 0 0 0 0 -23080890.852127075 12159479.118984699 0 12159479.118984699 -586662.41607093811 0 0 0 0 -2716107.991027832 2532865.9283294678 0 2532865.9283294678 3960592.251033783 0 0 0 0 -7839024.3790855408 19814571.036566496 0 19814571.036566496 -8021819.0756893158 0 0 0 0 -15692854.033554077 23695088.366621017 0 23695088.366621017 -5844269.5967159271 0 0 0 0 -33999310.884635925 18278476.129963875 0 18278476.129963875 -10302375.824081421 0 0 0 0 -22845885.663711548 31066013.915783882 0 31066013.915783882 -10653097.589552924 0 0 0 0 2805309.4907229189 5970170.4738110043 0 5970170.4738110043 -5320800.9372950476 0 0 0 0 -2347360.7913237065 3583156.3421461396 0 3583156.3421461396 3890704.4196326579 0 0 0 0 -7188017.7836987749 6264111.4820488198 0 6264111.4820488198 7877209.7715367451 0 0 0 0 -16513359.668151855 16056899.449330106 0 16056899.449330106 -4778073.1595799923 0 0 0 0 -6393071.3607788086 12934829.389135599 0 12934829.389135599 -18408776.387022972 0 0 0 0 -13247916.754753113 22161110.021201611 0 22161110.021201611 -20308231.552438498 0 0 0 0 -18889053.526939392 21310422.912999153 0 21310422.912999153 -4128668.1562614441 0 0 0 0 2306155.9156461954 7164017.7950250469 0 7164017.7950250469 -7401322.4017616985 0 0 0 0 -5964714.0176239014 10041498.126318231 0 10041498.126318231 -15071675.866166264 0 0 0 0 -3491083.7774599828 3598626.6958415518 0 3598626.6958415518 7577679.4028137671 0 0 0 0 -14609713.897647858 15510182.464562908 0 15510182.464562908 -3277602.0960503221 0 0 0 0 -7802550.335144043 15619432.575519562 0 15619432.575519562 -12976925.140574455 0 0 0 0 -30720926.292175293 -7794871.1184406281 0 -7794871.1184406281 33856334.556253433 0 0 0 0 -2542573.3031938002 10533031.741246914 0 10533031.741246914 -2159661.902281668 0 0 0 0 -467641.85450560972 -265626.09371021576 0 -265626.09371021576 1172139.3069153391 0 0 0 0 -4932001.8321003914 10045310.933995008 0 10045310.933995008 18568301.840959549 0 0 0 0 14563985.41015625 7870882.2276916504 0 7870882.2276916504 1562110.028755188 0 0 0 0 800208.42630004883 6811344.1750011444 0 6811344.1750011444 20363036.902988434 0 0 0 0 1722163.4292168766 820070.63518470153 0 820070.63518470153 4105186.8404658972 0 0 0 0 -229868.03622436523 -2017346.1315803528 0 -2017346.1315803528 21022510.413198471 0 0 0 0 -1676087.806312561 20454149.737262726 0 20454149.737262726 -15259633.707947731 0 0 0 0 -4582668.9674453735 5507383.7696228027 0 5507383.7696228027 -1486249.6573064327 0 0 0 0 -230866.0186340306 5324878.394205438 0 5324878.394205438 2040281.7518296856 0 0 0 0 -4385640.5810546875 9742704.8776664734 0 9742704.8776664734 -14409959.698877335 0 0 0 0 -2361282.8382162079 2235127.250835509 0 2235127.250835509 7090516.8225858165 0 0 0 0 -2580291.1186218262 4830325.6686172485 0 4830325.6686172485 -3904378.6345949173 0 0 0 0 -1293841.1809415817 3582021.5567481946 0 3582021.5567481946 -302665.60711660888 0 0 0 0 -1376942.0155154467 5005615.2002024725 0 5005615.2002024725 -582698.77365810145 0 0 0 0 -8044534.6185188293 11160754.610778809 0 11160754.610778809 3654845.8768692017 0 0 0 0 -243071.12464562058 674259.50466572167 0 674259.50466572167 1287167.5568226469 0 0 0 0 878844.18811035156 13465376.514469147 0 13465376.514469147 -17731814.786530972 0 0 0 0 -7446109.1023635864 4159112.2665791512 0 4159112.2665791512 13294090.165166736 0 0 0 0 15918211.262252808 16344628.29638958 0 16344628.29638958 -18908297.080070496 0 0 0 0 17730489.278315544 36143493.717178106 0 36143493.717178106 -65984257.07233429 0 0 0 0 263512.05065347254 5918147.1610416286 0 5918147.1610416286 2391546.2897120928 0 0 0 0 -19752001.119377136 59607120.481086731 0 59607120.481086731 -21527045.545811653 0 0 0 0 14333363.282562256 6867533.9193587303 0 6867533.9193587303 -15754803.512004852 0 0 0 0 16824432.242797852 40465067.458578587 0 40465067.458578587 -39072421.264465332 0 0 0 0 858001.78046630323 -140718.86106735468 0 -140718.86106735468 -496890.73688383121 0 0 0 0 -39998948.825592041 -13146070.81590271 0 -13146070.81590271 30864125.252253532 0 0 0 0 -1249332.6379220262 9222536.6219859421 0 9222536.6219859421 3155420.6470665219 0 0 0 0 -16130831.950256348 17098282.151394844 0 17098282.151394844 4189201.0845241547 0 0 0 0 -1947881.1179860309 11057226.41799034 0 11057226.41799034 -680605.12600244395 0 0 0 0 -2740705.4155197144 26108356.543269396 0 26108356.543269396 1385242.8626012802 0 0 0 0 -8178765.4318847656 46414047.458623648 0 46414047.458623648 -8695310.9426140785 0 0 0 0 -2741993.1734542847 27723106.139416456 0 27723106.139416456 28054132.886658669 0 0 0 0 12521624.773376465 14225003.11259675 0 14225003.11259675 -98093.850940227509 0 0 0 0 17710242.881622314 34360452.935651779 0 34360452.935651779 -3786861.8539981842 0 0 0 0 23602451.054138184 5632699.1843528748 0 5632699.1843528748 -3023365.5780784488 0 0 0 0 28846751.8489151 3023461.7320218086 0 3023461.7320218086 -3775436.0358695984 0 0 0 0 465640.68799164146 -273582.76959594712 0 -273582.76959594712 -63192.482793677598 0 0 0 0 2480138.4584121704 -3668656.1066155434 0 -3668656.1066155434 9886111.5033340454 0 0 0 0 16854261.95803833 2531115.4811029434 0 2531115.4811029434 2600641.5359678268 0 0 0 0 23874289.415557861 -410413.88893318176 0 -410413.88893318176 215926.21004867554 0 0 0 0 17164727.907238007 2397269.3347933292 0 2397269.3347933292 510718.56567764282 0 0 0 0 -2317191.4021818712 6418440.0525384787 0 6418440.0525384787 -197636.13283449877 0 0 0 0 3109235.2539672852 13068975.932599068 0 13068975.932599068 -966630.6143989563 0 0 0 0 16126270.859265327 8142267.8811540008 0 8142267.8811540008 -477662.39308547974 0 0 0 0 -6708341.4485778809 -3116224.2183222771 0 -3116224.2183222771 20189833.760876656 0 0 0 0 18674186.62197876 4618769.5629911423 0 4618769.5629911423 -7680583.8654689789 0 0 0 0 1799225.5314941406 13418472.722187042 0 13418472.722187042 -5871508.8177337646 0 0 0 0 3512646.8330688477 6289351.3292508125 0 6289351.3292508125 -93214.551637411118 0 0 0 0 -4271606.9281044006 4194339.3567478657 0 4194339.3567478657 15067.994218826294 0 0 0 0 -3071699.4111938477 2909844.1943321228 0 2909844.1943321228 -1278432.0221939087 0 0 0 0 456272.84950178862 925303.28042112198 0 925303.28042112198 -453840.36961212149 0 0 0 0 13222155.393768311 10103535.179921627 0 10103535.179921627 -813562.89484071732 0 0 0 0 1304699.6407047454 55950.677385479212 0 55950.677385479212 -15562.367810325697 0 0 0 0 2090848.4743621759 196299.72099784762 0 196299.72099784762 -827580.7254112605 0 0 0 0 20267528.714765549 6129070.6418473721 0 6129070.6418473721 -5148663.6766643524 0 0 0 0 16325406.600738525 4570261.0499401093 0 4570261.0499401093 -1925641.1438093185 0 0 0 0 -305395.68405151367 546005.77403640747 0 546005.77403640747 1337042.1698160172 0 0 0 0 -1548649.2776442096 -51321.868394262157 0 -51321.868394262157 1014138.5298699201 0 0 0 0 2042607.0166244507 9261717.5544893742 0 9261717.5544893742 13030088.036398888 0 0 0 0 -134731.37435913086 914805.22984886169 0 914805.22984886169 1911738.2528181076 0 0 0 0 -254415.65536499023 1093890.3323812485 0 1093890.3323812485 2084155.3605327606 0 0 0 0 -11645971.089019775 7075740.6787486076 0 7075740.6787486076 1936707.7363469601 0 0 0 0 -2798186.9981320947 1351053.0701348966 0 1351053.0701348966 524528.99700018624 0 0 0 0 -7766.8505299054086 1816526.518857576 0 1816526.518857576 1002128.7388134403 0 0 0 0 -80540.068969726562 1148469.4487495422 0 1148469.4487495422 1911310.7340221405 0 0 0 0 -15563609.13319397 2217748.5625104904 0 2217748.5625104904 -21967462.16849041 0 0 0 0 -207389.0765131861 5098872.0668477789 0 5098872.0668477789 552971.65362241957 0 0 0 0 -1638859.5342983007 1295379.60106989 0 1295379.60106989 -611775.06861790037 0 0 0 0 -11063636.515724182 13092995.314611912 0 13092995.314611912 4266624.5346050262 0 0 0 0 -10449056.917484283 17937223.593716025 0 17937223.593716025 3318043.3751087189 0 0 0 0 -10957392.652061462 1807608.2311954498 0 1807608.2311954498 34513128.387680054 0 0 0 0 -4221656.6393432617 2433212.3998637199 0 2433212.3998637199 -5425573.5427415371 0 0 0 0 -4950796.1136779785 -1075353.3695497513 0 -1075353.3695497513 2837384.8917665482 0 0 0 0 -68232.814134404063 427438.32804374024 0 427438.32804374024 -570733.91261536349 0 0 0 0 13683965.512390137 26808609.816969633 0 26808609.816969633 -9833373.3017646074 0 0 0 0 10321128.788011551 39594301.230053067 0 39594301.230053067 35793768.401339531 0 0 0 0 -12484140.192825317 21232358.305256844 0 21232358.305256844 85568767.359474972 0 0 0 0 23587894.949905396 -7998183.5274753571 0 -7998183.5274753571 26498763.016795635 0 0 0 0 -15557515.554489136 -6532847.1026654243 0 -6532847.1026654243 80000561.388586521 0 0 0 0 -21634607.644317627 14462908.371002495 0 14462908.371002495 92790104.210461617 0 0 0 0 2943715.0530395508 30791584.724397719 0 30791584.724397719 59082049.518535614 0 0 0 0 -172645.73054122925 49656597.56167078 0 49656597.56167078 -63431404.912043333 0 0 0 0 612811.70720930398 -727246.42692059185 0 -727246.42692059185 -567019.51423640992 0 0 0 0 -3728352.8629760742 22705915.921584487 0 22705915.921584487 -40831303.704293013 0 0 0 0 1124046.2587745264 -1318220.0206383867 0 -1318220.0206383867 -1035072.9257459439 0 0 0 0 -29709425.382369995 14005742.759792089 0 14005742.759792089 -14204391.278921843 0 0 0 0 -923158.97175598145 24291185.767449141 0 24291185.767449141 195835.45748627186 0 0 0 0 -12700374.563919067 718420.19856607914 0 718420.19856607914 21026010.465540171 0 0 0 0 4260214.7668190002 21030716.783281147 0 21030716.783281147 -44128761.388483822 0 0 0 0 -14604252.799781799 24562154.282344222 0 24562154.282344222 52790234.692647934 0 0 0 0 -13199860.719474792 23072724.981081367 0 23072724.981081367 35100121.318912506 0 0 0 0 -18124430.25402832 20023227.787454605 0 20023227.787454605 47666051.10050869 0 0 0 0 -17287000.527297974 27873454.781748295 0 27873454.781748295 71353136.146985054 0 0 0 0 -7651221.8698577881 10247689.700978458 0 10247689.700978458 12858592.46913404 0 0 0 0 543907.12549781799 -2478918.7781733759 0 -2478918.7781733759 -43510278.420131981 0 0 0 0 -10657602.992401123 22490105.372263074 0 22490105.372263074 6470520.0239876173 0 0 0 0 2506826.0905036926 14207000.280788362 0 14207000.280788362 6021806.5042357445 0 0 0 0 12012043.891769409 37501215.303873062 0 37501215.303873062 52222571.393405914 0 0 0 0 34721396.427688599 16775910.51604557 0 16775910.51604557 31856474.690542698 0 0 0 0 9518172.5224914551 -5995629.2353849411 0 -5995629.2353849411 14339371.432298064 0 0 0 0 -25416.826232439005 8239478.6181073748 0 8239478.6181073748 71198647.73746109 0 0 0 0 14974678.17364502 42486735.879796028 0 42486735.879796028 46327458.584008217 0 0 0 0 725993.59876538813 7994.6649105940014 0 7994.6649105940014 -750595.4243325619 0 0 0 0 11004179.926193237 17104457.385299683 0 17104457.385299683 -7360909.3511810303 0 0 0 0 -1450836.8975219727 29808154.764017344 0 29808154.764017344 115563485.2351265 0 0 0 0 -619976.16160583496 9657644.7572593689 0 9657644.7572593689 48011468.719405174 0 0 0 0 11253728.288431168 -11703291.617598712 0 -11703291.617598712 36585803.764701843 0 0 0 0 12970074.839981079 -40654007.687937737 0 -40654007.687937737 108687829.94204557 0 0 0 0 -9502483.1129245758 -4241561.5047216415 0 -4241561.5047216415 -2558356.7245826721 0 0 0 0 -10673576.964984894 6504322.7966428995 0 6504322.7966428995 -22636.621543884277 0 0 0 0 -8269033.8690490723 -2163444.5162916183 0 -2163444.5162916183 2509344.4145317078 0 0 0 0 12054248.152854919 7941051.8359723091 0 7941051.8359723091 4613031.549446106 0 0 0 0 5353380.1640319824 -1517844.366528511 0 -1517844.366528511 -3553126.619966507 0 0 0 0 -1572486.4476013184 -1578568.6135492325 0 -1578568.6135492325 4093770.1055606008 0 0 0 0 28146.180488586426 3344375.8210315704 0 3344375.8210315704 13035858.090241432 0 0 0 0 92211.992645263672 8358872.4054994583 0 8358872.4054994583 25827727.656594753 0 0 0 0 -1497901.5562591553 16699148.921553612 0 16699148.921553612 29140001.634921074 0 0 0 0 -2180156.2440643311 12796943.810450077 0 12796943.810450077 10072227.334156036 0 0 0 0 -11372179.074253082 16704027.385118604 0 16704027.385118604 43431553.181497574 0 0 0 0 -13371824.604190826 13195738.225803852 0 13195738.225803852 52124981.878967285 0 0 0 0 -11640147.400253296 13184472.478834152 0 13184472.478834152 48382877.743305922 0 0 0 0 -10426257.556808472 21061832.407025814 0 21061832.407025814 75313672.192338943 0 0 0 0 -6026726.6875610352 -12438306.984370232 0 -12438306.984370232 65327009.326311111 0 0 0 0 -7614983.8217315674 -727748.98070907593 0 -727748.98070907593 37171180.073444366 0 0 0 0 -7428370.8793945312 -757012.50141525269 0 -757012.50141525269 35618024.969133377 0 0 0 0 -1898637.2395324707 5722594.979799509 0 5722594.979799509 31080557.655736923 0 0 0 0 -141492.92556762695 -3410338.5957994461 0 -3410338.5957994461 19934734.179783821 0 0 0 0 5104689.4180297852 -2453011.3879060745 0 -2453011.3879060745 -624835.51837348938 0 0 0 0 253735.46742968261 -213494.24447998777 0 -213494.24447998777 -565073.54952431377 0 0 0 0 162995.55328369141 3020158.9061470032 0 3020158.9061470032 18595404.868126392 0 0 0 0 1539160.3886186182 108798.14421015978 0 108798.14421015978 -1662377.1887301235 0 0 0 0 -10961818.133666992 -1813020.0862312317 0 -1813020.0862312317 17602279.529724121 0 0 0 0 -4486647.0189819336 4178232.5780220032 0 4178232.5780220032 22729334.870510101 0 0 0 0 -2605262.7657165527 -10844639.319442749 0 -10844639.319442749 30891271.561425209 0 0 0 0 -2353350.0073547363 -809907.27208709717 0 -809907.27208709717 -6673036.6447515488 0 0 0 0 -7238713.356048584 6542789.4238977432 0 6542789.4238977432 -7939318.9534072876 0 0 0 0 29250.980889126658 -42628.0103993956 0 -42628.0103993956 -91571.964330688352 0 0 0 0 -240747.90869318694 45823.076352937147 0 45823.076352937147 234094.95022312831 0 0 0 0 -1783104.335723877 10647759.179664612 0 10647759.179664612 465128.82261276245 0 0 0 0 9295353.0869140625 7615435.6829223633 0 7615435.6829223633 -4132643.5156173706 0 0 0 0 -2919062.0308837891 -1163475.5341854095 0 -1163475.5341854095 -542680.98613548279 0 0 0 0 -6837118.2963256836 -4759122.0042648315 0 -4759122.0042648315 -3339540.7748169899 0 0 0 0 879550.83299204707 157194.44347178936 0 157194.44347178936 -1751670.9154003081 0 0 0 0 303893.90864700079 -472430.57151369937 0 -472430.57151369937 -519753.40358646773 0 0 0 0 498532.49340820312 -707345.24947929382 0 -707345.24947929382 -597603.53768157959 0 0 0 0 128461.14704491943 -595959.75401500892 0 -595959.75401500892 840246.07141504413 0 0 0 0 94624.978942871094 -654328.00036621094 0 -654328.00036621094 4200270.9087138176 0 0 0 0 -558384.68157958984 -192820.99983215332 0 -192820.99983215332 -303796.2712059021 0 0 0 0 -818386.6738101989 -88102.354109782726 0 -88102.354109782726 1151698.9686875679 0 0 0 0 -3310768.3202514648 1669488.2699217796 0 1669488.2699217796 21447658.033010483 0 0 0 0 -1049165.9387245178 4710932.5741889477 0 4710932.5741889477 20247164.889066696 0 0 0 0 1328823.8600152731 282055.87347051129 0 282055.87347051129 -560494.24544639443 0 0 0 0 809202.00828552246 -213109.94603538513 0 -213109.94603538513 -2598779.7963805199 0 0 0 0 -4618252.1419219971 27715748.210546494 0 27715748.210546494 -50557984.493339539 0 0 0 0 4805882.1564407349 2252056.1357274055 0 2252056.1357274055 -2489328.4042539597 0 0 0 0 39737.59880065918 -909.41038417816162 0 -909.41038417816162 -844577.31469726562 0 0 0 0 1693006.765443936 -327652.01744558662 0 -327652.01744558662 -1913572.4524042243 0 0 0 0 -1108661.3178053349 -1703681.7750051203 0 -1703681.7750051203 1131808.7982286317 0 0 0 0 17218633.927322388 -5878305.2718038559 0 -5878305.2718038559 -44802432.834507942 0 0 0 0 91388416.560592651 -34377241.220918655 0 -34377241.220918655 -26391292.832933903 0 0 0 0 9837060.8434829712 -52203876.351678967 0 -52203876.351678967 -23726892.466208458 0 0 0 0 42908878.546707153 56234793.451685905 0 56234793.451685905 36731903.755677223 0 0 0 0 15465548.375457764 -7671431.602897644 0 -7671431.602897644 -17800623.912858963 0 0 0 0 39994226.716369629 29743263.858135223 0 29743263.858135223 -51053334.567424774 0 0 0 0 26519720.488052368 -4533521.5985116959 0 -4533521.5985116959 23781516.221973419 0 0 0 0 -47351009.021377563 27467326.447349548 0 27467326.447349548 23288674.278892517 0 0 0 0 -919656.12671764195 -1853886.7670137617 0 -1853886.7670137617 571646.47126285988 0 0 0 0 4946906.0986938477 3934972.0634279251 0 3934972.0634279251 4547102.9751701355 0 0 0 0 2677934.1711349487 -1928955.5544910431 0 -1928955.5544910431 -9218170.8850579262 0 0 0 0 -830004.77761926502 -1647629.886582464 0 -1647629.886582464 371476.56903749309 0 0 0 0 -14874.657608032227 -2327276.5730276108 0 -2327276.5730276108 951789.19756984711 0 0 0 0 -27956954.578952789 -38708814.849921227 0 -38708814.849921227 -27313839.594248772 0 0 0 0 2677934.1711425781 3340592.804810524 0 3340592.804810524 -1224577.9271459579 0 0 0 0 -1743974.1950408779 528954.00137586519 0 528954.00137586519 1643677.3413985921 0 0 0 0 -17156.838806152344 5285142.7973413467 0 5285142.7973413467 3455079.6547966003 0 0 0 0 13449.422920227051 5305747.1495866776 0 5305747.1495866776 3443551.5074830055 0 0 0 0 -1999504.6055839807 474800.0715256054 0 474800.0715256054 1981728.0012165662 0 0 0 0 -56607621.742416382 -33801486.439463615 0 -33801486.439463615 -61530097.22303772 0 0 0 0 -53687588.050889969 -15253841.267659783 0 -15253841.267659783 51021523.318273544 0 0 0 0 -1075354.1438484192 70582913.656291008 0 70582913.656291008 -14558138.321475983 0 0 0 0 -16100679.279006958 34341815.664973259 0 34341815.664973259 -98557636.805362701 0 0 0 0 -84767.040326249393 30023123.209412716 0 30023123.209412716 -120564991.50539017 0 0 0 0 -25238355.194717407 40674166.148639679 0 40674166.148639679 -78348432.421705484 0 0 0 0 285336.3148701638 -559503.7072744891 0 -559503.7072744891 147233.62421699462 0 0 0 0 31492295.091384888 -27696216.35641098 0 -27696216.35641098 -10052652.757165432 0 0 0 0 -8973209.5472793579 7631025.3945612907 0 7631025.3945612907 124317053.53141212 0 0 0 0 74883372.829673767 -216196.1170334816 0 -216196.1170334816 -39206123.284988403 0 0 0 0 -36920477.980522156 70068946.784729958 0 70068946.784729958 -66019104.962730408 0 0 0 0 62545313.959884644 600239.60233783722 0 600239.60233783722 -9311170.8950004578 0 0 0 0 1317443.0741958618 -8690212.3320083618 0 -8690212.3320083618 -4126490.3066501617 0 0 0 0 -1941908.553192839 1784605.4657083265 0 1784605.4657083265 961146.07662650198 0 0 0 0 25179120.98021698 44018510.980552673 0 44018510.980552673 38801924.995973587 0 0 0 0 13449747.222351074 -7062725.058134079 0 -7062725.058134079 13479396.078495026 0 0 0 0 -27828428.897155762 -10399575.23208046 0 -10399575.23208046 49968993.499209166 0 0 0 0 1228477.0495643616 48790073.049978256 0 48790073.049978256 -8840712.8551025391 0 0 0 0 27969529.331268311 9074307.9971904755 0 9074307.9971904755 -38269901.031547546 0 0 0 0 780216.47349822521 -66798.126887862571 0 -66798.126887862571 597640.19481157011 0 0 0 0 5394819.7811279297 8771348.2847976685 0 8771348.2847976685 -37427874.584196091 0 0 0 0 -5998270.3812408447 17444648.684196472 0 17444648.684196472 -1728672.9688415527 0 0 0 0 4188700.7150368169 2411007.3662770204 0 2411007.3662770204 -1084950.359461023 0 0 0 0 -994383.56098780781 3839745.4681687765 0 3839745.4681687765 969481.47969439719 0 0 0 0 5305215.4276275635 19654529.997562408 0 19654529.997562408 17457694.676167488 0 0 0 0 8405397.9650402069 16769866.718262315 0 16769866.718262315 5522522.5434551239 0 0 0 0 -1663873.6434385031 2331188.5148235019 0 2331188.5148235019 1676603.7916334635 0 0 0 0 17228603.537288666 28489677.439125121 0 28489677.439125121 -2538786.0532493591 0 0 0 0 17249511.490905762 -2420906.047618866 0 -2420906.047618866 -50069790.441501617 0 0 0 0 250592.7292721346 436182.54176436597 0 436182.54176436597 -31604.584285586141 0 0 0 0 -12570737.148834229 -6274229.6206207275 0 -6274229.6206207275 -24124860.234228134 0 0 0 0 1281660.4641265869 6711153.6706047058 0 6711153.6706047058 -25981802.310207129 0 0 0 0 15073241.792098999 -16713193.981599808 0 -16713193.981599808 -91812965.016317844 0 0 0 0 20470995.998504639 1271126.1900157928 0 1271126.1900157928 -53336385.586174011 0 0 0 0 22609445.890045166 -2037996.3353004456 0 -2037996.3353004456 -53002948.634002209 0 0 0 0 26434155.016662598 -3510821.8930454254 0 -3510821.8930454254 -89505016.110733032 0 0 0 0 12571148.927246094 -2442797.4523468018 0 -2442797.4523468018 -27540919.738544464 0 0 0 0 10917749.523536682 4625111.4174385071 0 4625111.4174385071 -16638594.359207153 0 0 0 0 13344611.41065979 16004952.274309158 0 16004952.274309158 -49091133.426269531 0 0 0 0 13506670.742507935 9179864.5670642853 0 9179864.5670642853 -32678546.944484711 0 0 0 0 3009006.8573608398 4500077.3431587219 0 4500077.3431587219 -5502690.5848884583 0 0 0 0 16495050.32208252 7166596.7358055115 0 7166596.7358055115 -22901044.772422791 0 0 0 0 4050801.4146501571 3373993.659957788 0 3373993.659957788 -674887.44046397717 0 0 0 0 10965775.600021362 8405319.8604869843 0 8405319.8604869843 -1345503.7788543701 0 0 0 0 2129652.5710807927 2359445.1425445154 0 2359445.1425445154 -237873.57618827 0 0 0 0 1391374.2731628418 2145785.5007266998 0 2145785.5007266998 744732.4972641468 0 0 0 0 1367134.3189315796 2120476.6213741302 0 2120476.6213741302 940829.14958190918 0 0 0 0 2084805.8827472702 2338004.1907891817 0 2338004.1907891817 1427850.8563100249 0 0 0 0 960706.03695678711 2081040.916431427 0 2081040.916431427 -2348814.2811737061 0 0 0 0 1519565.9095458984 3367883.6909790039 0 3367883.6909790039 1312269.8898954391 0 0 0 0 662489.36437988281 2518216.6497764587 0 2518216.6497764587 1419238.4247531891 0 0 0 0 3535901.8772277832 -4018449.6372413635 0 -4018449.6372413635 -7398138.18359375 0 0 0 0 12045182.191558838 5271192.6316375732 0 5271192.6316375732 -16736264.490019798 0 0 0 0 7795000.9313964844 4901464.1367855072 0 4901464.1367855072 11002794.957817078 0 0 0 0 46101.601078588516 631060.01732738689 0 631060.01732738689 609698.24729961902 0 0 0 0 1921665.511973381 4811682.1607319117 0 4811682.1607319117 3367467.6860809326 0 0 0 0 1996426.0754311085 2066373.3837838471 0 2066373.3837838471 1206555.4706192017 0 0 0 0 2083826.5073852539 2976986.9545154572 0 2976986.9545154572 1857854.1066572666 0 0 0 0 2413687.8796167374 2910184.6402989831 0 2910184.6402989831 1425728.0689544762 0 0 0 0 3291265.8536736518 4994549.8588136919 0 4994549.8588136919 -42099.350097054965 0 0 0 0 12934.521942131221 33255.653165344149 0 33255.653165344149 28380.605488191359 0 0 0 0 1786796.1885375977 6755690.7644987106 0 6755690.7644987106 6365744.7068214417 0 0 0 0 3303092.0231018066 6775424.0291957855 0 6775424.0291957855 -719749.53482437134 0 0 0 0 1087338.9685287476 1658299.2901706696 0 1658299.2901706696 77694.176879882812 0 0 0 0 353058.48442777991 3334793.3692219406 0 3334793.3692219406 797097.26062966324 0 0 0 0 1484506.0181087926 1618739.5921048895 0 1618739.5921048895 -1397055.4726808351 0 0 0 0 -1100011.0315856934 3175097.0615534782 0 3175097.0615534782 -4039138.8055591583 0 0 0 0 2667789.1691570505 3171641.1305511855 0 3171641.1305511855 1272831.8341252031 0 0 0 0 2727962.9051787555 3286824.5587839391 0 3286824.5587839391 -466872.12965584919 0 0 0 0 4497796.4862213135 12151541.817079544 0 12151541.817079544 -4184008.0181455612 0 0 0 0 2698513.5455780029 12338767.897935867 0 12338767.897935867 2343007.7366333008 0 0 0 0 162007.06051670015 1993543.2642958779 0 1993543.2642958779 -1762347.9798058295 0 0 0 0 107146.44833374023 1349232.8072834015 0 1349232.8072834015 -1150529.2653884888 0 0 0 0 115715.09838867188 2013647.2677154541 0 2013647.2677154541 -4000633.4294281006 0 0 0 0 1293370.8578066081 3251571.4435341349 0 3251571.4435341349 1622304.3792318925 0 0 0 0 926588.75231933594 2321008.4153556824 0 2321008.4153556824 -2509080.2838668823 0 0 0 0 1498195.7730542198 3143476.7547648223 0 3143476.7547648223 733540.67624665471 0 0 0 0 868582.46897315979 2647753.6976788044 0 2647753.6976788044 -1610135.9400787354 0 0 0 0 131001.18008225411 1799001.4048795514 0 1799001.4048795514 -1699452.9976713755 0 0 0 0 727033.431640625 2029709.6875686646 0 2029709.6875686646 -117688.92389678955 0 0 0 0 573480.54229736328 1473773.0094413757 0 1473773.0094413757 558067.33415222168 0 0 0 0 2032827.0327148438 2711164.3006591797 0 2711164.3006591797 1109718.2465782166 0 0 0 0 3209837.6732510384 1950689.7615763396 0 1950689.7615763396 257902.77515118103 0 0 0 0 3144626.267628517 3199666.4729479328 0 3199666.4729479328 1618945.6190948291 0 0 0 0 570788.38300323486 1735340.7051134109 0 1735340.7051134109 694233.36576843262 0 0 0 0 801474.49108886719 1154635.4681053162 0 1154635.4681053162 612509.3316116333 0 0 0 0 2875241.3206557743 2398234.1468404457 0 2398234.1468404457 1435773.5723340008 0 0 0 0 1835912.7322238386 2424013.5869610831 0 2424013.5869610831 1747665.778932997 0 0 0 0 290452.29441259801 1699321.8849694375 0 1699321.8849694375 -1154931.4570955555 0 0 0 0 -558017.1627592966 2041314.0810159463 0 2041314.0810159463 -824614.124761499 0 0 0 0 -888222.31271362305 2016015.8757381439 0 2016015.8757381439 398136.83333587646 0 0 0 0 -990927.38231658936 1841093.9282093048 0 1841093.9282093048 455891.31159973145 0 0 0 0 -757548.58547973633 1595019.3946342468 0 1595019.3946342468 -198163.39028930664 0 0 0 0 -993285.04054689407 1887512.031155061 0 1887512.031155061 -119010.09489350999 0 0 0 0 2771897.925771039 2413576.7743704878 0 2413576.7743704878 498388.57534053642 0 0 0 0 207478.0739440918 1472928.4788398743 0 1472928.4788398743 -1027468.6950111389 0 0 0 0 880468.96755218506 2230108.8289871216 0 2230108.8289871216 810487.00804138184 0 0 0 0 3949073.2052113339 3639874.6199144013 0 3639874.6199144013 1001573.588878721 0 0 0 0 1551152.6040206254 5045887.6427849224 0 5045887.6427849224 -1668187.982348314 0 0 0 0 -414362.69121496007 2010674.5303385369 0 2010674.5303385369 -1668194.1912580188 0 0 0 0 4275906.3740921021 7363965.2799863815 0 7363965.2799863815 -115231.20906424522 0 0 0 0 3365991.0753821135 832160.97726327181 0 832160.97726327181 -1629039.1486601946 0 0 0 0 2484595.1448695958 1162170.3693505861 0 1162170.3693505861 873362.02329468913 0 0 0 0 19713673.496459961 9106119.5595531464 0 9106119.5595531464 1022552.6649475098 0 0 0 0 2125878.1106185913 996068.13183689117 0 996068.13183689117 -15244.400226593018 0 0 0 0 1495915.3987420239 1847691.4674810208 0 1847691.4674810208 1942830.8378593158 0 0 0 0 8109138.4847106934 17237291.324404716 0 17237291.324404716 7553509.1768537909 0 0 0 0 -794739.6987211965 1728018.1409430094 0 1728018.1409430094 -617359.71331450343 0 0 0 0 2552950.200035315 2914603.8464108184 0 2914603.8464108184 307489.01702430192 0 0 0 0 -1428594.7385864258 1815896.8202636242 0 1815896.8202636242 -612236.89646720886 0 0 0 0 -544211.6111869216 3624044.7198648639 0 3624044.7198648639 -360546.31003080588 0 0 0 0 -1172271.3386459351 2310041.8606257439 0 2310041.8606257439 -634477.61236000061 0 0 0 0 -2099117.7993164062 3697845.0718307495 0 3697845.0718307495 -3107088.6457901001 0 0 0 0 -829434.30288907886 1535137.2554794308 0 1535137.2554794308 -765374.45159152499 0 0 0 0 -1254134.4942646027 2001630.0911779404 0 2001630.0911779404 326368.74076271057 0 0 0 0 2706174.8943869099 1316909.6484929752 0 1316909.6484929752 -1678191.2537482167 0 0 0 0 -475865.29189065844 1505857.3407586468 0 1505857.3407586468 -667807.18650001776 0 0 0 0 -398615.73680877686 4242700.6427536011 0 4242700.6427536011 -12771674.791231155 0 0 0 0 2669831.9332885742 -6114968.8143053055 0 -6114968.8143053055 -19497408.659664154 0 0 0 0 8092857.9849243164 5026802.0342521667 0 5026802.0342521667 -13202439.344768524 0 0 0 0 -124548.77032470703 1499996.6907176971 0 1499996.6907176971 -68935.388442993164 0 0 0 0 24277.218025408685 400151.26851743087 0 400151.26851743087 -833233.67599397572 0 0 0 0 1856380.9182638228 1801972.0999816842 0 1801972.0999816842 -1020839.8962853891 0 0 0 0 2715328.2117614746 1760442.8989257812 0 1760442.8989257812 -1444934.2377986908 0 0 0 0 897880.72225952148 4636006.1116733551 0 4636006.1116733551 1817545.1204624176 0 0 0 0 410198.02363212779 123492.00222856551 0 123492.00222856551 -50029.728140664287 0 0 0 0 15400050.720001221 3589340.2086868286 0 3589340.2086868286 -17145229.469455719 0 0 0 0 17440317.265838623 -14567851.718421936 0 -14567851.718421936 -4960364.5215702057 0 0 0 0 -32564202.611883163 71605871.999506712 0 71605871.999506712 -346006.53136634827 0 0 0 0 811650.77574894577 -121657.24809740111 0 -121657.24809740111 -861469.27909397054 0 0 0 0 3039664.249206543 -13422883.971675873 0 -13422883.971675873 -1792316.3507794142 0 0 0 0 14599451.826080322 19061858.544886589 0 19061858.544886589 -4223482.3806056976 0 0 0 0 27137688.077064514 5365997.7564673424 0 5365997.7564673424 -9334918.6265602112 0 0 0 0 13928251.458282471 12002979.327112198 0 12002979.327112198 -79907.517834663391 0 0 0 0 8060543.3092422485 5153260.8295073509 0 5153260.8295073509 -7265368.1048316956 0 0 0 0 14194688.443145752 7562000.3870048523 0 7562000.3870048523 -13992041.982561111 0 0 0 0 8795653.9864501953 2381053.3882064819 0 2381053.3882064819 -9747032.9997787476 0 0 0 0 15572146.877662659 165469955.35227871 0 165469955.35227871 -47480739.08313942 0 0 0 0 48068940.093654633 157305321.9610815 0 157305321.9610815 -45612634.49178791 0 0 0 0 68678284.824262619 136298769.43704915 0 136298769.43704915 -115191012.48436737 0 0 0 0 95115920.359054565 171643896.37624454 0 171643896.37624454 -97708211.251389503 0 0 0 0 50756329.125911713 116793558.97070694 0 116793558.97070694 -130373147.94486332 0 0 0 0 91260614.441936493 118077971.24573898 0 118077971.24573898 -171594465.95747185 0 0 0 0 77450083.894028664 118231065.00718212 0 118231065.00718212 -142231226.93964386 0 0 0 0 103562538.29841232 170680472.80244732 0 170680472.80244732 -98143422.372851372 0 0 0 0 131132264.74250031 188790888.87339306 0 188790888.87339306 -53250387.151056767 0 0 0 0 97710659.983600616 185401196.34686804 0 185401196.34686804 -51464082.879587173 0 0 0 0 115639750.78231812 240762349.96275711 0 240762349.96275711 -18032832.096525431 0 0 0 0 54671588.964067459 206320703.7291081 0 206320703.7291081 -17725684.018802643 0 0 0 0 50768914.193572998 194182270.81238794 0 194182270.81238794 -28470523.876928329 0 0 0 0 -7626321.5984916687 194612530.71514606 0 194612530.71514606 11464658.498791695 0 0 0 0 -7149984.0751953125 197180380.22061634 0 197180380.22061634 25296705.389357567 0 0 0 0 -27097704.352275848 181667999.0554409 0 181667999.0554409 14063750.120873451 0 0 0 0 -45217070.372901917 166986911.55187798 0 166986911.55187798 36017988.051986694 0 0 0 0 -28364511.549091339 165349088.43428326 0 165349088.43428326 25777924.480167389 0 0 0 0 -30082554.711224556 168202063.25813508 0 168202063.25813508 28952073.076267242 0 0 0 0 -23598657.581878662 163414977.54928589 0 163414977.54928589 26425208.197741508 0 0 0 0 -28019309.455516815 134500043.60170841 0 134500043.60170841 12498461.040837288 0 0 0 0 -29298021.528835297 140678642.36728573 0 140678642.36728573 45895745.797954559 0 0 0 0 998628.64444351196 130300222.01245689 0 130300222.01245689 -21850074.830239773 0 0 0 0 15461563.654489517 168660344.70644999 0 168660344.70644999 -27458843.676065445 0 0 0 0 -8363379.3313064575 173557642.56527328 0 173557642.56527328 16879630.700438499 0 0 0 0 16126413.821935654 120740209.03136587 0 120740209.03136587 -86478296.021678925 0 0 0 0 -3587572.2820415497 129878282.69947529 0 129878282.69947529 2690645.6651344299 0 0 0 0 -20896736.648483276 85360354.245055199 0 85360354.245055199 -31303433.453548431 0 0 0 0 -23113650.75350666 94102740.337694883 0 94102740.337694883 50842303.336183548 0 0 0 0 -18100845.2514534 26765438.820886612 0 26765438.820886612 -71535605.750519753 0 0 0 0 9822736.8397698402 53959193.771746039 0 53959193.771746039 -97351414.965990067 0 0 0 0 2467819.4559440613 68807869.095525742 0 68807869.095525742 -22179226.551053047 0 0 0 0 40988955.498403549 41973350.872094154 0 41973350.872094154 -170640041.66964722 0 0 0 0 17427906.020008087 55330272.702941895 0 55330272.702941895 -104026507.920084 0 0 0 0 42857128.497421265 112251733.2646265 0 112251733.2646265 -85069408.805784225 0 0 0 0 29805637.880851746 88995478.540155411 0 88995478.540155411 -126476773.7938118 0 0 0 0 41639137.572944641 64687099.926686287 0 64687099.926686287 -181241304.2681694 0 0 0 0 33937187.510871887 46443202.554697037 0 46443202.554697037 -159912165.93262196 0 0 0 0 58386198.382541656 80826902.427179337 0 80826902.427179337 -170219692.7261734 0 0 0 0 65768028.207054138 63876295.182439804 0 63876295.182439804 -203257431.37875557 0 0 0 0 37475959.355803013 18039418.151190162 0 18039418.151190162 -228467659.32805634 0 0 0 0 1733761.6111831665 -7790388.044960022 0 -7790388.044960022 -137872207.72856474 0 0 0 0 1204553.3622894287 -46630161.497320175 0 -46630161.497320175 -231023530.46279645 0 0 0 0 6660255.2747192383 -41831427.459517479 0 -41831427.459517479 -246420005.18176174 0 0 0 0 -963983860.80276108 1495475850.159687 0 1495475850.159687 95413972.305725098 0 0 0 0 18505578.245300293 -24431167.216630936 0 -24431167.216630936 -277026463.19682503 0 0 0 0 28757250.990135193 8209924.6972675323 0 8209924.6972675323 -213599910.06847668 0 0 0 0 -1452785.7526855469 -22272215.736507416 0 -22272215.736507416 -267963328.02286911 0 0 0 0 -43238656.780647278 -63596008.667791367 0 -63596008.667791367 -255910801.18893671 0 0 0 0 1378008651.228405 -415334199.73072243 0 -415334199.73072243 1345767365.9670849 0 0 0 0 -4652936.9690589905 -64379803.336602211 0 -64379803.336602211 -417975985.79967499 0 0 0 0 -4071065.5469687264 2094206.7605226187 0 2094206.7605226187 -405096.09892758867 0 0 0 0 -12715878.735124588 -121967071.73702717 0 -121967071.73702717 -415281107.34223366 0 0 0 0 -1633541.3665279206 626166.93958763685 0 626166.93958763685 89531.600345763363 0 0 0 0 -74564858.760871887 -114751115.13484097 0 -114751115.13484097 -301695226.47333527 0 0 0 0 -19477722.842449188 -75480558.792354107 0 -75480558.792354107 -327672028.50378418 0 0 0 0 -8329087.9342956543 -40716186.690900803 0 -40716186.690900803 -305289285.07331657 0 0 0 0 20977452.973045349 -28603925.096305847 0 -28603925.096305847 -329019702.43996811 0 0 0 0 -19751362.572654724 -56832430.373743057 0 -56832430.373743057 -369976264.45051575 0 0 0 0 -8503090.9698722661 -79577785.371522248 0 -79577785.371522248 -396142059.55602264 0 0 0 0 9506801.5198669434 52298203.252645493 0 52298203.252645493 -345016895.7058773 0 0 0 0 17350001.548915863 -18138549.38406539 0 -18138549.38406539 -402024784.81755447 0 0 0 0 11927722.827464104 14961871.522347093 0 14961871.522347093 -282230076.56097031 0 0 0 0 55716625.416374207 56069108.127655983 0 56069108.127655983 -310925287.53622913 0 0 0 0 41901570.159614563 21452897.545017242 0 21452897.545017242 -258854276.94090939 0 0 0 0 69667956.949951172 84508011.17773819 0 84508011.17773819 -228497842.63310337 0 0 0 0 28414206.77385664 22043725.82819581 0 22043725.82819581 -251470511.74871445 0 0 0 0 -112544300.78927612 73011000.969675064 0 73011000.969675064 881738888.67979431 0 0 0 0 -5888525.2168793064 2542857.9498820454 0 2542857.9498820454 142369.89292157721 0 0 0 0 142789495.90230942 -17584262.045507431 0 -17584262.045507431 699851793.09551239 0 0 0 0 -193287884.20225906 565963878.11384201 0 565963878.11384201 1749516731.7807102 0 0 0 0 -18884807.666946411 -48055894.753961563 0 -48055894.753961563 -405363709.34727859 0 0 0 0 -18647821.981124878 14236184.645712852 0 14236184.645712852 -334155369.60223389 0 0 0 0 -15710861.86125946 71669936.256612778 0 71669936.256612778 -516322237.79054952 0 0 0 0 -128737729.97639465 39158813.872603416 0 39158813.872603416 -368140220.85143661 0 0 0 0 -85445112.62279892 -122198793.70660877 0 -122198793.70660877 -482558718.53276443 0 0 0 0 -106069875.76340675 211512561.83723831 0 211512561.83723831 -806736522.16425705 0 0 0 0 -7200753.2895402908 -110114176.69487047 0 -110114176.69487047 -943805611.45245743 0 0 0 0 -369375342.21267319 288404056.94052505 0 288404056.94052505 -404347484.35643768 0 0 0 0 -1817961.0189965721 377108.24682717538 0 377108.24682717538 153947.73235038063 0 0 0 0 -222716015.06896782 -8246455.5341384411 0 -8246455.5341384411 -119762476.65011215 0 0 0 0 -141010023.16802597 149154127.83094692 0 149154127.83094692 -340867553.77581453 0 0 0 0 -90008344.945793152 34816250.561423063 0 34816250.561423063 -130417841.1538105 0 0 0 0 -59753478.104367256 119403007.28118896 0 119403007.28118896 -211342506.19738007 0 0 0 0 11540379.232765198 53466790.182355881 0 53466790.182355881 -344220843.18254328 0 0 0 0 -99855315.941532135 90574500.849317551 0 90574500.849317551 -93105446.828128338 0 0 0 0 -66211882.68964386 21268558.933939457 0 21268558.933939457 29147466.478530884 0 0 0 0 -126485411.05726624 39762338.668260098 0 39762338.668260098 -96051907.309653282 0 0 0 0 -131980819.73531008 -20899738.41591537 0 -20899738.41591537 14915586.802211761 0 0 0 0 79872456.30934906 131729969.95100498 0 131729969.95100498 -160017305.80627441 0 0 0 0 79692904.735807419 74842444.267895937 0 74842444.267895937 -220639862.69924736 0 0 0 0 100463122.27827454 125717701.59905529 0 125717701.59905529 -176519121.96808052 0 0 0 0 59371143.42710495 74864876.560153008 0 74864876.560153008 -198153933.46977234 0 0 0 0 35235208.628931046 60494894.766942501 0 60494894.766942501 -209207923.2033596 0 0 0 0 22930321.545425415 20182416.99151516 0 20182416.99151516 -302249587.04735565 0 0 0 0 23655588.802505493 99282009.437223434 0 99282009.437223434 -233022761.54823494 0 0 0 0 44236390.660430908 63785546.854651451 0 63785546.854651451 -201857175.63534641 0 0 0 0 26397465.707289696 116630703.62940788 0 116630703.62940788 -137436286.61057854 0 0 0 0 -5345208.4143638611 41942775.815928459 0 41942775.815928459 -115282439.84884262 0 0 0 0 7502216.2534446716 87889876.079602242 0 87889876.079602242 -92654274.610978127 0 0 0 0 17742458.234348297 54824593.177578926 0 54824593.177578926 -10029744.397060394 0 0 0 0 121148543.03421021 78382266.181577682 0 78382266.181577682 -122167935.01475811 0 0 0 0 84983305.939990997 133004081.97290802 0 133004081.97290802 -64505199.359542847 0 0 0 0 118033504.58956528 95850691.775403023 0 95850691.775403023 -134021115.1752224 0 0 0 0 146534866.40518951 175193416.78789425 0 175193416.78789425 -112234059.5870285 0 0 0 0 144550514.8041954 150420870.23533058 0 150420870.23533058 22380410.500419617 0 0 0 0 226088308.13408279 113590176.08478594 0 113590176.08478594 -63379460.852119446 0 0 0 0 241983091.69287872 127871386.0696106 0 127871386.0696106 27365176.145824432 0 0 0 0 104304080.69181442 57268124.859722137 0 57268124.859722137 -11125102.958353043 0 0 0 0 87020941.656551361 69479372.889436722 0 69479372.889436722 61850867.45003891 0 0 0 0 69324067.928058624 67332625.389343739 0 67332625.389343739 255368259.17389107 0 0 0 0 309339426.49511814 103928844.63411033 0 103928844.63411033 146827125.74810028 0 0 0 0 82236532.487281799 53541980.289240837 0 53541980.289240837 100058922.59714198 0 0 0 0 266097492.11767197 174022235.1225915 0 174022235.1225915 708521810.76640129 0 0 0 0 515341455.51250458 91777961.019300938 0 91777961.019300938 126350876.68570328 0 0 0 0 304225469.19408011 192490777.44173825 0 192490777.44173825 78624130.502103806 0 0 0 0 278596925.04111099 5665898.0255537033 0 5665898.0255537033 82833184.984720707 0 0 0 0 -79758353.942694664 -6044266.3096506596 0 -6044266.3096506596 112867583.64390755 0 0 0 0 -54942597.707862854 19594317.982626915 0 19594317.982626915 32440764.179080009 0 0 0 0 -19991444.977714539 9912439.631860733 0 9912439.631860733 122293998.39292622 0 0 0 0 -37955851.734382629 54443668.7477808 0 54443668.7477808 29023777.029424071 0 0 0 0 -39712510.22319603 13188638.251048565 0 13188638.251048565 124497736.7023077 0 0 0 0 -48419787.710105896 22672759.157877445 0 22672759.157877445 115119537.21162289 0 0 0 0 -23685956.156085968 658912.6512761116 0 658912.6512761116 25058614.316640854 0 0 0 0 -24099827.056641579 -5743351.5413652658 0 -5743351.5413652658 81005838.986797333 0 0 0 0 -6062518.5632076263 48532352.9037323 0 48532352.9037323 114852857.86961651 0 0 0 0 -392491.44793920219 244574.18867530162 0 244574.18867530162 468813.54567692429 0 0 0 0 143775459.23203087 63514175.421383142 0 63514175.421383142 117392497.38491344 0 0 0 0 353389470.22670364 263251306.86862898 0 263251306.86862898 116237154.54355246 0 0 0 0 -13862865.888252258 -24620709.639089584 0 -24620709.639089584 32617200.803397536 0 0 0 0 -774849.62683565915 710830.13960921671 0 710830.13960921671 783137.75887282798 0 0 0 0 452399710.84728432 209100104.36329889 0 209100104.36329889 62813617.482543945 0 0 0 0 173545.07679260586 341735.11312713753 0 341735.11312713753 747278.75489159301 0 0 0 0 787883103.36256027 446795529.88021088 0 446795529.88021088 222068560.52500343 0 0 0 0 254877142.93156052 295074845.28496599 0 295074845.28496599 323399806.10624981 0 0 0 0 193874753.56836128 154019019.92156315 0 154019019.92156315 100689459.11435699 0 0 0 0 239541394.47197461 169780781.97833669 0 169780781.97833669 114807682.34696198 0 0 0 0 236051669.3638382 156442591.85360193 0 156442591.85360193 101540237.9555552 0 0 0 0 465125.46555634984 927454.32930102665 0 927454.32930102665 2045158.3295674017 0 0 0 0 73685914.48142004 -91686877.466958642 0 -91686877.466958642 -228605868.09941196 0 0 0 0 718791.87348471954 683199.67815943272 0 683199.67815943272 1249348.2029654323 0 0 0 0 1286445.9202804565 3463144.7570104599 0 3463144.7570104599 3185879.0287182331 0 0 0 0 43890312.931529999 52998442.593584061 0 52998442.593584061 -84319643.736870766 0 0 0 0 -2298529.6824827194 31158394.606565237 0 31158394.606565237 -54379139.826305389 0 0 0 0 -22418891.173347473 25328958.318441629 0 25328958.318441629 185300490.48183441 0 0 0 0 53438588.805305481 40128397.348605156 0 40128397.348605156 13224739.325994492 0 0 0 0 -36688766.373981357 -107008830.23196229 0 -107008830.23196229 283499750.69885635 0 0 0 0 -19376444.811439514 226639369.06947422 0 226639369.06947422 468997449.48600531 0 0 0 0 340868373.21673679 359725451.80378413 0 359725451.80378413 181130325.78557777 0 0 0 0 24307044.484905243 155477487.36968231 0 155477487.36968231 100812107.29815388 0 0 0 0 -39957855.450117111 153831615.80940199 0 153831615.80940199 154758899.95203304 0 0 0 0 75596652.064041138 222798865.17122364 0 222798865.17122364 51147242.337879181 0 0 0 0 39343045.290834427 240947568.90610933 0 240947568.90610933 90630961.025648117 0 0 0 0 40893025.5609532 226091859.55055434 0 226091859.55055434 29109280.401464462 0 0 0 0 40709617.892524779 220560883.95350447 0 220560883.95350447 52796851.440723419 0 0 0 0 101782079.79240036 281421225.42310715 0 281421225.42310715 156503872.31523466 0 0 0 0 190881401.41332245 237074212.00102425 0 237074212.00102425 -15906626.98135376 0 0 0 0 269152723.69108582 221070658.32052803 0 221070658.32052803 -12699456.652824402 0 0 0 0 -60740482.492888451 189188414.11606407 0 189188414.11606407 43782658.237081528 0 0 0 0 -67402312.660233021 157417177.77518737 0 157417177.77518737 32169061.972724915 0 0 0 0 -28030553.144412994 203840365.67758846 0 203840365.67758846 45739159.747818947 0 0 0 0 -23546595.067657471 195590127.41191101 0 195590127.41191101 59427452.95993042 0 0 0 0 -55033160.571561813 142733471.12019777 0 142733471.12019777 50921314.217842221 0 0 0 0 -37937078.85147953 169397777.13828516 0 169397777.13828516 73838257.858477592 0 0 0 0 -76144105.249220848 178358688.72299981 0 178358688.72299981 5997209.1226797104 0 0 0 0 -309972680.15848541 184635601.98591137 0 184635601.98591137 18866568.120081425 0 0 0 0 366366.39446511492 233579.84076243266 0 233579.84076243266 255610.92977255955 0 0 0 0 48367532.710674286 147514430.30179739 0 147514430.30179739 -228771672.653759 0 0 0 0 72149963.02665329 82735061.193587303 0 82735061.193587303 -53466202.708405018 0 0 0 0 -19697217.718795776 83086516.981425762 0 83086516.981425762 -152467418.44860029 0 0 0 0 -855745599.31726837 70592572.898842335 0 70592572.898842335 -27587371.238116503 0 0 0 0 -380372066.40533447 420884617.90640688 0 420884617.90640688 -431522719.34596634 0 0 0 0 -228085479.12849998 19873084.196346879 0 19873084.196346879 -24464484.51286602 0 0 0 0 1124179.8757065125 1675758.3269631034 0 1675758.3269631034 -11727603.66012061 0 0 0 0 -280464845.51928711 5939416.8711252213 0 5939416.8711252213 5773377.3284187317 0 0 0 0 690218.00460841972 4386.6173556083813 0 4386.6173556083813 -4277329.4392452976 0 0 0 0 -528081208.40859032 -593311254.10730839 0 -593311254.10730839 -299331101.61071777 0 0 0 0 82595594.89730072 215557123.71901655 0 215557123.71901655 176268970.6686039 0 0 0 0 303418067.36159897 -70240859.93705225 0 -70240859.93705225 -99877136.795404911 0 0 0 0 -6063204.1049896553 9670597.1593622342 0 9670597.1593622342 -10856572.321979813 0 0 0 0 283382673.86642766 233876492.11913773 0 233876492.11913773 18586233.204816818 0 0 0 0 -55630198.653308868 -37819026.469918251 0 -37819026.469918251 -23423590.044812202 0 0 0 0 535076.9276536461 5211994.4553232919 0 5211994.4553232919 -17951735.530563705 0 0 0 0 28278714.222545624 -45814618.334657669 0 -45814618.334657669 -33513178.199482918 0 0 0 0 72797779.010147095 114332172.35688877 0 114332172.35688877 -46295519.226236343 0 0 0 0 128609682.30009842 61712902.29135704 0 61712902.29135704 -51470258.760759354 0 0 0 0 -3656438.9824523926 38409967.754758835 0 38409967.754758835 -48250570.500059128 0 0 0 0 -108356679.54539108 7935348.3435592651 0 7935348.3435592651 -8456042.5144138336 0 0 0 0 -77405522.053268433 52756450.190255642 0 52756450.190255642 4742301.9734477997 0 0 0 0 -76467287.031032562 150433754.43243599 0 150433754.43243599 51750787.059832215 0 0 0 0 -132858685.89358521 82709040.606685638 0 82709040.606685638 18059064.031013489 0 0 0 0 -201169619.95396805 125123415.14395285 0 125123415.14395285 49011949.901431084 0 0 0 0 -146401295.90338516 21430492.717441559 0 21430492.717441559 -8474577.2285342216 0 0 0 0 138156858.8256073 182519915.39141464 0 182519915.39141464 94715434.897212982 0 0 0 0 34855598.594955444 75518334.740758896 0 75518334.740758896 32701319.000407219 0 0 0 0 -198931112.27023315 179507212.8725872 0 179507212.8725872 -7717676.9500541687 0 0 0 0 77868.743850708008 170240562.8868866 0 170240562.8868866 -159354834.14889145 0 0 0 0 -86520775.066387177 220121400.83678389 0 220121400.83678389 -56724091.519733429 0 0 0 0 -62136151.728115082 162360830.79168606 0 162360830.79168606 -26073632.545959473 0 0 0 0 105684777.53860474 231719237.06048584 0 231719237.06048584 -44366601.011047363 0 0 0 0 -15498522.194168091 190804592.41453743 0 190804592.41453743 -46540671.447633743 0 0 0 0 -124801000.09562683 156227137.37561035 0 156227137.37561035 -11922778.205539465 0 0 0 0 -188319919.0015564 242637531.30490398 0 242637531.30490398 -10794299.39756012 0 0 0 0 -110250469.84565735 154691094.97961998 0 154691094.97961998 -12051954.084106445 0 0 0 0 -187647490.17985535 120146617.79484558 0 120146617.79484558 42405571.188637495 0 0 0 0 -282043809.93156433 131245376.44218636 0 131245376.44218636 41485455.640903234 0 0 0 0 -366796524.87757874 186441373.62988281 0 186441373.62988281 15957411.698604584 0 0 0 0 -262966117.71665955 287940526.62072086 0 287940526.62072086 -160292976.97206116 0 0 0 0 -480989879.35595703 100346247.23726082 0 100346247.23726082 -27333914.322080612 0 0 0 0 -370646315.56378442 -120787670.75878003 0 -120787670.75878003 -12162567.011835098 0 0 0 0 -679950878.6940155 -50805159.115279198 0 -50805159.115279198 -25944825.498939991 0 0 0 0 -88587977.685035706 -18788131.795240402 0 -18788131.795240402 -3109628.0452671051 0 0 0 0 -85177340.498962402 10384010.392175674 0 10384010.392175674 5067265.6918678284 0 0 0 0 109079285.89683533 113522838.11429596 0 113522838.11429596 -50108823.332980156 0 0 0 0 136241483.10808182 136570118.75713634 0 136570118.75713634 -64481600.315567017 0 0 0 0 93533079.050949097 148443772.16720295 0 148443772.16720295 -59114842.858001709 0 0 0 0 31769022.666061401 98916333.449028015 0 98916333.449028015 40981949.801013947 0 0 0 0 -77554540.759040833 170825663.98256493 0 170825663.98256493 -6164166.5635166168 0 0 0 0 -97151227.64491272 -31429980.998340607 0 -31429980.998340607 103995368.30110168 0 0 0 0 -75528422.947890043 220248887.66005719 0 220248887.66005719 525371446.57990646 0 0 0 0 -4833719.1311057732 4289980.8099018559 0 4289980.8099018559 4341619.9391489141 0 0 0 0 761937694.50331879 1188835009.2145071 0 1188835009.2145071 806502531.90664482 0 0 0 0 -1366658.2021659091 3220025.2312506102 0 3220025.2312506102 -4516194.7381608486 0 0 0 0 273499178.55357933 -160304678.58800673 0 -160304678.58800673 -807694511.63055611 0 0 0 0 1532754806.1089935 1215901653.3758755 0 1215901653.3758755 -803687660.85960579 0 0 0 0 -2494544657.211792 370749905.17033386 0 370749905.17033386 1523931756.5632172 0 0 0 0 -685943655.1035614 313752485.97677803 0 313752485.97677803 -247742242.39942741 0 0 0 0 -365849962.39074707 200828623.26801872 0 200828623.26801872 -1165684150.1160278 0 0 0 0 -365826080.89883095 207021585.77088824 0 207021585.77088824 -246527023.74677277 0 0 0 0 -137612674.31463623 120491681.07424164 0 120491681.07424164 -247495636.68227291 0 0 0 0 -296784575.38825989 -469573223.9941082 0 -469573223.9941082 -792880983.22315216 0 0 0 0 -1221246665.9474487 -1343918782.8382645 0 -1343918782.8382645 -1527186668.3398499 0 0 0 0 -598039432.72374725 -213649229.1156435 0 -213649229.1156435 517906056.15937042 0 0 0 0 -3635164.0570889488 6342915.3633970171 0 6342915.3633970171 -910776.50544001209 0 0 0 0 -69274757.12677002 -105402186.06752014 0 -105402186.06752014 435249027.49941635 0 0 0 0 -349767163.51405334 -217886675.83216476 0 -217886675.83216476 488283969.29054737 0 0 0 0 42431390.40486145 54811542.498340607 0 54811542.498340607 264242536.26725674 0 0 0 0 86135414.280426025 -147975770.87851143 0 -147975770.87851143 -58739696.721660614 0 0 0 0 179649161.16629028 -78087535.585199356 0 -78087535.585199356 -75071250.869968414 0 0 0 0 -211793212.65884399 -199680475.7302494 0 -199680475.7302494 63291525.059335709 0 0 0 0 -131141183.82897949 150676592.39560938 0 150676592.39560938 -117709722.94890976 0 0 0 0 134278734.80574036 -76737315.501747131 0 -76737315.501747131 -399865480.71920013 0 0 0 0 218995834.26625061 -94677460.663346291 0 -94677460.663346291 -81572707.18069458 0 0 0 0 127010627.91186523 -81922677.445159912 0 -81922677.445159912 -48573669.63041687 0 0 0 0 -13795121.254413605 12293727.329767346 0 12293727.329767346 -2780483.690223217 0 0 0 0 -13683117.783584595 11405975.71992594 0 11405975.71992594 -5141631.1025539637 0 0 0 0 -60123408.728050232 -16029628.791501045 0 -16029628.791501045 35228292.163941383 0 0 0 0 -42076269.43510437 62306309.481312275 0 62306309.481312275 -4587864.2611808777 0 0 0 0 -18036885.100578308 50866181.420459747 0 50866181.420459747 -61654677.568796158 0 0 0 0 -16561221.559188843 26430507.266435623 0 26430507.266435623 -16834536.096588135 0 0 0 0 -31771259.978622437 17143678.441890717 0 17143678.441890717 -4189843.107189849 0 0 0 0 -15236198.212158259 7576339.7765055886 0 7576339.7765055886 3216561.3990261294 0 0 0 0 -11581131.213188171 13719549.416511297 0 13719549.416511297 -4613456.4572877884 0 0 0 0 14251294.508550644 85852244.996934891 0 85852244.996934891 -69177437.230370998 0 0 0 0 155982636.01665497 -40330113.324829102 0 -40330113.324829102 -49113751.214733124 0 0 0 0 -1505331.8247021437 1319627.6752126683 0 1319627.6752126683 108306.76745540695 0 0 0 0 -6050006.6404864378 18637557.333706081 0 18637557.333706081 -17701098.353182264 0 0 0 0 6791192.107925415 62381391.75611496 0 62381391.75611496 -22526294.768327713 0 0 0 0 -24289580.60214946 14801465.179094749 0 14801465.179094749 5005749.5741933193 0 0 0 0 -68729876.179506302 16495068.469939709 0 16495068.469939709 35042249.695863724 0 0 0 0 -41225475.335128784 13196923.859270096 0 13196923.859270096 622626.74591827393 0 0 0 0 -4088874.641828537 8164826.7795734406 0 8164826.7795734406 -58384128.076620102 0 0 0 0 -51051490.001800537 72925773.428379059 0 72925773.428379059 -53115608.938313484 0 0 0 0 -30626268.243247986 39900986.913077354 0 39900986.913077354 -554450.73647880554 0 0 0 0 -76047214.355846405 93365443.514310837 0 93365443.514310837 19929595.740423203 0 0 0 0 -78981218.366117954 32917980.761968255 0 32917980.761968255 62307919.102680206 0 0 0 0 -77450782.701553106 24055273.634691834 0 24055273.634691834 -5648929.3455505371 0 0 0 0 -1605893.5741356816 465200.32511644624 0 465200.32511644624 1350346.5966717489 0 0 0 0 -119738619.86765099 -85885057.271389961 0 -85885057.271389961 190182517.17195702 0 0 0 0 -106053116.92248917 -74392009.479485512 0 -74392009.479485512 78941407.259035587 0 0 0 0 -180573756.49172211 -46875088.306842804 0 -46875088.306842804 171850517.95695388 0 0 0 0 -204515132.28584671 -66939873.902567863 0 -66939873.902567863 257162003.08285236 0 0 0 0 86480.576023155823 211041.43283123896 0 211041.43283123896 135749.67259606719 0 0 0 0 -59130112.94944191 262477692.67038488 0 262477692.67038488 407126330.78835869 0 0 0 0 -162542395.85306549 12105128.25623703 0 12105128.25623703 327468499.38085175 0 0 0 0 213286010.16059113 319740221.16254616 0 319740221.16254616 225475730.92126465 0 0 0 0 -8567754.0800380707 61170914.772460461 0 61170914.772460461 1948006.4897155762 0 0 0 0 -82788614.685089111 95050072.038249969 0 95050072.038249969 173172581.40661749 0 0 0 0 57010278.279457092 -45067087.747518539 0 -45067087.747518539 -26712983.564374924 0 0 0 0 -25844769.698783875 21662338.213069916 0 21662338.213069916 -7018641.8735084534 0 0 0 0 4930082.7709336989 745487.89486234542 0 745487.89486234542 -3969042.1966377366 0 0 0 0 -74743245.141609251 19438211.647175081 0 19438211.647175081 9970673.4932289124 0 0 0 0 -11114664.670005798 11669447.523059726 0 11669447.523059726 -2836917.0933175087 0 0 0 0 -19288453.063598502 15495970.686234064 0 15495970.686234064 -4623492.8490973674 0 0 0 0 -7274649.1254882812 12444532.243672729 0 12444532.243672729 -4342473.3876792192 0 0 0 0 -10566079.257485421 9447257.0320279766 0 9447257.0320279766 -4090747.182985187 0 0 0 0 -67905947.839832306 4216593.7319843769 0 4216593.7319843769 371498399.61081314 0 0 0 0 37613527.240325928 46549535.949558258 0 46549535.949558258 22818947.028427124 0 0 0 0 -3461036.12832563 2270208.3931124024 0 2270208.3931124024 1358376.2089235187 0 0 0 0 90176755.327552795 118882886.84336042 0 118882886.84336042 220785071.64032364 0 0 0 0 -12923830.35887146 11549561.306066275 0 11549561.306066275 -2737112.2827596068 0 0 0 0 -16864489.013918027 7566259.3245531553 0 7566259.3245531553 2300094.1251283577 0 0 0 0 -664957.08529408835 1189677.0835318025 0 1189677.0835318025 290983.80600982532 0 0 0 0 -12643624.288085938 12708612.922368884 0 12708612.922368884 -2563285.6220822334 0 0 0 0 59419832.499275208 160614159.18053913 0 160614159.18053913 30091731.357604027 0 0 0 0 82732604.620375633 86791736.865401506 0 86791736.865401506 -7295902.8842525482 0 0 0 0 186039956.88388062 -21793132.563493729 0 -21793132.563493729 75377838.958456993 0 0 0 0 25562954.598655701 167561194.75729752 0 167561194.75729752 28790274.873562813 0 0 0 0 -5114036.1459846497 183336292.96506405 0 183336292.96506405 130216276.35235596 0 0 0 0 -29980751.490966797 139356523.79796124 0 139356523.79796124 52582727.916130066 0 0 0 0 -1679755.5454330444 165268372.55705643 0 165268372.55705643 41781130.099842072 0 0 0 0 -1162475.6955434978 123245937.15397395 0 123245937.15397395 10949257.281852722 0 0 0 0 -23670700.618679047 111606542.97614193 0 111606542.97614193 17533276.651253119 0 0 0 0 -33119128.056785583 149292999.50501823 0 149292999.50501823 35073710.737869263 0 0 0 0 -62511285.099687576 148585628.60011911 0 148585628.60011911 36140707.70290947 0 0 0 0 -7897405.7381286621 119740025.03120995 0 119740025.03120995 14607340.019868851 0 0 0 0 -13407898.84910965 31967616.353773117 0 31967616.353773117 -3125378.9595460892 0 0 0 0 -20383894.512922764 44445246.16925323 0 44445246.16925323 -24655928.34948349 0 0 0 0 -2117754.740214223 12140325.881001871 0 12140325.881001871 -21310896.242535207 0 0 0 0 -33681011.339981079 12082278.367085457 0 12082278.367085457 -13279860.78709507 0 0 0 0 -16565027.209157025 15831700.275448777 0 15831700.275448777 1753600.2903055036 0 0 0 0 -8318248.0237731934 20272238.196733475 0 20272238.196733475 -33429674.817817688 0 0 0 0 5380830.1654853821 33306862.922847748 0 33306862.922847748 -45387633.695655823 0 0 0 0 -29360995.477488518 -13450596.661519289 0 -13450596.661519289 33637099.526363373 0 0 0 0 -7407396.9295846503 3591141.0978047838 0 3591141.0978047838 5810226.2555612661 0 0 0 0 -45307211.899944305 22345061.964777946 0 22345061.964777946 -1271432.0667467117 0 0 0 0 -1860505.3055779506 2856082.4466620004 0 2856082.4466620004 -1637920.8622094763 0 0 0 0 -3591453.1596260071 78515198.203191757 0 78515198.203191757 81147267.035093307 0 0 0 0 123160376.79333496 90666148.218015671 0 90666148.218015671 -10747354.906804085 0 0 0 0 24015920.981563568 25099626.627964258 0 25099626.627964258 -31994809.148194313 0 0 0 0 124024497.20475769 59986927.75863266 0 59986927.75863266 57593525.978979111 0 0 0 0 105667409.34480667 33699067.808601379 0 33699067.808601379 38213171.481819153 0 0 0 0 186409947.15877533 174469952.1796484 0 174469952.1796484 163090044.02833939 0 0 0 0 -82617515.854811668 -23780571.807181358 0 -23780571.807181358 105152586.7218895 0 0 0 0 78865951.981740952 168876557.01980925 0 168876557.01980925 147094298.51924515 0 0 0 0 80005093.269011497 180091668.08471537 0 180091668.08471537 186760821.3914032 0 0 0 0 173569131.77375793 187746350.71247196 0 187746350.71247196 195101935.9127655 0 0 0 0 150694483.16761017 167692787.08819962 0 167692787.08819962 130524750.49778557 0 0 0 0 154479990.9449234 12430862.841797829 0 12430862.841797829 -41191531.948167801 0 0 0 0 40224.484324902296 257941.67000068258 0 257941.67000068258 -139578.77676828066 0 0 0 0 201969577.28621674 208721432.27034569 0 208721432.27034569 195704773.63430786 0 0 0 0 -192582.33485230687 796301.20742983557 0 796301.20742983557 380736.14495843556 0 0 0 0 -53104435.137904763 -22940614.394840866 0 -22940614.394840866 96039706.900484085 0 0 0 0 85696328.702386856 262144850.17404938 0 262144850.17404938 154941411.37627411 0 0 0 0 -51821015.857471466 110512011.52046871 0 110512011.52046871 302061687.31588554 0 0 0 0 129846293.26892924 133874448.25940299 0 133874448.25940299 260547886.97809601 0 0 0 0 -27828850.466079712 77853128.373138428 0 77853128.373138428 21544051.05238533 0 0 0 0 -59707274.24937439 71631132.361384392 0 71631132.361384392 114036528.38575208 0 0 0 0 -23543982.899894714 42884758.575985909 0 42884758.575985909 17520190.073181152 0 0 0 0 8083620.9704532623 32061456.864993095 0 32061456.864993095 -50731319.012319565 0 0 0 0 -643582.63699374534 1581104.4766539829 0 1581104.4766539829 137214.09752241895 0 0 0 0 -355547.34774398804 813770.70596027374 0 813770.70596027374 -700541.82851791382 0 0 0 0 455872.11667442322 1780496.8947277069 0 1780496.8947277069 -2633878.1933002472 0 0 0 0 376063.22780663148 1855744.9608403016 0 1855744.9608403016 -1435016.1410248084 0 0 0 0 -213150.84469413757 1852040.2606673241 0 1852040.2606673241 715236.01459693909 0 0 0 0 -13545798.049575806 9363839.6320352554 0 9363839.6320352554 7334219.7899093628 0 0 0 0 896502.7424659729 1609194.6382980347 0 1609194.6382980347 -934927.60460072756 0 0 0 0 -24131.111858389108 1996376.5354291219 0 1996376.5354291219 -806986.61662313528 0 0 0 0 320509.7210537619 1663173.0459192041 0 1663173.0459192041 -1631246.2996673388 0 0 0 0 -12700031.500658035 8343983.2577911615 0 8343983.2577911615 38254057.100271225 0 0 0 0 -202465.68339920044 1914199.2860641479 0 1914199.2860641479 -911660.79694747925 0 0 0 0 54119223.567943573 70994100.173062325 0 70994100.173062325 52844422.348674774 0 0 0 0 67125001.21844101 40336885.916129112 0 40336885.916129112 77238482.70572567 0 0 0 0 75991498.674221039 -3376589.4128024578 0 -3376589.4128024578 -820459.24468994141 0 0 0 0 72465610.214542389 6742522.7150945663 0 6742522.7150945663 -18401387.535486221 0 0 0 0 57184767.759615183 126184559.23295778 0 126184559.23295778 254524432.09254265 0 0 0 0 31464211.713420868 -39893366.363073349 0 -39893366.363073349 188502170.17840195 0 0 0 0 83624285.791172028 21035404.134131432 0 21035404.134131432 16433632.102222443 0 0 0 0 72054563.793289185 -15853242.490464211 0 -15853242.490464211 -67928084.61668396 0 0 0 0 63290324.047550201 -16914650.660005569 0 -16914650.660005569 -16580099.964683533 0 0 0 0 88816965.863006592 23150865.848026276 0 23150865.848026276 -53144566.424913406 0 0 0 0 71816285.367710114 7642122.7051301003 0 7642122.7051301003 -55861807.730003357 0 0 0 0 87056337.275661469 24602477.213377953 0 24602477.213377953 -26915808.293334961 0 0 0 0 59108762.504840851 43930719.849818707 0 43930719.849818707 -94520899.710979462 0 0 0 0 -5545461.0337791443 38700792.266237259 0 38700792.266237259 -30721137.460266113 0 0 0 0 20586614.267501831 -18965260.582572937 0 -18965260.582572937 -461181.3652973175 0 0 0 0 65871345.581695557 14394022.349405289 0 14394022.349405289 -14536313.737510681 0 0 0 0 40429598.794685364 10068441.222343445 0 10068441.222343445 -11621505.91196686 0 0 0 0 63204680.45536232 17735232.796348095 0 17735232.796348095 -11584075.516342163 0 0 0 0 -13212311.581390381 19647996.276062012 0 19647996.276062012 18839095.232910156 0 0 0 0 -352607.64468888752 888905.79268852668 0 888905.79268852668 -337355.27336264681 0 0 0 0 27313336.343074799 4467866.5590419769 0 4467866.5590419769 -6080192.5909690857 0 0 0 0 79135857.577720642 104041017.03396034 0 104041017.03396034 55308513.456367493 0 0 0 0 50398228.657073975 54469698.444599152 0 54469698.444599152 18621221.43762207 0 0 0 0 37880732.01354599 66443439.594810963 0 66443439.594810963 112467439.8120079 0 0 0 0 84921540.247627258 40365097.95463562 0 40365097.95463562 -43225960.736244202 0 0 0 0 23120.345940943807 54068.440431745723 0 54068.440431745723 -42853.923688305542 0 0 0 0 37200836.55072403 -7882296.9018001556 0 -7882296.9018001556 -76216968.429444313 0 0 0 0 139857.750629168 14622.714317731559 0 14622.714317731559 -190724.26409168541 0 0 0 0 72100455.495494843 22228382.838991165 0 22228382.838991165 -59782867.370979309 0 0 0 0 115643525.17786407 65042698.027244568 0 65042698.027244568 -43487184.859053135 0 0 0 0 113402736.86299896 90064623.57723999 0 90064623.57723999 8710646.0364685059 0 0 0 0 -81789664.396343231 54670917.98890686 0 54670917.98890686 17127932.820365906 0 0 0 0 373503.01179845631 428163.08534304239 0 428163.08534304239 -239130.49039004929 0 0 0 0 102784817.73461151 23508682.723594666 0 23508682.723594666 -73917476.054840088 0 0 0 0 68913137.241211891 58321560.142181635 0 58321560.142181635 -59613813.502101898 0 0 0 0 539385.85614113603 642953.42107444443 0 642953.42107444443 -876351.98069896735 0 0 0 0 414412.93865966797 420025.2615852356 0 420025.2615852356 -209805.17708206177 0 0 0 0 -50816756.32307148 77838855.64548254 0 77838855.64548254 -38804997.705169678 0 0 0 0 24377623.547721863 -56817283.616104126 0 -56817283.616104126 -49999271.712461472 0 0 0 0 13277691.338464737 -45789023.30147934 0 -45789023.30147934 -48860350.484162331 0 0 0 0 -78835733.839813232 -20434752.590043068 0 -20434752.590043068 -763643.23425865173 0 0 0 0 407629.46733711974 723957.81149754021 0 723957.81149754021 -1392752.2468410693 0 0 0 0 1010686.2073516846 692774.61791419983 0 692774.61791419983 -455908.60460472107 0 0 0 0 -236636816.10388184 155143037.56931591 0 155143037.56931591 293523251.10296249 0 0 0 0 -54987707.733267784 -137555121.09391785 0 -137555121.09391785 -335042075.88281631 0 0 0 0 130919847.51224899 423334513.21097755 0 423334513.21097755 185536242.43867874 0 0 0 0 -4627079.7192929052 -2547168.7220310154 0 -2547168.7220310154 5377841.3838401698 0 0 0 0 78525681.733135223 207780477.38665962 0 207780477.38665962 129553682.05149078 0 0 0 0 67349458.865535736 136985049.50413132 0 136985049.50413132 636329643.13166904 0 0 0 0 16617075.568649292 245601725.75469208 0 245601725.75469208 110560271.03857613 0 0 0 0 13409081.718132019 262290601.23675346 0 262290601.23675346 383259049.87583578 0 0 0 0 227682239.02115631 245957054.18415642 0 245957054.18415642 27785339.606899261 0 0 0 0 25467525.230477571 15636477.586010635 0 15636477.586010635 -97976537.570487976 0 0 0 0 -65922545.353252411 288948732.3517313 0 288948732.3517313 -407602684.27315712 0 0 0 0 -1039372.9671571944 666369.11188815301 0 666369.11188815301 247990.8413151016 0 0 0 0 -93343553.07232666 14897190.150943756 0 14897190.150943756 176855733.7326889 0 0 0 0 194114910.24624825 12906701.844405174 0 12906701.844405174 -790767486.71639442 0 0 0 0 -91920127.622179031 -229027831.94196749 0 -229027831.94196749 -288650279.5269413 0 0 0 0 362522.74593623169 577599.71274822019 0 577599.71274822019 14.418953154236078 0 0 0 0 -307043073.72459602 92081069.369222641 0 92081069.369222641 2569576.4085273743 0 0 0 0 -23367601.320423126 -61591889.894523144 0 -61591889.894523144 46975414.642780304 0 0 0 0 -179261302.27131271 -116694457.02069283 0 -116694457.02069283 178127447.47082901 0 0 0 0 46964776.82302475 231104036.42756271 0 231104036.42756271 -27836933.701460838 0 0 0 0 129590611.93859863 -44285825.873072624 0 -44285825.873072624 -3203983.4373893738 0 0 0 0 -258526757.74118042 211352254.00518131 0 211352254.00518131 42521603.351597786 0 0 0 0 -95564887.282592773 -25312704.942662716 0 -25312704.942662716 -71660893.312286377 0 0 0 0 142679.44773101807 63299147.620931625 0 63299147.620931625 -14700075.94187808 0 0 0 0 -2926287.3998794556 73388166.664966583 0 73388166.664966583 -158910878.01422882 0 0 0 0 -94760192.045970917 140555927.64243412 0 140555927.64243412 -45845637.244949341 0 0 0 0 -49295015.472517014 148782260.93714476 0 148782260.93714476 -13178227.802112579 0 0 0 0 602374.47495315317 757410.21846009418 0 757410.21846009418 -329148.09175278619 0 0 0 0 -80675506.860538483 74584574.153829575 0 74584574.153829575 -61704662.033673286 0 0 0 0 -176501011.82872009 75885011.575057983 0 75885011.575057983 -37950488.875741959 0 0 0 0 -78448523.119602203 85671079.510245323 0 85671079.510245323 -21809939.18264389 0 0 0 0 -148060351.8741188 217894718.89411736 0 217894718.89411736 -14404984.648852348 0 0 0 0 -204403911.50991917 121582122.48180676 0 121582122.48180676 82510854.850393295 0 0 0 0 -28465845.821811676 21745319.804679871 0 21745319.804679871 58413918.761009693 0 0 0 0 -33308659.620772362 1345124.0134382248 0 1345124.0134382248 86093763.999509811 0 0 0 0 -98734960.333347321 42943330.058616638 0 42943330.058616638 16968286.344817162 0 0 0 0 243429.47821040079 -219494.86228775419 0 -219494.86228775419 -351824.73978911713 0 0 0 0 14388369.921142578 629977.85880661011 0 629977.85880661011 76840832.541103363 0 0 0 0 -1397498.1241168976 85906372.627082825 0 85906372.627082825 46566137.316078186 0 0 0 0 -97760981.191983223 -47527415.952551842 0 -47527415.952551842 -116406954.25584221 0 0 0 0 -85244526.073188782 94362954.111130714 0 94362954.111130714 110437728.94195938 0 0 0 0 -59844727.275424957 39578377.804829597 0 39578377.804829597 -3716372.1551551819 0 0 0 0 55016904.740882874 -49292753.997577667 0 -49292753.997577667 -178904334.09095764 0 0 0 0 487689.29074845091 -401542.33811324742 0 -401542.33811324742 -693516.66313366592 0 0 0 0 -46181896.752155304 17575287.235250473 0 17575287.235250473 -1413029.0226693153 0 0 0 0 -82099474.241544724 -76777906.835680604 0 -76777906.835680604 -1129026.6132698059 0 0 0 0 -112340872.7841053 102667372.9782877 0 102667372.9782877 -79789072.790311813 0 0 0 0 -63001929.105016708 85708073.070612907 0 85708073.070612907 -77280849.643199921 0 0 0 0 1666386.6341285706 14819656.916022301 0 14819656.916022301 -143248498.48631859 0 0 0 0 85381406.20245409 26002323.132268667 0 26002323.132268667 -160201862.20410919 0 0 0 0 653548.04730294459 -306094.9475265611 0 -306094.9475265611 -701201.80077228229 0 0 0 0 116726087.90886927 81988257.724551439 0 81988257.724551439 -107919502.87537956 0 0 0 0 89231762.368925095 353028593.81400394 0 353028593.81400394 330479152.83995438 0 0 0 0 254845934.80210114 310107686.81934643 0 310107686.81934643 48692694.982748032 0 0 0 0 206301824.1061554 158412120.53403187 0 158412120.53403187 -139470603.71612549 0 0 0 0 310216556.26822281 289630909.39975929 0 289630909.39975929 -404131695.7526207 0 0 0 0 187728256.68369102 128936265.78033638 0 128936265.78033638 220494642.66197968 0 0 0 0 149792653.39035416 -44034383.941223145 0 -44034383.941223145 -178716266.24308503 0 0 0 0 -70468313.620758057 -195118403.15445232 0 -195118403.15445232 -261099164.43511391 0 0 0 0 -102438709.34196281 -312723951.26706123 0 -312723951.26706123 -172428510.26841736 0 0 0 0 10287305.183259368 6447679.4851029515 0 6447679.4851029515 -379100698.81906128 0 0 0 0 -295734791.32910728 69378679.556976318 0 69378679.556976318 -141713009.16711617 0 0 0 0 -1389579.6828601267 -296240.22875003982 0 -296240.22875003982 -1147489.507242267 0 0 0 0 -181862078.75236511 190051214.5583086 0 190051214.5583086 -52231719.281486511 0 0 0 0 -140623593.08153343 264106090.88348198 0 264106090.88348198 -154463402.11328888 0 0 0 0 -539572786.85585022 130370846.85246658 0 130370846.85246658 -14430370.122673035 0 0 0 0 60583.429910245351 133132.199560632 0 133132.199560632 -99447.514321280643 0 0 0 0 375947761.75940967 430621823.48602593 0 430621823.48602593 729202844.54393005 0 0 0 0 385713579.17402458 -11097629.914031029 0 -11097629.914031029 -264192966.53068352 0 0 0 0 262458771.1144371 83095927.662861824 0 83095927.662861824 -77350511.411809921 0 0 0 0 373619.03792462591 891695.95340005495 0 891695.95340005495 -134421.72663922049 0 0 0 0 1608475.1452590227 655783.14754164219 0 655783.14754164219 -525316.68970489502 0 0 0 0 359430.08318404795 364037.59648350626 0 364037.59648350626 -248870.27147188038 0 0 0 0 -260845548.33726227 -15038365.551225275 0 -15038365.551225275 275579915.41980743 0 0 0 0 65021150.777219772 89249576.481589317 0 89249576.481589317 -74839785.382817268 0 0 0 0 -97168971.992214203 55702880.999757767 0 55702880.999757767 -33132600.874066353 0 0 0 0 -181784226.27389908 132649439.62289524 0 132649439.62289524 -85356696.634490967 0 0 0 0 -75146341.360839844 151089518.17950439 0 151089518.17950439 -79827752.958679199 0 0 0 0 -207829869.42284679 146136917.80080128 0 146136917.80080128 -51424527.713466644 0 0 0 0 410852.2511420548 -123569.96941220388 0 -123569.96941220388 -365913.52228929475 0 0 0 0 8563340.0912666321 87769803.20892334 0 87769803.20892334 -182050547.23967552 0 0 0 0 45452231.51616478 41856777.272155762 0 41856777.272155762 -161262858.06066513 0 0 0 0 27689454.553245544 131239114.26732635 0 131239114.26732635 -122133769.88742638 0 0 0 0 -31452616.559465408 194029488.67109776 0 194029488.67109776 87428096.589702606 0 0 0 0 -4580151.0821495056 115926148.16500473 0 115926148.16500473 -7721447.981086731 0 0 0 0 38531010.88331604 200427533.7833395 0 200427533.7833395 -93732776.93914032 0 0 0 0 46667649.384189606 230264501.45762634 0 230264501.45762634 122722331.927845 0 0 0 0 29404798.015823364 189327405.51034737 0 189327405.51034737 153661330.30057526 0 0 0 0 -40951307.675762177 175826552.65330124 0 175826552.65330124 284738939.59647179 0 0 0 0 -39937906.896083832 240825184.66991234 0 240825184.66991234 303332125.69513321 0 0 0 0 -94724058.351657867 126311015.59575081 0 126311015.59575081 168882362.17634964 0 0 0 0 158274041.68637848 416180846.50820541 0 416180846.50820541 291201043.5431881 0 0 0 0 -147604348.27466059 408462370.6470027 0 408462370.6470027 353405117.22644806 0 0 0 0 -450463159.64021111 203422089.73416305 0 203422089.73416305 -89094403.267860413 0 0 0 0 -140823286.74152756 40233982.85236454 0 40233982.85236454 -127898707.62950706 0 0 0 0 351000.48882761598 626178.80217370205 0 626178.80217370205 216066.52035097219 0 0 0 0 -491814221.00387955 238602013.96349716 0 238602013.96349716 273575467.87128258 0 0 0 0 523839920.35640335 464720193.93779182 0 464720193.93779182 261013027.28872681 0 0 0 0 637893781.83675957 319526821.05731153 0 319526821.05731153 111720647.03304291 0 0 0 0 198177814.86189651 147897720.16555214 0 147897720.16555214 214985309.62514019 0 0 0 0 -76083817.90681839 -29457430.427489281 0 -29457430.427489281 3475333.9060993195 0 0 0 0 -231338.69852643454 1609085.2851007953 0 1609085.2851007953 3855953.9141549505 0 0 0 0 212771569.54845715 156191516.46051809 0 156191516.46051809 155218649.608078 0 0 0 0 23059472.300628662 8750980.4944705963 0 8750980.4944705963 -28957674.947067261 0 0 0 0 28973955.925945282 14114581.663417816 0 14114581.663417816 -37730185.190714836 0 0 0 0 12971677.009326935 -4509694.3664655685 0 -4509694.3664655685 -29358081.272583008 0 0 0 0 24255486.415943146 2526376.3332958221 0 2526376.3332958221 -44392156.602022171 0 0 0 0 -72399212.721595764 209502516.5874157 0 209502516.5874157 72154206.310181618 0 0 0 0 845447.02906799316 -3316909.1243181229 0 -3316909.1243181229 -8208342.2030105591 0 0 0 0 1110766289.3565769 489862701.29489613 0 489862701.29489613 -14953928.899129868 0 0 0 0 14320.470147722663 320282.19981891755 0 320282.19981891755 1340221.290008245 0 0 0 0 26478780.257106781 19388846.46430397 0 19388846.46430397 -27437947.832691669 0 0 0 0 -50912398.357528687 -6664365.7562160492 0 -6664365.7562160492 54788079.913351059 0 0 0 0 -111158495.84308052 188418889.33758187 0 188418889.33758187 -84386508.9347229 0 0 0 0 -82314848.236724854 66113796.13051033 0 66113796.13051033 35584706.835720062 0 0 0 0 -182169960.28256989 -27095713.862449646 0 -27095713.862449646 -42312368.384645462 0 0 0 0 13066140.595741272 41323862.262262344 0 41323862.262262344 7457404.0667572021 0 0 0 0 -65711262.92364502 -17713493.403821945 0 -17713493.403821945 -36385956.712306023 0 0 0 0 -44892641.756072998 51995298.177772522 0 51995298.177772522 -60844958.738231659 0 0 0 0 -98485854.042211533 191335034.92171097 0 191335034.92171097 -107586467.67398834 0 0 0 0 -38170101.343767166 23434339.204321861 0 23434339.204321861 -187692400.21831131 0 0 0 0 -57446669.102525711 198629167.78726006 0 198629167.78726006 -167358107.85164452 0 0 0 0 -89447355.70882237 -4052990.5565878153 0 -4052990.5565878153 1608144.4735622406 0 0 0 0 -113145126.49106789 168144516.51055336 0 168144516.51055336 -142102413.72371101 0 0 0 0 -38860651.744338989 130029236.06793213 0 130029236.06793213 -209680360.08327866 0 0 0 0 -19575798.896059036 -43286120.050949097 0 -43286120.050949097 10329623.122039795 0 0 0 0 118023471.30283737 121448585.19911766 0 121448585.19911766 144605506.59643745 0 0 0 0 -621652.50966155529 592344.8132805638 0 592344.8132805638 264332.6061199219 0 0 0 0 -64317917.709640503 185757730.37407398 0 185757730.37407398 -185148489.12646294 0 0 0 0 229886625.89263535 190799131.47762585 0 190799131.47762585 71397715.676959991 0 0 0 0 -38584628.366521835 273789374.58745956 0 273789374.58745956 420265997.49800491 0 0 0 0 183579841.55466843 87826930.170026779 0 87826930.170026779 30635280.720966339 0 0 0 0 -345205.31509658508 584617.26430296898 0 584617.26430296898 799647.18936225399 0 0 0 0 4145996.4028835297 -62676241.348762512 0 -62676241.348762512 495156971.44437599 0 0 0 0 53980166.911960602 384303304.8870697 0 384303304.8870697 591382905.67879868 0 0 0 0 794134286.05311203 194332237.97648048 0 194332237.97648048 -1095117.146150589 0 0 0 0 2086025.5252876282 175921831.03337669 0 175921831.03337669 11581625.58939743 0 0 0 0 19818732.257116318 400004573.05208874 0 400004573.05208874 292717434.45947647 0 0 0 0 144160413.79314804 163480648.41734314 0 163480648.41734314 16186833.827241659 0 0 0 0 252931908.07571983 273080304.40293407 0 273080304.40293407 124500839.97025871 0 0 0 0 133180070.47474289 81301825.235310555 0 81301825.235310555 15429496.051277161 0 0 0 0 90236888.353303909 80784183.645162582 0 80784183.645162582 119298330.67267227 0 0 0 0 -24788591.433887482 -18379859.345151901 0 -18379859.345151901 12789764.333587706 0 0 0 0 76325717.680286407 31273588.560897827 0 31273588.560897827 72181383.314651251 0 0 0 0 170730287.11742783 121396904.2070303 0 121396904.2070303 57366179.201876402 0 0 0 0 144634368.94828606 167022880.90251565 0 167022880.90251565 179449181.71961594 0 0 0 0 281867866.26911926 31520108.932594299 0 31520108.932594299 291860387.30406141 0 0 0 0 216413899.46603489 275206489.4691211 0 275206489.4691211 352016417.54959488 0 0 0 0 72533827.444446564 99951370.060630798 0 99951370.060630798 170393189.92447758 0 0 0 0 186307203.27536678 177604190.56810474 0 177604190.56810474 137469953.15540695 0 0 0 0 250473713.3666048 154072917.62118626 0 154072917.62118626 44559536.948219299 0 0 0 0 191598668.18892288 84106551.935003281 0 84106551.935003281 106395939.85018063 0 0 0 0 116783828.37961197 134869649.50448608 0 134869649.50448608 80588781.700370789 0 0 0 0 138284902.57220268 180915665.08528805 0 180915665.08528805 87515116.419639587 0 0 0 0 39321303.267499924 54705644.282538414 0 54705644.282538414 50019317.422370911 0 0 0 0 -4796532.0934944153 112720919.98544312 0 112720919.98544312 -11336647.515901566 0 0 0 0 246524067.70217133 132192362.04808998 0 132192362.04808998 41669661.021482944 0 0 0 0 193693964.86667824 95934654.911060333 0 95934654.911060333 68699758.625343323 0 0 0 0 379782454.29730225 36227625.749743462 0 36227625.749743462 87133390.009532928 0 0 0 0 -2437318.873974517 4225745.4782846086 0 4225745.4782846086 -2194838.8476918936 0 0 0 0 45394017.376647949 106742232.08013916 0 106742232.08013916 211931023.27973938 0 0 0 0 6890434.3172569275 4439534.0289387703 0 4439534.0289387703 -124799061.89896965 0 0 0 0 268157669.01454639 190655416.85291672 0 190655416.85291672 82856327.225517273 0 0 0 0 -62249.695433039218 85788.235796902329 0 85788.235796902329 -221117.14583371487 0 0 0 0 4592513.9584083557 28769456.33511734 0 28769456.33511734 -79160291.205911636 0 0 0 0 -781721.50042833015 1977466.5234646751 0 1977466.5234646751 -806645.68311604485 0 0 0 0 -4980446.2993774414 15210483.561556816 0 15210483.561556816 -97310901.455407232 0 0 0 0 -297721.17722320557 1982457.4685182571 0 1982457.4685182571 -1134890.1378850937 0 0 0 0 81366139.658660889 69259918.263140678 0 69259918.263140678 -18087520.636867523 0 0 0 0 62241605.772159576 -23447407.699232101 0 -23447407.699232101 -51220015.963085175 0 0 0 0 -881088.47338979505 2077732.4156643022 0 2077732.4156643022 -403492.03356032493 0 0 0 0 18709429.88564682 324215001.80028152 0 324215001.80028152 -585748519.7490263 0 0 0 0 -306177.77496657986 1414982.4547365932 0 1414982.4547365932 486624.85366692208 0 0 0 0 59622436.228253841 179677211.70388842 0 179677211.70388842 -288486782.73543549 0 0 0 0 30250950.421809196 196780745.79638195 0 196780745.79638195 -26440256.163272858 0 0 0 0 -220879861.75445557 57042333.809362411 0 57042333.809362411 611316944.5987525 0 0 0 0 -112378421.30193329 123934088.24936676 0 123934088.24936676 -138356826.28793538 0 0 0 0 41353542.755960464 22273538.170116425 0 22273538.170116425 -135276384.04987907 0 0 0 0 -912584.62994473521 -98751.522135683335 0 -98751.522135683335 640845.20585036092 0 0 0 0 -92954578.217468262 148378309.26536942 0 148378309.26536942 -111215299.87843704 0 0 0 0 27061795.396625519 270580051.25975609 0 270580051.25975609 -167756010.77358246 0 0 0 0 -76838757.879884958 47540520.569809675 0 47540520.569809675 -261020099.13765717 0 0 0 0 132220669.65445709 378451869.76804733 0 378451869.76804733 -885880901.25645256 0 0 0 0 20181168.651145935 206964726.41134644 0 206964726.41134644 -727396983.52088928 0 0 0 0 -168501601.84626007 603273806.16919708 0 603273806.16919708 -499361260.22701263 0 0 0 0 -111308284.19564819 238374994.2776289 0 238374994.2776289 -67469994.315753937 0 0 0 0 -153777290.38027573 270759794.28210258 0 270759794.28210258 -59686783.487527847 0 0 0 0 -40105926.689720154 102998691.06186104 0 102998691.06186104 658986161.54191685 0 0 0 0 -4004489.7156810798 3739028.64013205 0 3739028.64013205 -1554463.7888642186 0 0 0 0 -206426945.87252617 436936938.84539747 0 436936938.84539747 54513618.389404297 0 0 0 0 205160643.57275963 78748730.971301079 0 78748730.971301079 90529096.438343048 0 0 0 0 -112726944.99652481 65560503.407226562 0 65560503.407226562 267490540.38405037 0 0 0 0 -79426669.46197319 166727062.97066116 0 166727062.97066116 134256580.22504163 0 0 0 0 -182631020.04508209 160597274.45290279 0 160597274.45290279 133912269.30530739 0 0 0 0 -8559281.9767742157 178600472.87772751 0 178600472.87772751 69846322.728851318 0 0 0 0 -22311251.756437302 65502800.790277481 0 65502800.790277481 119063388.38950872 0 0 0 0 37456866.355867386 91910470.616064072 0 91910470.616064072 110921989.97009563 0 0 0 0 52849213.214951515 131122619.44065475 0 131122619.44065475 176341757.95626068 0 0 0 0 -41085944.051088333 15435890.682147026 0 15435890.682147026 253485643.70600319 0 0 0 0 -69676922.437901497 134439716.47911882 0 134439716.47911882 75440260.862453461 0 0 0 0 -44214714.718528748 27984613.30937767 0 27984613.30937767 121269526.11947346 0 0 0 0 -90803682.775182724 68781487.697488785 0 68781487.697488785 131499511.51718903 0 0 0 0 -200879867.60996437 340438673.12599564 0 340438673.12599564 -93477532.541854858 0 0 0 0 -64644818.240581512 69261385.27623558 0 69261385.27623558 -33053853.714384079 0 0 0 0 -119444815.38627434 229191856.40767479 0 229191856.40767479 -114936067.08559418 0 0 0 0 -83857560.58827424 192911168.64395642 0 192911168.64395642 -106556188.98694611 0 0 0 0 -22754384.552326202 65658766.350126266 0 65658766.350126266 -292314058.91269302 0 0 0 0 26721063.937253833 284197983.1310091 0 284197983.1310091 -86773775.135028839 0 0 0 0 -7115281.1423454285 81210322.841831207 0 81210322.841831207 14445307.368499756 0 0 0 0 -10491253.867303848 128525568.37785721 0 128525568.37785721 38612467.63697052 0 0 0 0 70431148.873654366 46353079.710290909 0 46353079.710290909 120340764.05290413 0 0 0 0 1193367.3052825928 1598087.087143898 0 1598087.087143898 892969.94876384735 0 0 0 0 -11166244.603461266 90385620.183169842 0 90385620.183169842 155962584.19601059 0 0 0 0 1277494.9315266982 1617266.9023961211 0 1617266.9023961211 -1169226.643197028 0 0 0 0 -709803.74816107145 448036.602586861 0 448036.602586861 -187513.4121052064 0 0 0 0 11550249.044784546 71243966.387737274 0 71243966.387737274 131096066.91841364 0 0 0 0 1046106.0222759247 1058865.4875669479 0 1058865.4875669479 -346382.54808998108 0 0 0 0 33977340.609154701 -11132789.134546757 0 -11132789.134546757 -31741547.1929245 0 0 0 0 -962814.48526191711 1001734.4747142792 0 1001734.4747142792 351955.08828353882 0 0 0 0 -43217.213989257812 607623.56218147278 0 607623.56218147278 508079.96992301941 0 0 0 0 -345333.76072940114 328634.85166472616 0 328634.85166472616 -378990.1387047004 0 0 0 0 7820822.7969281673 -48005233.230671644 0 -48005233.230671644 143249279.423172 0 0 0 0 -44028871.758298874 34701581.925572395 0 34701581.925572395 131265485.35428238 0 0 0 0 -22051736.042766571 25310368.442980289 0 25310368.442980289 135184291.99151421 0 0 0 0 232951.3877021037 2073308.9719209911 0 2073308.9719209911 -752255.24458094127 0 0 0 0 -22166.197082519531 2704251.111114502 0 2704251.111114502 1980284.5588378906 0 0 0 0 1717409.2492809296 -4657814.8134431839 0 -4657814.8134431839 103158123.2775569 0 0 0 0 2499.5250072479248 3358937.1105966568 0 3358937.1105966568 1192635.4611778259 0 0 0 0 -1789068.3422573861 1637948.8872167319 0 1637948.8872167319 767173.42056216206 0 0 0 0 -43781661.598185539 -18451927.842377663 0 -18451927.842377663 -11217012.76525116 0 0 0 0 -537979.28233909607 2148670.3065376282 0 2148670.3065376282 106586732.45932102 0 0 0 0 -876131.7501511015 1595335.4193265205 0 1595335.4193265205 1784296.7563170716 0 0 0 0 -3502810.0861358643 24809064.509872437 0 24809064.509872437 -202259290.8369751 0 0 0 0 157507.3374880366 728938.97075339872 0 728938.97075339872 -473471.0082737254 0 0 0 0 -9679593.8495864868 -22598006.89950943 0 -22598006.89950943 -72272323.75302887 0 0 0 0 -29010635.413238525 79552979.479785919 0 79552979.479785919 -123636753.98823643 0 0 0 0 2917197.1338043213 28008995.608428955 0 28008995.608428955 -139745224.44354248 0 0 0 0 250053.02414512634 2203005.4140720367 0 2203005.4140720367 -4480957.4544296265 0 0 0 0 -637242.23181985132 2266718.4345157086 0 2266718.4345157086 667858.29589882377 0 0 0 0 11247233.447670937 7593873.6909751892 0 7593873.6909751892 -89877867.823310852 0 0 0 0 -14537196.390041351 7196861.9217529297 0 7196861.9217529297 -2789287.3761711121 0 0 0 0 13416290.827386856 -28410758.650616646 0 -28410758.650616646 -36892770.717084885 0 0 0 0 -8296541.8520240784 -6523788.4945468903 0 -6523788.4945468903 113291495.32122803 0 0 0 0 -637440.77222982608 4157559.4448731393 0 4157559.4448731393 914092.86277509481 0 0 0 0 -1302428.1610245863 566248.30165495258 0 566248.30165495258 817570.75148027949 0 0 0 0 3317732.3114643097 35300916.114170074 0 35300916.114170074 -37262499.037534714 0 0 0 0 -30113860.248462677 45940682.954916954 0 45940682.954916954 -14431052.840808868 0 0 0 0 -17435733.23191452 54412132.780982971 0 54412132.780982971 -46817721.100217819 0 0 0 0 -47793062.94651413 62197000.282382965 0 62197000.282382965 -30459771.226694107 0 0 0 0 -30664307.785240173 73326136.279994011 0 73326136.279994011 -55946144.17231369 0 0 0 0 -103233139.27562904 108108080.44453621 0 108108080.44453621 25944484.108974457 0 0 0 0 -24762642.387786865 58910033.176736832 0 58910033.176736832 -45915354.702123642 0 0 0 0 -67132659.312412262 101288493.02516842 0 101288493.02516842 -61174050.890861988 0 0 0 0 -66225567.653381348 75683941.131637573 0 75683941.131637573 -33889795.109600067 0 0 0 0 -34819692.394763947 100809787.57770348 0 100809787.57770348 -61552157.383472443 0 0 0 0 131797.56399345398 1466503.6435632706 0 1466503.6435632706 -512065.13745117188 0 0 0 0 -1130843.9835510254 3695851.1009292603 0 3695851.1009292603 -6548682.8396434784 0 0 0 0 -1439023.4815561101 1813611.7250067433 0 1813611.7250067433 843068.74909069203 0 0 0 0 -3382976.9547328949 3028481.3258180618 0 3028481.3258180618 -18519.480785369873 0 0 0 0 -503343.47805404663 1000695.8938751221 0 1000695.8938751221 -4589922.2721395493 0 0 0 0 -11106876.666159153 2081148.2938153744 0 2081148.2938153744 3400696.0986633301 0 0 0 0 -1667948.9610099792 -535365.0724811554 0 -535365.0724811554 -1189972.7965431213 0 0 0 0 -698993.28338339645 207013.97630596254 0 207013.97630596254 543361.28344208375 0 0 0 0 -25767192.140693665 53440610.491905212 0 53440610.491905212 -36921595.448926926 0 0 0 0 -50072060.946468353 37250493.825740814 0 37250493.825740814 8372737.0476500988 0 0 0 0 -5932756.7519397736 -4507936.7562837601 0 -4507936.7562837601 -14416866.82891655 0 0 0 0 71040987.228692055 95420005.434873819 0 95420005.434873819 11923164.595943451 0 0 0 0 -20057761.122865677 5566330.896484375 0 5566330.896484375 19095599.603305817 0 0 0 0 62422.213217158336 -811896.07147236937 0 -811896.07147236937 -336129.66024497151 0 0 0 0 51177115.113040924 10143275.567872047 0 10143275.567872047 35525971.386623383 0 0 0 0 207998465.54267788 62459543.740877151 0 62459543.740877151 -86388608.819325447 0 0 0 0 221028.83448296669 -597466.09746703645 0 -597466.09746703645 -332899.30934555177 0 0 0 0 -69405921.66884613 69364672.067496777 0 69364672.067496777 -46077959.798177719 0 0 0 0 -110999969.36198807 22251790.423339844 0 22251790.423339844 -15505475.749800682 0 0 0 0 -14800719.389852524 52492512.021505356 0 52492512.021505356 -53263649.921035767 0 0 0 0 61235531.505012512 80584758.078278542 0 80584758.078278542 -45601014.972816467 0 0 0 0 7106318.1046924591 31911334.889521599 0 31911334.889521599 -67594149.987541199 0 0 0 0 -11848640.816811562 20851128.639285564 0 20851128.639285564 20344324.817804337 0 0 0 0 -6448579.9683017731 25827427.178215265 0 25827427.178215265 -19082843.199562073 0 0 0 0 -7845427.7744317055 32960082.826852798 0 32960082.826852798 -16997876.87815094 0 0 0 0 4615497.0773963928 44947283.370268822 0 44947283.370268822 -23758594.875638962 0 0 0 0 8059216.4876031876 27900893.086746514 0 27900893.086746514 -27457865.064178467 0 0 0 0 -2387783.161450386 76088951.776955128 0 76088951.776955128 26341411.199388742 0 0 0 0 -21282690.034285069 52317787.632077575 0 52317787.632077575 110910690.31530142 0 0 0 0 -12079697.404218674 56367818.293510914 0 56367818.293510914 43865209.366033316 0 0 0 0 7261688.1432552338 -102044794.25690377 0 -102044794.25690377 132913089.96908665 0 0 0 0 -87103308.85663414 -69955111.950566292 0 -69955111.950566292 185585667.50918579 0 0 0 0 -14183280.821483612 -34172293.119426727 0 -34172293.119426727 11858631.625125885 0 0 0 0 -1388796.7133980352 5110528.1002526917 0 5110528.1002526917 3248160.3217276121 0 0 0 0 49018194.203430176 40528760.545658112 0 40528760.545658112 -7490550.8069019318 0 0 0 0 -83458587.214244843 -87727555.330321789 0 -87727555.330321789 85917147.114233017 0 0 0 0 -707931.5770996213 -552194.09641742893 0 -552194.09641742893 945383.89453044254 0 0 0 0 -91871851.000518799 -48128994.798265457 0 -48128994.798265457 130296373.53214359 0 0 0 0 8116564.0504417419 42136537.175950766 0 42136537.175950766 -21597491.024090528 0 0 0 0 -42750645.559755325 13417633.543072701 0 13417633.543072701 -618084.33608436584 0 0 0 0 -1142575.0322899627 -852514.89004793949 0 -852514.89004793949 1541744.4348321129 0 0 0 0 -105212975.2787323 87835702.504171371 0 87835702.504171371 -5351359.7577238083 0 0 0 0 -32144986.258592606 -27126923.656955242 0 -27126923.656955242 79624152.38710022 0 0 0 0 86723229.772586823 26941989.24296093 0 26941989.24296093 -122896292.3548851 0 0 0 0 -69589715.263092041 45990883.944848061 0 45990883.944848061 -29417949.500123978 0 0 0 0 -44388817.725162506 62212158.369713783 0 62212158.369713783 -56371584.812696457 0 0 0 0 -42134853.067602158 38901845.043981552 0 38901845.043981552 -34687510.534821033 0 0 0 0 -43104907.465594292 63777185.303773165 0 63777185.303773165 -31772470.48156929 0 0 0 0 -39423517.904502869 51417196.065602303 0 51417196.065602303 -35350225.71818924 0 0 0 0 -81720332.916965485 47777013.708280563 0 47777013.708280563 -35321151.043371201 0 0 0 0 -105159415.84107971 66549718.264732361 0 66549718.264732361 -118106.78185272217 0 0 0 0 -44249412.014705658 69664886.45443058 0 69664886.45443058 3809605.4808883667 0 0 0 0 -666641.53082275949 -511825.78553202283 0 -511825.78553202283 827415.99293432944 0 0 0 0 -43321631.096806526 63723027.481793404 0 63723027.481793404 33096330.296878815 0 0 0 0 -36994088.008471489 18613159.512295246 0 18613159.512295246 40158335.117366791 0 0 0 0 3953618.7167320251 28740754.555002213 0 28740754.555002213 35768940.030469894 0 0 0 0 -42397058.960475922 56741052.341968536 0 56741052.341968536 17386054.109596252 0 0 0 0 -15954920.924602509 20235997.565891027 0 20235997.565891027 7077619.3794403076 0 0 0 0 -9279966.2415723801 -6948134.3564460278 0 -6948134.3564460278 71714962.951835632 0 0 0 0 38276300.138866425 -19451609.546563148 0 -19451609.546563148 21940984.17322731 0 0 0 0 -11407479.714618683 -20075815.179812431 0 -20075815.179812431 20661212.473402977 0 0 0 0 -67195916.503250599 -14264028.588471889 0 -14264028.588471889 -9501296.9701747894 0 0 0 0 -24954735.387199402 38984493.382513046 0 38984493.382513046 -41847417.324262619 0 0 0 0 -25282107.663833618 29846254.620872498 0 29846254.620872498 32656504.797520638 0 0 0 0 76730557.928974152 -75729148.245081902 0 -75729148.245081902 -27016391.513805389 0 0 0 0 92704596.184155941 63528669.9181059 0 63528669.9181059 22788748.2682724 0 0 0 0 2103463.0580444336 15771514.822494507 0 15771514.822494507 135844966.99318695 0 0 0 0 71486332.443611145 525330.62501478195 0 525330.62501478195 -28396275.418575287 0 0 0 0 60115349.459964752 -58793219.661289215 0 -58793219.661289215 79662180.242005348 0 0 0 0 -67882.433425202966 1307666.3018834051 0 1307666.3018834051 -761599.11498946697 0 0 0 0 -20664157.133586168 5363203.3412331045 0 5363203.3412331045 22183261.160373688 0 0 0 0 -102375190.93661499 20173863.347594738 0 20173863.347594738 54405505.565256119 0 0 0 0 -775895.18877995689 6343381.9750869516 0 6343381.9750869516 5920345.6477561649 0 0 0 0 -15678892.023979187 116416816.70575428 0 116416816.70575428 130136589.75044823 0 0 0 0 -1881452.1355342933 10605471.689554665 0 10605471.689554665 7966888.2644013651 0 0 0 0 -7384627.0255718231 10368339.038221359 0 10368339.038221359 519386.93326950073 0 0 0 0 14376243.444400787 52905833.496339798 0 52905833.496339798 -46080651.678115845 0 0 0 0 -3341400.7698458862 6537686.7373919301 0 6537686.7373919301 10710290.519876363 0 0 0 0 9864655.8267478943 15182834.584018707 0 15182834.584018707 -40839201.482423782 0 0 0 0 1536414.2583319824 5961285.2636161447 0 5961285.2636161447 -4346589.8620454455 0 0 0 0 -11969161.609050751 13569571.322162151 0 13569571.322162151 3897576.3143157959 0 0 0 0 -1547211.9256979581 7214250.7886735713 0 7214250.7886735713 8986672.8549819328 0 0 0 0 -503169.27318572998 8374777.2524261475 0 8374777.2524261475 5489602.474395752 0 0 0 0 -3488592.8075847626 12299625.846310139 0 12299625.846310139 1622922.63256073 0 0 0 0 -29396313.26863718 27016325.688245416 0 27016325.688245416 16645452.271453857 0 0 0 0 -5093027.1281108856 6999880.656085968 0 6999880.656085968 5239089.1048049927 0 0 0 0 -9554684.2218399048 -12082641.687358856 0 -12082641.687358856 44965142.875854492 0 0 0 0 3005075.6365966797 -16791957.22555542 0 -16791957.22555542 5294577.0672588348 0 0 0 0 -25759748.292423248 15757790.223907471 0 15757790.223907471 6525001.4992389679 0 0 0 0 10060630.223255157 -9205497.429359436 0 -9205497.429359436 20384164.726894379 0 0 0 0 26491004.908668518 -20029678.946761131 0 -20029678.946761131 22036950.834735394 0 0 0 0 12892465.184619904 -18351950.625934601 0 -18351950.625934601 25584129.184659004 0 0 0 0 16263309.86674118 -8989037.4583754539 0 -8989037.4583754539 33045643.169416428 0 0 0 0 3604857.1404724121 -21156384.908618927 0 -21156384.908618927 21627596.10446322 0 0 0 0 6093976.7776298523 -5158434.7748847008 0 -5158434.7748847008 31649212.997039318 0 0 0 0 1212330.1533211153 5566943.8716906337 0 5566943.8716906337 2517722.8281624345 0 0 0 0 44759.571243286133 3504126.7271327972 0 3504126.7271327972 -1679017.3200111389 0 0 0 0 -743369.34527704772 9043592.3171008192 0 9043592.3171008192 -1330480.2772307582 0 0 0 0 -571097.37026709504 4126659.7258827225 0 4126659.7258827225 12337912.846184529 0 0 0 0 1896226.8943099976 48930395.537117004 0 48930395.537117004 32929855.343067169 0 0 0 0 -15014014.154125214 23992619.702068806 0 23992619.702068806 100219427.13601995 0 0 0 0 711597.52987985499 7924238.9365858631 0 7924238.9365858631 1771414.0897439122 0 0 0 0 -773158.28276090138 502584.38421244966 0 502584.38421244966 5300269.1037804214 0 0 0 0 10874122.989002228 3720718.2357530594 0 3720718.2357530594 45837337.452976406 0 0 0 0 3503655.2743225098 13982487.496013641 0 13982487.496013641 10115705.340618134 0 0 0 0 -227587.71618284285 3639.4360933399294 0 3639.4360933399294 851302.281456128 0 0 0 0 -3865417.3394365981 4250163.2733756658 0 4250163.2733756658 13392456.418596998 0 0 0 0 -6651618.6869659424 4407994.5933036804 0 4407994.5933036804 6171310.7428283691 0 0 0 0 -8928997.9641418457 22374485.973770142 0 22374485.973770142 16977459.088261604 0 0 0 0 -1354206.576839447 131420.35176277161 0 131420.35176277161 6879250.075712204 0 0 0 0 234189.03158051148 6725232.4726741184 0 6725232.4726741184 13201378.590274295 0 0 0 0 -9192523.1587944031 2400718.1096496582 0 2400718.1096496582 11636530.838096619 0 0 0 0 -4103147.1105060037 7892076.7909778953 0 7892076.7909778953 6883768.4842728786 0 0 0 0 -2587216.9164962769 1489822.5557556152 0 1489822.5557556152 5678083.869594574 0 0 0 0 1201227.7082328796 8530145.1428899765 0 8530145.1428899765 18100247.064777374 0 0 0 0 -3107388.4724272918 11077583.784489628 0 11077583.784489628 -740278.31143622845 0 0 0 0 -12922276.612395287 16191514.990484238 0 16191514.990484238 51232794.730644226 0 0 0 0 -1783271.9874238968 7578389.6538982391 0 7578389.6538982391 32654225.501747131 0 0 0 0 -8589820.9510126114 8732966.8946676254 0 8732966.8946676254 7263990.3506507874 0 0 0 0 -9808033.0255661011 10907247.561452866 0 10907247.561452866 3638763.8577232361 0 0 0 0 -8156782.4257520791 7829353.120248355 0 7829353.120248355 28228221.376703326 0 0 0 0 -5313144.6255490556 10457649.531037867 0 10457649.531037867 10210118.202836737 0 0 0 0 -5997060.372625351 9744414.6894187927 0 9744414.6894187927 13814093.896526337 0 0 0 0 -3306001.2989750793 8030894.4859792218 0 8030894.4859792218 9476691.0386821851 0 0 0 0 -51074172.656711578 1295823.7515220642 0 1295823.7515220642 22675264.168914795 0 0 0 0 -817144.28330993652 7066296.2433891296 0 7066296.2433891296 5209094.5183076859 0 0 0 0 -1602747.1160831694 5269573.0361393811 0 5269573.0361393811 9003869.5511623751 0 0 0 0 -1330149.3314300729 -405108.64828969538 0 -405108.64828969538 -3341.0349201634526 0 0 0 0 -402123.87845230103 11881054.860309601 0 11881054.860309601 8208966.5649280548 0 0 0 0 1442382.6266479492 10570372.704421997 0 10570372.704421997 17653420.962535858 0 0 0 0 -1717181.3365092631 5832594.466561527 0 5832594.466561527 8297101.7157545947 0 0 0 0 755189.61359930038 8854936.5839424133 0 8854936.5839424133 18710199.78276825 0 0 0 0 -29535573.050115585 3192388.0802841187 0 3192388.0802841187 42528227.195995331 0 0 0 0 -27814636.041448593 95457373.28143692 0 95457373.28143692 -15258069.168304443 0 0 0 0 -1455262.9352404336 9372736.6976893507 0 9372736.6976893507 561302.52828136832 0 0 0 0 2247478.9779701233 10855576.14491272 0 10855576.14491272 18382078.905166626 0 0 0 0 184458.10154533386 54985085.047813416 0 54985085.047813416 42121834.060020447 0 0 0 0 1569148.8943786621 7109042.8959579468 0 7109042.8959579468 1304851.8257217407 0 0 0 0 -4383671.3093992006 8407964.0092926063 0 8407964.0092926063 4904070.406242948 0 0 0 0 -3463847.5069894926 8368843.6257586218 0 8368843.6257586218 2346034.0736089982 0 0 0 0 -1165486.553460326 8774592.6202192046 0 8774592.6202192046 771736.81064447761 0 0 0 0 -46237513.222320855 5001288.7677152641 0 5001288.7677152641 -5418933.4819641113 0 0 0 0 1403239.4496269226 7080342.8420257568 0 7080342.8420257568 1716312.4069213867 0 0 0 0 -3809534.7655018829 5711296.9477083422 0 5711296.9477083422 11596429.592061112 0 0 0 0 62888735.754105568 43476683.056182861 0 43476683.056182861 -37197023.71534729 0 0 0 0 11389.350925659566 8514184.6832945831 0 8514184.6832945831 -6649149.6862793267 0 0 0 0 -1002887.5092357607 3646921.7926007798 0 3646921.7926007798 89150.202475197613 0 0 0 0 89416384.60554871 30620590.120773315 0 30620590.120773315 -45808891.328125 0 0 0 0 24708166.065469742 -10780663.251556396 0 -10780663.251556396 24204700.513305664 0 0 0 0 42262063.362485886 36730416.404167175 0 36730416.404167175 -30640012.631149292 0 0 0 0 43207231.437425613 18665448.501029968 0 18665448.501029968 -59043221.404247284 0 0 0 0 46199821.553590775 64273631.281257629 0 64273631.281257629 -15903363.260047913 0 0 0 0 -29563931.757614732 91391432.520407677 0 91391432.520407677 -2140214.009185791 0 0 0 0 -36297259.345204353 35141382.905475616 0 35141382.905475616 2475623.3913116455 0 0 0 0 47207431.219802856 10690468.709873199 0 10690468.709873199 19888523.814041138 0 0 0 0 59756214.364282608 48407932.603580475 0 48407932.603580475 -23782753.945884705 0 0 0 0 -14177217.692024231 36551763.505622864 0 36551763.505622864 -16514151.192504883 0 0 0 0 -54842222.672300339 13851104.232475281 0 13851104.232475281 -9001088.0289611816 0 0 0 0 -1876625.9831549134 6862668.5139982663 0 6862668.5139982663 3610088.8647069931 0 0 0 0 3203694.5031761643 5873778.9556957595 0 5873778.9556957595 -5510500.7710166052 0 0 0 0 -20271271.137500763 8437320.3031272888 0 8437320.3031272888 -28542733.402923584 0 0 0 0 973708.20860297279 16233758.348201884 0 16233758.348201884 -2436201.2498738877 0 0 0 0 -2009762.2691421509 10517202.504058838 0 10517202.504058838 2288907.108001709 0 0 0 0 676730.98828753922 12844479.406517213 0 12844479.406517213 2668703.7595433295 0 0 0 0 11226142.558732986 -5614992.7050666809 0 -5614992.7050666809 23018385.514602661 0 0 0 0 -3373872.8683474399 6095567.1418377552 0 6095567.1418377552 18900527.154178143 0 0 0 0 -55519903.316070557 67205161.784255981 0 67205161.784255981 -21911047.012271881 0 0 0 0 -17555657.641036987 39149987.644111633 0 39149987.644111633 -42252379.27778244 0 0 0 0 -10222201.263299942 -434580.42694091797 0 -434580.42694091797 26899004.592056274 0 0 0 0 -420462.72870168462 -60534.776710450649 0 -60534.776710450649 5031183.3621691875 0 0 0 0 -173885227.87729073 24764976.273235321 0 24764976.273235321 28709302.945158005 0 0 0 0 -31062223.419803619 31553530.798259735 0 31553530.798259735 28918261.750305176 0 0 0 0 5794530.3397426605 29652130.902830124 0 29652130.902830124 -10971596.701858521 0 0 0 0 2190753.8483772278 -2387046.1142120361 0 -2387046.1142120361 1280009.8289470673 0 0 0 0 37124173.865041733 100497160.04738617 0 100497160.04738617 48676091.884605408 0 0 0 0 685772.57235675864 1539545.67601794 0 1539545.67601794 -1344966.2132427022 0 0 0 0 76883799.13101387 70098154.742050171 0 70098154.742050171 19767054.395980835 0 0 0 0 -48802672.147853851 -15161754.883003235 0 -15161754.883003235 -634227.51815032959 0 0 0 0 15963179.713428497 -5330463.7591552734 0 -5330463.7591552734 -27900281.28855896 0 0 0 0 8032384.7949790955 -302475.34438323975 0 -302475.34438323975 -23642487.694793701 0 0 0 0 10984164.352855682 -8374213.8698501587 0 -8374213.8698501587 -43630256.875484467 0 0 0 0 2548276.1551604271 13351652.803721428 0 13351652.803721428 8028360.8966064453 0 0 0 0 -28606386.636018753 3961801.278427124 0 3961801.278427124 -22689565.200500488 0 0 0 0 77889147.775005341 48082371.144592285 0 48082371.144592285 7642000.613461256 0 0 0 0 -60037113.448249817 1698977.2880783081 0 1698977.2880783081 6865414.546785593 0 0 0 0 34890105.944482803 96303801.958206177 0 96303801.958206177 33870608.087688446 0 0 0 0 24803231.072887421 85029448.856517792 0 85029448.856517792 26585485.396209717 0 0 0 0 164698898.0918808 84463318.629524231 0 84463318.629524231 22243238.551177979 0 0 0 0 98251491.71836853 29640754.238273621 0 29640754.238273621 71420280.82850647 0 0 0 0 120987966.22089577 82160538.501672745 0 82160538.501672745 36319238.182601929 0 0 0 0 205296512.52902985 -35861841.50642395 0 -35861841.50642395 130832829.17490387 0 0 0 0 219794307.75979996 6607227.6648254395 0 6607227.6648254395 -127795977.69480896 0 0 0 0 306179662.81726456 108020700.10713959 0 108020700.10713959 -36431905.204071045 0 0 0 0 272216740.18545532 248247654.00750732 0 248247654.00750732 -502038339.97890472 0 0 0 0 173170887.15119553 308353756.08106995 0 308353756.08106995 -130376891.87467957 0 0 0 0 107124583.10637665 263166914.75745392 0 263166914.75745392 101855432.55491638 0 0 0 0 106143605.89977646 204943053.45069122 0 204943053.45069122 11366908.920120239 0 0 0 0 158765048.24452209 171782282.0630188 0 171782282.0630188 -63729376.789024353 0 0 0 0 175155014.06526887 343164526.05837584 0 343164526.05837584 88336031.805969238 0 0 0 0 -88974476.116294861 -33363792.974349976 0 -33363792.974349976 -32353757.526763916 0 0 0 0 335209.85721267201 -833676.48369459901 0 -833676.48369459901 835298.03988545388 0 0 0 0 -86828998.331977844 18699263.851028442 0 18699263.851028442 34349092.360839844 0 0 0 0 -63633442.905414581 24219831.607650757 0 24219831.607650757 20880140.104995728 0 0 0 0 -93631296.363853455 17786999.473480225 0 17786999.473480225 34811935.963684082 0 0 0 0 -129751588.79020691 -29572480.337371826 0 -29572480.337371826 32519083.467163086 0 0 0 0 -84382690.804679871 -20590665.290863037 0 -20590665.290863037 4978519.3852313012 0 0 0 0 -141039446.86042309 14259477.399026871 0 14259477.399026871 64061964.948760986 0 0 0 0 -104843362.29379272 40693678.602882385 0 40693678.602882385 77116690.455535889 0 0 0 0 -157383125.69517517 -259307455.02130508 0 -259307455.02130508 -463246287.18255615 0 0 0 0 -136555435.41238403 26109737.147354126 0 26109737.147354126 80263563.673339844 0 0 0 0 -235766088.03420639 28748710.133041382 0 28748710.133041382 149772302.74734497 0 0 0 0 55986920.114204407 303608986.70715332 0 303608986.70715332 347484490.37466431 0 0 0 0 -53180064.222969055 148635173.68902588 0 148635173.68902588 486865915.04279327 0 0 0 0 86464379.792821884 159299474.96695709 0 159299474.96695709 79903994.63633728 0 0 0 0 15877674.170703888 92481938.40461731 0 92481938.40461731 41410160.096038818 0 0 0 0 10969711.182495117 163059536.59030914 0 163059536.59030914 249368797.8526001 0 0 0 0 68713174.118057251 245467907.8923111 0 245467907.8923111 94367652.301742554 0 0 0 0 -4697374.1318492889 119636914.83816147 0 119636914.83816147 182792395.54156494 0 0 0 0 35724626.228445053 13966059.190549493 0 13966059.190549493 79152115.21931839 0 0 0 0 1863786.2400474139 21449171.644955009 0 21449171.644955009 -3639004.6771275392 0 0 0 0 47555736.701203346 -53626186.423257828 0 -53626186.423257828 -74772747.287094116 0 0 0 0 -63263841.14484024 -95856915.133354187 0 -95856915.133354187 216986661.03437233 0 0 0 0 -5956231.2921924591 43529969.537321687 0 43529969.537321687 101440708.65312052 0 0 0 0 94943548.772217751 85131790.643029213 0 85131790.643029213 -56151231.667076111 0 0 0 0 -80202518.740329742 -34745708.140762329 0 -34745708.140762329 361891267.66588974 0 0 0 0 -24366194.976955414 34415553.872760534 0 34415553.872760534 96970694.896420479 0 0 0 0 -9708839.7419313192 45109770.782174289 0 45109770.782174289 103348156.11690903 0 0 0 0 -14093083.826600194 21825741.276888281 0 21825741.276888281 117731786.81662083 0 0 0 0 23339549.352247238 64370904.359925508 0 64370904.359925508 72669362.661948919 0 0 0 0 -50460548.95249176 33006944.988463879 0 33006944.988463879 170848190.71149993 0 0 0 0 -116624563.03010559 20614119.129225731 0 20614119.129225731 26939814.819611073 0 0 0 0 -5021381.7959520817 154012.88616264425 0 154012.88616264425 21308174.777086832 0 0 0 0 -32580115.500408173 47906230.701102734 0 47906230.701102734 71056701.252449989 0 0 0 0 -56163133.746526718 -12861271.746394634 0 -12861271.746394634 39257026.516244888 0 0 0 0 -46922764.260268211 37371419.91634059 0 37371419.91634059 71885142.886232376 0 0 0 0 -27513168.891180038 34822042.405577183 0 34822042.405577183 62492297.352947474 0 0 0 0 -9451826.719165802 36774016.4421103 0 36774016.4421103 60819341.705096722 0 0 0 0 -1209208.4264886603 20496146.390372466 0 20496146.390372466 1317169.2189351933 0 0 0 0 60742098.438199997 264149723.05051994 0 264149723.05051994 235008982.04104233 0 0 0 0 129271550.69969559 210961222.147789 0 210961222.147789 65627148.658643007 0 0 0 0 349995465.97127724 179789839.92311859 0 179789839.92311859 -4510068.5232315063 0 0 0 0 161529320.5489254 274060865.32683563 0 274060865.32683563 188843206.17625427 0 0 0 0 152153103.5228157 273778620.66635132 0 273778620.66635132 188835470.00800359 0 0 0 0 433758926.3279953 614567154.47654247 0 614567154.47654247 600568096.74726868 0 0 0 0 -52556821.03962326 146546940.56263924 0 146546940.56263924 220297725.03661036 0 0 0 0 41623042.125282288 324569688.77255058 0 324569688.77255058 549009178.19570541 0 0 0 0 -104871543.89793396 -100655723.00268173 0 -100655723.00268173 508424336.15129852 0 0 0 0 -75754439.121967316 -56766529.091248512 0 -56766529.091248512 191230050.40818405 0 0 0 0 98478885.636024475 102186281.59941864 0 102186281.59941864 314415299.43593502 0 0 0 0 -375159964.93333626 -126048806.20186281 0 -126048806.20186281 399319155.17594528 0 0 0 0 305901360.49402809 -273338410.31048965 0 -273338410.31048965 992049029.0378952 0 0 0 0 42379904.145097733 293602622.07318211 0 293602622.07318211 1419523585.9727135 0 0 0 0 2171204.189038597 -300125.07778234221 0 -300125.07778234221 -783692.15543171158 0 0 0 0 681234788.13258839 571241681.9310925 0 571241681.9310925 208326718.32878304 0 0 0 0 55540338.354504585 213894374.80678701 0 213894374.80678701 467068202.77656937 0 0 0 0 -22817667.570665359 70144247.326076508 0 70144247.326076508 45963506.935874939 0 0 0 0 242861797.37551498 -124728737.02328682 0 -124728737.02328682 -90005619.034710884 0 0 0 0 664061844.70402908 193893332.85867357 0 193893332.85867357 -6633691.1589546204 0 0 0 0 173666214.63850403 2011017.4790687561 0 2011017.4790687561 -24001349.850673914 0 0 0 0 34178800.945667267 -28619581.323097229 0 -28619581.323097229 44017727.383216858 0 0 0 0 151412912.8239193 23227957.351686478 0 23227957.351686478 2784677.3621482849 0 0 0 0 -3680387.0794868469 22719156.13885498 0 22719156.13885498 -3508946.7662734985 0 0 0 0 -13252707.573982239 19785104.500118256 0 19785104.500118256 27447905.320199966 0 0 0 0 5636780.7678451538 -9264519.1257858276 0 -9264519.1257858276 34749992.110681534 0 0 0 0 -7250677.8061141968 14122848.747503281 0 14122848.747503281 11488345.367137909 0 0 0 0 -5572799.0698165894 10106820.281990051 0 10106820.281990051 5933027.5048675537 0 0 0 0 33157430.428703308 7383413.5736618042 0 7383413.5736618042 -12653351.657455444 0 0 0 0 335514.55218531564 4214344.3252477441 0 4214344.3252477441 -2886202.7415260095 0 0 0 0 -8126285.3249752522 24493015.382718801 0 24493015.382718801 -4222653.6391906738 0 0 0 0 8495304.0795786344 3339730.5396442087 0 3339730.5396442087 -4974997.8388245441 0 0 0 0 -12010458.829608917 29506994.814530373 0 29506994.814530373 -5357162.0047645569 0 0 0 0 13993464.219017029 16944186.784488678 0 16944186.784488678 -34292841.986304283 0 0 0 0 20695502.169647217 56007173.170188904 0 56007173.170188904 -111155176.31147861 0 0 0 0 -18942294.852645874 16629505.335999966 0 16629505.335999966 -5143076.2783317566 0 0 0 0 5806718.3433755599 554916.94252721034 0 554916.94252721034 -2489904.9711595727 0 0 0 0 -46587084.608753204 124382267.00806999 0 124382267.00806999 686323541.53511333 0 0 0 0 -697585.47756385803 247510426.84972739 0 247510426.84972739 359181948.51723862 0 0 0 0 16624023.700195312 176010096.21395493 0 176010096.21395493 438490522.87771225 0 0 0 0 -43416801.106243134 202868828.16339493 0 202868828.16339493 432933731.96593475 0 0 0 0 -12799615.949802399 204464088.17809677 0 204464088.17809677 345279309.91469193 0 0 0 0 -28144645.133224487 215250666.83301353 0 215250666.83301353 355090342.18497276 0 0 0 0 52480086.639007568 103618118.54698944 0 103618118.54698944 165434054.78495216 0 0 0 0 -13546640.197938919 72096018.486856461 0 72096018.486856461 386185473.39361572 0 0 0 0 33020822.49080658 180605649.67500687 0 180605649.67500687 332833948.40885162 0 0 0 0 46741051.626644135 107408395.11711502 0 107408395.11711502 163605053.4746933 0 0 0 0 -44008844.753551483 -17494963.911376953 0 -17494963.911376953 96283722.925252914 0 0 0 0 631811.73666572571 10820059.244163513 0 10820059.244163513 -16121389.285018921 0 0 0 0 3486351.1640778631 8996125.2574094478 0 8996125.2574094478 -8324768.9200551175 0 0 0 0 179593854.81701279 255282510.51130104 0 255282510.51130104 344339421.64179802 0 0 0 0 536016.37855904177 -62813.193509453908 0 -62813.193509453908 -998958.07384238392 0 0 0 0 199069998.86338043 105864616.6144371 0 105864616.6144371 -86051962.057033539 0 0 0 0 95582051.534095764 232836895.40833092 0 232836895.40833092 313150748.42491913 0 0 0 0 270684210.78536224 359718519.28089142 0 359718519.28089142 233204795.01608276 0 0 0 0 194031007.61107254 246033950.26192856 0 246033950.26192856 303576403.06306076 0 0 0 0 -817531.91333990172 1568931.2724038502 0 1568931.2724038502 1296247.0795203932 0 0 0 0 159905580.9015522 341332766.40189123 0 341332766.40189123 232216550.10544968 0 0 0 0 -38628480.539944649 311791338.23841572 0 311791338.23841572 309179020.14070129 0 0 0 0 147937022.55791092 16627329.278360367 0 16627329.278360367 -70479047.93479538 0 0 0 0 118145950.71940613 195747571.9928112 0 195747571.9928112 176495664.32917023 0 0 0 0 305845063.9845314 163129010.62215042 0 163129010.62215042 99155266.444107056 0 0 0 0 13445265.142566681 25062372.093584061 0 25062372.093584061 -9096461.6296157837 0 0 0 0 -2673.7215194702148 21155298.220100403 0 21155298.220100403 1456217.7327651978 0 0 0 0 -657015.7108605355 7161316.4380310234 0 7161316.4380310234 6428268.9116038885 0 0 0 0 -73609537.232452393 14971004.587630272 0 14971004.587630272 6110346.3108940125 0 0 0 0 2689937.6555747986 22264679.540542603 0 22264679.540542603 -1530878.4414978027 0 0 0 0 -5176386.7740783691 21013734.946655273 0 21013734.946655273 1542241.1312713623 0 0 0 0 -23505731.147842407 22306005.074256897 0 22306005.074256897 11337821.369598389 0 0 0 0 -5072933.3917617798 30245863.699363708 0 30245863.699363708 5203275.2874450684 0 0 0 0 5718735.2326660156 35240867.332870483 0 35240867.332870483 6133450.1084213257 0 0 0 0 6022361.6160888672 25403927.311515808 0 25403927.311515808 -2882770.0928649902 0 0 0 0 -115846.63162470795 447876.56667105854 0 447876.56667105854 -820590.53963730484 0 0 0 0 2397962.8519134521 22038312.793548584 0 22038312.793548584 26844220.373340607 0 0 0 0 3902561.7695865631 15724787.625289917 0 15724787.625289917 6245199.2118225098 0 0 0 0 2909771.1833190918 20846535.42042923 0 20846535.42042923 -17418019.471801758 0 0 0 0 -1515306.7318437491 13175393.515354585 0 13175393.515354585 -5239979.4774087965 0 0 0 0 -2870046.7236938477 29809279.281845093 0 29809279.281845093 15347013.701202393 0 0 0 0 868586.1615177691 -96288.975055225194 0 -96288.975055225194 -939110.96226593107 0 0 0 0 15845696.936225891 33248216.326553345 0 33248216.326553345 -943323.41644287109 0 0 0 0 15759253.955047607 32620679.433570862 0 32620679.433570862 6383842.6159820557 0 0 0 0 16657768.202476501 25376365.63433075 0 25376365.63433075 -16300391.638671875 0 0 0 0 16294145.884140015 34775962.038764954 0 34775962.038764954 2544015.9245147705 0 0 0 0 17656980.264110565 44185502.525024414 0 44185502.525024414 -11241800.564025879 0 0 0 0 6972060.0888538361 32500704.977884293 0 32500704.977884293 1032135.9301757812 0 0 0 0 14869352.229164124 38683593.848052979 0 38683593.848052979 5619274.8959503174 0 0 0 0 14461293.927845001 43526543.571865082 0 43526543.571865082 18341459.53755188 0 0 0 0 45990902.669402599 45211880.470971584 0 45211880.470971584 9738069.9612884521 0 0 0 0 -5864572.1104586199 8909354.8904803339 0 8909354.8904803339 -1113031.6098185033 0 0 0 0 2338850.3818664551 35902471.254959106 0 35902471.254959106 14175334.621368408 0 0 0 0 20476633.595924377 39970222.019210815 0 39970222.019210815 8797811.5404052734 0 0 0 0 22876539.451393127 33302514.684661865 0 33302514.684661865 11635515.317680359 0 0 0 0 46814000.181049347 33653097.806453705 0 33653097.806453705 3037229.9025268555 0 0 0 0 29736129.041015625 21050256.093536377 0 21050256.093536377 8013050.5645065308 0 0 0 0 29873512.382064819 42260057.334083557 0 42260057.334083557 15538871.279968262 0 0 0 0 37496790.684293747 48727679.076440811 0 48727679.076440811 14217408.214202881 0 0 0 0 33473728.09715271 40626776.157913208 0 40626776.157913208 15858727.461212158 0 0 0 0 37759612.55708313 47019209.409500122 0 47019209.409500122 25183517.647827148 0 0 0 0 -7320490.9828796387 42770319.756240845 0 42770319.756240845 41190830.687553972 0 0 0 0 13964455.962133408 37145548.699714661 0 37145548.699714661 19910182.09072876 0 0 0 0 18527858.523376465 47030129.254188538 0 47030129.254188538 32432214.391204834 0 0 0 0 -22589236.88117218 26176019.743515015 0 26176019.743515015 22481130.66852951 0 0 0 0 -7554542.9800200462 36902218.777507067 0 36902218.777507067 27050897.719573975 0 0 0 0 -20056554.909900665 22651665.593482971 0 22651665.593482971 3767891.3078765869 0 0 0 0 1248210.8512115479 31654524.980239868 0 31654524.980239868 8699865.4384040833 0 0 0 0 -3526057.5431480408 35705177.19443512 0 35705177.19443512 14187961.658081055 0 0 0 0 -20311781.820640564 19397729.471908569 0 19397729.471908569 36209598.903030396 0 0 0 0 -53470947.080818176 5244446.3564453125 0 5244446.3564453125 50410067.90196228 0 0 0 0 -43014195.83152771 -2383843.311126709 0 -2383843.311126709 18901480.628417969 0 0 0 0 -42025281.572328195 -1556835.5327501148 0 -1556835.5327501148 11365689.253356934 0 0 0 0 -51225280.637390137 -1504021.1404953003 0 -1504021.1404953003 35430523.845016479 0 0 0 0 -35672890.52999115 12572089.526771545 0 12572089.526771545 25936358.063293457 0 0 0 0 -53066173.223287582 3600590.2153244019 0 3600590.2153244019 26408791.561080933 0 0 0 0 -39213208.110074997 18570449.594966888 0 18570449.594966888 46101320.047241211 0 0 0 0 -12410738.026489258 21775533.44493866 0 21775533.44493866 25578721.869934082 0 0 0 0 -13598642.215499878 26825019.763999939 0 26825019.763999939 41197353.194077678 0 0 0 0 1260473.0793609619 35786715.857872009 0 35786715.857872009 43219019.620101929 0 0 0 0 1278248.4480361938 34392398.640861511 0 34392398.640861511 92856189.597442627 0 0 0 0 41010234.287363052 56678189.174646378 0 56678189.174646378 5816153.4278411865 0 0 0 0 33076244.785484314 64217386.378379822 0 64217386.378379822 42308706.800559998 0 0 0 0 40741319.838371277 57652467.959381104 0 57652467.959381104 16560349.00112915 0 0 0 0 22612892.823265076 21952218.175056458 0 21952218.175056458 32425558.77481842 0 0 0 0 32368764.09986496 1134164.0915985107 0 1134164.0915985107 51598411.623451233 0 0 0 0 -20721099.61265564 17814419.962554932 0 17814419.962554932 62375504.21672821 0 0 0 0 -8353786.5919036865 54106819.394638062 0 54106819.394638062 56387268.718681335 0 0 0 0 -13416908.9793396 30915803.448310852 0 30915803.448310852 40010514.216018677 0 0 0 0 69246208.081129074 43219529.471523285 0 43219529.471523285 13054158.85534668 0 0 0 0 -80286303.729797363 -4053078.1199874878 0 -4053078.1199874878 39481006.309356689 0 0 0 0 -207042686.62188721 -139753265.35162354 0 -139753265.35162354 -22917609.345394135 0 0 0 0 -60088506.968154907 -42083639.444129944 0 -42083639.444129944 -9269673.0720214844 0 0 0 0 -53160057.311515808 -15344321.19619751 0 -15344321.19619751 28894794.739990234 0 0 0 0 -39545194.740180969 -14164083.85332489 0 -14164083.85332489 -25234185.272949219 0 0 0 0 112313.44553517178 2083351.6785206385 0 2083351.6785206385 1533990.3723326102 0 0 0 0 9940279.5736189019 4876559.8414297812 0 4876559.8414297812 12525391.539779663 0 0 0 0 -43055015.821624756 -43850334.192718506 0 -43850334.192718506 -30312984.292861938 0 0 0 0 1163274.4363732915 998497.05820350721 0 998497.05820350721 1213295.4072363749 0 0 0 0 38943496.699867249 -39622230.839012146 0 -39622230.839012146 84951866.015785217 0 0 0 0 326256.65685653687 24990356.483085632 0 24990356.483085632 14581987.072552204 0 0 0 0 54055108.762285173 -42722365.781199917 0 -42722365.781199917 54616451.9165802 0 0 0 0 41070502.947757721 -73721577.416591644 0 -73721577.416591644 75928448.002494812 0 0 0 0 58429824.618366241 -52337048.077213287 0 -52337048.077213287 12774824.760520935 0 0 0 0 52327211.889026642 -119352951.76306534 0 -119352951.76306534 -19855604.446260452 0 0 0 0 -20808658.775085449 -222482887.74990463 0 -222482887.74990463 -433705117.39369202 0 0 0 0 -20997709.427265167 -89581431.070678711 0 -89581431.070678711 92254533.207653046 0 0 0 0 82919071.678630829 -38085039.08656311 0 -38085039.08656311 59967111.694778442 0 0 0 0 -367915639.76535034 -58670803.366531372 0 -58670803.366531372 -67955140.733787537 0 0 0 0 -327332.3672686629 400813.91623894498 0 400813.91623894498 814859.93238466047 0 0 0 0 27542469.961933136 40897444.825065613 0 40897444.825065613 -105763345.76698303 0 0 0 0 -93543649.292161942 201387508.22286797 0 201387508.22286797 917928.33285522461 0 0 0 0 456683443.70843124 332699843.22019958 0 332699843.22019958 11314514.803260803 0 0 0 0 -906389.90199279785 -72049225.567962646 0 -72049225.567962646 -199169314.76400757 0 0 0 0 -146740474.91458893 -311535049.47058105 0 -311535049.47058105 -56972998.823952913 0 0 0 0 -1979809.3596464656 1485521.7748358436 0 1485521.7748358436 2932196.4010579921 0 0 0 0 91171179.165821075 290584385.28632355 0 290584385.28632355 383387054.29573822 0 0 0 0 -529639299.30005264 -285927520.75195312 0 -285927520.75195312 707541943.92337036 0 0 0 0 -355458.35775591433 -141271.28452535532 0 -141271.28452535532 974030.67555166595 0 0 0 0 -211456825.4344883 139628418.26964951 0 139628418.26964951 534358462.46593475 0 0 0 0 -427926599.39096832 -279466099.41873932 0 -279466099.41873932 407261341.21443558 0 0 0 0 170807186.26212239 647158190.04890394 0 647158190.04890394 958114.72319793701 0 0 0 0 -724446347.83439445 343968577.73903275 0 343968577.73903275 60523516.525058746 0 0 0 0 100392503.33163261 309097965.58225155 0 309097965.58225155 603630843.98506165 0 0 0 0 429154600.88907623 50994949.79800415 0 50994949.79800415 113181013.11486053 0 0 0 0 -4065141.8333905619 6058294.0275106886 0 6058294.0275106886 -5330572.819239486 0 0 0 0 10093674.542325974 -59994462.350650787 0 -59994462.350650787 197703639.47032547 0 0 0 0 43541179.134850264 57191062.367932558 0 57191062.367932558 10439116.544258118 0 0 0 0 17192250.288438797 176018247.16119099 0 176018247.16119099 188484320.49249268 0 0 0 0 201494672.55552292 -5486166.5981254578 0 -5486166.5981254578 72514307.0076828 0 0 0 0 875268.87874218822 4261.8314679162577 0 4261.8314679162577 -506510.7416985333 0 0 0 0 37476825.05657196 -6562510.78150177 0 -6562510.78150177 -32136736.593826294 0 0 0 0 31501747.718970299 36156608.045148849 0 36156608.045148849 6147353.3647155762 0 0 0 0 -6147336.9143143985 8421596.3619885072 0 8421596.3619885072 -2277512.4329364225 0 0 0 0 -4333869.1307525635 -11569400.626781464 0 -11569400.626781464 13724657.588195801 0 0 0 0 -2923428.6532326061 2790486.6257350515 0 2790486.6257350515 599009.77279375866 0 0 0 0 26755399.013008118 -11081506.071922302 0 -11081506.071922302 -32000530.557735443 0 0 0 0 -7531648.243098259 8621545.8926887512 0 8621545.8926887512 17049489.227401733 0 0 0 0 45051662.06735158 20962117.850716114 0 20962117.850716114 13583394.384662628 0 0 0 0 26858310.169174194 23617363.581388474 0 23617363.581388474 3789589.6955566406 0 0 0 0 60939072.376091003 13197863.304317474 0 13197863.304317474 5589032.1537895203 0 0 0 0 46072184.042488098 -3551414.8852996826 0 -3551414.8852996826 13087228.568244934 0 0 0 0 119221214.29744911 51371881.727256775 0 51371881.727256775 -15799173.248065948 0 0 0 0 -5628819.4661808014 74229434.61400032 0 74229434.61400032 26374343.656944275 0 0 0 0 29958101.34167099 64828374.890535355 0 64828374.890535355 -11593963.982744217 0 0 0 0 27491088.158555746 -62951694.166429281 0 -62951694.166429281 -40976706.061004639 0 0 0 0 15205404.034656525 9352432.9634056091 0 9352432.9634056091 -1496950.0537099838 0 0 0 0 -3164432.5941570234 1600399.7134862384 0 1600399.7134862384 1633703.5468508825 0 0 0 0 -45603279.568431854 47584124.293624878 0 47584124.293624878 57801338.777187347 0 0 0 0 -3582369.7584240939 4370249.82595973 0 4370249.82595973 -3482959.0973045751 0 0 0 0 128846222.74682236 170152234.75551224 0 170152234.75551224 -41539397.360202789 0 0 0 0 -539946280.14548874 198221140.53551483 0 198221140.53551483 101956805.36983109 0 0 0 0 99507151.217386246 -2338285.6372730732 0 -2338285.6372730732 -220788541.63816071 0 0 0 0 -348211684.24160194 127190557.71826172 0 127190557.71826172 19412860.70281601 0 0 0 0 -1705885.7931926064 547855.12591115758 0 547855.12591115758 1160350.8668877408 0 0 0 0 -71072727.263891459 -128791005.56444621 0 -128791005.56444621 -135846500.18916321 0 0 0 0 11956471.906676292 279557595.55208588 0 279557595.55208588 -110280702.78412628 0 0 0 0 -548502265.9715271 259488866.8141861 0 259488866.8141861 -144780325.92790604 0 0 0 0 -41268352.055250168 360136506.36176491 0 360136506.36176491 -213858430.87983704 0 0 0 0 263173218.03545952 380407419.83346176 0 380407419.83346176 -252428574.04747963 0 0 0 0 101035306.79096603 287253893.39728546 0 287253893.39728546 -116887868.88983631 0 0 0 0 122203173.1479454 229489877.60009003 0 229489877.60009003 -100253054.55917573 0 0 0 0 149393458.9902153 234939223.62351608 0 234939223.62351608 -100622122.1390152 0 0 0 0 122878759.65320969 165071087.09206772 0 165071087.09206772 -12680317.801555634 0 0 0 0 -95241645.916864395 217657819.5530014 0 217657819.5530014 -25099105.730865479 0 0 0 0 151381518.71178055 120338572.70278168 0 120338572.70278168 -21503463.715082169 0 0 0 0 55408048.260240555 134166131.05344486 0 134166131.05344486 -9418941.3189926147 0 0 0 0 105231143.94302368 224633102.85736847 0 224633102.85736847 66807899.279166937 0 0 0 0 185612956.82374811 223734958.36285114 0 223734958.36285114 -22403663.722793579 0 0 0 0 107846702.22788239 232860192.7579155 0 232860192.7579155 -14672985.897720337 0 0 0 0 74588998.511518478 213066026.59941483 0 213066026.59941483 -22478125.097618103 0 0 0 0 663982026.81552696 -270304739.832901 0 -270304739.832901 -66224398.876625061 0 0 0 0 400147849.5619812 -248594742.43716049 0 -248594742.43716049 55897024.863525391 0 0 0 0 107211373.30164337 20514252.095565796 0 20514252.095565796 -142309927.89011383 0 0 0 0 479259950.93387985 101063363.57291031 0 101063363.57291031 -158737632.70419312 0 0 0 0 178908536.26185513 162559671.03032017 0 162559671.03032017 -21762583.708496094 0 0 0 0 3635656.3743473161 978257.33387324214 0 978257.33387324214 -1689943.3410755228 0 0 0 0 54545741.773710966 295601870.2037158 0 295601870.2037158 -365261380.31433105 0 0 0 0 809409319.41873837 -138393146.75215721 0 -138393146.75215721 -335135428.26572418 0 0 0 0 -2501117.894493103 -212067298.75320816 0 -212067298.75320816 106942550.16798401 0 0 0 0 276169993.30591011 -146070108.67741013 0 -146070108.67741013 377936071.62648392 0 0 0 0 1691524.7228768412 -308452.96542848647 0 -308452.96542848647 -953385.97404536232 0 0 0 0 266355430.23974228 146030585.28329086 0 146030585.28329086 -80779903.403793335 0 0 0 0 762617792.38063383 149085952.57700825 0 149085952.57700825 -266782528.62477112 0 0 0 0 169960230.24915504 455031316.07446194 0 455031316.07446194 -386674133.25865173 0 0 0 0 -357977552.94184494 672788564.72898102 0 672788564.72898102 -456998096.38745117 0 0 0 0 375792564.57996655 -99795781.086381912 0 -99795781.086381912 -811940304.65865326 0 0 0 0 -224134590.37804794 635187004.69874573 0 635187004.69874573 -235356985.14891815 0 0 0 0 -721204112.57531929 -473520154.30301666 0 -473520154.30301666 666667911.89014435 0 0 0 0 -1580535.5905347783 1715008.5694911238 0 1715008.5694911238 -1315746.5741008371 0 0 0 0 -923336799.15594482 373315966.97893143 0 373315966.97893143 42456820.630428314 0 0 0 0 216822556.82844543 117957962.63388824 0 117957962.63388824 135441085.1878643 0 0 0 0 440345982.86997223 -38994928.314910889 0 -38994928.314910889 -961140864.64672089 0 0 0 0 292046291.04269981 41807893.806659698 0 41807893.806659698 -113880519.26963806 0 0 0 0 292274383.41003418 227397320.21940994 0 227397320.21940994 -1038643410.5712872 0 0 0 0 5318229.9640172068 3737003.9253240079 0 3737003.9253240079 -2422913.4159453921 0 0 0 0 -74249077.847499847 125744668.67508125 0 125744668.67508125 475381586.07714081 0 0 0 0 -152576787.89688492 208886576.28794479 0 208886576.28794479 -29034654.34197998 0 0 0 0 184182822.23944092 177278214.89785004 0 177278214.89785004 -49296090.836875916 0 0 0 0 564112.59062417783 4595413.2769374046 0 4595413.2769374046 -3099765.7253463864 0 0 0 0 -166743625.26959896 164474654.61222172 0 164474654.61222172 -97663420.049247742 0 0 0 0 -351268211.19101715 116906725.51465607 0 116906725.51465607 -3629953.902015686 0 0 0 0 192114898.79133606 454379263.88188553 0 454379263.88188553 62784727.027877808 0 0 0 0 3326395.1326831076 3001217.107395906 0 3001217.107395906 -1873096.5009075962 0 0 0 0 -94044072.196273804 -7833162.0454483032 0 -7833162.0454483032 471119680.42329407 0 0 0 0 -80322032.668258667 24255222.078956604 0 24255222.078956604 1142884372.9482727 0 0 0 0 1207225.398414271 752443.74974489957 0 752443.74974489957 -645624.83707372472 0 0 0 0 -131532470.00743008 178786394.03603077 0 178786394.03603077 -154551198.31403351 0 0 0 0 -95233238.507242203 51877784.791423798 0 51877784.791423798 -43597775.219356537 0 0 0 0 152201502.6933651 222081013.04135513 0 222081013.04135513 -121913600.6244812 0 0 0 0 851304.67773845047 4472799.8671939019 0 4472799.8671939019 -4477355.1718190648 0 0 0 0 -133258339.9305172 115626147.46444702 0 115626147.46444702 -93210674.80752182 0 0 0 0 193858098.62645149 -286229744.97698784 0 -286229744.97698784 -921519260.10707855 0 0 0 0 112261.28472100385 1545070.0640097009 0 1545070.0640097009 -1690062.1853771955 0 0 0 0 105025893.28902054 550315437.25753975 0 550315437.25753975 -1209510414.6429062 0 0 0 0 -473606008.87364244 -579006473.16171646 0 -579006473.16171646 -317510328.56103516 0 0 0 0 39299046.895267487 41794381.759738922 0 41794381.759738922 -1373478031.1997452 0 0 0 0 -924397579.06442165 605294379.46353531 0 605294379.46353531 -365122533.93899536 0 0 0 0 -359664346.6664629 358534441.981884 0 358534441.981884 -172297973.9941864 0 0 0 0 -207211400.34684753 120077227.08161163 0 120077227.08161163 -55383188.39560318 0 0 0 0 -81989344.442813873 378685323.5526123 0 378685323.5526123 -415463760.38953257 0 0 0 0 86191193.755142212 5798837.2096862793 0 5798837.2096862793 -386783496.5864749 0 0 0 0 18203184.364192009 62135526.832782745 0 62135526.832782745 -395880699.40008545 0 0 0 0 70026874.192790985 59999039.987228394 0 59999039.987228394 -153062195.61989594 0 0 0 0 183155831.95770454 -16443291.56394577 0 -16443291.56394577 -162285930.30348969 0 0 0 0 -16897235.01176548 210361296.68964291 0 210361296.68964291 -53566531.399688721 0 0 0 0 -237442909.15531158 343825585.47947311 0 343825585.47947311 -133289699.45252991 0 0 0 0 -147454084.22434616 398362404.44894791 0 398362404.44894791 -102784537.13856506 0 0 0 0 -23403011.557064056 233740838.67955017 0 233740838.67955017 -126947802.20648575 0 0 0 0 93109468.774481297 460008208.31606936 0 460008208.31606936 -100181042.03461456 0 0 0 0 43662089.374370575 211554569.88613892 0 211554569.88613892 -221313809.60634613 0 0 0 0 -1045887541.3713741 266971892.72388458 0 266971892.72388458 529735703.27473831 0 0 0 0 -84975176.765757561 -102725869.19894886 0 -102725869.19894886 -81367322.859901428 0 0 0 0 208091278.54572201 567028671.26675415 0 567028671.26675415 161963839.77519989 0 0 0 0 101874242.83774185 201852099.91420746 0 201852099.91420746 -183217249.44172668 0 0 0 0 -356232980.2164464 221099302.56418037 0 221099302.56418037 -122940581.44723511 0 0 0 0 -1332140167.0340462 -26196692.150028229 0 -26196692.150028229 87697912.441131592 0 0 0 0 -1297199601.0112762 5724667.8249816895 0 5724667.8249816895 -77722908.82824707 0 0 0 0 -360041086.2395525 242707070.66588783 0 242707070.66588783 -244638060.64777374 0 0 0 0 -1224675329.3725033 612287409.19988251 0 612287409.19988251 -585586.68650054932 0 0 0 0 -1911579983.4988022 325330627.87064362 0 325330627.87064362 232468634.96800995 0 0 0 0 -246697804.18740559 726984869.93786049 0 726984869.93786049 758241.05758666992 0 0 0 0 -496457463.13999748 160416065.0359993 0 160416065.0359993 -256316451.27547455 0 0 0 0 34078751.379589081 402004878.38964844 0 402004878.38964844 -296751016.56793404 0 0 0 0 349118125.71836853 -212770317.43632126 0 -212770317.43632126 89565862.30619812 0 0 0 0 -532318.48009272292 1358698.6491526365 0 1358698.6491526365 611265.57326028496 0 0 0 0 618254686.07456589 174215571.14267731 0 174215571.14267731 -345371153.31952477 0 0 0 0 -2203856.0652961731 3784355.4971008301 0 3784355.4971008301 -3238.894044466093 0 0 0 0 -445341.8673915863 2212307.3229370117 0 2212307.3229370117 -764455.77191162109 0 0 0 0 89993779.722629547 19389912.597480774 0 19389912.597480774 -118408512.81707001 0 0 0 0 46216580.484275818 103577992.19093323 0 103577992.19093323 -71972348.297080994 0 0 0 0 22432496.039857864 93792874.639900208 0 93792874.639900208 24860270.158935547 0 0 0 0 173375704.65616989 245463062.47593117 0 245463062.47593117 -232427857.01307678 0 0 0 0 154222746.91495514 403699442.59260559 0 403699442.59260559 -137703146.35952377 0 0 0 0 72089160.221723557 155166470.01693916 0 155166470.01693916 32124365.156471252 0 0 0 0 -200654853.73774719 422019911.5879097 0 422019911.5879097 195832216.22020721 0 0 0 0 -440044293.48876476 67167784.477636337 0 67167784.477636337 26899676.606246948 0 0 0 0 426493.0142466668 425567.49149988871 0 425567.49149988871 -635666.32151906192 0 0 0 0 652899681.84947205 228820949.73755646 0 228820949.73755646 145210862.00353241 0 0 0 0 -204037145.61679459 170607302.37903595 0 170607302.37903595 -123721253.38153076 0 0 0 0 -220137609.77243328 231500492.9180727 0 231500492.9180727 96194764.847488403 0 0 0 0 50780201.152946472 133979556.28197479 0 133979556.28197479 -31155582.443885803 0 0 0 0 301668172.0507164 64099019.509506226 0 64099019.509506226 236879257.34999084 0 0 0 0 163950067.02389336 364578639.80643463 0 364578639.80643463 276636261.37084961 0 0 0 0 -471776204.10240173 -231904753.08700562 0 -231904753.08700562 -220439622.78625488 0 0 0 0 -417194199.14958191 168652399.49788666 0 168652399.49788666 365824514.4309082 0 0 0 0 -1165850018.1763687 256942056.91711426 0 256942056.91711426 739916947.55873108 0 0 0 0 -358589485.47081757 -44247579.00176239 0 -44247579.00176239 157453721.72718048 0 0 0 0 -185844539.00205612 330552738.87106323 0 330552738.87106323 578832997.53179932 0 0 0 0 228993957.84326172 -153764528.28682709 0 -153764528.28682709 314437780.66665649 0 0 0 0 -340189803.44827652 662006947.06832886 0 662006947.06832886 96605204.166824341 0 0 0 0 767479170.22473907 369243937.28295135 0 369243937.28295135 110577501.56149292 0 0 0 0 -1289945732.8375015 -365512038.05793762 0 -365512038.05793762 452735997.35541534 0 0 0 0 1002488.1441403814 1549335.5361249326 0 1549335.5361249326 -1558347.0937382579 0 0 0 0 86731.305532908998 1391498.6830350864 0 1391498.6830350864 -1009595.9002116472 0 0 0 0 587229807.06578064 406201727.93598175 0 406201727.93598175 129463960.94749451 0 0 0 0 -29772847.402393341 27086176.581102371 0 27086176.581102371 -10951448.769683838 0 0 0 0 62658260.265095711 -20746418.992948532 0 -20746418.992948532 6212781.1007385254 0 0 0 0 490543.47018186189 2569285.2091695033 0 2569285.2091695033 1010214.8556505367 0 0 0 0 3797853.8821048737 4582920.8646125793 0 4582920.8646125793 -1030864.2926177979 0 0 0 0 2629389.5572662354 3215266.2602920532 0 3215266.2602920532 -964440.55088806152 0 0 0 0 2141231.6390380859 4249335.5530223846 0 4249335.5530223846 1666.9011459350586 0 0 0 0 -249615346.94900846 -540271573.57013702 0 -540271573.57013702 626461428.07418823 0 0 0 0 2773743.0396422604 675689.39371665381 0 675689.39371665381 -698663.5423418954 0 0 0 0 -216257353.17713165 -319703682.21287537 0 -319703682.21287537 204177684.67153931 0 0 0 0 -434522098.0508728 544408054.89704132 0 544408054.89704132 -337444052.01136017 0 0 0 0 1201622.6863082983 1901036.766651243 0 1901036.766651243 768471.65599650145 0 0 0 0 -543353995.76377869 -509302276.50254822 0 -509302276.50254822 76723653.754769683 0 0 0 0 -529258437.97274494 347951178.03042316 0 347951178.03042316 1114581878.9052582 0 0 0 0 2589120408.3205338 122813618.44995117 0 122813618.44995117 -1005041685.5894775 0 0 0 0 -132231819.24362564 175424272.08626556 0 175424272.08626556 220473922.51262665 0 0 0 0 1173475930.9543381 369057397.9721756 0 369057397.9721756 28654075.29473877 0 0 0 0 561491593.91083527 176396043.37385559 0 176396043.37385559 -976771.03772793256 0 0 0 0 488285089.01966858 380300794.37917328 0 380300794.37917328 204586431.48840332 0 0 0 0 1542828.2301483154 54094515.052650452 0 54094515.052650452 134772136.32614899 0 0 0 0 88955664.952964783 90252850.102775574 0 90252850.102775574 71755162.597709656 0 0 0 0 214038048.95365906 426661820.6716156 0 426661820.6716156 348327748.02814484 0 0 0 0 -10861226.87638092 -26020032.590183258 0 -26020032.590183258 -48988252.662017822 0 0 0 0 29706793.89238739 42583894.221420288 0 42583894.221420288 -127217542.62669373 0 0 0 0 2551467684.5544205 -395650833.85749054 0 -395650833.85749054 -405762102.07971191 0 0 0 0 1068231.289755756 1984011.8757709898 0 1984011.8757709898 1881433.4808633029 0 0 0 0 942756.30406568199 643877.090755146 0 643877.090755146 102970.33795103058 0 0 0 0 218015414.21185112 -65688057.773059845 0 -65688057.773059845 883196134.58895874 0 0 0 0 2281579273.7998352 444670267.95848083 0 444670267.95848083 -893463755.05511475 0 0 0 0 776724069.48714447 588209141.87181091 0 588209141.87181091 704162445.21345139 0 0 0 0 1297173289.3407593 -172843975.99617004 0 -172843975.99617004 884786809.86685181 0 0 0 0 1137743825.2646408 -949606515.50466919 0 -949606515.50466919 540800215.83627701 0 0 0 0 1857053879.5713501 -3403603.0978393555 0 -3403603.0978393555 25001554.147476196 0 0 0 0 579421367.55348969 -23804141.243537903 0 -23804141.243537903 38979218.633214951 0 0 0 0 709529467.8836937 72536058.192035675 0 72536058.192035675 -29490306.337875366 0 0 0 0 915486412.75280762 -364616223.2545929 0 -364616223.2545929 2542270.0193481445 0 0 0 0 -25674696.295417786 76525580.753242493 0 76525580.753242493 -79975326.805786133 0 0 0 0 734514906.13509369 -344398071.93080139 0 -344398071.93080139 160580436.65261841 0 0 0 0 2214136.9183801319 5795872.8111181222 0 5795872.8111181222 5245726.5670720562 0 0 0 0 -427393372.07010508 -307074330.8987813 0 -307074330.8987813 -97066971.620910645 0 0 0 0 -371847466.72124481 -257268605.11153412 0 -257268605.11153412 -158932606.89764404 0 0 0 0 266704.95823946409 -1692048.784096967 0 -1692048.784096967 3266736.7280307934 0 0 0 0 86076921.076854572 69373400.014219135 0 69373400.014219135 47474079.413803101 0 0 0 0 86091756.611083984 70852859.150917053 0 70852859.150917053 32333822.553756714 0 0 0 0 -364500721.33978271 -224809288.83792114 0 -224809288.83792114 -259008146.95983887 0 0 0 0 90938715.86252594 116110048.82926178 0 116110048.82926178 84394698.658630371 0 0 0 0 34263730.019023895 90897733.905754089 0 90897733.905754089 68267706.193389893 0 0 0 0 67153122.4557724 94368473.74079895 0 94368473.74079895 67242988.606332779 0 0 0 0 39380556.163283348 134320036.45147324 0 134320036.45147324 107556953.1353302 0 0 0 0 -5689767.4671287537 107443696.32558441 0 107443696.32558441 94103424.596328735 0 0 0 0 -1629679.6076123714 138018642.38680792 0 138018642.38680792 102278356.96392822 0 0 0 0 -66007687.001077652 109112483.42455292 0 109112483.42455292 90508428.035072327 0 0 0 0 35116749.963096619 93058317.058139801 0 93058317.058139801 71936392.215484619 0 0 0 0 -10702304.565010071 86777042.48260498 0 86777042.48260498 73754182.613132477 0 0 0 0 -14104606.00743866 14624248.110092163 0 14624248.110092163 4426598.6510009766 0 0 0 0 -63949714.129188538 51067009.261947632 0 51067009.261947632 51080719.796234131 0 0 0 0 -109946838.66584778 5357395.5592079163 0 5357395.5592079163 47679128.498397827 0 0 0 0 -54803461.410743475 103897128.56651783 0 103897128.56651783 92343646.417282104 0 0 0 0 -135488124.13309479 57373289.00643158 0 57373289.00643158 72025206.391231537 0 0 0 0 -132152879.73400784 -60634634.44943428 0 -60634634.44943428 94772341.512191772 0 0 0 0 -254057570.90022182 -13130028.633514404 0 -13130028.633514404 207798195.89661407 0 0 0 0 -121519.24436883349 -2503812.7246495937 0 -2503812.7246495937 6088439.1098538712 0 0 0 0 42596067.279478073 34807488.418575287 0 34807488.418575287 10055669.090286255 0 0 0 0 -447915502.97687531 -126866751.75917053 0 -126866751.75917053 -168679125.60299683 0 0 0 0 -110954798.61303711 -105711452.04772949 0 -105711452.04772949 -277752604.82395554 0 0 0 0 69176.457947012037 27091.440117681399 0 27091.440117681399 -35123.691449878737 0 0 0 0 -228220239.00471878 78510363.609306335 0 78510363.609306335 23181565.284301758 0 0 0 0 211702832.69754791 212313417.0921936 0 212313417.0921936 320225515.23658752 0 0 0 0 -51304658.121967316 79859815.087646484 0 79859815.087646484 261773539.48273468 0 0 0 0 39900051.437965393 -15883328.415649414 0 -15883328.415649414 141705291.99337769 0 0 0 0 -28127089.670246124 113282330.58644867 0 113282330.58644867 287073621.22805786 0 0 0 0 -571879.27595142275 1715207.5395948533 0 1715207.5395948533 -264666.06586044282 0 0 0 0 40134518.659133911 33925216.069824219 0 33925216.069824219 85892611.409133911 0 0 0 0 -11646105.266777039 31231200.955978394 0 31231200.955978394 240541198.8908844 0 0 0 0 6996612.038476944 24613092.449863434 0 24613092.449863434 142870082.29879761 0 0 0 0 13085614.807411194 52243522.250015259 0 52243522.250015259 162605328.49966431 0 0 0 0 4009355.4580383301 26062073.721633911 0 26062073.721633911 172351593.1835556 0 0 0 0 14966271.429443359 32624210.122741699 0 32624210.122741699 78674177.227844238 0 0 0 0 26277197.84671402 57498095.449462891 0 57498095.449462891 74129615.152893066 0 0 0 0 13204839.892280579 47203761.632598877 0 47203761.632598877 134726412.31139374 0 0 0 0 9583429.2552509308 143755437.9949379 0 143755437.9949379 221622801.02364731 0 0 0 0 12225916.545190811 9447179.6821365356 0 9447179.6821365356 247936748.59509277 0 0 0 0 -55891307.554862022 29743055.316495895 0 29743055.316495895 128730051.58396912 0 0 0 0 -7778424.0751266479 87893697.555412292 0 87893697.555412292 146489355.95779419 0 0 0 0 39003581.617134094 39150840.748947144 0 39150840.748947144 387352.98721313477 0 0 0 0 15681389.834423065 108387188.62200928 0 108387188.62200928 46271261.173667908 0 0 0 0 71262374.176696777 128104746.38209534 0 128104746.38209534 123999005.71496201 0 0 0 0 65329336.480868101 9213353.5498999357 0 9213353.5498999357 130416079.94944763 0 0 0 0 -5446927.7275257111 -5066836.7176780701 0 -5066836.7176780701 5717082.7883071899 0 0 0 0 821691.53984069824 13275654.765285492 0 13275654.765285492 -3523195.0734176636 0 0 0 0 -8071382.8132362366 -2353545.8532943726 0 -2353545.8532943726 12919609.448558807 0 0 0 0 -5722171.0239486694 -1257975.8782577515 0 -1257975.8782577515 7765563.7038116455 0 0 0 0 334280.01055096183 -2020553.3268075576 0 -2020553.3268075576 1219409.7939633429 0 0 0 0 -263301794.55892944 -498866182.11955261 0 -498866182.11955261 72181406.337432861 0 0 0 0 -681869827.54426003 52232968.918895721 0 52232968.918895721 -246106488.91233444 0 0 0 0 137442.20856946427 -558780.79623604566 0 -558780.79623604566 916712.74224545062 0 0 0 0 -4073547.7286262512 -3789392.3601493835 0 -3789392.3601493835 -3484445.616973877 0 0 0 0 -25596127.839298248 -5725477.1913375854 0 -5725477.1913375854 -3274226.4100885391 0 0 0 0 -15086711.822780609 12434822.995140076 0 12434822.995140076 -2896348.0613632202 0 0 0 0 -27515439.362503052 16204539.851379395 0 16204539.851379395 -3475352.8628158569 0 0 0 0 -23011720.80957222 11113472.407886505 0 11113472.407886505 -468784.98550415039 0 0 0 0 -29791897.383374691 19922100.322431564 0 19922100.322431564 1937566.990020752 0 0 0 0 -36548036.145469666 19555247.808639526 0 19555247.808639526 8043906.2267417908 0 0 0 0 -44795611.213661194 6945038.3937072754 0 6945038.3937072754 6243807.4095458984 0 0 0 0 -39030352.474336624 9139383.1831378937 0 9139383.1831378937 640045.20520019531 0 0 0 0 -50780990.070304871 -6539101.5084381104 0 -6539101.5084381104 4960483.1598856449 0 0 0 0 -36781493.873409271 -1970172.4547138214 0 -1970172.4547138214 3008051.1098327637 0 0 0 0 -74158976.975128174 3574008.2978057861 0 3574008.2978057861 14115950.041900635 0 0 0 0 -44745658.886051178 8900543.9806671143 0 8900543.9806671143 14881975.497009277 0 0 0 0 -53942343.973083496 17861320.023376465 0 17861320.023376465 7957138.5823669434 0 0 0 0 -65449885.239908218 22442456.172527313 0 22442456.172527313 19575626.10055542 0 0 0 0 -44709523.494861603 26454530.775558472 0 26454530.775558472 13909744.601806641 0 0 0 0 -36509160.59220314 -1162736.045917511 0 -1162736.045917511 1873006.1782531738 0 0 0 0 311698102.19193816 305404430.52914953 0 305404430.52914953 313937427.71617126 0 0 0 0 -568839472.72626495 -280438401.64851379 0 -280438401.64851379 644631389.23242188 0 0 0 0 695611.63901637308 -2044947.5550550763 0 -2044947.5550550763 1512833.80413872 0 0 0 0 313986165.69599915 -547089121.48040771 0 -547089121.48040771 -646246532.11518288 0 0 0 0 185036319.23564529 -337218874.98519135 0 -337218874.98519135 500145642.47927856 0 0 0 0 105931899.01118851 165032273.62177277 0 165032273.62177277 668681691.60813904 0 0 0 0 102766725.80969238 83711505.676933289 0 83711505.676933289 254095823.94007111 0 0 0 0 88426421.914581299 46001903.82219696 0 46001903.82219696 183913820.6683197 0 0 0 0 63715417.350345612 96893792.129882812 0 96893792.129882812 116013712.94150543 0 0 0 0 47047352.412978768 104822450.44911695 0 104822450.44911695 244834732.59693909 0 0 0 0 127941411.97708511 127887518.3682251 0 127887518.3682251 192432961.3476181 0 0 0 0 153588624.52871704 207654764.9356842 0 207654764.9356842 365328879.19064331 0 0 0 0 125044387.97269011 89017478.35562706 0 89017478.35562706 235457649.56344604 0 0 0 0 323709133.17371273 187230842.30865002 0 187230842.30865002 102195278.76287842 0 0 0 0 215891624.04988098 178496104.80021667 0 178496104.80021667 139893893.28277588 0 0 0 0 82935108.74823761 133802074.868927 0 133802074.868927 207444662.19999695 0 0 0 0 98188110.119888306 108957037.75579834 0 108957037.75579834 87884063.17276001 0 0 0 0 107913197.58061981 126427029.97584534 0 126427029.97584534 119192765.74450684 0 0 0 0 261704155.84884262 107248482.45108795 0 107248482.45108795 53140883.697143555 0 0 0 0 124233309.47451782 57210053.62538147 0 57210053.62538147 41264499.976593018 0 0 0 0 233812071.79738617 84489351.787139893 0 84489351.787139893 36020526.859256744 0 0 0 0 -28958133.521472931 134820745.96690369 0 134820745.96690369 121944022.22416687 0 0 0 0 20777991.11243391 160967707.38996029 0 160967707.38996029 118457689.67347717 0 0 0 0 35758455.938816071 112329062.41312408 0 112329062.41312408 112593032.57382393 0 0 0 0 53881826.945327759 139244748.59616852 0 139244748.59616852 152565655.60722351 0 0 0 0 80219713.925201416 117642661.29197311 0 117642661.29197311 138054152.96014404 0 0 0 0 42486041.155682564 103068327.27401352 0 103068327.27401352 126891097.81860352 0 0 0 0 -32678232.621608734 24488980.402702332 0 24488980.402702332 122842133.94496155 0 0 0 0 34943739.727169037 96428802.92905426 0 96428802.92905426 191410687.0579834 0 0 0 0 46404456.041836321 86722706.976017594 0 86722706.976017594 174830435.20448303 0 0 0 0 25827904.450845718 79172203.960861206 0 79172203.960861206 179023332.459198 0 0 0 0 58833093.768274307 64051040.203296661 0 64051040.203296661 72609066.035614014 0 0 0 0 1027252.2409362793 118302055.90321732 0 118302055.90321732 30327180.44536972 0 0 0 0 -2254825.0290431976 126637736.96551514 0 126637736.96551514 163307710.88458824 0 0 0 0 -123958638.45412064 90639143.39383316 0 90639143.39383316 24130920.833187103 0 0 0 0 -346266.49485499598 1728874.1640481516 0 1728874.1640481516 839357.20854406804 0 0 0 0 12432619.081840515 98311403.118682861 0 98311403.118682861 51201497.770503998 0 0 0 0 -106935327.05082893 122903463.84817886 0 122903463.84817886 98624990.15838623 0 0 0 0 -45491626.640324593 69456255.586538315 0 69456255.586538315 37407947.733795166 0 0 0 0 -72130393.993055344 182534204.49085617 0 182534204.49085617 114300965.15451431 0 0 0 0 -27798675.636826098 158274500.27491355 0 158274500.27491355 107722320.9214325 0 0 0 0 152057652.53991604 26885348.02097702 0 26885348.02097702 -23940167.530536652 0 0 0 0 24478.941399217154 6217600.6348165236 0 6217600.6348165236 -5206710.9286462367 0 0 0 0 73487677.134524345 64969733.482688904 0 64969733.482688904 12552134.084686279 0 0 0 0 16299674.610891342 114662024.70821762 0 114662024.70821762 -7187254.3235549927 0 0 0 0 18669822.225349426 30971311.603103638 0 30971311.603103638 16865690.625137329 0 0 0 0 155789414.18847656 38441432.285865784 0 38441432.285865784 13700510.830438614 0 0 0 0 170816325.38503075 88777849.487323761 0 88777849.487323761 37484191.375728607 0 0 0 0 -94766.603304488061 5563993.2117963126 0 5563993.2117963126 -3197852.4127072617 0 0 0 0 247660406.67592731 85233679.891144276 0 85233679.891144276 11211585.443206787 0 0 0 0 47026418.852145195 133504871.18605804 0 133504871.18605804 56801130.517250061 0 0 0 0 187589269.09798527 132187555.64874363 0 132187555.64874363 54750542.595962524 0 0 0 0 483029740.71578312 134595223.51880646 0 134595223.51880646 -11898407.087276459 0 0 0 0 -250949.1972312943 4487613.5713187288 0 4487613.5713187288 -1214691.16172833 0 0 0 0 -85084315.785228729 162300442.71585846 0 162300442.71585846 128844903.37830353 0 0 0 0 -52184650.11120224 162211645.98669434 0 162211645.98669434 117341429.90673828 0 0 0 0 -52508275.194803953 162542613.10455227 0 162542613.10455227 128131653.17524719 0 0 0 0 -34717305.273403168 165526990.93064117 0 165526990.93064117 123729422.23291016 0 0 0 0 -28497171.859489441 157248042.78897858 0 157248042.78897858 118118466.64549255 0 0 0 0 25591308.254624367 221518945.7749176 0 221518945.7749176 112885618.9888916 0 0 0 0 3253357.4677810669 183070131.71121216 0 183070131.71121216 121195322.7380724 0 0 0 0 -155985186.21875381 154163146.5111618 0 154163146.5111618 132250212.71318817 0 0 0 0 -51081366.877212524 170796331.33723068 0 170796331.33723068 123289150.44052124 0 0 0 0 -107997016.99319744 124733209.32288933 0 124733209.32288933 124979147.14985657 0 0 0 0 -279283762.99516678 60081790.748779297 0 60081790.748779297 123641723.17861938 0 0 0 0 -18134749.551100731 214433087.73360825 0 214433087.73360825 109639666.73279572 0 0 0 0 -187408266.08923769 221947535.85935974 0 221947535.85935974 163661775.48742676 0 0 0 0 -307195033.83687401 127587231.34262848 0 127587231.34262848 144337577.7070713 0 0 0 0 -4125952.0835208893 313854172.83157539 0 313854172.83157539 -16828831.32976532 0 0 0 0 -681769500.04271698 108422033.33499908 0 108422033.33499908 78789981.648609161 0 0 0 0 -365262989.26574039 -63310267.623559952 0 -63310267.623559952 58981478.874298096 0 0 0 0 -660440618.52497232 -341756826.56872869 0 -341756826.56872869 -143878920.86541748 0 0 0 0 -275797020.30112648 127238160.36861038 0 127238160.36861038 57579843.290985107 0 0 0 0 354159529.50606346 109674656.79270554 0 109674656.79270554 96943056.752586365 0 0 0 0 305637786.14999866 299130682.36454391 0 299130682.36454391 7935308.1250915527 0 0 0 0 18835596.037036896 236748540.47849655 0 236748540.47849655 204230107.76517105 0 0 0 0 -294620.89573529264 2734789.4658754906 0 2734789.4658754906 -276973.62976123393 0 0 0 0 965924655.12816811 224525715.46327209 0 224525715.46327209 -94202208.196460724 0 0 0 0 561265819.5024128 212982211.66126633 0 212982211.66126633 205469418.72579956 0 0 0 0 554356527.29282522 372376638.89452696 0 372376638.89452696 -120147005.32406616 0 0 0 0 25497433.221357346 410702241.18143845 0 410702241.18143845 122366429.52516174 0 0 0 0 283790263.32017422 72493790.268413544 0 72493790.268413544 -77342843.673446655 0 0 0 0 1657124621.5975266 181640945.76653671 0 181640945.76653671 -271413503.39636612 0 0 0 0 740641817.05357552 522084386.35042381 0 522084386.35042381 530342.58112335205 0 0 0 0 -285781.97462750663 1045329.3279913915 0 1045329.3279913915 -63609.336766093969 0 0 0 0 -759078029.17595863 -60977859.879714966 0 -60977859.879714966 55813320.758132935 0 0 0 0 -1034021700.3570042 -224672066.51385689 0 -224672066.51385689 -31333568.711257935 0 0 0 0 -1739180.9796243287 2660252.8999057095 0 2660252.8999057095 484047.2798326984 0 0 0 0 32038230.303750992 37565911.05381012 0 37565911.05381012 13581696.736122131 0 0 0 0 -750482971.21079659 36129507.938234329 0 36129507.938234329 5983995.1737976074 0 0 0 0 -125119.64115993865 216837.26523058489 0 216837.26523058489 355255.1933917217 0 0 0 0 -437433450.51655197 46084319.710731506 0 46084319.710731506 -135573414.34638214 0 0 0 0 -520498430.61733055 313358284.83460236 0 313358284.83460236 157644959.77770233 0 0 0 0 -80441700.524362564 197455502.08796692 0 197455502.08796692 -1623296.6854476929 0 0 0 0 -335961806.13680553 473153049.05717468 0 473153049.05717468 -700870.66640472412 0 0 0 0 -1332896857.2327328 187264475.0632019 0 187264475.0632019 113527470.86656237 0 0 0 0 -687344173.67895603 431231979.0160408 0 431231979.0160408 103542540.80117798 0 0 0 0 -474924.36855572648 856667.23053619545 0 856667.23053619545 122008.88450247794 0 0 0 0 51456063.296762943 39376691.622158051 0 39376691.622158051 32952.607719421387 0 0 0 0 -1687207296.901288 -352900166.26003838 0 -352900166.26003838 115555571.83930969 0 0 0 0 16957805.186208725 28167198.119529724 0 28167198.119529724 17818551.319824219 0 0 0 0 14745856.87566185 18943451.645812988 0 18943451.645812988 10294643.749099731 0 0 0 0 -16950328.762588501 49659450.560001373 0 49659450.560001373 -70097.647085292047 0 0 0 0 -70958070.858260155 8604577.3225212097 0 8604577.3225212097 21791349.942077637 0 0 0 0 -3750149.13017869 27482141.837091446 0 27482141.837091446 21568355.208190918 0 0 0 0 -8553283.7468190193 32176130.1693573 0 32176130.1693573 31912136.412307739 0 0 0 0 26889887.71764183 29177693.837875366 0 29177693.837875366 9076112.6493272781 0 0 0 0 -43531622.080402374 26863287.349567413 0 26863287.349567413 19912672.844360352 0 0 0 0 -4966023.8350530183 7714111.4040996283 0 7714111.4040996283 -3326942.0346566439 0 0 0 0 -255697737.44451141 -80745602.422172546 0 -80745602.422172546 4221438.237487793 0 0 0 0 -2097108.4502233737 -2223473.2432937738 0 -2223473.2432937738 9644902.4089037292 0 0 0 0 -19027322.110720634 -24323467.983877659 0 -24323467.983877659 -2392198.5417327881 0 0 0 0 6109195.706788063 15952085.118740082 0 15952085.118740082 -19194086.606498718 0 0 0 0 4951245.7931623459 19592789.99973774 0 19592789.99973774 22521111.718658447 0 0 0 0 -12588053.39339447 6598224.2896728516 0 6598224.2896728516 81159459.288866043 0 0 0 0 -150638829.31664658 8768505.8664360046 0 8768505.8664360046 24511669.006416321 0 0 0 0 -101383478.63783836 53172900.957645416 0 53172900.957645416 59936634.908500671 0 0 0 0 -10020054.73361969 10614280.057235718 0 10614280.057235718 9828607.7500686646 0 0 0 0 -46568475.953950882 13077581.197027206 0 13077581.197027206 29188633.855651855 0 0 0 0 -1017754.6377957531 1484288.5676044107 0 1484288.5676044107 499067.44498287141 0 0 0 0 32335771.391326904 3021304.1998138428 0 3021304.1998138428 47460151.953407288 0 0 0 0 30837010.014858246 9732679.7284393311 0 9732679.7284393311 2737748.2686767578 0 0 0 0 -4814330.375450057 8292195.5705101341 0 8292195.5705101341 -3700589.3263222463 0 0 0 0 24358859.139137268 36624420.635154724 0 36624420.635154724 14187335.333404541 0 0 0 0 43438437.955421448 18603835.425163269 0 18603835.425163269 22532381.506988525 0 0 0 0 -19421027.027252197 10452700.59438324 0 10452700.59438324 29393929.215221405 0 0 0 0 -3655176.3044688082 1353565.7574137165 0 1353565.7574137165 7018686.9117908329 0 0 0 0 -4323247.6300675869 3848241.8572349548 0 3848241.8572349548 2118134.9167327881 0 0 0 0 -1012154.4986393452 1693713.0508918762 0 1693713.0508918762 3505396.6493148804 0 0 0 0 -2612060.9758923054 3482344.9442329407 0 3482344.9442329407 6131273.5310821533 0 0 0 0 -1788137.3022023956 -31912.739180101082 0 -31912.739180101082 4333031.9035756439 0 0 0 0 -27698937.517789841 -5939637.4439201355 0 -5939637.4439201355 12588568.153274536 0 0 0 0 -20302558.121570587 -5665973.6197319031 0 -5665973.6197319031 8973471.4710617065 0 0 0 0 -49413690.838381886 -31679747.744346619 0 -31679747.744346619 -16506599.399200439 0 0 0 0 -961168.74546506058 1406269.2901814193 0 1406269.2901814193 539182.78290388733 0 0 0 0 785330.23345571058 1989377.9813008718 0 1989377.9813008718 649614.95496765152 0 0 0 0 514326.04822158813 2523439.9355163574 0 2523439.9355163574 2300.5957336425781 0 0 0 0 -2099296.2151181698 1809050.0540275574 0 1809050.0540275574 9054755.286277771 0 0 0 0 -387820.27745541686 3057000.9834028706 0 3057000.9834028706 349492.49463701248 0 0 0 0 205592.15847113729 3422270.3055953979 0 3422270.3055953979 3953051.100479126 0 0 0 0 3154278.9805641174 8456166.1560974121 0 8456166.1560974121 5146.3951873779297 0 0 0 0 -2321660.820803321 3443311.1355006322 0 3443311.1355006322 -116467.16319284961 0 0 0 0 -11777696.154967546 -635613.81941413879 0 -635613.81941413879 8505131.3686904907 0 0 0 0 3413015.5125923157 3103385.1854553223 0 3103385.1854553223 1352.5080124815843 0 0 0 0 1204046.4064570998 1409252.4549976662 0 1409252.4549976662 -1214434.1903155576 0 0 0 0 -14215749.236032486 -1199053.7721176147 0 -1199053.7721176147 10773009.027297974 0 0 0 0 -2875150.2035367489 -1184407.151714325 0 -1184407.151714325 2437783.0876922607 0 0 0 0 -5585898.358042717 3639798.8513946533 0 3639798.8513946533 17122807.849199295 0 0 0 0 427881.46725094318 3518508.1068668365 0 3518508.1068668365 4399323.6203460693 0 0 0 0 -2667857.2959461212 4018153.8379554749 0 4018153.8379554749 4360220.9425582886 0 0 0 0 -8129732.0939912796 5221058.7057342529 0 5221058.7057342529 2338.1315460205078 0 0 0 0 -12475591.69407177 6849523.8023033142 0 6849523.8023033142 2043259.6748046875 0 0 0 0 2274524.2744102478 5638858.1980895996 0 5638858.1980895996 -4931927.2196960449 0 0 0 0 13604113.840914249 6807772.7226066589 0 6807772.7226066589 -9691717.8621902466 0 0 0 0 648079.77502236841 767201.01022066921 0 767201.01022066921 -660681.25251718424 0 0 0 0 -7978558.3771495819 3948075.4477386475 0 3948075.4477386475 2858422.492515564 0 0 0 0 -167516.99705505371 631343.62985229492 0 631343.62985229492 2302880.7182617188 0 0 0 0 -736972.21353781223 5452846.1599903107 0 5452846.1599903107 -1859796.4825897217 0 0 0 0 -4254199.7103316803 3864295.5124545991 0 3864295.5124545991 11179.287775019184 0 0 0 0 -10728925.283983231 13576699.903018951 0 13576699.903018951 14874099.877388 0 0 0 0 -4618127.9852082729 9541020.8844394684 0 9541020.8844394684 2364288.6060028076 0 0 0 0 -18208738.322069168 4715084.5548744202 0 4715084.5548744202 1307290.1105880737 0 0 0 0 -6271784.809262705 4149756.9632531367 0 4149756.9632531367 920449.69287952594 0 0 0 0 -1836254.7514333725 4041427.1405563354 0 4041427.1405563354 -1699855.8648681641 0 0 0 0 594702.2557349205 4406390.6279258728 0 4406390.6279258728 -2861158.7390518188 0 0 0 0 2884662.8706765175 5965654.1135559082 0 5965654.1135559082 -2665484.5511627197 0 0 0 0 -365769.63654011843 440414.85547212139 0 440414.85547212139 200514.72070165724 0 0 0 0 -4550745.2237625122 7127509.8256492615 0 7127509.8256492615 -1586254.7237529755 0 0 0 0 -1335750.27702783 1756448.7057132972 0 1756448.7057132972 814476.03169810772 0 0 0 0 -8596227.5078185797 2407405.8207969666 0 2407405.8207969666 3822308.8535308838 0 0 0 0 -19530996.596469879 -3245385.3551979065 0 -3245385.3551979065 8455697.4501495361 0 0 0 0 -5010070.3088439088 2764551.168709565 0 2764551.168709565 4292350.6958622746 0 0 0 0 -19398404.39748738 4614954.4976671636 0 4614954.4976671636 1141675.9162368774 0 0 0 0 -2582268.056820631 2627875.1725883484 0 2627875.1725883484 1067132.0017242432 0 0 0 0 -5701918.7392272949 9459280.5011863708 0 9459280.5011863708 -5064446.6029815674 0 0 0 0 -21700625.244363904 3952345.7101860046 0 3952345.7101860046 2803114.458480835 0 0 0 0 -7089544.599922061 3751747.9904384613 0 3751747.9904384613 4151276.1832199097 0 0 0 0 -6251942.8251700401 3345270.5409851074 0 3345270.5409851074 2378849.9127044678 0 0 0 0 -2796990.3946926594 6097747.5576133728 0 6097747.5576133728 -832327.17338752747 0 0 0 0 -2472104.8390669823 5017302.6351394653 0 5017302.6351394653 2603980.7626113892 0 0 0 0 -4602827.3097620867 4252941.977378238 0 4252941.977378238 671456.60913383961 0 0 0 0 35683122.405067444 25010986.595405579 0 25010986.595405579 11887728.403359413 0 0 0 0 -18904660.145270348 41966390.30604744 0 41966390.30604744 132487305.80516052 0 0 0 0 -74233.912091080099 1698165.4319109786 0 1698165.4319109786 -763550.67040203884 0 0 0 0 -11324131.491461754 19678433.873954773 0 19678433.873954773 3593689.7288970947 0 0 0 0 62716845.398639679 82190213.920200348 0 82190213.920200348 110424947.8071785 0 0 0 0 -12860532.316177368 77958708.075958252 0 77958708.075958252 262783303.54273605 0 0 0 0 -39932727.759615898 71510154.867580414 0 71510154.867580414 240563873.8964653 0 0 0 0 -24827571.228086472 96188399.08657074 0 96188399.08657074 166568721.90220451 0 0 0 0 8530713.4379291534 64797695.866165161 0 64797695.866165161 76505928.16847229 0 0 0 0 54364869.52672267 7361196.8404750824 0 7361196.8404750824 139833010.79385376 0 0 0 0 -26326637.576316833 50334567.70980072 0 50334567.70980072 171720398.06483459 0 0 0 0 -30084150.52324295 19873314.450202942 0 19873314.450202942 131927219.29156494 0 0 0 0 -3948559.1637420654 1461169.8801116943 0 1461169.8801116943 56146960.997192383 0 0 0 0 -14587345.772483826 24576751.068351746 0 24576751.068351746 33872180.749313354 0 0 0 0 -5398021.6689577103 5263291.9591178894 0 5263291.9591178894 4958035.7629928589 0 0 0 0 12332429.513143063 -14180286.51513195 0 -14180286.51513195 52044500.762870789 0 0 0 0 -3465417.6278234981 3976157.8083566036 0 3976157.8083566036 115174.58986289799 0 0 0 0 3905727.2071113586 14813457.599060059 0 14813457.599060059 13574709.123428345 0 0 0 0 -272897.06067101285 107896.44567944482 0 107896.44567944482 -2678.8922501504421 0 0 0 0 -3881966.616194725 1717667.5310440063 0 1717667.5310440063 3470792.2024765015 0 0 0 0 -1962455.7851810455 841522.77244186401 0 841522.77244186401 1186730.8170776367 0 0 0 0 -747892.6296517849 1700042.197052002 0 1700042.197052002 2752989.5861434937 0 0 0 0 -2960509.1287612687 1602321.9443952069 0 1602321.9443952069 1165706.8123545684 0 0 0 0 -2844674.6460026074 -323586.60696624289 0 -323586.60696624289 3548737.8733016551 0 0 0 0 13395865.499847412 -9295785.4088745117 0 -9295785.4088745117 33573117.277938843 0 0 0 0 -2908002.6687601325 1095581.9388399236 0 1095581.9388399236 1828381.0126264021 0 0 0 0 -30836143.973628044 -1956233.2258262634 0 -1956233.2258262634 9392878.8613433838 0 0 0 0 -29743962.097806513 5583443.7173032761 0 5583443.7173032761 -2218305.59034729 0 0 0 0 -26182958.650686264 10031199.379322052 0 10031199.379322052 -136987.52251052856 0 0 0 0 -40142805.182596445 16078936.285749435 0 16078936.285749435 -2587869.1423034668 0 0 0 0 -361158.28263672441 -264040.71843283251 0 -264040.71843283251 649130.07559710182 0 0 0 0 -32807769.250483513 3025613.9407997131 0 3025613.9407997131 -3583522.2309875488 0 0 0 0 -881646.87132552103 -150822.72291563009 0 -150822.72291563009 693265.88163180649 0 0 0 0 116568585.02800274 148092609.72498131 0 148092609.72498131 61324067.497848511 0 0 0 0 30188232.431369781 17744517.49394989 0 17744517.49394989 44440472.696334839 0 0 0 0 92958234.075052261 77879834.360549927 0 77879834.360549927 100111742.38723755 0 0 0 0 22839498.315273285 52858395.703414917 0 52858395.703414917 114449572.53930664 0 0 0 0 -31023294.976053238 117881285.07254791 0 117881285.07254791 105430004.70093536 0 0 0 0 307237481.03065109 146628937.73930931 0 146628937.73930931 -26386730.586807251 0 0 0 0 19862054.623858929 195053302.31526947 0 195053302.31526947 73482517.386199951 0 0 0 0 108117839.90138054 -96022598.162536621 0 -96022598.162536621 -80658887.14812088 0 0 0 0 -32260471.279787064 142294713.29179764 0 142294713.29179764 38784970.25920105 0 0 0 0 -73563.058340217103 -387311.2977371919 0 -387311.2977371919 -30576.085032716393 0 0 0 0 -98306865.866029739 2152584.1937828064 0 2152584.1937828064 13619026.701847076 0 0 0 0 -50422066.024063781 19328903.678330839 0 19328903.678330839 -4827165.1791687012 0 0 0 0 -50324532.990369797 2793467.0540084839 0 2793467.0540084839 -556452.93521881104 0 0 0 0 30051344.302511215 94958242.569377899 0 94958242.569377899 53007194.236339569 0 0 0 0 -73824943.357270718 31448801.252029419 0 31448801.252029419 17208912.208328247 0 0 0 0 -16291825.768894196 37757175.954864502 0 37757175.954864502 73879306.994903564 0 0 0 0 35468299.233314514 61822882.019760132 0 61822882.019760132 128222886.5951004 0 0 0 0 42869895.592632294 53612426.461788177 0 53612426.461788177 47868484.028701782 0 0 0 0 -26069993.864723206 48423075.346946716 0 48423075.346946716 57848391.855072021 0 0 0 0 -20922074.215759754 80009489.336651802 0 80009489.336651802 22624479.742553711 0 0 0 0 -21744814.167175293 64669533.001548767 0 64669533.001548767 2347977.3129272461 0 0 0 0 -25699386.261499405 80920875.989204407 0 80920875.989204407 -1017034.7215538025 0 0 0 0 -28818131.545238495 54622401.439117432 0 54622401.439117432 15311926.406356812 0 0 0 0 -24748562.684902191 64200255.42490387 0 64200255.42490387 27376208.044906616 0 0 0 0 -30631999.284542084 63520655.291419983 0 63520655.291419983 11725077.351737976 0 0 0 0 -41618863.859867096 48375728.429367065 0 48375728.429367065 26367563.630447388 0 0 0 0 -40684239.388778687 45460136.31136322 0 45460136.31136322 19517934.783950806 0 0 0 0 -48745002.473439217 36711752.991495132 0 36711752.991495132 12228395.582382202 0 0 0 0 -27240453.332145691 41632249.49571228 0 41632249.49571228 5450322.2283554077 0 0 0 0 -27593818.364599228 33827455.177991867 0 33827455.177991867 -1181117.1961975098 0 0 0 0 -8941606.6010856628 49530022.198577881 0 49530022.198577881 -6814426.4313201904 0 0 0 0 -26971913.470865846 50072027.194992423 0 50072027.194992423 -6166790.9515533447 0 0 0 0 -9161650.3173246384 62600448.574081421 0 62600448.574081421 -56340832.486938477 0 0 0 0 -17115172.550128937 37974738.302703857 0 37974738.302703857 -12688188.15864563 0 0 0 0 -12450989.879928827 24888988.839012146 0 24888988.839012146 -18187008.063262939 0 0 0 0 -7974930.0011310577 12640631.052658081 0 12640631.052658081 -2646847.4378356934 0 0 0 0 -1162557.175113678 17536632.86505127 0 17536632.86505127 -44679921.300445557 0 0 0 0 29568377.450777054 33352084.317855835 0 33352084.317855835 -179332471.54197693 0 0 0 0 114007.627370161 803392.33831374533 0 803392.33831374533 -457909.26114123315 0 0 0 0 979780.78956317902 141079651.03931427 0 141079651.03931427 -93748870.115280151 0 0 0 0 5903069.2731198967 7138491.4189853668 0 7138491.4189853668 -3181162.7700080872 0 0 0 0 25528133.730307579 22261809.70341301 0 22261809.70341301 1041397.6208343506 0 0 0 0 23871347.104237556 25555531.596721649 0 25555531.596721649 -4894939.1801486015 0 0 0 0 35890930.560858727 32080300.542358398 0 32080300.542358398 -4518619.1540153027 0 0 0 0 -3242545.5131793916 20488213.891597748 0 20488213.891597748 60915910.851287842 0 0 0 0 -515594.68856996798 -1327028.8299079817 0 -1327028.8299079817 784985.09411643445 0 0 0 0 -69764699.82326889 31690653.163646698 0 31690653.163646698 3995413.6437320709 0 0 0 0 -2933803.2794543505 17362062.059150696 0 17362062.059150696 -13246737.687847137 0 0 0 0 -10605671.17294693 15369784.783123016 0 15369784.783123016 -428116.8988494873 0 0 0 0 -46310932.724396467 19832269.411319733 0 19832269.411319733 13690493.749233246 0 0 0 0 -35602744.607369408 11835474.354362965 0 11835474.354362965 -7133103.7480926514 0 0 0 0 -34772453.446762085 22833762.807552338 0 22833762.807552338 -6236234.599899292 0 0 0 0 -509950.51952794974 -1327857.5982819963 0 -1327857.5982819963 719074.09582474828 0 0 0 0 -20218244.149667144 35755044.13521719 0 35755044.13521719 11953306.305389404 0 0 0 0 -45080722.686284065 10008138.5522995 0 10008138.5522995 -7012592.5005919933 0 0 0 0 -65108870.0572896 18121147.005392075 0 18121147.005392075 -136546.20617675781 0 0 0 0 -44511906.267067909 14529810.194908142 0 14529810.194908142 -1153624.5202941895 0 0 0 0 -42928457.250787735 8034857.6407852173 0 8034857.6407852173 -10246633.506546021 0 0 0 0 -43147616.658412457 9876476.0559120178 0 9876476.0559120178 7564276.7600479126 0 0 0 0 -269933.77661546762 -723963.89012102131 0 -723963.89012102131 350182.67260389775 0 0 0 0 -81656567.732598543 16549636.158956528 0 16549636.158956528 15356784.816932678 0 0 0 0 65915834.776082993 37580758.334762573 0 37580758.334762573 -9002657.1456012726 0 0 0 0 13848232.696903884 39472978.119060516 0 39472978.119060516 -4727774.5191364288 0 0 0 0 -2146876.106021483 116354.71419916861 0 116354.71419916861 796068.37097311765 0 0 0 0 22714464.264844179 21978729.487430573 0 21978729.487430573 3524811.6688842773 0 0 0 0 -39524484.854676664 2044911.4442968369 0 2044911.4442968369 -1587512.4509506226 0 0 0 0 6825802.7283270359 5724191.8311233521 0 5724191.8311233521 -40892591.477916718 0 0 0 0 2411361.5722000771 143518.46873636544 0 143518.46873636544 -1908189.923303131 0 0 0 0 -1711022.6522136927 67108562.303897858 0 67108562.303897858 4154147.0380172729 0 0 0 0 -2053096.7150454521 -10730839.073246002 0 -10730839.073246002 -14075898.222842216 0 0 0 0 -8144599.6798838247 10158496.094016233 0 10158496.094016233 -1943142.6461262014 0 0 0 0 -39920588.529533863 7539901.6188001633 0 7539901.6188001633 17985400.354564667 0 0 0 0 -4488411.659173727 31789925.072593689 0 31789925.072593689 -24083457.23575592 0 0 0 0 -35229175.269501686 9262392.5679321289 0 9262392.5679321289 12113601.036376953 0 0 0 0 -32385499.035599709 29920861.058906555 0 29920861.058906555 15824619.939964294 0 0 0 0 18903951.110954523 26263858.757053375 0 26263858.757053375 2124056.5312538147 0 0 0 0 -12358273.787101077 12735168.110133231 0 12735168.110133231 -1686235.8736495972 0 0 0 0 -5503746.4500073176 5388770.6447089016 0 5388770.6447089016 3394950.4926337823 0 0 0 0 -12537454.514250755 16997652.558231354 0 16997652.558231354 10482400.163657665 0 0 0 0 -8834137.7415561676 6519238.2710189819 0 6519238.2710189819 -1262471.41381073 0 0 0 0 -5916602.3413562775 9347666.2082824707 0 9347666.2082824707 -10119292.518501282 0 0 0 0 -8175107.6531891832 9561799.2859574873 0 9561799.2859574873 -799878.45738255233 0 0 0 0 -2140552.5439046561 1336928.9277554527 0 1336928.9277554527 -653230.59705769271 0 0 0 0 -9173870.1920251846 12518190.595813751 0 12518190.595813751 6001754.9102783203 0 0 0 0 -6213025.1200008392 12494318.683494568 0 12494318.683494568 -7932256.8187141418 0 0 0 0 -8983508.7220745087 5633260.1600341797 0 5633260.1600341797 1479630.4441986084 0 0 0 0 -9073792.7739028931 7130141.5337524414 0 7130141.5337524414 9989.3998220660742 0 0 0 0 -10731427.102873802 7783351.0011024475 0 7783351.0011024475 -23311.452453613281 0 0 0 0 -7191275.6062469482 11638715.69348526 0 11638715.69348526 -342426.82167053223 0 0 0 0 -6871019.3542366028 11706806.328449249 0 11706806.328449249 -1186023.0096702576 0 0 0 0 -7524186.9208602905 10170704.059009552 0 10170704.059009552 -4463375.2116394043 0 0 0 0 -9206233.7654829025 14715289.866828918 0 14715289.866828918 -3991.4358139038086 0 0 0 0 -7089656.0159702301 13782736.06268692 0 13782736.06268692 -245970.25620269775 0 0 0 0 -6188874.8528664559 14702783.989039481 0 14702783.989039481 -2269218.8942260742 0 0 0 0 -6745840.8520030975 13793247.261249542 0 13793247.261249542 -762361.06411743164 0 0 0 0 -6465863.3811044693 13300628.680847168 0 13300628.680847168 10036.962875366211 0 0 0 0 -5885271.6868553162 13853948.860450745 0 13853948.860450745 516953.87355804443 0 0 0 0 -7173232.3113603592 11875448.644179344 0 11875448.644179344 1692407.6409454346 0 0 0 0 -8780196.5944232941 10121315.570053101 0 10121315.570053101 -78186.881332397461 0 0 0 0 22102550.946451187 15699110.90737915 0 15699110.90737915 -16666163.12399292 0 0 0 0 -429828.38032248989 2336688.613037575 0 2336688.613037575 -2652457.6007890105 0 0 0 0 -11818225.81624794 15349396.337223053 0 15349396.337223053 4353712.0732154846 0 0 0 0 -2379992.6137952805 20990696.20849514 0 20990696.20849514 6304296.7399673462 0 0 0 0 -4432934.1205177307 7385833.6338653564 0 7385833.6338653564 -2700874.8937454224 0 0 0 0 9960762.8363723755 17382336.058494568 0 17382336.058494568 -12378.750152587891 0 0 0 0 -21877166.230514526 9226369.7080078125 0 9226369.7080078125 -754287.43758773804 0 0 0 0 -20237104.202642441 15097215.784519196 0 15097215.784519196 7669.7342529296875 0 0 0 0 -21815011.408114627 24196408.831864968 0 24196408.831864968 -9255509.4886932373 0 0 0 0 269472.74206264876 440129.7424743548 0 440129.7424743548 35810.090163163841 0 0 0 0 -6707837.420085907 -2820702.2050285339 0 -2820702.2050285339 810159.64112854004 0 0 0 0 -17530304.132427216 31133013.043960571 0 31133013.043960571 -4984373.9850158691 0 0 0 0 -25760152.019001007 23673437.50025177 0 23673437.50025177 3194568.7672729492 0 0 0 0 -19537261.589096069 4638418.3414993286 0 4638418.3414993286 7988416.9013977051 0 0 0 0 1844260.4435844421 31256154.824455261 0 31256154.824455261 -14993652.333969116 0 0 0 0 1089426.5948936287 11573657.251602434 0 11573657.251602434 -6046492.1926763803 0 0 0 0 1144637.5917949677 11814621.295982361 0 11814621.295982361 -16632380.067939758 0 0 0 0 -505003.26622009277 13626036.824905396 0 13626036.824905396 -10426462.46446991 0 0 0 0 -5471884.0786514282 26504536.103271484 0 26504536.103271484 -4323098.4309101105 0 0 0 0 6915764.0325050354 19409046.501289368 0 19409046.501289368 -6909157.7001800537 0 0 0 0 -3776612.1603927612 8430971.6253967285 0 8430971.6253967285 1813372.9716672897 0 0 0 0 -13206.387419056147 144309.55183157325 0 144309.55183157325 276885.15496666264 0 0 0 0 -15311174.679191589 17067546.310348511 0 17067546.310348511 7349123.9918518066 0 0 0 0 -446317.08278656006 11735362.68547821 0 11735362.68547821 3087139.6012573242 0 0 0 0 -1391226.7738682535 4353369.8469866719 0 4353369.8469866719 -6720401.2454233244 0 0 0 0 -27116569.910066605 16124741.5405159 0 16124741.5405159 73968774.470741272 0 0 0 0 13654724.362398148 -14764803.985439301 0 -14764803.985439301 69816723.598999023 0 0 0 0 6787792.1889753342 35758682.126831055 0 35758682.126831055 21993751.616165161 0 0 0 0 19040837.687995911 6268558.285774231 0 6268558.285774231 -26262089.833950043 0 0 0 0 990574.18706478179 1087126.7452217992 0 1087126.7452217992 -3229892.7312622182 0 0 0 0 7500893.6556549072 -17490191.222679138 0 -17490191.222679138 60359925.723190308 0 0 0 0 -2459781.0336589813 4202831.4910774231 0 4202831.4910774231 14403011.044204712 0 0 0 0 -5283494.4986457825 24826931.062934875 0 24826931.062934875 7730083.30717659 0 0 0 0 -2573671.0393981934 2299710.9391784668 0 2299710.9391784668 9602417.5781936646 0 0 0 0 7216921.4527978897 1816894.2026367188 0 1816894.2026367188 -7622865.845123291 0 0 0 0 -14666235.534610748 10413718.328804016 0 10413718.328804016 7528877.4746170044 0 0 0 0 -3025944.5663951077 6705555.5536603145 0 6705555.5536603145 -88351.702898290008 0 0 0 0 2743646.1050271988 11209614.685207367 0 11209614.685207367 -17254454.382972717 0 0 0 0 -7910690.5822055805 11220925.117279574 0 11220925.117279574 -2250380.0413203845 0 0 0 0 -3793921.1427915096 27158961.070585251 0 27158961.070585251 -2568815.265083313 0 0 0 0 -1240319.637960095 8977783.7946886234 0 8977783.7946886234 -3078346.6008094028 0 0 0 0 1211244.0419202335 12394474.520542763 0 12394474.520542763 -6018121.345100387 0 0 0 0 3934544.2205123901 18954022.636859894 0 18954022.636859894 -14108633.726707458 0 0 0 0 9060.6630260385573 1011662.8247328401 0 1011662.8247328401 -100545.36458535772 0 0 0 0 49042095.512199402 40480766.343025208 0 40480766.343025208 22565820.346801758 0 0 0 0 -8974899.3627471924 -1541504.5804367065 0 -1541504.5804367065 7064895.5866928101 0 0 0 0 76135301.204236299 7261478.5042229295 0 7261478.5042229295 4238450.119178772 0 0 0 0 -2128738.8064918332 542932.91629193351 0 542932.91629193351 1675134.7222486213 0 0 0 0 9447613.0288047791 -13757623.068512917 0 -13757623.068512917 -2232811.5422058105 0 0 0 0 -7101882.7279434204 21493526.831016541 0 21493526.831016541 -1194.1445666943318 0 0 0 0 -2425750.1174240112 -3871442.0601501465 0 -3871442.0601501465 -7246217.6741027832 0 0 0 0 -2488778.4751396179 -3751759.8658828735 0 -3751759.8658828735 -6059815.739654541 0 0 0 0 -2509749.6049079895 -4089580.5446090698 0 -4089580.5446090698 -7149011.8150787354 0 0 0 0 -1749022.8622435499 648283.26565043256 0 648283.26565043256 1075794.5849268325 0 0 0 0 1139061.3034095764 -2113196.8840484619 0 -2113196.8840484619 -2750210.4681396484 0 0 0 0 2074080.8956718445 8420735.6298942566 0 8420735.6298942566 -8495561.8533611298 0 0 0 0 -8417194.309589386 7915904.6932220459 0 7915904.6932220459 -17865.54052734375 0 0 0 0 -2199998.1274043377 514430.12524278462 0 514430.12524278462 1450706.8680430353 0 0 0 0 -12042535.391067505 13026260.631774902 0 13026260.631774902 -6881861.8285751343 0 0 0 0 -11738652.841873169 13973844.010818481 0 13973844.010818481 -4002517.3166503906 0 0 0 0 -1954380.2811279297 5186968.1823730469 0 5186968.1823730469 -7151570.3540184498 0 0 0 0 -5159073.5529289246 14289440.860023499 0 14289440.860023499 -26858153.966705322 0 0 0 0 -1802207.5123404767 642734.03351245448 0 642734.03351245448 852693.27088578045 0 0 0 0 1472271.764237877 2360073.8249928169 0 2360073.8249928169 -2326206.3797306307 0 0 0 0 -1887125.7837259732 2786649.4314783085 0 2786649.4314783085 -627069.53412277251 0 0 0 0 -2117647.0521392822 -3301466.9152832031 0 -3301466.9152832031 -9472598.0805206299 0 0 0 0 1257746.6674613953 1364397.8865280151 0 1364397.8865280151 -20190158.559692383 0 0 0 0 -2208624.9852905273 1012624.4306106567 0 1012624.4306106567 -13070079.11415863 0 0 0 0 194512.46286773682 2262619.0934524536 0 2262619.0934524536 -2666891.7949752808 0 0 0 0 -109355.90913671255 1733516.4458488002 0 1733516.4458488002 -2510628.933752751 0 0 0 0 133878.20851250924 9188188.9399486184 0 9188188.9399486184 -2786441.9505595472 0 0 0 0 1549667.3657531738 1198063.8099365234 0 1198063.8099365234 -32214599.780971527 0 0 0 0 993580.31968329847 9512193.5894304141 0 9512193.5894304141 -3594164.6457596393 0 0 0 0 -2765787.2869148254 29373994.022705078 0 29373994.022705078 60782462.658958435 0 0 0 0 -771689.78439331055 2782716.921836853 0 2782716.921836853 -27036849.247543335 0 0 0 0 -789021.11361694336 1391874.2991638184 0 1391874.2991638184 -29133032.92225647 0 0 0 0 1632476.4383087158 -1777371.494354248 0 -1777371.494354248 -20781794.19744873 0 0 0 0 -2172796.3008923233 5349881.801739037 0 5349881.801739037 -27038642.93711853 0 0 0 0 1942276.2128753662 -2045269.4281158447 0 -2045269.4281158447 -20880333.138397217 0 0 0 0 -355138.53329725936 6653.5585431139916 0 6653.5585431139916 448758.15985316038 0 0 0 0 975959.29339599609 -5022841.2821350098 0 -5022841.2821350098 8624008.7954101562 0 0 0 0 -375039.30233855546 3843505.9347468689 0 3843505.9347468689 -2580003.4020283083 0 0 0 0 -839845.09313964844 7777816.5224609375 0 7777816.5224609375 2656397.2911376953 0 0 0 0 951320.06854248047 -3322334.6381072998 0 -3322334.6381072998 -22889246.793441772 0 0 0 0 1054607.8741658889 1522115.348335728 0 1522115.348335728 -1976021.0724100992 0 0 0 0 1024769.3938293457 745954.85218811035 0 745954.85218811035 -4694821.0522537231 0 0 0 0 -1370979.0215110779 457869.38799285889 0 457869.38799285889 -28017787.851135254 0 0 0 0 -2461799.8813247681 1842144.3024291992 0 1842144.3024291992 -28266239.042648315 0 0 0 0 118324.19239288568 1824978.1192612462 0 1824978.1192612462 -559226.67301806295 0 0 0 0 -2265198.7761077881 939106.25854492188 0 939106.25854492188 -29073441.599226952 0 0 0 0 -2698377.3484096527 1634066.9868011475 0 1634066.9868011475 -28359408.744018555 0 0 0 0 1744035.9111020267 9450597.0285621881 0 9450597.0285621881 -3843238.5785469785 0 0 0 0 -3199256.2072582245 -2331458.3504619598 0 -2331458.3504619598 -38715021.878005981 0 0 0 0 1166430.7975678444 -18044.377128601074 0 -18044.377128601074 -1594804.9568557739 0 0 0 0 -540235.94651031494 18869024.338411331 0 18869024.338411331 24348939.891296387 0 0 0 0 2675696.7824401855 14395440.569854736 0 14395440.569854736 8993192.7543029785 0 0 0 0 -3663387.2587585449 23897396.432388306 0 23897396.432388306 20596717.010871887 0 0 0 0 2101681.7666740417 32159765.100078583 0 32159765.100078583 31950554.044685364 0 0 0 0 11671702.956123352 27576242.631492615 0 27576242.631492615 7134515.2630004883 0 0 0 0 3944604.933713913 16281576.121177673 0 16281576.121177673 11702861.337493896 0 0 0 0 11898994.452198029 13986707.165054321 0 13986707.165054321 4245177.6017227173 0 0 0 0 7909237.3867149353 2210587.9935684204 0 2210587.9935684204 -16021011.958519936 0 0 0 0 -832915.94542694092 48430973.01889801 0 48430973.01889801 -5719554.0185394287 0 0 0 0 -39334142.292991638 -2594120.8745574951 0 -2594120.8745574951 59779493.482803345 0 0 0 0 1013923.215335317 591929.73370045424 0 591929.73370045424 -719282.18112331256 0 0 0 0 -55450273.388713837 13364328.002555847 0 13364328.002555847 4785499.8814544678 0 0 0 0 -37639162.424567223 -17278594.237288475 0 -17278594.237288475 -9634235.7223510742 0 0 0 0 -11828367.083271027 11226639.556034088 0 11226639.556034088 4886575.8405914307 0 0 0 0 -29476121.19890976 -1593950.1074333191 0 -1593950.1074333191 18933209.232833862 0 0 0 0 -3842083.1688697301 4239681.8590413127 0 4239681.8590413127 2430995.6145071033 0 0 0 0 -986192.4545249939 4434175.2148742676 0 4434175.2148742676 3380350.3263626099 0 0 0 0 -2353705.2633113861 1390221.4710464478 0 1390221.4710464478 2145474.5631027222 0 0 0 0 -17032516.055438995 4815820.2719650269 0 4815820.2719650269 33158113.674339294 0 0 0 0 2603772.9442138672 2163643.6966018677 0 2163643.6966018677 19285810.216117859 0 0 0 0 -5355710.9502012283 3080652.1720648445 0 3080652.1720648445 3090726.8648319868 0 0 0 0 -7620139.1467137337 585771.16595172882 0 585771.16595172882 3395463.5620422363 0 0 0 0 -13896146.095153809 -8710238.1497840881 0 -8710238.1497840881 29992137.949203491 0 0 0 0 -4395089.4480247498 2528156.8706054688 0 2528156.8706054688 2497210.5956192017 0 0 0 0 5455640.7817993164 -5260676.7539825439 0 -5260676.7539825439 21935507.401046753 0 0 0 0 -9293297.2257537842 1023190.1939926147 0 1023190.1939926147 20043709.028133392 0 0 0 0 -4287954.3061141968 -274137.89287567139 0 -274137.89287567139 -4118667.943862915 0 0 0 0 -342819.19931983948 10301579.0826931 0 10301579.0826931 11899195.149429321 0 0 0 0 366431.70220565796 -6987028.2654075623 0 -6987028.2654075623 7975932.9346313477 0 0 0 0 2637948.8523750305 6002773.6199302673 0 6002773.6199302673 1906790.8218193054 0 0 0 0 768204.4303971529 1240069.9655796699 0 1240069.9655796699 384942.07410204411 0 0 0 0 -1302606.784203317 7548461.5620881766 0 7548461.5620881766 2205591.8892023005 0 0 0 0 -4931013.6295000212 2167726.9035397656 0 2167726.9035397656 3851127.8548082635 0 0 0 0 -2783461.1462879181 9362824.1222200394 0 9362824.1222200394 4843224.3115386963 0 0 0 0 -2776470.0806427002 1316921.9002609253 0 1316921.9002609253 23738060.097885132 0 0 0 0 6788246.944152832 3964652.7207946777 0 3964652.7207946777 -9336589.8262863159 0 0 0 0 -206166.21386258909 371305.85848389193 0 371305.85848389193 95101.579604841769 0 0 0 0 130060.90641816705 244609.7045051679 0 244609.7045051679 -424486.47841298021 0 0 0 0 -465161.59301376343 3876105.5350532532 0 3876105.5350532532 7431911.1029615402 0 0 0 0 571629.66167449951 1464044.6001281738 0 1464044.6001281738 -5799671.9437446594 0 0 0 0 116762.80570768379 1849229.7695382498 0 1849229.7695382498 1972303.8933878131 0 0 0 0 -6742519.3956069946 9724745.2914123535 0 9724745.2914123535 15675995.058197021 0 0 0 0 -1446749.3352426216 5064175.9166129008 0 5064175.9166129008 915280.4283165019 0 0 0 0 904773.23713302612 10503754.316343307 0 10503754.316343307 9411023.1325759888 0 0 0 0 2076489.0948448181 -16986172.763961792 0 -16986172.763961792 14791480.981356621 0 0 0 0 -14457933.550258636 -3551206.0215606689 0 -3551206.0215606689 10593773.27192688 0 0 0 0 -24845348.136692047 -1687436.8912124634 0 -1687436.8912124634 16668341.052686691 0 0 0 0 -7217054.1193561554 2026002.3446731567 0 2026002.3446731567 9742389.3969364166 0 0 0 0 10954439.296741486 -7948786.8224143982 0 -7948786.8224143982 7857434.9783782959 0 0 0 0 -2787471.54662323 2225628.9337081909 0 2225628.9337081909 2555596.1585769653 0 0 0 0 -2580888.5717445798 3842511.7597135305 0 3842511.7597135305 -1026563.6367431283 0 0 0 0 15109347.622238159 -15707185.403533936 0 -15707185.403533936 15573662.287635803 0 0 0 0 3504853.0827112198 -11003147.810417175 0 -11003147.810417175 24207921.295379639 0 0 0 0 566682.6413192749 14785732.625076294 0 14785732.625076294 9713687.5782985687 0 0 0 0 44726043.383829117 12914379.236337662 0 12914379.236337662 9398369.5751419067 0 0 0 0 13245244.583360434 11096780.434463978 0 11096780.434463978 2371388.2193908691 0 0 0 0 -14180197.383678436 9165747.0752182007 0 9165747.0752182007 67086828.543935776 0 0 0 0 -13900004.252412796 -17043269.113185883 0 -17043269.113185883 -3122909.5402832031 0 0 0 0 9865631.4037055969 25303483.98254776 0 25303483.98254776 -52696095.836494446 0 0 0 0 -26947472.857807159 43715295.422386169 0 43715295.422386169 -24897906.862701416 0 0 0 0 10624897.214095831 10948944.351001501 0 10948944.351001501 -6257727.2958068848 0 0 0 0 5050093.7858390808 6629383.3707923889 0 6629383.3707923889 5079334.3394470215 0 0 0 0 -5491324.8577651978 15497815.827476501 0 15497815.827476501 2763280.7350530624 0 0 0 0 6283672.9995346069 23575555.79095459 0 23575555.79095459 -27978493.74105835 0 0 0 0 8479710.0438690186 32485819.360649109 0 32485819.360649109 -28939183.99816227 0 0 0 0 -86285.795227050781 42462054.443252563 0 42462054.443252563 -37582764.109283447 0 0 0 0 -40302900.207874298 31907335.573669434 0 31907335.573669434 -4852767.2808876038 0 0 0 0 13671.798467356712 -34868.075378786772 0 -34868.075378786772 -400045.89248735458 0 0 0 0 17225766.300960541 8407150.2611570358 0 8407150.2611570358 -9702406.0135192871 0 0 0 0 14258468.147490501 23344858.062020302 0 23344858.062020302 -37689705.692443848 0 0 0 0 27123516.556159973 -110412949.24221802 0 -110412949.24221802 74685250.200447083 0 0 0 0 -4769341.9124603271 22177911.686721802 0 22177911.686721802 -6684234.2497711182 0 0 0 0 4018180.4537811279 20060735.874023438 0 20060735.874023438 -8164916.5347747803 0 0 0 0 3530479.0470924377 30505524.168792725 0 30505524.168792725 -27666675.105361938 0 0 0 0 -766887.88903808594 10003464.227401733 0 10003464.227401733 22499168.611785889 0 0 0 0 -19494979.573104858 12145705.152839661 0 12145705.152839661 18292670.395904541 0 0 0 0 908051.4090461731 10166881.128387451 0 10166881.128387451 18340069.656682372 0 0 0 0 -1690892.6693891119 -333459.55660162866 0 -333459.55660162866 460719.02405700088 0 0 0 0 -3414827.1959991455 22390057.919128418 0 22390057.919128418 23257036.071779728 0 0 0 0 -480814.50694847107 -10016148.538295746 0 -10016148.538295746 6557331.9917297363 0 0 0 0 -6398382.0710212775 7699163.1313688532 0 7699163.1313688532 2305013.2429226078 0 0 0 0 -1007627.9003753662 4539200.2755355835 0 4539200.2755355835 7117140.9685211182 0 0 0 0 -1518897.395885447 2584620.2228889465 0 2584620.2228889465 243643.25095500052 0 0 0 0 1628444.7682685852 4808799.6081848145 0 4808799.6081848145 5258541.3672714233 0 0 0 0 -3966236.2584671304 -220819.82570755854 0 -220819.82570755854 459909.58331667632 0 0 0 0 5478550.9739074707 13912074.108459473 0 13912074.108459473 2508862.4207611084 0 0 0 0 2957231.4686961174 11208211.161659241 0 11208211.161659241 -13682047.270271301 0 0 0 0 -4157614.8893167805 3889259.4552753251 0 3889259.4552753251 -1690917.6439444982 0 0 0 0 -20418653.686393738 26110766.501686096 0 26110766.501686096 -20216458.892822266 0 0 0 0 7896574.401614666 11444300.144960403 0 11444300.144960403 -4582730.9786682129 0 0 0 0 7764923.1477928162 4815762.1920166016 0 4815762.1920166016 6878650.9124526978 0 0 0 0 787169.17531343969 572832.54007105529 0 572832.54007105529 -540542.05463002622 0 0 0 0 1824634.6079821996 7735034.1419588216 0 7735034.1419588216 110565.71588997915 0 0 0 0 -5055540.9868092537 13598086.996765137 0 13598086.996765137 1834311.2051239014 0 0 0 0 1375688.3915967941 17692933.397193909 0 17692933.397193909 -7830501.1265869141 0 0 0 0 -1197470.9352217759 3963016.9004320577 0 3963016.9004320577 1047801.6868764302 0 0 0 0 -1605997.7174136639 8878899.0815010071 0 8878899.0815010071 6286798.9722671509 0 0 0 0 -2261993.4596304893 11025250.362861633 0 11025250.362861633 6909434.6670379639 0 0 0 0 -45391219.108421326 82153528.826889038 0 82153528.826889038 -93585968.320526123 0 0 0 0 -3353067.5126674529 3756645.0585733987 0 3756645.0585733987 -1734646.4586695805 0 0 0 0 233386.55800008774 16975426.477626801 0 16975426.477626801 15469593.998983383 0 0 0 0 33943491.071833372 15090506.285400391 0 15090506.285400391 -26581970.135066986 0 0 0 0 727831.79834604263 6982348.762714386 0 6982348.762714386 -6938293.41796875 0 0 0 0 -4558698.5899288058 18124867.07412529 0 18124867.07412529 122878429.0663147 0 0 0 0 -374076.72753539216 1287656.6695629954 0 1287656.6695629954 368118.2815440204 0 0 0 0 8354735.3073570132 27349377.580961227 0 27349377.580961227 73825276.897544861 0 0 0 0 11621779.341417789 34217343.24389267 0 34217343.24389267 59007662.762336731 0 0 0 0 -3246227.8338336945 28036837.229801178 0 28036837.229801178 73403977.89390564 0 0 0 0 2545890.9693508148 34589915.937217712 0 34589915.937217712 52018907.532287598 0 0 0 0 -5089989.5843758583 21026088.340324402 0 21026088.340324402 49567856.67918396 0 0 0 0 -4080595.6257009506 3993403.6742324829 0 3993403.6742324829 63475268.467956543 0 0 0 0 -312693.78790235519 11099529.881820679 0 11099529.881820679 39826852.274009705 0 0 0 0 -5656821.2408313751 11189889.94052887 0 11189889.94052887 45729867.822250366 0 0 0 0 -6451852.0049939156 6779501.0820674896 0 6779501.0820674896 26808262.269866943 0 0 0 0 -3941934.059677124 21866690.565811157 0 21866690.565811157 47249353.656871796 0 0 0 0 1111063.663977623 6831549.8972930908 0 6831549.8972930908 6011556.6943206787 0 0 0 0 -2579961.0225677397 2231619.3598680757 0 2231619.3598680757 729621.91927484423 0 0 0 0 -802674.88622475509 -270636.20254926197 0 -270636.20254926197 152986.89506181329 0 0 0 0 511412.64858436584 4632731.637008667 0 4632731.637008667 11388518.679626465 0 0 0 0 3929138.9808444977 15847488.243385315 0 15847488.243385315 23665804.884223938 0 0 0 0 -6650339.3690681458 13020080.32926178 0 13020080.32926178 39619668.258331299 0 0 0 0 -3550235.7041816711 19147104.661659241 0 19147104.661659241 40869832.441160202 0 0 0 0 -3259568.878988266 19294288.724449158 0 19294288.724449158 36027163.357635498 0 0 0 0 -4513372.8843612671 20531703.119194031 0 20531703.119194031 34913346.530334473 0 0 0 0 3661887.6868232489 21929486.503369331 0 21929486.503369331 34229754.876754761 0 0 0 0 -4809404.4078483582 23362409.984008789 0 23362409.984008789 38439601.357727051 0 0 0 0 -2843436.1936159134 20048485.829532623 0 20048485.829532623 33169689.545471191 0 0 0 0 -3554162.4749174118 24325405.213726044 0 24325405.213726044 42863559.868972778 0 0 0 0 -3966948.6789951324 22953468.509723663 0 22953468.509723663 38612519.667663574 0 0 0 0 -2281028.3195228577 27560508.840011597 0 27560508.840011597 39121255.693161011 0 0 0 0 -2966703.7647590637 27354223.528106689 0 27354223.528106689 40495019.607696533 0 0 0 0 -4649205.8797340393 24092446.281097412 0 24092446.281097412 46136555.234477997 0 0 0 0 -5212701.8913154602 19501159.949996948 0 19501159.949996948 41085562.402359009 0 0 0 0 -5741086.0075740814 20837768.161445618 0 20837768.161445618 47079131.769897461 0 0 0 0 -3586798.3682899475 29846508.649711609 0 29846508.649711609 47218342.004161835 0 0 0 0 -5572606.3104791641 23689431.909622192 0 23689431.909622192 46347581.770294189 0 0 0 0 -5203828.5423927307 24767004.140739441 0 24767004.140739441 54790459.46862793 0 0 0 0 -1492578.5335454941 31233672.652755737 0 31233672.652755737 42707560.704864502 0 0 0 0 -1416248.6581258774 32253387.721520185 0 32253387.721520185 50788895.707931519 0 0 0 0 -2105391.5888595581 30973976.760848999 0 30973976.760848999 42637684.360748291 0 0 0 0 -3213831.3039746284 29988798.806314468 0 29988798.806314468 37971618.07460022 0 0 0 0 -4171390.0218839645 27865462.828678131 0 27865462.828678131 40505331.584350586 0 0 0 0 -3217783.7083320618 29619200.961151123 0 29619200.961151123 41854269.770477295 0 0 0 0 -2119120.9280433655 31173018.904197693 0 31173018.904197693 39923586.203109741 0 0 0 0 1885648.7401103973 31176903.488136292 0 31176903.488136292 29989333.145774841 0 0 0 0 -3944297.9618148804 28265969.342655182 0 28265969.342655182 37588707.012310028 0 0 0 0 4082242.500259161 35992996.965203285 0 35992996.965203285 35772010.016189575 0 0 0 0 4069096.2330207825 35832421.555358887 0 35832421.555358887 37869426.478279114 0 0 0 0 -4469793.3484848142 25318977.846967697 0 25318977.846967697 42369315.762435913 0 0 0 0 24422040.810862541 48337958.806503296 0 48337958.806503296 28098705.699325562 0 0 0 0 -1677131.8020221626 6910279.7711711749 0 6910279.7711711749 3070762.8299284279 0 0 0 0 3004790.0575643778 37104366.154140472 0 37104366.154140472 53707989.496772766 0 0 0 0 7452077.6961109638 39952389.479141235 0 39952389.479141235 50844801.737571716 0 0 0 0 10941119.828837529 33851606.034107685 0 33851606.034107685 54631798.159225464 0 0 0 0 10011062.579118252 39943492.254489422 0 39943492.254489422 51586625.783737183 0 0 0 0 5907405.9248199463 39339912.175895691 0 39339912.175895691 52099191.830787659 0 0 0 0 5794507.8542156219 40526724.426185608 0 40526724.426185608 42384778.222335815 0 0 0 0 2250775.3852739334 34538396.59223175 0 34538396.59223175 59710923.430156708 0 0 0 0 -3547919.3291244507 5355489.8369178772 0 5355489.8369178772 5590328.2052612305 0 0 0 0 -4735546.5166168213 8059613.4295873642 0 8059613.4295873642 7729366.4498825073 0 0 0 0 -4404886.67395401 15380700.027606964 0 15380700.027606964 22375287.781326294 0 0 0 0 6695327.5612373352 4037507.8961715698 0 4037507.8961715698 14583007.659072876 0 0 0 0 231681.2123465538 10678505.86183691 0 10678505.86183691 7881607.1739654541 0 0 0 0 1167259.6696653366 5408985.5871076584 0 5408985.5871076584 4538575.9274597168 0 0 0 0 1857811.803150177 3733689.4922504425 0 3733689.4922504425 -3618506.4720611572 0 0 0 0 -921201.3226776123 7288937.1156158447 0 7288937.1156158447 12367394.731414795 0 0 0 0 1641450.0369720459 19694074.734306335 0 19694074.734306335 13408415.001419067 0 0 0 0 6055133.2271080017 16926886.208049774 0 16926886.208049774 2758171.301361084 0 0 0 0 -4054977.9757704735 1365355.3523588181 0 1365355.3523588181 2578654.8391571045 0 0 0 0 -9354655.1375236511 1249566.4486732483 0 1249566.4486732483 5819225.514251709 0 0 0 0 -5915445.3367465744 1028483.4821723029 0 1028483.4821723029 3111337.5017260611 0 0 0 0 -4121841.0511665344 6548802.9141769409 0 6548802.9141769409 6580414.610824585 0 0 0 0 -10436122.682178497 -9483613.8984451294 0 -9483613.8984451294 3111293.3871479034 0 0 0 0 12953582.246780396 26134897.465240479 0 26134897.465240479 16174122.280902863 0 0 0 0 7371496.7601394653 13571860.762535095 0 13571860.762535095 11311963.602535248 0 0 0 0 -23097016.42376709 256787.47064971924 0 256787.47064971924 5085419.9250564575 0 0 0 0 9852247.866809845 19456794.271978378 0 19456794.271978378 23396098.888259888 0 0 0 0 -602144.4043526547 -409665.30928054452 0 -409665.30928054452 -191480.94436295331 0 0 0 0 -1144778.0966858249 3535019.7946324348 0 3535019.7946324348 2344351.4651427791 0 0 0 0 -2271865.1149349213 1904706.47448349 0 1904706.47448349 1014219.7604598999 0 0 0 0 -2788336.8128852844 3820063.763504982 0 3820063.763504982 4488887.750793457 0 0 0 0 -616989.37309971359 2365773.5379741676 0 2365773.5379741676 975305.99637306109 0 0 0 0 -2949800.1234538108 371853.38690207899 0 371853.38690207899 433286.66323233023 0 0 0 0 -17625464.654701233 1535331.0650634766 0 1535331.0650634766 17866474.314041138 0 0 0 0 333648.61096954346 2939479.5284118652 0 2939479.5284118652 8166137.6292572021 0 0 0 0 6056322.4047470093 9250749.3175811768 0 9250749.3175811768 5749608.2718658447 0 0 0 0 -2368199.5863676108 546254.23681304976 0 546254.23681304976 221822.29693370312 0 0 0 0 905245.77368164062 10469175.660018921 0 10469175.660018921 20658441.909347534 0 0 0 0 -11920399.248111725 16391053.488792419 0 16391053.488792419 34882505.375152588 0 0 0 0 -1349316.611032486 21037690.484481812 0 21037690.484481812 33709495.748641968 0 0 0 0 6115493.1709938049 17737954.004104614 0 17737954.004104614 23037633.696533203 0 0 0 0 3807494.7343063354 19125645.987121582 0 19125645.987121582 25446945.882659912 0 0 0 0 5633892.5056943893 17242668.370910645 0 17242668.370910645 26387684.113845825 0 0 0 0 5903321.7382240295 20657170.303894043 0 20657170.303894043 25236965.301528931 0 0 0 0 6754370.1620178223 24716522.187911987 0 24716522.187911987 23636354.030258179 0 0 0 0 1157735.9636459351 25185370.934860229 0 25185370.934860229 31629621.145210266 0 0 0 0 5815307.737575531 31077638.969139099 0 31077638.969139099 32747480.089261055 0 0 0 0 4116279.0337543488 27652622.055809021 0 27652622.055809021 33202922.594467163 0 0 0 0 5703463.4451265335 30398888.458377838 0 30398888.458377838 30054633.131484985 0 0 0 0 450234.68477630615 33076717.918067932 0 33076717.918067932 40333456.497116089 0 0 0 0 1395886.5261039734 37393013.79561615 0 37393013.79561615 46509956.81930542 0 0 0 0 -4924971.8605537415 30959612.33557415 0 30959612.33557415 40742870.541259766 0 0 0 0 74087284.79445076 31912824.535499573 0 31912824.535499573 24275331.643165588 0 0 0 0 19125307.255012512 25586581.014419556 0 25586581.014419556 24499183.937088013 0 0 0 0 21809315.484436035 27695431.763408661 0 27695431.763408661 24611612.577178955 0 0 0 0 16730381.063964844 27808935.661773682 0 27808935.661773682 26742279.28011322 0 0 0 0 19414707.496631622 38612513.773345947 0 38612513.773345947 33730473.946357727 0 0 0 0 12527739.85855484 29900382.145484924 0 29900382.145484924 28123891.054916382 0 0 0 0 11889276.033616304 22609967.266616821 0 22609967.266616821 22012487.84715271 0 0 0 0 27922549.173807144 18849712.892810822 0 18849712.892810822 15745813.334991455 0 0 0 0 -3249392.2201910503 -3433308.549502451 0 -3433308.549502451 2109966.5258559138 0 0 0 0 -18882635.924216032 -2139735.8357591629 0 -2139735.8357591629 9283472.8163375854 0 0 0 0 -6007991.5810735598 5090459.9889342524 0 5090459.9889342524 6043511.7800871208 0 0 0 0 15965650.066790104 24646198.882019043 0 24646198.882019043 25855798.210067749 0 0 0 0 -775907.58725701389 -1572675.1485496582 0 -1572675.1485496582 602604.33587788045 0 0 0 0 -13558217.63973999 -14668219.160163879 0 -14668219.160163879 1977300.7035162449 0 0 0 0 -15706312.429632187 -11112942.220375061 0 -11112942.220375061 25952363.337799072 0 0 0 0 -7351905.9621086121 -1051199.1123733521 0 -1051199.1123733521 1920969.3389793932 0 0 0 0 -9550708.7503008842 8340160.2123622894 0 8340160.2123622894 17950703.463973999 0 0 0 0 1507612.3205299377 5125524.3402347565 0 5125524.3402347565 -8612709.4913520813 0 0 0 0 -239954.83038711548 -298561.81646442413 0 -298561.81646442413 -26485528.066631317 0 0 0 0 4328951.2832890637 13395684.542504417 0 13395684.542504417 6431830.9859015942 0 0 0 0 3260962.4533843994 875948.77305030823 0 875948.77305030823 -48711803.587373734 0 0 0 0 4312065.4287525937 1897947.936356287 0 1897947.936356287 -9749054.7644352764 0 0 0 0 10924105.702901818 9038589.4207600616 0 9038589.4207600616 -16886420.307693318 0 0 0 0 -108066152.20853414 -7334719.7514663935 0 -7334719.7514663935 268977959.05834961 0 0 0 0 -108735050.34174538 73067036.772266388 0 73067036.772266388 31098348.717178345 0 0 0 0 2970608.6779999919 15498607.287057258 0 15498607.287057258 4180136.1730720699 0 0 0 0 -2091583.8305835724 12646787.055530548 0 12646787.055530548 -8158061.6773796082 0 0 0 0 135034970.43352222 105406064.00833321 0 105406064.00833321 42948417.836685181 0 0 0 0 579604.89960479736 -27016166.460426331 0 -27016166.460426331 10495820.330184937 0 0 0 0 -55234355.587303162 -114441856.74142456 0 -114441856.74142456 437109495.32322693 0 0 0 0 -5406367.5819988251 15869260.636312485 0 15869260.636312485 -8920424.6763968468 0 0 0 0 -7107578.5888442993 13945012.457859039 0 13945012.457859039 2885276.8715133667 0 0 0 0 -192648.75175261311 2336997.1424111966 0 2336997.1424111966 -2578954.2912413348 0 0 0 0 5142635.7251315219 12835265.216854084 0 12835265.216854084 2553622.1190734617 0 0 0 0 222441761.97077179 370853690.31767273 0 370853690.31767273 -529057477.17842102 0 0 0 0 1530381.2460861206 4564332.8321380615 0 4564332.8321380615 -12411792.553222656 0 0 0 0 5233140.2270597424 15213301.228353396 0 15213301.228353396 517648.79050056019 0 0 0 0 -1854314.9885210879 8871730.4191758335 0 8871730.4191758335 6804268.1058260184 0 0 0 0 58577464.087181091 7233296.5102157593 0 7233296.5102157593 -65697173.046607971 0 0 0 0 -13494050.978927612 2073015.7118606567 0 2073015.7118606567 -42589843.756667614 0 0 0 0 3796213.2000034265 16473459.873662695 0 16473459.873662695 3447006.1849318687 0 0 0 0 -56814.470696821809 663798.95512688905 0 663798.95512688905 -806872.13212215388 0 0 0 0 -6699786.9501228333 12695800.309103012 0 12695800.309103012 25836274.700214386 0 0 0 0 -3228810.8047142029 13449764.412826538 0 13449764.412826538 -395101.79965591431 0 0 0 0 -865714.75012969971 8192377.9298019409 0 8192377.9298019409 6670351.2717838287 0 0 0 0 4465530.8173408508 58714294.877487183 0 58714294.877487183 71335109.197006226 0 0 0 0 47897057.899737358 -34773205.888832092 0 -34773205.888832092 -42631899.960754395 0 0 0 0 -28066816.29057312 21949241.857128143 0 21949241.857128143 3249349.9230918884 0 0 0 0 1149020.1517381668 21772736.311107635 0 21772736.311107635 21021922.180137634 0 0 0 0 -16549508.988233566 21101720.967651367 0 21101720.967651367 41489015.114011765 0 0 0 0 4960732.2493524924 14491400.157750178 0 14491400.157750178 -2090191.8943365365 0 0 0 0 -5061715.3427505493 20176452.120491028 0 20176452.120491028 9394713.5087471008 0 0 0 0 -3960709.769408226 22367253.573360443 0 22367253.573360443 674366.17499542236 0 0 0 0 -788431.47919416428 16542037.530594349 0 16542037.530594349 139408.3763885498 0 0 0 0 -382158.18461608887 13604495.190761566 0 13604495.190761566 4008637.6513328552 0 0 0 0 -597856.36264276505 17741763.458266497 0 17741763.458266497 -469280.71661376953 0 0 0 0 -478799.63023550436 7633862.8905111346 0 7633862.8905111346 3132999.8178263498 0 0 0 0 -356012.23080825806 17005296.863290787 0 17005296.863290787 -4047373.4594154358 0 0 0 0 -1531169.6195411682 16038703.680316925 0 16038703.680316925 -2183115.9046058655 0 0 0 0 2210539.8299928419 10907153.540716676 0 10907153.540716676 7013206.4345519077 0 0 0 0 -243213495.35012817 126049048.52934837 0 126049048.52934837 3009300.9951553345 0 0 0 0 -208675956.43777466 51949995.972553253 0 51949995.972553253 -100361227.83380127 0 0 0 0 -90063432.880119324 105313351.99457455 0 105313351.99457455 -89822029.875268936 0 0 0 0 -682703.75831271708 1337460.5925605339 0 1337460.5925605339 1113394.6128076194 0 0 0 0 -2636223.2931666374 19481155.604577541 0 19481155.604577541 -3697688.8308258057 0 0 0 0 -2202600.4994983673 13263589.531618118 0 13263589.531618118 -3235237.8334083557 0 0 0 0 -1464606.2728157043 17075880.004417419 0 17075880.004417419 4342391.2064228058 0 0 0 0 163536265.00615692 198064277.88047028 0 198064277.88047028 -182440248.41872406 0 0 0 0 207219212.66913891 147645938.97254658 0 147645938.97254658 10300566.470153809 0 0 0 0 251059544.68084717 -62294254.541168213 0 -62294254.541168213 -21589151.586647034 0 0 0 0 -284068480.60726166 -56391907.303419113 0 -56391907.303419113 219291292.51689911 0 0 0 0 -284599977.32849121 78694678.310152054 0 78694678.310152054 131803420.56098175 0 0 0 0 -106567024.23449707 -288795158.30204391 0 -288795158.30204391 296588560.05466652 0 0 0 0 9459214.577545166 -4390419.372713089 0 -4390419.372713089 -10408381.563957214 0 0 0 0 286469.92754364014 69063358.6749897 0 69063358.6749897 -60340507.069545746 0 0 0 0 -67968919.639572144 40882624.870567322 0 40882624.870567322 -11372553.617954254 0 0 0 0 -65577193.394851685 71840990.871082306 0 71840990.871082306 -64141297.925415039 0 0 0 0 -140450323.245224 109395439.39834976 0 109395439.39834976 -78795070.553535461 0 0 0 0 -45946400.154808044 49165415.323289871 0 49165415.323289871 -27580639.631534576 0 0 0 0 -57313019.172904968 16650461.856231689 0 16650461.856231689 -112789848.31664848 0 0 0 0 33531373.242950439 65375826.710666656 0 65375826.710666656 -34957870.09569931 0 0 0 0 10747669.506759644 22465763.010080338 0 22465763.010080338 -68592495.44032383 0 0 0 0 65199372.784303665 87892909.826827288 0 87892909.826827288 -23698060.784133911 0 0 0 0 75964193.386077881 39066814.802274704 0 39066814.802274704 -59124908.725498199 0 0 0 0 11329539.969090462 23081428.167004824 0 23081428.167004824 -20394440.507255554 0 0 0 0 72400185.513244629 81670081.687843323 0 81670081.687843323 -19550641.776340485 0 0 0 0 78982259.949920654 115163122.43215179 0 115163122.43215179 15939924.129283905 0 0 0 0 81749981.513420105 85305503.167783737 0 85305503.167783737 -43952880.603981018 0 0 0 0 52623417.406814575 84157812.408974648 0 84157812.408974648 -8291182.4359836578 0 0 0 0 61393263.814033508 74835694.432662964 0 74835694.432662964 -29070024.54634285 0 0 0 0 45380455.587860107 59774803.852731705 0 59774803.852731705 -41611803.840763092 0 0 0 0 68241868.872581482 62445414.206272125 0 62445414.206272125 -19267366.562641621 0 0 0 0 39516335.842618942 66376814.801520824 0 66376814.801520824 -19299351.856327057 0 0 0 0 31574364.682102203 52546172.007955551 0 52546172.007955551 13466659.935464859 0 0 0 0 -9474232.5204124451 17832332.90343821 0 17832332.90343821 -14769996.330917358 0 0 0 0 9738530.4582901001 28508811.940763474 0 28508811.940763474 -43492815.136481285 0 0 0 0 -16391187.740219116 59958129.238253593 0 59958129.238253593 51291612.90666151 0 0 0 0 26386417.718593597 108243433.47117424 0 108243433.47117424 84245018.630060196 0 0 0 0 1020717.2224402651 753339.14878371684 0 753339.14878371684 -2655122.3280021902 0 0 0 0 -25894948.550495148 41279700.561824799 0 41279700.561824799 37032592.437407494 0 0 0 0 27572456.008595467 52377302.187709808 0 52377302.187709808 24502479.010398865 0 0 0 0 1043640.2589466805 17643435.482709266 0 17643435.482709266 -5010945.2260924345 0 0 0 0 -7427808.3914403915 35011075.953810692 0 35011075.953810692 20139897.529829025 0 0 0 0 -920678.46921787597 15132383.750833565 0 15132383.750833565 -3157914.6445395891 0 0 0 0 6866433.8332600351 14760716.995875206 0 14760716.995875206 -6694396.7358338889 0 0 0 0 13876331.897737503 31503092.427547455 0 31503092.427547455 7944016.9655838013 0 0 0 0 11050141.551702499 15368191.248273849 0 15368191.248273849 10520517.840549469 0 0 0 0 2748545.5601501465 25967106.583267212 0 25967106.583267212 30199164.193876743 0 0 0 0 12687387.464312553 14093717.513073921 0 14093717.513073921 -1629626.7121582031 0 0 0 0 8204179.8110542297 20415543.0545578 0 20415543.0545578 -4256161.3987579346 0 0 0 0 2398863.15467453 17122359.296661377 0 17122359.296661377 1168879.600112915 0 0 0 0 9861361.110080719 10515083.250009537 0 10515083.250009537 3556017.5654258728 0 0 0 0 11532602.232486725 17687961.816602707 0 17687961.816602707 895442.74245738983 0 0 0 0 10191766.835271835 15199069.783210754 0 15199069.783210754 -3718312.4387512207 0 0 0 0 839992.98641517013 9518868.8619674202 0 9518868.8619674202 -7554036.1713822372 0 0 0 0 2100162.3814406395 11666592.968585491 0 11666592.968585491 -5218950.6343307495 0 0 0 0 4532221.2966880798 17341479.499052048 0 17341479.499052048 -3464820.7482719421 0 0 0 0 3678493.5985832214 19241229.394868851 0 19241229.394868851 1652392.0957374573 0 0 0 0 -2422331.0901184082 13350303.003973007 0 13350303.003973007 -5295568.1247501373 0 0 0 0 2869139.6164608002 13723381.103277206 0 13723381.103277206 -11416403.347286224 0 0 0 0 1877702.9285470676 9262519.4541238695 0 9262519.4541238695 -9338681.8262864761 0 0 0 0 247197457.42183924 33824862.955602646 0 33824862.955602646 -146301478.11942291 0 0 0 0 841430.33819007874 13860029.389875412 0 13860029.389875412 -6456126.5643968582 0 0 0 0 62780996.227782726 27463070.195384026 0 27463070.195384026 42509317.108612061 0 0 0 0 -19371843.709029198 197062494.46148062 0 197062494.46148062 -235360653.21468735 0 0 0 0 155332981.91976416 126430618.06195664 0 126430618.06195664 -39806268.151687622 0 0 0 0 -12292040.434449196 30739314.249125004 0 30739314.249125004 12432247.075393677 0 0 0 0 -218129836.92369699 -466643.09006690979 0 -466643.09006690979 32756629.590639114 0 0 0 0 -57156.784259133507 1395578.3691493692 0 1395578.3691493692 292145.32910144143 0 0 0 0 89188013.421756744 -123355812.32243395 0 -123355812.32243395 -310892792.67766571 0 0 0 0 119663161.79587746 28372899.208211899 0 28372899.208211899 -125022623.76296043 0 0 0 0 62451797.542756081 38520092.946231842 0 38520092.946231842 -147379117.26046085 0 0 0 0 11059188.012948036 125950284.89046097 0 125950284.89046097 -122784608.6730423 0 0 0 0 117959739.18296283 103978005.32522368 0 103978005.32522368 -144225467.53346062 0 0 0 0 -16007050.884971619 104607973.5858717 0 104607973.5858717 -53890622.180597544 0 0 0 0 31572907.615809441 84832286.627461433 0 84832286.627461433 -49676706.26294899 0 0 0 0 107012861.08058119 49048103.942892551 0 49048103.942892551 -72815745.657741547 0 0 0 0 -117233.33342943294 4744965.4608863825 0 4744965.4608863825 1662148.348053053 0 0 0 0 -32962069.552205563 18835127.200784206 0 18835127.200784206 27266994.778320312 0 0 0 0 85027247.894496441 61011915.279636383 0 61011915.279636383 -73913978.105602026 0 0 0 0 73934954.563146353 40933892.623125553 0 40933892.623125553 -6660413.7564430237 0 0 0 0 4505756.7871246338 56016822.619037628 0 56016822.619037628 40596767.123447418 0 0 0 0 30974713.914281368 68439307.234279633 0 68439307.234279633 36440484.8034904 0 0 0 0 -3287474.4648155905 11247363.357562821 0 11247363.357562821 8875147.811172042 0 0 0 0 -39227.105635166168 23311238.472139359 0 23311238.472139359 36850861.771827698 0 0 0 0 5889581.1167316437 21990522.172252655 0 21990522.172252655 26027121.985504866 0 0 0 0 8914485.3831605911 29346875.245624542 0 29346875.245624542 41361972.789401054 0 0 0 0 -21004955.683806419 20910501.379959583 0 20910501.379959583 38995394.112575531 0 0 0 0 -5414857.2357621193 41633752.003323555 0 41633752.003323555 39857786.908672333 0 0 0 0 8103178.2018914223 35513325.602666855 0 35513325.602666855 42396373.22551918 0 0 0 0 -37378812.867851496 29508099.274911404 0 29508099.274911404 35265427.414880753 0 0 0 0 2625953.1349234581 64407586.471826553 0 64407586.471826553 18162441.404855728 0 0 0 0 -25691510.909302711 53791484.988399506 0 53791484.988399506 15555214.627938747 0 0 0 0 -36268995.207182884 37223178.537193298 0 37223178.537193298 25227937.419519424 0 0 0 0 4664939.132850647 21039062.249710083 0 21039062.249710083 22868673.372047424 0 0 0 0 -5407041.4040994644 15247412.133268356 0 15247412.133268356 21165759.678118229 0 0 0 0 -27993132.331157207 -1460930.1913480759 0 -1460930.1913480759 14225350.002994537 0 0 0 0 25432585.280962944 -9837957.2292079926 0 -9837957.2292079926 -17687673.060558319 0 0 0 0 11249310.349029303 6669514.6120138168 0 6669514.6120138168 123237.00458717346 0 0 0 0 -21314016.3598423 2337942.9043292999 0 2337942.9043292999 12269542.414672852 0 0 0 0 -24108295.243133545 -44185142.801980972 0 -44185142.801980972 -9635197.3010292053 0 0 0 0 -85054767.274621964 -24307355.91853714 0 -24307355.91853714 18425249.085845947 0 0 0 0 -90626928.656325996 35502457.987299085 0 35502457.987299085 5808528.0905838013 0 0 0 0 -179316872.15842152 -32006901.316461563 0 -32006901.316461563 -9590829.8049494661 0 0 0 0 -68358758.296924591 91040898.167375565 0 91040898.167375565 -16777758.669679642 0 0 0 0 -85191767.965713501 23135131.22955513 0 23135131.22955513 23971713.166337967 0 0 0 0 -238248955.80680609 46618589.662451744 0 46618589.662451744 11628656.718966007 0 0 0 0 -15056323.20809269 85887710.9075737 0 85887710.9075737 -37489854.97647953 0 0 0 0 19192270.876365662 130638418.69420815 0 130638418.69420815 -257375404.20614433 0 0 0 0 -183677935.27202511 199417353.54750252 0 199417353.54750252 -109299952.63293457 0 0 0 0 -190998912.04809046 171634460.85944748 0 171634460.85944748 -197047314.32305145 0 0 0 0 -122666364.07880974 44994503.168804169 0 44994503.168804169 -187579769.34194183 0 0 0 0 -208690878.53183222 184113678.86474991 0 184113678.86474991 -140902168.00704002 0 0 0 0 26393644.074389935 -16044123.317445755 0 -16044123.317445755 -91667293.604927063 0 0 0 0 338914.60058018414 233302.10088011436 0 233302.10088011436 -459817.93592948746 0 0 0 0 249047.87144156918 309847.46351941489 0 309847.46351941489 -183519.05062435195 0 0 0 0 109622988.33913612 124738862.87520027 0 124738862.87520027 -248511887.73081207 0 0 0 0 300867424.22971654 29437576.629352272 0 29437576.629352272 80725543.995052338 0 0 0 0 293915731.12118888 100878694.46025085 0 100878694.46025085 -103684440.09505272 0 0 0 0 133661156.10532284 62179443.516033173 0 62179443.516033173 -85827149.272352219 0 0 0 0 48289344.53378506 83014438.678726673 0 83014438.678726673 50461213.880493164 0 0 0 0 361206430.03784686 127668081.72739506 0 127668081.72739506 -53622534.899729729 0 0 0 0 495277966.8861872 -132811150.23176098 0 -132811150.23176098 65069977.964274287 0 0 0 0 -164877.82100487495 -360104.41124656214 0 -360104.41124656214 425931.27783127781 0 0 0 0 -639616972.29905951 332171457.4143858 0 332171457.4143858 36377579.691631317 0 0 0 0 987446988.13236201 -20093010.605168819 0 -20093010.605168819 -115460846.41871738 0 0 0 0 7882841.141356945 7857189.1809029579 0 7857189.1809029579 7932875.9574995041 0 0 0 0 303912.9255378042 1275316.5759673438 0 1275316.5759673438 -663889.78839614801 0 0 0 0 226768761.32299936 -43334206.887314796 0 -43334206.887314796 107445310.88124228 0 0 0 0 886367.65982081695 957904.40722499043 0 957904.40722499043 -487741.32517137844 0 0 0 0 15776312.749570251 13283642.658002853 0 13283642.658002853 1309551.4149398804 0 0 0 0 323568984.75492609 118574891.21447468 0 118574891.21447468 -13297320.051276207 0 0 0 0 -83531081.724563599 -25322773.629125595 0 -25322773.629125595 -81504600.187530518 0 0 0 0 -3431892.1681213379 84275551.388977051 0 84275551.388977051 -51185162.314220905 0 0 0 0 20412577.282604218 -19333953.612943649 0 -19333953.612943649 -77897403.621686935 0 0 0 0 -293619669.10746288 112332866.83873463 0 112332866.83873463 -102314508.7798242 0 0 0 0 -191967801.61268616 -9616928.6725196838 0 -9616928.6725196838 -100243348.31707028 0 0 0 0 -473999008.64197588 53200048.075154305 0 53200048.075154305 -17170517.182170868 0 0 0 0 -127238213.20018339 63078224.488003731 0 63078224.488003731 -65841975.070570946 0 0 0 0 -18124541.861816406 4344769.4281349182 0 4344769.4281349182 -84060186.387007713 0 0 0 0 -16948645.336242676 48937290.514809608 0 48937290.514809608 2027944.660015583 0 0 0 0 -82133472.894205332 88018520.424354553 0 88018520.424354553 -62515019.837022781 0 0 0 0 -124381938.57329559 31523767.283955097 0 31523767.283955097 -638681.34467315674 0 0 0 0 -193723553.96357965 97844822.522469997 0 97844822.522469997 43853815.120419502 0 0 0 0 -37522522.55543378 149659851.73129302 0 149659851.73129302 61041735.51395607 0 0 0 0 186332035.55190849 34957914.262685299 0 34957914.262685299 104239112.70260429 0 0 0 0 -24586172.70374012 11576208.464226902 0 11576208.464226902 67726032.921041489 0 0 0 0 -20649042.534641981 59514848.883072495 0 59514848.883072495 102363584.38142586 0 0 0 0 -32488409.043867111 67069595.67688179 0 67069595.67688179 137736236.59298229 0 0 0 0 -14945317.019617081 32374684.669269562 0 32374684.669269562 59594588.683401823 0 0 0 0 -43510737.896007538 20284655.972786903 0 20284655.972786903 65163315.579833984 0 0 0 0 -1500035.5178949479 -331613.45822728379 0 -331613.45822728379 224623.89487761259 0 0 0 0 8964794.967004776 10722786.856174469 0 10722786.856174469 14560325.813603401 0 0 0 0 -499406.41162216663 3811833.8897368908 0 3811833.8897368908 10106335.486412048 0 0 0 0 449812156.0365895 347405047.47693396 0 347405047.47693396 89049689.274547577 0 0 0 0 157826356.06463718 240383516.21747971 0 240383516.21747971 33771594.995517254 0 0 0 0 255001487.00688171 127461420.17331123 0 127461420.17331123 120153582.67215919 0 0 0 0 999622.33629322052 365378203.84274864 0 365378203.84274864 -65336892.543544769 0 0 0 0 2240265.8875299315 5819725.7520767041 0 5819725.7520767041 133219.9223601371 0 0 0 0 -14408018.257155895 -2591562.2239170074 0 -2591562.2239170074 -7926029.6487808228 0 0 0 0 -17460859.399507046 -20813312.32565403 0 -20813312.32565403 9847325.9449167252 0 0 0 0 42006152.331334591 42359684.575443268 0 42359684.575443268 46395859.820888519 0 0 0 0 11456179.393469572 15236255.530849457 0 15236255.530849457 22399668.563297272 0 0 0 0 1660947.2312357426 23231354.49276638 0 23231354.49276638 52981765.970647812 0 0 0 0 23964474.603123665 20852021.897285461 0 20852021.897285461 20799306.815388203 0 0 0 0 8722870.6236057281 27708093.858427048 0 27708093.858427048 55560699.537509918 0 0 0 0 6364377.0727521908 17992465.839140624 0 17992465.839140624 -7324286.9817335745 0 0 0 0 12005301.470070839 26335820.84498024 0 26335820.84498024 53954881.385408401 0 0 0 0 39793694.676051199 61068009.059712052 0 61068009.059712052 57221861.646789551 0 0 0 0 -399461.9918941136 -128037.87052987097 0 -128037.87052987097 29292.712028741837 0 0 0 0 4540481.2404994965 51917786.190584183 0 51917786.190584183 84561078.132968903 0 0 0 0 6679597.8517575264 28536986.4433918 0 28536986.4433918 81890465.427818298 0 0 0 0 16398310.151051998 29684333.051906586 0 29684333.051906586 65048241.777580261 0 0 0 0 8429285.7810258865 32303182.509422302 0 32303182.509422302 71619238.348983765 0 0 0 0 17431723.669331551 46948186.558310509 0 46948186.558310509 95698106.072051764 0 0 0 0 40635820.044444084 92646553.575098753 0 92646553.575098753 100757634.49045563 0 0 0 0 -2318336.6789027806 11792750.777425809 0 11792750.777425809 9560269.5004474856 0 0 0 0 11332844.462300301 135034273.71721101 0 135034273.71721101 156448866.25885713 0 0 0 0 16270871.156713009 20303328.371767044 0 20303328.371767044 43580639.247003555 0 0 0 0 -18028616.59903352 17961356.229002491 0 17961356.229002491 53331194.849714279 0 0 0 0 8597869.2095111273 18428848.480187602 0 18428848.480187602 -8752081.2421327867 0 0 0 0 21074513.907403946 33782731.218391418 0 33782731.218391418 77111195.584373474 0 0 0 0 11585229.020542145 27092369.891792297 0 27092369.891792297 72438676.373531342 0 0 0 0 4391588.4947114782 22703520.562976561 0 22703520.562976561 -6115443.6650431734 0 0 0 0 -2927900.3104890836 4854131.6375564374 0 4854131.6375564374 9696503.963063024 0 0 0 0 -426900597.97837639 -38019419.941520691 0 -38019419.941520691 485547574.98430634 0 0 0 0 -7422451.4772758484 130248674.02719879 0 130248674.02719879 147798927.39131165 0 0 0 0 37735800.632679939 80006921.274614334 0 80006921.274614334 100152818.87985229 0 0 0 0 -24276364.095994949 55344191.445358276 0 55344191.445358276 74083177.158782959 0 0 0 0 -75555025.879566193 89991970.176856995 0 89991970.176856995 127827605.75216675 0 0 0 0 -139829487.52502441 81543931.82509613 0 81543931.82509613 178038412.67511749 0 0 0 0 -33238802.001495361 41019672.394552231 0 41019672.394552231 80648136.569076538 0 0 0 0 -169534.37894439697 39293980.521659851 0 39293980.521659851 81677508.352790833 0 0 0 0 -2043914.564786911 40977182.627145767 0 40977182.627145767 43715316.029205322 0 0 0 0 -20775146.994527817 51404194.177295685 0 51404194.177295685 58102006.088150024 0 0 0 0 -28589975.559297562 41448725.169296265 0 41448725.169296265 45905487.457008362 0 0 0 0 -10524919.93919754 26057225.993526459 0 26057225.993526459 64828905.057739258 0 0 0 0 -32634805.188711166 37413006.321422577 0 37413006.321422577 47259495.266311646 0 0 0 0 -23177521.491960526 51323238.600852966 0 51323238.600852966 67494462.911903381 0 0 0 0 -50429416.865398407 48869657.303596497 0 48869657.303596497 50441163.637466431 0 0 0 0 -29510145.877643824 52939390.060163498 0 52939390.060163498 28083936.744003296 0 0 0 0 -65391196.929078579 36873066.600136757 0 36873066.600136757 29994290.217605591 0 0 0 0 -52994356.014751434 39924154.054031372 0 39924154.054031372 30228514.228378296 0 0 0 0 -83935533.255514145 39849689.672587395 0 39849689.672587395 54412499.532440186 0 0 0 0 -84471458.094894409 29651933.808242798 0 29651933.808242798 50975006.793518066 0 0 0 0 -65212154.822406769 56695086.422332764 0 56695086.422332764 74154208.012372971 0 0 0 0 12026244.758961678 64563586.12172699 0 64563586.12172699 107339773.16220093 0 0 0 0 2401778.9265480042 19726286.138278961 0 19726286.138278961 100202075.77183533 0 0 0 0 2174848.1024324894 30073468.82007885 0 30073468.82007885 84668729.948547363 0 0 0 0 26866788.015555382 32401414.469646454 0 32401414.469646454 66218284.788215637 0 0 0 0 -4543473.1725180149 39281302.070884705 0 39281302.070884705 79988214.460784912 0 0 0 0 19938220.327744961 55517073.803084373 0 55517073.803084373 72446755.688896179 0 0 0 0 72243227.704434395 58904064.530769348 0 58904064.530769348 68472515.334701538 0 0 0 0 -277296.88277626224 -727061.73488622159 0 -727061.73488622159 417459.14729620516 0 0 0 0 68124906.153588295 93829578.022117615 0 93829578.022117615 64888105.440750122 0 0 0 0 9544924.0074378252 66709640.463634491 0 66709640.463634491 156240585.52389526 0 0 0 0 59675654.207983017 30146063.618179321 0 30146063.618179321 122762823.38864136 0 0 0 0 52498794.3498317 80424404.562285423 0 80424404.562285423 129752817.38430786 0 0 0 0 10510375.059339523 45713290.080296516 0 45713290.080296516 117854140.42210388 0 0 0 0 34526240.388310671 114951261.47138214 0 114951261.47138214 161516056.89758301 0 0 0 0 -42447558.260872364 58711487.352462769 0 58711487.352462769 147196059.14525604 0 0 0 0 -41299335.671178617 -2812352.0988591313 0 -2812352.0988591313 110939960.57893372 0 0 0 0 -113698052.70058537 7084300.3228883743 0 7084300.3228883743 110444189.69514465 0 0 0 0 -48039272.416882038 -32799325.104986191 0 -32799325.104986191 34370713.25239563 0 0 0 0 -7922080.1568441391 -5460456.7035636902 0 -5460456.7035636902 65968348.800787926 0 0 0 0 -8213336.94708848 14832077.770767212 0 14832077.770767212 72667287.936775208 0 0 0 0 26574277.5193367 42513113.415481567 0 42513113.415481567 82316474.998802185 0 0 0 0 24338959.987036362 14997356.08229351 0 14997356.08229351 78838962.47971344 0 0 0 0 -3959085.0034205914 25140753.575408936 0 25140753.575408936 75685768.302724838 0 0 0 0 -6035154.0816609859 43504875.817966461 0 43504875.817966461 124065275.42636871 0 0 0 0 12015182.859623075 42475291.991863251 0 42475291.991863251 50852688.741508484 0 0 0 0 11464771.383672476 39305503.612697601 0 39305503.612697601 62733526.295497894 0 0 0 0 11671123.415989876 23903496.297283173 0 23903496.297283173 67963377.392486572 0 0 0 0 4978613.3981142817 16247610.602429885 0 16247610.602429885 -6611656.4295913726 0 0 0 0 13453461.830124229 26289783.659553528 0 26289783.659553528 26236882.336219788 0 0 0 0 -2403212.1814746857 37234457.770452499 0 37234457.770452499 47694992.390710831 0 0 0 0 -9191241.4784145355 26771696.999038696 0 26771696.999038696 57204367.688739777 0 0 0 0 4505640.2121565891 18588056.099824648 0 18588056.099824648 -7065010.4505137373 0 0 0 0 -2899936.5162509992 8152260.3840118106 0 8152260.3840118106 12334208.038690902 0 0 0 0 10651806.577602386 36842629.687927246 0 36842629.687927246 59795408.289123535 0 0 0 0 -58337.299333453178 12573594.008178711 0 12573594.008178711 32839787.330169678 0 0 0 0 -33381493.001116216 -19272097.051169395 0 -19272097.051169395 48256374.867248535 0 0 0 0 -27361709.30284214 3831433.6823196411 0 3831433.6823196411 75369209.939239502 0 0 0 0 31531443.884592056 52219441.100162506 0 52219441.100162506 70365496.959999084 0 0 0 0 261013.95038414234 1997201.0135797076 0 1997201.0135797076 2601936.7090338245 0 0 0 0 9405560.5840676427 33272851.198644638 0 33272851.198644638 56477518.758392334 0 0 0 0 1218147490.4041443 1235798135.5315189 0 1235798135.5315189 927754630.70407104 0 0 0 0 1365558091.7784119 72377242.537734985 0 72377242.537734985 256965139.66252136 0 0 0 0 -570770.46820859984 1072242.3177783489 0 1072242.3177783489 996403.29668376595 0 0 0 0 758775425.43906403 482231200.13766479 0 482231200.13766479 83183705.50453949 0 0 0 0 865263678.34370422 582616652.47166443 0 582616652.47166443 497885210.25778008 0 0 0 0 479890.30816650391 501423106.8424015 0 501423106.8424015 733641731.16022873 0 0 0 0 387512554.28109741 905457710.8114357 0 905457710.8114357 1153320845.218895 0 0 0 0 313950230.01580811 297127132.27702332 0 297127132.27702332 427029595.64840126 0 0 0 0 -1098517.2385138236 1965702.5968626514 0 1965702.5968626514 1700922.9631275497 0 0 0 0 312764019.19090462 286158753.43422413 0 286158753.43422413 332350591.9175415 0 0 0 0 354431054.86091614 333708171.02565384 0 333708171.02565384 337832727.41455078 0 0 0 0 354085080.16976929 326650687.16288376 0 326650687.16288376 247210761.95809174 0 0 0 0 519332703.9715271 271377515.23046684 0 271377515.23046684 -45890254.364257812 0 0 0 0 532363028.90217018 381643732.40468311 0 381643732.40468311 87676532.644363403 0 0 0 0 283265184.67324829 209654893.72610474 0 209654893.72610474 48611182.737594604 0 0 0 0 469429566.47514343 220163075.20512772 0 220163075.20512772 -71608435.834228516 0 0 0 0 385215108.65020752 303447834.62044907 0 303447834.62044907 119871979.01716614 0 0 0 0 85758373.655197144 176438487.94765854 0 176438487.94765854 102583202.85954285 0 0 0 0 297139606.35450745 142045456.19723511 0 142045456.19723511 9404935.6620788574 0 0 0 0 -1689815.9799194336 108663833.86418915 0 108663833.86418915 95536353.475082397 0 0 0 0 38986396.002578735 104277597.85194778 0 104277597.85194778 45224405.264570236 0 0 0 0 33186158.007461548 139723014.20465088 0 139723014.20465088 55743669.941049576 0 0 0 0 -10916663.165718079 33525556.515110016 0 33525556.515110016 -51813768.445770264 0 0 0 0 35746530.03578186 106906617.3527832 0 106906617.3527832 -52986211.700119019 0 0 0 0 -55145648.63911438 -58027081.53711319 0 -58027081.53711319 -155673433.20224047 0 0 0 0 125774242.89574432 -229510750.63800812 0 -229510750.63800812 -479469407.66131973 0 0 0 0 148855385.1212616 176175525.78351593 0 176175525.78351593 35006976.950000763 0 0 0 0 465135910.0891037 65718002.160148621 0 65718002.160148621 -360411616.07159424 0 0 0 0 114621941.24913025 94524371.300655365 0 94524371.300655365 -156450001.22814941 0 0 0 0 600220204.27308655 1583620877.6235886 0 1583620877.6235886 1497082191.3450775 0 0 0 0 710721.14185364544 173699.72047045082 0 173699.72047045082 700428.56829719618 0 0 0 0 917365246.1197052 1037423272.4227943 0 1037423272.4227943 1608184708.194252 0 0 0 0 -9736281.321762085 -52048712.850292206 0 -52048712.850292206 -125958028.95619202 0 0 0 0 -29698798.632854462 52554452.035410881 0 52554452.035410881 -70365740.936157227 0 0 0 0 24186867.824295044 34871183.721645355 0 34871183.721645355 -85860275.994598389 0 0 0 0 2695748.7924041748 53633416.869762421 0 53633416.869762421 -102171464.82013702 0 0 0 0 1157627305.5986691 1442520833.7455769 0 1442520833.7455769 1546788136.1427155 0 0 0 0 3596878.8966126963 255274.21461657435 0 255274.21461657435 862673.24384499341 0 0 0 0 912318025.17106628 1017549631.6578522 0 1017549631.6578522 1577474046.1113892 0 0 0 0 847413593.12199402 1125577461.3064995 0 1125577461.3064995 1320410125.6951256 0 0 0 0 906712179.06440735 875897200.27318573 0 875897200.27318573 1100004929.8799839 0 0 0 0 1289936033.0864067 1085720311.9719725 0 1085720311.9719725 1254545741.3370972 0 0 0 0 861920208.49661255 1193716596.7255554 0 1193716596.7255554 1232895823.5263271 0 0 0 0 482190180.56973267 919616073.62748718 0 919616073.62748718 1347434658.7919464 0 0 0 0 232337.28987121582 766450617.28456879 0 766450617.28456879 1247359945.5589447 0 0 0 0 426076372.91269875 1053658212.7953701 0 1053658212.7953701 1136716282.551651 0 0 0 0 448897848.74111176 823568634.33988953 0 823568634.33988953 1083982966.0187874 0 0 0 0 344645.2212600708 1285915007.8316154 0 1285915007.8316154 617603695.04962921 0 0 0 0 496603985.36069632 1170654810.1106305 0 1170654810.1106305 888153428.02436066 0 0 0 0 639122976.97091293 636941635.34860992 0 636941635.34860992 716105386.22551727 0 0 0 0 837113.78622698784 1624325.789997939 0 1624325.789997939 454619.48944514245 0 0 0 0 722645478.55673981 617123106.19821167 0 617123106.19821167 -250782833.6003685 0 0 0 0 942850059.17629242 1495930532.1698132 0 1495930532.1698132 -1194580.349822998 0 0 0 0 1480242.1259845418 1713585291.5560532 0 1713585291.5560532 1449660348.7389603 0 0 0 0 2434879312.2546978 668044306.696136 0 668044306.696136 -1082192747.9351807 0 0 0 0 1616143.7876450494 1783914.4261657214 0 1783914.4261657214 287033.33008934557 0 0 0 0 2270444208.9172668 1571785373.1129684 0 1571785373.1129684 -1435933794.4115219 0 0 0 0 426809.81221932173 1090047.4409992583 0 1090047.4409992583 -51814.394619360566 0 0 0 0 1466334227.3665085 1819556316.2794418 0 1819556316.2794418 1159301029.0197372 0 0 0 0 -511919275.21874237 127051768.37437057 0 127051768.37437057 401309523.80454254 0 0 0 0 1805132815.0675182 636964591.65396881 0 636964591.65396881 -941513632.98432159 0 0 0 0 1011426560.9553299 660902508.06289101 0 660902508.06289101 573700321.32237244 0 0 0 0 1111773430.5512695 824469251.57974243 0 824469251.57974243 668633163.51685333 0 0 0 0 18503808.933914185 719688561.53694153 0 719688561.53694153 899412738.53623199 0 0 0 0 838785705.82371521 827308508.86160278 0 827308508.86160278 858719752.47699165 0 0 0 0 1009278417.3362122 881125401.67596817 0 881125401.67596817 680427503.03235245 0 0 0 0 987478390.40271759 767604143.5754776 0 767604143.5754776 504495090.96360016 0 0 0 0 1119927609.4714737 1104904733.9269104 0 1104904733.9269104 983165270.15206146 0 0 0 0 874400058.26826477 762244444.3408432 0 762244444.3408432 991879766.52011108 0 0 0 0 1170402687.9352264 986369233.7493515 0 986369233.7493515 1145776870.9178848 0 0 0 0 959759521.24029732 1119001661.0791378 0 1119001661.0791378 1062312987.5264587 0 0 0 0 7828549.4858598262 -248648.51079730317 0 -248648.51079730317 758984.48732937872 0 0 0 0 958065299.5727005 1555414423.2919388 0 1555414423.2919388 1084139376.864409 0 0 0 0 1386994061.3792114 1418530749.1730804 0 1418530749.1730804 1069127594.9876137 0 0 0 0 6394922.8624267578 -30130834.493768692 0 -30130834.493768692 -24637339.432991028 0 0 0 0 48696423.17427063 17862482.894599915 0 17862482.894599915 -18526902.621954203 0 0 0 0 1177310508.4592819 696275481.83287239 0 696275481.83287239 663921793.23574829 0 0 0 0 13381399.191074215 -306772.05184728652 0 -306772.05184728652 -62646.936050966382 0 0 0 0 37999748.869644165 -1009110.5834693909 0 -1009110.5834693909 -18003460.302326679 0 0 0 0 924875630.48603821 1033464344.6238251 0 1033464344.6238251 2232333333.5913696 0 0 0 0 2104923240.7026978 1579155383.5668182 0 1579155383.5668182 546427078.53990173 0 0 0 0 1583574906.6847711 1163970068.9286106 0 1163970068.9286106 536903373.48504639 0 0 0 0 2118320659.248642 1123935023.2433395 0 1123935023.2433395 -251237502.50793457 0 0 0 0 -920970315.26900482 1526287659.1658096 0 1526287659.1658096 999985592.13157272 0 0 0 0 1068227.5189449005 1397773.0305506587 0 1397773.0305506587 972015.37944995612 0 0 0 0 507762244.51205444 1756754571.7847633 0 1756754571.7847633 992717693.654953 0 0 0 0 993166640.16963196 250389619.5105896 0 250389619.5105896 -624528812.25568962 0 0 0 0 2069961287.9517517 959436109.74707031 0 959436109.74707031 -467814366.78916931 0 0 0 0 1597130781.9353638 1013816543.0091705 0 1013816543.0091705 -61912700.906188965 0 0 0 0 1933519399.5462608 783234794.6569767 0 783234794.6569767 105855080.30430603 0 0 0 0 1912680939.4626713 877017289.05740547 0 877017289.05740547 -314495048.73922729 0 0 0 0 1929771248.8979492 915598782.27200317 0 915598782.27200317 450551.86535644531 0 0 0 0 498032167.51721191 172064447.62625122 0 172064447.62625122 -90042646.071136475 0 0 0 0 -1129399898.7328796 646543668.62556458 0 646543668.62556458 191054580.77810669 0 0 0 0 268831788.31115723 862415690.75388336 0 862415690.75388336 -1013183.2006880641 0 0 0 0 -8287470.9500198364 136330740.4869957 0 136330740.4869957 432594.85643005371 0 0 0 0 32213936.949771881 37908488.243745804 0 37908488.243745804 -263620025.58326721 0 0 0 0 6697074.4129832825 1515675.434056025 0 1515675.434056025 817008.44339088351 0 0 0 0 3234324504.6602554 636634463.44255066 0 636634463.44255066 -368661111.38946533 0 0 0 0 -73938223.145866394 80498776.210014343 0 80498776.210014343 -44989319.434959412 0 0 0 0 7496132.9013036415 3076017.5146728344 0 3076017.5146728344 2742123.7888940647 0 0 0 0 1627754521.0786057 878542271.3640213 0 878542271.3640213 77975060.407794952 0 0 0 0 5326178.9328155518 22009648.651473999 0 22009648.651473999 -6761751.7721786499 0 0 0 0 3703559.550940305 3698459.7788112462 0 3698459.7788112462 -388963.27883299813 0 0 0 0 21077246.931213379 22289047.161193848 0 22289047.161193848 -11076324.078147888 0 0 0 0 39968894.672515869 -100541908.20163727 0 -100541908.20163727 -37503789.335010529 0 0 0 0 1201796.1282321066 1157722.8426415697 0 1157722.8426415697 -204121.02758103982 0 0 0 0 45597357.555770874 35241942.706878662 0 35241942.706878662 22900220.205047607 0 0 0 0 -66714.093811035156 61213510.444618225 0 61213510.444618225 30692860.202514648 0 0 0 0 -391373.56117248535 26622765.942337036 0 26622765.942337036 36208417.418457031 0 0 0 0 -33256209.714660645 49543298.57421875 0 49543298.57421875 49238004.365493774 0 0 0 0 -47034867.213293076 -14436429.613466263 0 -14436429.613466263 3962778.32081604 0 0 0 0 17852465.351898193 24931539.942764282 0 24931539.942764282 4118340.6086883545 0 0 0 0 17215265.166314602 33967855.728346109 0 33967855.728346109 9595324.0094909668 0 0 0 0 55897782.556869507 62288109.17382431 0 62288109.17382431 18398574.724685669 0 0 0 0 30398370.354125977 3979871.8203163147 0 3979871.8203163147 -9015590.638092041 0 0 0 0 -26913433.319229126 9345970.9796447754 0 9345970.9796447754 21281301.031204224 0 0 0 0 3024080.3572724452 8995199.1306153983 0 8995199.1306153983 4783600.3903554454 0 0 0 0 -4730257.4986114502 26602198.788917542 0 26602198.788917542 22897166.776046753 0 0 0 0 11143562.95602417 2689383.4067611694 0 2689383.4067611694 2286757.767364502 0 0 0 0 24387111.511856079 36505060.998031616 0 36505060.998031616 9224194.4847316742 0 0 0 0 41478771.688049316 23161880.995132446 0 23161880.995132446 4803947.7792854309 0 0 0 0 28692717.459835052 41924168.823173523 0 41924168.823173523 13187300.441650391 0 0 0 0 25227289.072753906 27337291.263809204 0 27337291.263809204 4839336.9093017578 0 0 0 0 23270635.26612854 31350627.669830322 0 31350627.669830322 -2467803.6116027832 0 0 0 0 -9350948.99659729 41114768.457969666 0 41114768.457969666 61050004.417907715 0 0 0 0 2108063.2914004326 2100197.7569212615 0 2100197.7569212615 -556312.56270064414 0 0 0 0 27831051.365737915 55319572.585159302 0 55319572.585159302 276427.80715942383 0 0 0 0 31515528.891410828 44286463.107292175 0 44286463.107292175 10846449.785110474 0 0 0 0 24808246.550888062 49159078.868721008 0 49159078.868721008 34518087.988952637 0 0 0 0 1461032.5883530229 -19527.23402704671 0 -19527.23402704671 -1691223.7188482359 0 0 0 0 11968393.431945801 -10915325.432136536 0 -10915325.432136536 -24359017.559066772 0 0 0 0 16066312.381271362 32768725.019287109 0 32768725.019287109 35534906.861325264 0 0 0 0 5701045.0215682983 -8421624.8029289246 0 -8421624.8029289246 -13528436.919525146 0 0 0 0 7423578.7228746749 11049146.293780327 0 11049146.293780327 2135575.2328291545 0 0 0 0 55737299.557792664 19234227.021520615 0 19234227.021520615 -8352777.7762451172 0 0 0 0 26560599.337291718 19147132.832253456 0 19147132.832253456 -10742036.981994629 0 0 0 0 3547845.8517105719 12068437.269388389 0 12068437.269388389 2501493.2939013988 0 0 0 0 1984309.3057250977 6816034.2835922241 0 6816034.2835922241 -29054.550964355469 0 0 0 0 2934694.4204406738 6822824.5264816284 0 6822824.5264816284 -1115753.2941360474 0 0 0 0 3147998.448677063 6304193.4478225708 0 6304193.4478225708 142836.92672729492 0 0 0 0 2785189.0849115774 5111488.6660803482 0 5111488.6660803482 1196464.8995715454 0 0 0 0 3502347.4962320328 6614229.3677506447 0 6614229.3677506447 -160799.3966217041 0 0 0 0 3294526.0387954712 5182906.7768707275 0 5182906.7768707275 1321352.8021240234 0 0 0 0 25627797.133071899 25766627.778839111 0 25766627.778839111 551705.04768371582 0 0 0 0 4313453.7304534912 5903644.2489318848 0 5903644.2489318848 2127780.7763977051 0 0 0 0 -19019.317932128906 28002627.346729279 0 28002627.346729279 12309504.24432373 0 0 0 0 -282092.97355632298 10936151.781907611 0 10936151.781907611 2353791.3331614211 0 0 0 0 -1452378.768699646 8724008.7687683105 0 8724008.7687683105 -1142189.9164581299 0 0 0 0 44698.373927652836 93846.302820045501 0 93846.302820045501 -59602.505476145074 0 0 0 0 5523128.5038452148 7742192.3995361328 0 7742192.3995361328 4255741.1661376953 0 0 0 0 26255630.760925293 71711248.336231232 0 71711248.336231232 18312022.106315613 0 0 0 0 47570280.598022461 12155348.01084137 0 12155348.01084137 -11649141.891921997 0 0 0 0 21643905.133049011 44357907.687969208 0 44357907.687969208 -41600199.290237427 0 0 0 0 1933897.6846631886 1923324.939970009 0 1923324.939970009 175628.41113421321 0 0 0 0 2182394.0645265942 9231172.2441025563 0 9231172.2441025563 6527203.1286917329 0 0 0 0 277781.39922618866 18598284.700778961 0 18598284.700778961 13016650.697906494 0 0 0 0 22246780.559335709 25699399.978541851 0 25699399.978541851 13964979.615905762 0 0 0 0 27329967.121170044 13626510.190822601 0 13626510.190822601 3720397.4233856201 0 0 0 0 21248310.132246085 8017115.7524638548 0 8017115.7524638548 -4725804.5373497512 0 0 0 0 26689807.411468506 6296365.9610061646 0 6296365.9610061646 -5050261.0165481567 0 0 0 0 99683743.819515228 3756760.9888648987 0 3756760.9888648987 -35578170.30329895 0 0 0 0 17378574.876052856 46359168.90845108 0 46359168.90845108 51240627.713790894 0 0 0 0 10723164.760964394 24808599.612728834 0 24808599.612728834 -23630495.022865295 0 0 0 0 1463909.9661439881 3959078.4376789518 0 3959078.4376789518 537192.66857073642 0 0 0 0 -15908833.075119019 12146422.083309174 0 12146422.083309174 1072346.0609931946 0 0 0 0 92229130.288757324 41086884.696548462 0 41086884.696548462 -58051120.059783936 0 0 0 0 24778601.896652222 65791501.853553772 0 65791501.853553772 -13242069.000694275 0 0 0 0 96851521.327148438 26952893.184791565 0 26952893.184791565 -24533621.634460449 0 0 0 0 100716872.92660522 25137811.667617798 0 25137811.667617798 -46552709.316543579 0 0 0 0 90710357.952850342 2578811.0421829224 0 2578811.0421829224 -31431014.266921997 0 0 0 0 87680939.407562256 6473987.2027740479 0 6473987.2027740479 -2414187.4661445618 0 0 0 0 69764355.992370605 77734927.204151154 0 77734927.204151154 55575838.202148438 0 0 0 0 67005910.842072487 55813319.844402552 0 55813319.844402552 -17264226.862861633 0 0 0 0 16387376.998718262 98789072.883617401 0 98789072.883617401 20853794.07138443 0 0 0 0 6452877.4011535645 44744169.338382721 0 44744169.338382721 31737534.217636108 0 0 0 0 -4096650.0043182373 92739563.366569519 0 92739563.366569519 53471845.629058361 0 0 0 0 13058179.351142883 101600316.48713303 0 101600316.48713303 54719583.134033203 0 0 0 0 141228601.68460083 95701120.927242279 0 95701120.927242279 7418865.7354393005 0 0 0 0 91478663.902320862 57249203.768074036 0 57249203.768074036 28799137.219413757 0 0 0 0 -899488.7092104964 952525.9114003107 0 952525.9114003107 602994.22498995066 0 0 0 0 -18807602.191055298 1113547.1810951233 0 1113547.1810951233 -1007490.9814729691 0 0 0 0 -45942842.330451965 3150220.768872261 0 3150220.768872261 20904340.24307251 0 0 0 0 -224442.17935034866 7199249.0333491135 0 7199249.0333491135 1443841.528934367 0 0 0 0 4316738.0166326091 9822954.5511458665 0 9822954.5511458665 2087435.8481763825 0 0 0 0 12465476.205451965 9820217.4807815552 0 9820217.4807815552 715700.13566398621 0 0 0 0 -11488102.22605896 11294087.368303299 0 11294087.368303299 12498438.696853638 0 0 0 0 3032190.0483055115 8748853.3475618362 0 8748853.3475618362 -6556189.605506897 0 0 0 0 4924855.5902099609 3201255.8577423096 0 3201255.8577423096 -849373.54346466064 0 0 0 0 9871376.6634274945 8064449.6476165839 0 8064449.6476165839 362806.96135896444 0 0 0 0 -19579273.431594849 35201680.968902588 0 35201680.968902588 59758296.688453674 0 0 0 0 -10376870.236846924 18335658.298179626 0 18335658.298179626 3998113.0681877136 0 0 0 0 -2013752.9736785889 28037173.168708801 0 28037173.168708801 1411598.7756500244 0 0 0 0 -5872582.3459777832 21185985.753372192 0 21185985.753372192 -8798866.0160522461 0 0 0 0 -298379.98279571533 12948764.160858154 0 12948764.160858154 -8255816.388686657 0 0 0 0 -16105862.162857056 18098769.565460205 0 18098769.565460205 612656.60422515869 0 0 0 0 -1409096.3186440808 1764176.7241846677 0 1764176.7241846677 -294663.46221316606 0 0 0 0 17478585.257846832 8837798.2339172363 0 8837798.2339172363 -10741937.378311157 0 0 0 0 -14789455.110221863 12520958.557067871 0 12520958.557067871 2371682.9823684692 0 0 0 0 -399581.62786865234 11499234.579864502 0 11499234.579864502 6156662.5112762451 0 0 0 0 10635584.269104004 17567496.451915741 0 17567496.451915741 -9177698.1609573364 0 0 0 0 35263386.08417511 -712245.43106842041 0 -712245.43106842041 1845374.2840270996 0 0 0 0 67258185.607131958 14910396.429828644 0 14910396.429828644 -16293176.373565674 0 0 0 0 -507107.52464717813 153058.15443700738 0 153058.15443700738 -1853.949626147747 0 0 0 0 -41492414.181991577 11566557.158126831 0 11566557.158126831 14135685.158527374 0 0 0 0 11841593.508346558 8440432.504699707 0 8440432.504699707 -5005.0557174682617 0 0 0 0 3624877.0798110962 24858591.537601471 0 24858591.537601471 -32167530.303718567 0 0 0 0 13119893.814414978 29916658.661499023 0 29916658.661499023 -8316865.5009002686 0 0 0 0 -10520730.689788818 23353167.470756531 0 23353167.470756531 6404822.2172775269 0 0 0 0 -11131083.828781128 25925419.665258408 0 25925419.665258408 9627212.289642334 0 0 0 0 -36367472.504867554 43668714.192016602 0 43668714.192016602 -2496252.0114440918 0 0 0 0 -61990633.525478363 11615113.807357788 0 11615113.807357788 31002695.048400879 0 0 0 0 -704288.2539736256 728945.2004587315 0 728945.2004587315 675872.1981032826 0 0 0 0 -207158859.96326447 491884753.05752563 0 491884753.05752563 -61686300.049938202 0 0 0 0 128289806.87236023 59326774.311019897 0 59326774.311019897 -334860091.3820343 0 0 0 0 -236869470.95472956 -360250569.75722599 0 -360250569.75722599 331029061.03738403 0 0 0 0 -205895181.65953064 241765206.99514771 0 241765206.99514771 -96441278.770301819 0 0 0 0 -71234813.460624695 78404403.045394897 0 78404403.045394897 50012904.440383911 0 0 0 0 278058135.20483398 157261148.64952087 0 157261148.64952087 44672755.6665802 0 0 0 0 -55104598.524841309 173788076.34383011 0 173788076.34383011 280111257.18096924 0 0 0 0 -19912210.687683105 -6433610.3487243652 0 -6433610.3487243652 28670336.965574265 0 0 0 0 -15271232.709449768 20458632.894577026 0 20458632.894577026 4688393.6496200562 0 0 0 0 -37140709.924750328 276780309.78536797 0 276780309.78536797 7762096.3652038574 0 0 0 0 -384374.64754892886 513833.86692432035 0 513833.86692432035 -389359.36562443525 0 0 0 0 -114267299.19589233 6814786.3696289062 0 6814786.3696289062 -39983669.183250427 0 0 0 0 -100980068.23968124 -97775170.226982117 0 -97775170.226982117 -59250127.780044556 0 0 0 0 1764266.6525263712 9319136.3681465052 0 9319136.3681465052 -705005.23540405184 0 0 0 0 -124197737.20379639 -118687619.17756653 0 -118687619.17756653 198383100.58742142 0 0 0 0 288536322.21909332 -18731874.292499542 0 -18731874.292499542 -232705535.09804916 0 0 0 0 2706292.8636410236 8931228.8897102848 0 8931228.8897102848 -2501227.0112007996 0 0 0 0 -11805973.751449585 26098491.849014282 0 26098491.849014282 32392812.520339966 0 0 0 0 -4196203.7229995728 6957552.9922714233 0 6957552.9922714233 26685233.55890274 0 0 0 0 3204574.5905361176 16894474.855350494 0 16894474.855350494 28503848.972946167 0 0 0 0 653143.06842041016 6530888.0837593079 0 6530888.0837593079 19167253.035270691 0 0 0 0 2195972.1969604492 9537464.637260437 0 9537464.637260437 23323795.88092041 0 0 0 0 -961911.3322578473 5121217.4809098523 0 5121217.4809098523 6854461.9052192569 0 0 0 0 361477.33306044713 1215329.2329895869 0 1215329.2329895869 1773886.5791657176 0 0 0 0 -114186120.18667984 -6080240.2743167877 0 -6080240.2743167877 -10016956.502281189 0 0 0 0 -2155825.9857330322 10408391.719932556 0 10408391.719932556 28341005.842842102 0 0 0 0 -32450.021346052177 1752962.8761764094 0 1752962.8761764094 -261185.74425952137 0 0 0 0 -258890.50588288158 1494441.9722012905 0 1494441.9722012905 -2426094.9557841271 0 0 0 0 -1964609.0239639282 3985115.5412101746 0 3985115.5412101746 -376280.46638298035 0 0 0 0 -1188919.63339333 3417678.6294529885 0 3417678.6294529885 368427.32711261511 0 0 0 0 3321685.4974746704 4731500.4292373657 0 4731500.4292373657 1057289.9190235138 0 0 0 0 -144990.55674060434 6823101.5130614489 0 6823101.5130614489 1782708.5008203126 0 0 0 0 -2721706.4042816162 5918053.9755744934 0 5918053.9755744934 3606469.6260223389 0 0 0 0 -1109040.1484104134 5910351.5070078671 0 5910351.5070078671 3219867.1377557106 0 0 0 0 -2234139.5874643624 3749806.9218157893 0 3749806.9218157893 -483373.37164095044 0 0 0 0 -2683442.8572006226 5758872.5202713013 0 5758872.5202713013 -785503.03260803223 0 0 0 0 -3687994.8274841309 4646046.8953552246 0 4646046.8953552246 -607979.87467956543 0 0 0 0 943632.14182396606 4588742.1352883419 0 4588742.1352883419 -3297307.652821973 0 0 0 0 -713092.93859863281 4835116.5339050293 0 4835116.5339050293 -2193461.3352661133 0 0 0 0 2949399.710456375 5728081.4445196744 0 5728081.4445196744 -1837183.7058433592 0 0 0 0 -2372989.9766387939 5827955.2412033081 0 5827955.2412033081 -1579599.4008178711 0 0 0 0 -135063.71184302494 3894494.2945294753 0 3894494.2945294753 5233970.0843181368 0 0 0 0 -2928641.1257324219 5216720.8292999268 0 5216720.8292999268 791294.85136413574 0 0 0 0 2182905.1063549072 6496363.2153007239 0 6496363.2153007239 5324388.588076286 0 0 0 0 -552712.46502685547 4644108.9986877441 0 4644108.9986877441 -2361983.4543991089 0 0 0 0 2781929.0472294609 5702954.5113897696 0 5702954.5113897696 -1634631.277104497 0 0 0 0 -828163.18841552734 4227445.7919006348 0 4227445.7919006348 -735041.24075317383 0 0 0 0 47768377.285980225 26735595.52016449 0 26735595.52016449 11229915.047790527 0 0 0 0 657866.05682930816 1475754.6009914055 0 1475754.6009914055 -329098.24361493438 0 0 0 0 13242110.88402462 20406978.841925621 0 20406978.841925621 11294828.159118652 0 0 0 0 -509076.60936938412 2527995.5393945202 0 2527995.5393945202 4401827.3539066762 0 0 0 0 906301.49662017822 2696246.7528114319 0 2696246.7528114319 1608872.0445804596 0 0 0 0 2402817.4583625011 2599408.2556621842 0 2599408.2556621842 -29942.981872119009 0 0 0 0 2750111.0910415649 4467034.9864463806 0 4467034.9864463806 9603048.6549987793 0 0 0 0 212871.93096160889 2708958.9754867554 0 2708958.9754867554 11853556.543701172 0 0 0 0 272301.0814704895 4967954.2311096191 0 4967954.2311096191 13947675.445335388 0 0 0 0 2376541.1499328613 2212942.086227417 0 2212942.086227417 5879025.0980682373 0 0 0 0 3766923.8741455078 -697007.63744354248 0 -697007.63744354248 6524830.4936065674 0 0 0 0 11269.105430603027 -530957.15056610107 0 -530957.15056610107 11147013.245880127 0 0 0 0 1410416.4591188747 303861.96520843357 0 303861.96520843357 1090070.4534722567 0 0 0 0 7719.8130950927734 4062199.170841217 0 4062199.170841217 12533086.486602783 0 0 0 0 152986837.86857605 59115082.278892517 0 59115082.278892517 8502823.4614486694 0 0 0 0 63780957.748207092 13150075.98059845 0 13150075.98059845 4398023.4739761353 0 0 0 0 101310.38858158328 578371.96050731093 0 578371.96050731093 423080.4531961605 0 0 0 0 64823026.787540436 86748478.782341003 0 86748478.782341003 129493288.51960754 0 0 0 0 134697.77695465088 -163147.46420288086 0 -163147.46420288086 -1085965.9212722778 0 0 0 0 37866441.491043091 -112749861.79802704 0 -112749861.79802704 147508741.00927544 0 0 0 0 8279765.8746337891 730634.41564559937 0 730634.41564559937 -3590056.6412200928 0 0 0 0 1707794.7315063477 5245939.1484451294 0 5245939.1484451294 8634533.4835510254 0 0 0 0 542298.20321273804 1712760.4654388428 0 1712760.4654388428 -492919.90139770508 0 0 0 0 -1285226.6340026855 3281540.4998779297 0 3281540.4998779297 -622896.34838867188 0 0 0 0 3152764.66659832 8370866.2808675766 0 8370866.2808675766 -3944581.8674087524 0 0 0 0 752694.96433448792 -606709.89032363892 0 -606709.89032363892 -2338555.6536178589 0 0 0 0 472759.8597385399 1526400.6783647276 0 1526400.6783647276 518790.90908664372 0 0 0 0 -1053810.6484985352 1556797.6999969482 0 1556797.6999969482 -46167.957595152628 0 0 0 0 468895682.56355286 74726779.193929672 0 74726779.193929672 -542565454.98123169 0 0 0 0 986119.70817534532 -820389.22643855028 0 -820389.22643855028 16030.675895445049 0 0 0 0 317270255.22973633 -121638576.45223999 0 -121638576.45223999 204688908.41287231 0 0 0 0 -778367.88887405302 -1376227.9106717445 0 -1376227.9106717445 372167.08240789175 0 0 0 0 -1715339.7973327637 329695348.06828308 0 329695348.06828308 -69915269.626106262 0 0 0 0 -4271476.1978285573 360673.39964822773 0 360673.39964822773 1654655.3071234673 0 0 0 0 -8772671.5662384033 5540899.9251384735 0 5540899.9251384735 392673.03648376465 0 0 0 0 -83988285.259538651 35012004.905162811 0 35012004.905162811 1874802.0690612793 0 0 0 0 -89571120.502685547 21024933.313652039 0 21024933.313652039 -8451954.3741607666 0 0 0 0 31397385.552808382 -10555763.864853054 0 -10555763.864853054 -3872700.9108980782 0 0 0 0 72508.703124660999 -3330.9980698563159 0 -3330.9980698563159 1356944.0046112351 0 0 0 0 -3335392.6694946289 1167719.3470077515 0 1167719.3470077515 -2381211.0153121948 0 0 0 0 3374028.9009532928 -4097653.3835163116 0 -4097653.3835163116 -150684711.61811066 0 0 0 0 -4164644.9204025269 1716959.5766906738 0 1716959.5766906738 8232203.8989868164 0 0 0 0 -3955756.5799789429 1747334.9898719788 0 1747334.9898719788 -516172.87536144257 0 0 0 0 -13318693.509563446 7400064.8693170547 0 7400064.8693170547 6435336.3842926025 0 0 0 0 -10738887.793050766 -220490.17333126068 0 -220490.17333126068 9054477.3964080811 0 0 0 0 -842155.53268909454 2627871.2092790604 0 2627871.2092790604 8125625.7504425049 0 0 0 0 -1078546.6114883423 982154.70041275024 0 982154.70041275024 9792861.9614257812 0 0 0 0 -2526556.8187179565 5365482.2604751587 0 5365482.2604751587 12363199.516014099 0 0 0 0 -10739800.85162735 439239.64691162109 0 439239.64691162109 30971376.671447754 0 0 0 0 -10128379.240276337 -1241494.4383811951 0 -1241494.4383811951 8878465.6070709229 0 0 0 0 -1148074.254952522 -299202.0870660739 0 -299202.0870660739 890029.68977175653 0 0 0 0 -11532767.689231873 -16036109.545124054 0 -16036109.545124054 64517530.844959259 0 0 0 0 -19680701.906097412 31683892.996147156 0 31683892.996147156 52603128.17300415 0 0 0 0 12840139.19758606 73904741.523265839 0 73904741.523265839 14897029.615722656 0 0 0 0 28586849.325634003 68808795.625875473 0 68808795.625875473 -14195311.604949951 0 0 0 0 -36197930.797840118 28494852.520717621 0 28494852.520717621 -18650032.567628384 0 0 0 0 -2712674.5469027981 -258416.03513666149 0 -258416.03513666149 1667086.0198592618 0 0 0 0 -56463325.596664429 25424603.598587036 0 25424603.598587036 -15268107.107402802 0 0 0 0 -60000756.872207642 58919704.151870728 0 58919704.151870728 -11531056.985244751 0 0 0 0 4907577.3133163452 60635034.507419586 0 60635034.507419586 -8976174.1281661987 0 0 0 0 12784703.539073944 48268463.247272491 0 48268463.247272491 -10355.981494659267 0 0 0 0 -32273640.659268856 24472586.579493523 0 24472586.579493523 4056210.4585189819 0 0 0 0 -34744468.783335686 38136295.814273834 0 38136295.814273834 -15094734.34526062 0 0 0 0 -62805761.25579071 42624111.13028717 0 42624111.13028717 -686.60560841693575 0 0 0 0 75884067.852456063 43165096.946481317 0 43165096.946481317 -6100655.0795288086 0 0 0 0 58824070.015319824 47730587.141643524 0 47730587.141643524 -9936.0366134643555 0 0 0 0 29448963.038482666 28901759.729320526 0 28901759.729320526 680034.13514709473 0 0 0 0 64833053.097572327 34342588.641456604 0 34342588.641456604 -5680986.2325439453 0 0 0 0 9197341.3937768936 44954140.078501701 0 44954140.078501701 27365788.716583252 0 0 0 0 64507611.991577148 48934594.294662476 0 48934594.294662476 -1083692.3519172668 0 0 0 0 42317586.641540527 8487385.9145393372 0 8487385.9145393372 -4230726.4594650269 0 0 0 0 26312693.046382904 73502183.586734772 0 73502183.586734772 -10365341.925231934 0 0 0 0 3058261.0452079773 54395921.930038452 0 54395921.930038452 -23928793.755828857 0 0 0 0 -16980236.464836121 19779775.935997009 0 19779775.935997009 -11697685.831163406 0 0 0 0 637725.99494484067 833684.30393702537 0 833684.30393702537 -904075.34066599607 0 0 0 0 -14269445.08026123 17461823.839447021 0 17461823.839447021 -9851737.9914169312 0 0 0 0 19944340.993843079 -2496425.7311248779 0 -2496425.7311248779 -76792412.001842499 0 0 0 0 -4586576.0135774612 27998960.911298275 0 27998960.911298275 40467565.231529236 0 0 0 0 -24215813.052333832 11870723.020015717 0 11870723.020015717 28967452.115341187 0 0 0 0 -16840561.668140411 -14053026.342906952 0 -14053026.342906952 119781319.61656857 0 0 0 0 -14191603.630058289 109072026.5199585 0 109072026.5199585 88152250.508171082 0 0 0 0 2493566.9674753956 9260096.1670233794 0 9260096.1670233794 -3781773.7449882291 0 0 0 0 6782449.3021774292 62985658.123096466 0 62985658.123096466 -52929938.398635864 0 0 0 0 78224159.602989197 -3087016.2565917969 0 -3087016.2565917969 1321289.4502944946 0 0 0 0 95314956.451934814 -85090273.827583313 0 -85090273.827583313 -105529617.09567833 0 0 0 0 2963915.7867424935 9023837.2019683644 0 9023837.2019683644 -3395202.4487310424 0 0 0 0 -24621699.563652039 33730436.842178345 0 33730436.842178345 73228130.969557762 0 0 0 0 -93621664.629119873 31745780.681358337 0 31745780.681358337 230340212.89203262 0 0 0 0 -662015.57518384233 -70534.944922149181 0 -70534.944922149181 822292.19810046256 0 0 0 0 29413044.854850769 152591614.55394363 0 152591614.55394363 75877672.154003143 0 0 0 0 5300750.867477417 -8727480.5010051727 0 -8727480.5010051727 11476661.435028076 0 0 0 0 -7185969.4395885468 4460205.831776619 0 4460205.831776619 7660515.545249939 0 0 0 0 -5577268.8741002902 3990642.2657930274 0 3990642.2657930274 1099340.8200439969 0 0 0 0 118559726.03448868 -81594987.040328026 0 -81594987.040328026 43959211.474197388 0 0 0 0 -4456012.3464194424 4467288.192712158 0 4467288.192712158 -1630162.2180571966 0 0 0 0 167811.00042953342 2190403.1750630904 0 2190403.1750630904 61630.172417262569 0 0 0 0 239652568.46647644 -66336630.771057129 0 -66336630.771057129 15199233.442363739 0 0 0 0 -20199204.462902069 -15527107.191745758 0 -15527107.191745758 25886911.961894989 0 0 0 0 -4875037.4940681458 12663711.394641876 0 12663711.394641876 24197724.864204407 0 0 0 0 -5132631.6477355957 1152699.8386230469 0 1152699.8386230469 11548570.128884465 0 0 0 0 -3863855.2831420898 -1274754.9958000183 0 -1274754.9958000183 11558141.443017185 0 0 0 0 -4093879.4312973022 -242099.43955612183 0 -242099.43955612183 9604304.5430327654 0 0 0 0 -3372881.9958534241 704651.67065811157 0 704651.67065811157 6644639.7429771423 0 0 0 0 -5722197.7576141357 2358179.7577705383 0 2358179.7577705383 9672134.6383206844 0 0 0 0 -550417.74771118164 2164233.515460968 0 2164233.515460968 7384183.0810241699 0 0 0 0 -3342634.6332825199 4092749.9359779134 0 4092749.9359779134 968516.64955333807 0 0 0 0 -7365379.6369690895 6448755.8279325962 0 6448755.8279325962 27862184.852386475 0 0 0 0 -4252756.8031349182 3538854.4388923645 0 3538854.4388923645 7227766.0557632446 0 0 0 0 -702356.128490448 10466055.480138779 0 10466055.480138779 -6657192.7069244385 0 0 0 0 -2549271.4939880371 11258662.673021317 0 11258662.673021317 6439164.4390716553 0 0 0 0 181771.01797485352 14744090.700447083 0 14744090.700447083 7339825.0067138672 0 0 0 0 1069652.6841621399 12624333.389984131 0 12624333.389984131 10006506.739814758 0 0 0 0 7593270.3079147339 16157502.177555084 0 16157502.177555084 2326227.3025054932 0 0 0 0 193790.6813005507 178699.04786609486 0 178699.04786609486 92201.772292405367 0 0 0 0 5620997.5509300232 10367727.709350586 0 10367727.709350586 238781.25770282745 0 0 0 0 -354759.13048083708 937267.51612779498 0 937267.51612779498 340742.52956304885 0 0 0 0 -3419097.275138855 2414140.8759727478 0 2414140.8759727478 3211961.380531311 0 0 0 0 -111681.99297486618 341857.36054680124 0 341857.36054680124 60502.248132851906 0 0 0 0 -5074534.5477695465 -9695939.0392131805 0 -9695939.0392131805 -6513058.3311233521 0 0 0 0 1939791.8996448517 3424176.860704422 0 3424176.860704422 -16858197.268211365 0 0 0 0 -1811865.306312561 17839029.61530304 0 17839029.61530304 -43406287.510406494 0 0 0 0 -27841373.89458847 36632335.79328537 0 36632335.79328537 -24554493.263092041 0 0 0 0 -77022080.590148926 9780063.3301811218 0 9780063.3301811218 5957317.9433135986 0 0 0 0 -13406712.623222351 1822323.1019287109 0 1822323.1019287109 3595182.7295532227 0 0 0 0 -32316633.54675293 25761925.678058624 0 25761925.678058624 -2057919.0026855469 0 0 0 0 -13863256.438735962 13710832.640602112 0 13710832.640602112 7285439.8397064209 0 0 0 0 -18079912.618057251 13644908.273658752 0 13644908.273658752 7390390.9896240234 0 0 0 0 -13858538.01499939 2416779.7164077759 0 2416779.7164077759 11051953.137115479 0 0 0 0 -25607251.674720764 3349777.6788005829 0 3349777.6788005829 7417696.2719573975 0 0 0 0 -10612906.788818359 5039905.7119445801 0 5039905.7119445801 7062188.8188476562 0 0 0 0 -10175128.48046875 6504184.3097839355 0 6504184.3097839355 10726787.591461182 0 0 0 0 -4289354.872253418 18112279.965614319 0 18112279.965614319 -15173381.627829552 0 0 0 0 -10827007.177352905 17777888.171264648 0 17777888.171264648 -15867824.03301239 0 0 0 0 -9833363.7465896606 14138787.102218628 0 14138787.102218628 -6247820.2984008789 0 0 0 0 -16440495.157561302 21115752.702737808 0 21115752.702737808 -1271996.2138671875 0 0 0 0 -11072024.788200378 14417059.825393677 0 14417059.825393677 4824849.0757751465 0 0 0 0 -11898129.11920166 17575598.202171326 0 17575598.202171326 9449732.0823287964 0 0 0 0 -5628693.9694900513 15644112.901863098 0 15644112.901863098 9910277.6511230469 0 0 0 0 -8185302.0936431885 13409205.011146545 0 13409205.011146545 12624413.07649231 0 0 0 0 -17103163.059715271 15717801.486671448 0 15717801.486671448 12103424.707427979 0 0 0 0 -2739202.312789917 16072971.997924805 0 16072971.997924805 14549416.488838196 0 0 0 0 -11437750.942893982 15870118.268703461 0 15870118.268703461 14564777.041984558 0 0 0 0 -1221446.0510101318 8043018.3141212463 0 8043018.3141212463 19152854.936920166 0 0 0 0 -3285916.4788360596 4797128.6989059448 0 4797128.6989059448 14062011.886260986 0 0 0 0 -13480878.953369141 3754252.7707366943 0 3754252.7707366943 14662409.867004395 0 0 0 0 -8298262.4447937012 2366800.2158813477 0 2366800.2158813477 19711839.052124023 0 0 0 0 -10228744.70199585 9850277.2169036865 0 9850277.2169036865 15021685.149442673 0 0 0 0 -18923268.911029816 12590648.899486542 0 12590648.899486542 15562268.643844604 0 0 0 0 -865620.108543396 6814049.3579483032 0 6814049.3579483032 15384743.269737244 0 0 0 0 -14323171.272251129 10074964.071414948 0 10074964.071414948 16465422.42098999 0 0 0 0 -6352546.9386978149 4688474.5418014526 0 4688474.5418014526 22396793.755096436 0 0 0 0 -3677197.4978141785 491118.16727161407 0 491118.16727161407 18988379.213363647 0 0 0 0 3299850.2019882202 21182916.393547058 0 21182916.393547058 5375365.742017746 0 0 0 0 -15805285.938426971 5199926.9404907227 0 5199926.9404907227 17364178.217540741 0 0 0 0 -21229769.865607262 31639233.458127499 0 31639233.458127499 1665882.8426361084 0 0 0 0 -1549988.4461954683 10787122.681796109 0 10787122.681796109 4287705.2296310496 0 0 0 0 -8339351.7145080566 11932154.327964783 0 11932154.327964783 12319467.263534546 0 0 0 0 -2667070.9937667847 12245978.618331909 0 12245978.618331909 12229226.375385284 0 0 0 0 -2184711.6322539151 10716569.508558109 0 10716569.508558109 4876438.0527162775 0 0 0 0 -1134695.1473479941 9482354.9421964362 0 9482354.9421964362 5188533.5209653601 0 0 0 0 -2799160.512922287 12978660.778766632 0 12978660.778766632 9032637.8334350586 0 0 0 0 -2514933.5916557312 10788253.078338623 0 10788253.078338623 6225485.7853469849 0 0 0 0 1159743.4385871887 14111486.270390511 0 14111486.270390511 4006904.9935531616 0 0 0 0 287731.97827529907 9652417.5769233704 0 9652417.5769233704 -480205.08480834961 0 0 0 0 -512080.43519297987 9716760.7565053925 0 9716760.7565053925 4245786.3777375929 0 0 0 0 1336763.2710647583 15326760.05947113 0 15326760.05947113 10101957.210826874 0 0 0 0 15459615.709434509 22591711.079799652 0 22591711.079799652 7168059.6022949219 0 0 0 0 13187561.61353302 10852848.173187256 0 10852848.173187256 6053697.5039863586 0 0 0 0 -5367854.8009037971 17931397.49252224 0 17931397.49252224 18719085.235031128 0 0 0 0 -5283090.1413345337 3310163.7402267456 0 3310163.7402267456 6697468.2791576385 0 0 0 0 -4680064.1554613076 3712369.5734266862 0 3712369.5734266862 8052652.317845542 0 0 0 0 9432543.259932518 23905328.922891617 0 23905328.922891617 15747182.185684204 0 0 0 0 -8097287.4556045532 10133481.328330994 0 10133481.328330994 25856180.359333038 0 0 0 0 -687353.02615083382 398995.54134939052 0 398995.54134939052 -191118.19400089979 0 0 0 0 -3187778.6814694107 10860778.746684939 0 10860778.746684939 9408292.3832684681 0 0 0 0 -2676147.6684303284 12245904.383579254 0 12245904.383579254 -2602701.9445953369 0 0 0 0 -24333876.666948318 1698208.4656200409 0 1698208.4656200409 15653316.199424744 0 0 0 0 -223102.8281288147 9203634.271232605 0 9203634.271232605 -2765029.298938036 0 0 0 0 -7278750.9086761475 10835698.623636246 0 10835698.623636246 12570401.168979645 0 0 0 0 -5897.5169448852539 10366677.991977692 0 10366677.991977692 -6517065.0710525513 0 0 0 0 736544.02426147461 7169082.1691627502 0 7169082.1691627502 -2440872.4557800293 0 0 0 0 1862070.1250285078 6821293.1293304972 0 6821293.1293304972 -3656376.7370344996 0 0 0 0 11168927.860696793 7374210.4175179005 0 7374210.4175179005 -30106911.031320572 0 0 0 0 -65917.544336836785 1700423.7427295092 0 1700423.7427295092 158800.58731959481 0 0 0 0 9204277.6904449463 19119950.885311127 0 19119950.885311127 -27448131.729536057 0 0 0 0 -2701750.6909828186 5725476.4865493774 0 5725476.4865493774 -9960732.3924789429 0 0 0 0 359947.2560425885 9636904.1228209995 0 9636904.1228209995 2306717.6977481274 0 0 0 0 289961.72277898714 6832008.4083762839 0 6832008.4083762839 3707460.6203007274 0 0 0 0 2539758.0151062012 5823965.7242050171 0 5823965.7242050171 -9057097.2571411133 0 0 0 0 2762915.9805140123 3928193.214611589 0 3928193.214611589 -12012811.566596542 0 0 0 0 2584729.6929826736 11294113.653616071 0 11294113.653616071 -18900528.911941528 0 0 0 0 35153098.617027283 8276949.9951906204 0 8276949.9951906204 -19334567.39181757 0 0 0 0 -3229976.7947921753 6106937.4703474045 0 6106937.4703474045 -12688039.96792984 0 0 0 0 -645816.3799956888 1902317.3151394883 0 1902317.3151394883 -668672.37082902901 0 0 0 0 12155109.873497009 5048361.4113497734 0 5048361.4113497734 -13193454.709232807 0 0 0 0 10676500.822395325 8769497.779258728 0 8769497.779258728 -4008059.9179601669 0 0 0 0 13181914.50365448 10722734.033188343 0 10722734.033188343 -26610267.188115835 0 0 0 0 -172761.85727310181 3783039.1179556847 0 3783039.1179556847 -22798716.197492599 0 0 0 0 1734917.5391197782 3809892.1394507 0 3809892.1394507 -5737714.5640175054 0 0 0 0 -1548603.6071434021 23358293.617888927 0 23358293.617888927 -30847513.769086838 0 0 0 0 -15598302.806671143 30460587.329349518 0 30460587.329349518 37839.994108200073 0 0 0 0 -7064215.2326889038 12303155.963478088 0 12303155.963478088 20837262.753223419 0 0 0 0 -181207.34482371062 9281825.7567014303 0 9281825.7567014303 184971.03471472394 0 0 0 0 6650634.5417165756 7560690.1368663311 0 7560690.1368663311 -25108709.88848877 0 0 0 0 9413140.6510620117 18954503.015607834 0 18954503.015607834 -10347808.825061798 0 0 0 0 2324707.1375285685 7039307.9519141046 0 7039307.9519141046 -3856985.3551097065 0 0 0 0 130217.13067610189 760214.57188483141 0 760214.57188483141 2029085.2779021952 0 0 0 0 6255615.557762146 44648000.960502625 0 44648000.960502625 1950483.3625545502 0 0 0 0 35177603.857753754 30833158.245409012 0 30833158.245409012 -15315981.740150452 0 0 0 0 21858049.173832893 26276823.759506226 0 26276823.759506226 -2450459.1493759155 0 0 0 0 1007925.8134389035 8442656.1166636329 0 8442656.1166636329 -4311685.6815471314 0 0 0 0 5815165.3892364502 -12136927.558015823 0 -12136927.558015823 22618533.661330223 0 0 0 0 6843868.4010543823 27285706.189089298 0 27285706.189089298 7986972.4021568298 0 0 0 0 2975842.057510376 20725774.759918213 0 20725774.759918213 -2867968.3233261108 0 0 0 0 -3079397.2779970169 -13355588.910196066 0 -13355588.910196066 26834033.346294403 0 0 0 0 1423072.7970882803 1228371.950985 0 1228371.950985 -3702401.8099006694 0 0 0 0 19294150.969142914 5520842.3776416779 0 5520842.3776416779 -21231377.935798645 0 0 0 0 5768150.0185508728 13201814.520755291 0 13201814.520755291 -25848854.722910404 0 0 0 0 1536890.5519578978 10108276.081670538 0 10108276.081670538 -4608625.071977159 0 0 0 0 -775526.61245346069 11100274.604943275 0 11100274.604943275 -20616710.541121483 0 0 0 0 -9970678.2925872803 26819550.744626999 0 26819550.744626999 10526799.671489716 0 0 0 0 -24063433.848945618 28195919.397769928 0 28195919.397769928 13068635.19950676 0 0 0 0 -323301.59029785171 7376335.1401529461 0 7376335.1401529461 -7294052.942988364 0 0 0 0 -22538312.976127625 2037533.1101779938 0 2037533.1101779938 -2972931.3097801208 0 0 0 0 -7689469.9647598267 14139667.533550262 0 14139667.533550262 4774022.0316004753 0 0 0 0 2630416.1391847208 11984548.087245174 0 11984548.087245174 -6995223.305064939 0 0 0 0 5165566.2655181885 16003081.357402802 0 16003081.357402802 -6205567.943365097 0 0 0 0 1404729.2169589996 10986553.917735815 0 10986553.917735815 -29221360.892497063 0 0 0 0 9036189.0407295227 6616379.5815658569 0 6616379.5815658569 9519745.7810897827 0 0 0 0 -1203442.7261202112 12970754.802832639 0 12970754.802832639 -7219440.9610235207 0 0 0 0 598822.85009765625 4961439.5759658813 0 4961439.5759658813 -2568740.3885040283 0 0 0 0 382548.7762307534 12003346.32117182 0 12003346.32117182 -7707545.4482634068 0 0 0 0 18199437.877658844 26828331.882112503 0 26828331.882112503 -16198730.641433716 0 0 0 0 4434081.8452224731 5765465.4975452423 0 5765465.4975452423 -4677055.5742111206 0 0 0 0 6150066.0460152701 7243215.178659007 0 7243215.178659007 -330213.6018158067 0 0 0 0 -14685637.935874939 21047979.0817976 0 21047979.0817976 13308463.250478745 0 0 0 0 -3414809.985786438 35607496.033037186 0 35607496.033037186 19888154.882621765 0 0 0 0 561053.93677068129 11933963.738602547 0 11933963.738602547 -12293912.046325948 0 0 0 0 -2301823.7832114995 980109.76821185835 0 980109.76821185835 3025803.1938519855 0 0 0 0 -7972095.0550842285 24119190.989852905 0 24119190.989852905 5865469.2204437256 0 0 0 0 -5456425.7572937012 48063148.779243469 0 48063148.779243469 -31191721.259094238 0 0 0 0 -2775462.7945742179 12380776.466248292 0 12380776.466248292 31269.441063206643 0 0 0 0 85205717.382125854 3331617.1679916382 0 3331617.1679916382 -10913932.184692383 0 0 0 0 -2690741.6421333551 513415.62041763961 0 513415.62041763961 652181.89939113706 0 0 0 0 3044906.5998003483 8222365.1338008605 0 8222365.1338008605 -876726.25136248022 0 0 0 0 3216123.4330444336 19677598.550327301 0 19677598.550327301 1126555.8123550415 0 0 0 0 776959.74099731445 18451735.504005432 0 18451735.504005432 7800817.1354827881 0 0 0 0 12574228.94165802 21058605.008628845 0 21058605.008628845 5386047.1614456177 0 0 0 0 20535073.271034241 16650777.896179199 0 16650777.896179199 972422.23203659058 0 0 0 0 -1096913.4775462039 16691096.337896412 0 16691096.337896412 2210799.222498104 0 0 0 0 -6104430.1780929565 23825118.829551697 0 23825118.829551697 8433498.8861236572 0 0 0 0 35989679.292770386 34688779.054039001 0 34688779.054039001 -3083947.4796218872 0 0 0 0 5812714.1698570251 23422965.982084274 0 23422965.982084274 -3484358.6346702576 0 0 0 0 -36160974.966659546 30843502.176595688 0 30843502.176595688 9193331.3483657837 0 0 0 0 16283.401793480851 13904913.17078927 0 13904913.17078927 5281014.1794234812 0 0 0 0 -307048.1083278656 40911270.636483192 0 40911270.636483192 1786437.3367156982 0 0 0 0 -37083624.987545013 6318770.7833156586 0 6318770.7833156586 5213769.6394805908 0 0 0 0 31261071.473503113 22752754.206960678 0 22752754.206960678 -11009082.267318726 0 0 0 0 42518954.902809143 28912239.757362366 0 28912239.757362366 -8364095.8839035034 0 0 0 0 40159705.300163269 73965279.916168213 0 73965279.916168213 54248637.441955566 0 0 0 0 76034663.068649292 30839311.50553894 0 30839311.50553894 -21369227.22593689 0 0 0 0 18405797.607940674 41800561.937850952 0 41800561.937850952 10183287.757137299 0 0 0 0 1287753.9329071045 45756121.294200897 0 45756121.294200897 11456016.090277672 0 0 0 0 20175876.976860046 24848056.409366608 0 24848056.409366608 -11210197.275344849 0 0 0 0 5920633.0052032471 22724516.209938049 0 22724516.209938049 707467.3177986145 0 0 0 0 13691894.833370209 9008781.864944458 0 9008781.864944458 -8276153.273147583 0 0 0 0 23208941.521614075 19189905.631233215 0 19189905.631233215 -2035696.4994103909 0 0 0 0 -129611.67828546837 10555665.231775805 0 10555665.231775805 -5357801.8057996947 0 0 0 0 3379905.7772598267 21407098.009593964 0 21407098.009593964 -14597219.959378362 0 0 0 0 7617318.9379615784 -3681735.7844734192 0 -3681735.7844734192 18826113.656799316 0 0 0 0 9090995.1694335938 -2222389.5132904053 0 -2222389.5132904053 3790772.4445266724 0 0 0 0 10084797.732299805 -5723326.4276428223 0 -5723326.4276428223 20548566.707111359 0 0 0 0 -165564.06825749762 236663.3650438562 0 236663.3650438562 486280.82574703917 0 0 0 0 9681568.0764312744 -3672125.4815158844 0 -3672125.4815158844 7796001.7604522705 0 0 0 0 3996425.440839272 5505121.9971227478 0 5505121.9971227478 -4601279.8446271122 0 0 0 0 17753329.913482666 11643304.086776733 0 11643304.086776733 -8754830.0810203552 0 0 0 0 24149047.655788422 -21987431.141101837 0 -21987431.141101837 -23566652.703094482 0 0 0 0 33532756.836830139 9553496.1859588623 0 9553496.1859588623 2860537.3408792019 0 0 0 0 168073214.76168537 1048680.1198849678 0 1048680.1198849678 -3099899.9721069336 0 0 0 0 91279954.128332615 158356132.81559968 0 158356132.81559968 138646137.09001923 0 0 0 0 -4105816.550734967 3761346.7875786312 0 3761346.7875786312 1256231.7979293466 0 0 0 0 596013.69470515847 -31919.704406917095 0 -31919.704406917095 -462734.3852334246 0 0 0 0 -207299.04279804975 216115.49556469731 0 216115.49556469731 32867.273915145546 0 0 0 0 158492248.47177124 67888101.357048035 0 67888101.357048035 63684037.994277954 0 0 0 0 94810955.178474426 94426924.20161438 0 94426924.20161438 199528731.9056778 0 0 0 0 20945709.234092712 -22423676.042762756 0 -22423676.042762756 -13066115.444168091 0 0 0 0 -4406394.9081020355 -7000658.2218818665 0 -7000658.2218818665 8870076.6004180908 0 0 0 0 -18089848.288650513 -2645719.5907974243 0 -2645719.5907974243 7641254.2739486694 0 0 0 0 826406.32960414886 79754043.241030216 0 79754043.241030216 -12335517.052284241 0 0 0 0 -15164932.263233185 -28725779.704120636 0 -28725779.704120636 -3755614.5511322021 0 0 0 0 249293703.02909851 58700600.094902039 0 58700600.094902039 -44089182.731925964 0 0 0 0 -4390214.2489530481 4270823.1915065311 0 4270823.1915065311 -908012.9750478901 0 0 0 0 79317243.981529236 59038803.23531723 0 59038803.23531723 49249628.826324463 0 0 0 0 17526227.139297485 35127067.95475769 0 35127067.95475769 78125362.630157471 0 0 0 0 -31100265.279510498 126655244.39099121 0 126655244.39099121 195709162.00543213 0 0 0 0 -66422793.569473267 47925056.795440674 0 47925056.795440674 181143124.61271667 0 0 0 0 -95868013.83703804 -51366685.087396622 0 -51366685.087396622 84691476.591720581 0 0 0 0 32045683.874454498 -69211081.376293182 0 -69211081.376293182 -102318858.66294098 0 0 0 0 -2053283.7512333207 2973691.9656013884 0 2973691.9656013884 2042259.1713146921 0 0 0 0 59350812.48374939 -5088111.15284729 0 -5088111.15284729 -8290321.6856307983 0 0 0 0 -6637174.6312103271 30008622.706214905 0 30008622.706214905 -24570594.186439514 0 0 0 0 -13875651.338607788 7510228.5063171387 0 7510228.5063171387 20408511.047886848 0 0 0 0 -67806932.41494751 -10229683.555252075 0 -10229683.555252075 18750906.378050804 0 0 0 0 -1915952.6773022413 8533635.9882166013 0 8533635.9882166013 2829653.4182243273 0 0 0 0 10149448.472808838 11978536.495201111 0 11978536.495201111 6925704.897228241 0 0 0 0 -36666683.769241333 -31790527.934646606 0 -31790527.934646606 -25090289.071334839 0 0 0 0 4906734.22706604 17208679.53924942 0 17208679.53924942 2443101.1574554443 0 0 0 0 23907536.106365204 40267041.903715134 0 40267041.903715134 20610299.005401611 0 0 0 0 -34393461.871185303 -25692724.675300598 0 -25692724.675300598 6977716.4626922607 0 0 0 0 -60100657.445234299 -37130824.335666656 0 -37130824.335666656 11686727.95765686 0 0 0 0 -44094258.061257362 8598460.3711152673 0 8598460.3711152673 49362122.34324646 0 0 0 0 -61921947.347541809 10284753.959403992 0 10284753.959403992 28133027.453094482 0 0 0 0 -44250016.775243819 342652.31936907768 0 342652.31936907768 -13142025.225662231 0 0 0 0 -16476222.381984711 41437306.362163544 0 41437306.362163544 56910012.578948975 0 0 0 0 -19749429.951583862 11090825.361808777 0 11090825.361808777 35597797.149681091 0 0 0 0 -14673905.966598511 38241787.945991516 0 38241787.945991516 108221540.21621704 0 0 0 0 33054134.307998657 46773336.20425415 0 46773336.20425415 50003475.480142593 0 0 0 0 173207487.83134556 111528595.75456643 0 111528595.75456643 39450730.349761963 0 0 0 0 47004492.694000244 90238832.017623901 0 90238832.017623901 173367509.94967651 0 0 0 0 37198011.881786346 23385343.856578827 0 23385343.856578827 56904185.422821045 0 0 0 0 48069522.798217773 -7381253.5834960938 0 -7381253.5834960938 142735204.73098755 0 0 0 0 -19230355.929672241 1132439.9648742676 0 1132439.9648742676 65054142.794235229 0 0 0 0 2405555.0631542299 4572708.1209881455 0 4572708.1209881455 110829.76485245675 0 0 0 0 14962681.660575867 16116184.224489212 0 16116184.224489212 7179459.5548763275 0 0 0 0 74367.993603825569 14051121.100916781 0 14051121.100916781 7584632.0571376607 0 0 0 0 2606645.3162612915 6460747.6753120422 0 6460747.6753120422 3592745.4857883453 0 0 0 0 10842308.650398254 9705588.4543275833 0 9705588.4543275833 -919801.17422485352 0 0 0 0 11658845.563187651 9461399.2182765715 0 9461399.2182765715 -1127500.1153690703 0 0 0 0 872213.46098282561 8546080.2631692681 0 8546080.2631692681 3579114.316134721 0 0 0 0 -9495489.206161499 7024860.7278862 0 7024860.7278862 -2027077.7718186378 0 0 0 0 374206.98929705098 9244292.3049599491 0 9244292.3049599491 2141419.1172518842 0 0 0 0 23664150.404151917 36576213.449207306 0 36576213.449207306 35596970.031330109 0 0 0 0 -14764702.654495239 5067337.3223667145 0 5067337.3223667145 2521973.4467658997 0 0 0 0 -2482573.2216881327 1586975.6964565367 0 1586975.6964565367 1295367.0518034138 0 0 0 0 -48631870.911998749 -12568485.987632751 0 -12568485.987632751 12764963.107727051 0 0 0 0 -674397.31533011049 150144.78810803592 0 150144.78810803592 622707.5339505244 0 0 0 0 9754021.4858856201 10356521.70659256 0 10356521.70659256 4670118.1595420837 0 0 0 0 545208.99574912339 5990875.9294371828 0 5990875.9294371828 1471202.5227319971 0 0 0 0 15904422.937633514 13938932.865113258 0 13938932.865113258 3742234.0005187988 0 0 0 0 -301677.64032788016 2508155.7794735208 0 2508155.7794735208 160136.4254273437 0 0 0 0 5266890.3053741455 4635004.845993042 0 4635004.845993042 12532233.703788757 0 0 0 0 -34968642.51723671 70254098.959209442 0 70254098.959209442 -124535449.80701065 0 0 0 0 -150606442.27974701 141850124.95907784 0 141850124.95907784 -13575937.691530228 0 0 0 0 -413932100.64607048 138076285.7661047 0 138076285.7661047 49063469.502983093 0 0 0 0 -166619.8971392028 891454.05651593208 0 891454.05651593208 44337.810468502343 0 0 0 0 -47101851.016525269 280767531.36858368 0 280767531.36858368 -53244443.457487106 0 0 0 0 59297908.908554077 46835161.411231995 0 46835161.411231995 8349609.7074928284 0 0 0 0 46439698.560783386 30337692.550638199 0 30337692.550638199 -23233828.704864502 0 0 0 0 1235106.3058453538 2132035.4453246891 0 2132035.4453246891 -458187.9401832521 0 0 0 0 24261031.367492676 23272774.564586639 0 23272774.564586639 33853863.442562103 0 0 0 0 26459721.970596313 14438231.211433411 0 14438231.211433411 -9095472.9790802002 0 0 0 0 4073165.3821258545 29789153.016746521 0 29789153.016746521 18761012.640277863 0 0 0 0 22694353.866634369 21682941.240160942 0 21682941.240160942 12186785.03969574 0 0 0 0 40153857.010131836 18167143.160943985 0 18167143.160943985 6838046.8456344604 0 0 0 0 20554146.95759964 16774713.512325287 0 16774713.512325287 4546771.9197616577 0 0 0 0 6347389.1533432007 10797927.017290115 0 10797927.017290115 13438693.212165833 0 0 0 0 4694257.0964202881 7551029.6529006958 0 7551029.6529006958 8882645.5460467339 0 0 0 0 38796233.716798782 12352258.647408485 0 12352258.647408485 -38042091.646850586 0 0 0 0 -22164983.580993652 11675774.448143005 0 11675774.448143005 9906764.2780923843 0 0 0 0 3698049.6875762939 16316578.522151947 0 16316578.522151947 -10493773.365562439 0 0 0 0 -83226599.533943176 27928636.064849854 0 27928636.064849854 -9592448.4493942261 0 0 0 0 -7081378.7570495605 -24367559.676906586 0 -24367559.676906586 -60170180.273178101 0 0 0 0 -1431782.0121765137 44039345.266601562 0 44039345.266601562 -37078877.430221558 0 0 0 0 68613371.011260986 25071861.59715271 0 25071861.59715271 -48831182.736629486 0 0 0 0 10720776.446746826 74899216.656244278 0 74899216.656244278 -83661578.646392822 0 0 0 0 67724269.319904327 16172577.425976753 0 16172577.425976753 -129320799.11196899 0 0 0 0 35210738.472503662 65030147.031967163 0 65030147.031967163 -60415738.964889526 0 0 0 0 18653246.655410767 85289298.589927673 0 85289298.589927673 -85190925.592834473 0 0 0 0 33871478.149963379 60309556.714439392 0 60309556.714439392 -4029839.5125350952 0 0 0 0 143671809.72286987 77744066.174240112 0 77744066.174240112 -85594929.548297882 0 0 0 0 119739948.39130402 -17108308.350273132 0 -17108308.350273132 58479901.620742798 0 0 0 0 -1019854.0160522461 108162129.96720505 0 108162129.96720505 26703822.447799683 0 0 0 0 188949091.83076477 43989424.303554535 0 43989424.303554535 -63115685.26285553 0 0 0 0 -219791913.90861511 16730322.150831223 0 16730322.150831223 43751102.238342285 0 0 0 0 -2529393.4606241826 1870305.058565598 0 1870305.058565598 1081167.8043624684 0 0 0 0 -113871028.81997681 126893967.28414154 0 126893967.28414154 -13709714.289505005 0 0 0 0 36423943.101623535 73204097.496284485 0 73204097.496284485 -23473079.742782593 0 0 0 0 -97631273.007904053 -3836137.0780563354 0 -3836137.0780563354 5160782.1465034485 0 0 0 0 -111883605.17041206 89197245.43737936 0 89197245.43737936 -9153760.4290771484 0 0 0 0 -7190119.496307373 43215640.06652832 0 43215640.06652832 -2644132.1055908203 0 0 0 0 -15174517.669590589 18409786.933598809 0 18409786.933598809 -1415354.5176724615 0 0 0 0 -37068163.026885986 28270878.953933716 0 28270878.953933716 14207767.074241638 0 0 0 0 -38164740.114013672 27788993.011566162 0 27788993.011566162 14150057.648186684 0 0 0 0 -13547444.438655853 30465612.447746754 0 30465612.447746754 27492528.326635361 0 0 0 0 -46087821.495300293 47815035.869400024 0 47815035.869400024 -1329910.2167205811 0 0 0 0 -39724156.282318115 27534599.998945236 0 27534599.998945236 14938278.707519531 0 0 0 0 -41847449.744354248 9911318.9437103271 0 9911318.9437103271 5835129.3527173996 0 0 0 0 -39096557.120788574 28272433.38999939 0 28272433.38999939 15734560.139389038 0 0 0 0 -80239430.15246582 28848226.094226837 0 28848226.094226837 15735564.157546997 0 0 0 0 -24748019.926002502 22118603.947116852 0 22118603.947116852 4811905.944229126 0 0 0 0 -14548101.00793457 168478240.70988464 0 168478240.70988464 -122334070.96356201 0 0 0 0 -81298622.466247559 111917278.11036682 0 111917278.11036682 139859192.46673584 0 0 0 0 -9064859.9154054262 7459843.7871575952 0 7459843.7871575952 4624310.6416585855 0 0 0 0 5432964.8350219727 141128547.74669266 0 141128547.74669266 -21124975.262542725 0 0 0 0 12070456.903930664 130041272.39784622 0 130041272.39784622 -9717290.2096405029 0 0 0 0 25815018.623458862 123783567.91173172 0 123783567.91173172 -18470681.003341675 0 0 0 0 21696708.741851807 128528428.52882385 0 128528428.52882385 -18261471.835809708 0 0 0 0 4979347.8069648743 -29093033.928025484 0 -29093033.928025484 43972410.220855713 0 0 0 0 -5390211.0381634608 389735.1819720827 0 389735.1819720827 5600207.211793635 0 0 0 0 25734923.944335938 60580655.62237978 0 60580655.62237978 10690235.80915451 0 0 0 0 -60507356.873680115 37417919.620344162 0 37417919.620344162 25950588.275157928 0 0 0 0 -8435674.0662756972 7971997.7833582517 0 7971997.7833582517 5553752.1476680581 0 0 0 0 -13806055.780603312 16395807.534000199 0 16395807.534000199 -8332753.9089168115 0 0 0 0 11682917.670974731 -630742.2606048584 0 -630742.2606048584 25165588.605688095 0 0 0 0 -4030219.6237945557 32042210.364086151 0 32042210.364086151 14995739.480505943 0 0 0 0 -22313778.655500412 37642823.273261547 0 37642823.273261547 27083344.164865494 0 0 0 0 -4313169.0876332074 5111689.7569620442 0 5111689.7569620442 -1572941.4453169317 0 0 0 0 -41690413.930358887 -9599723.1695747375 0 -9599723.1695747375 100053534.31840134 0 0 0 0 -1444098.3873443604 4548566.3329544067 0 4548566.3329544067 -92587.365963935852 0 0 0 0 -929030.87566005439 6842141.3278312422 0 6842141.3278312422 -7221847.6279035155 0 0 0 0 -4305690.0529897735 7616886.5479570143 0 7616886.5479570143 -4678693.2837550696 0 0 0 0 -1394771.3021774292 4242420.5410461426 0 4242420.5410461426 1806572.0256357193 0 0 0 0 -5672876.6815943569 9518316.3646050356 0 9518316.3646050356 -7894023.5501600886 0 0 0 0 -13651942.416396141 78880964.478446007 0 78880964.478446007 20625135.566877365 0 0 0 0 -60299236.326934814 54866359.662677765 0 54866359.662677765 133246531.59899139 0 0 0 0 21762322.944863796 39257405.829487205 0 39257405.829487205 57789868.76423645 0 0 0 0 -124295667.73558044 108196382.83083344 0 108196382.83083344 26512480.90619278 0 0 0 0 -113958445.87162781 -1748827.946395874 0 -1748827.946395874 63057250.82569313 0 0 0 0 8908155.9064254761 700102.168800354 0 700102.168800354 59468416.945922852 0 0 0 0 -12781587.959281921 -51726274.593076706 0 -51726274.593076706 -26172207.124801636 0 0 0 0 -41800184.817321777 -32569285.330282211 0 -32569285.330282211 -24096961.694244385 0 0 0 0 -134500930.06785583 -136914202.94191742 0 -136914202.94191742 -106995188.1541748 0 0 0 0 -3033989.5260658264 123162807.86662006 0 123162807.86662006 -83761017.210739136 0 0 0 0 -65636059.341903687 17508404.176898956 0 17508404.176898956 28551242.047355652 0 0 0 0 -348067851.88456726 59337543.839183807 0 59337543.839183807 25253745.060218811 0 0 0 0 -87396932.329742432 209559111.05335999 0 209559111.05335999 -215036429.15434265 0 0 0 0 4447064.4421386719 72315151.092498779 0 72315151.092498779 -56100577.847255707 0 0 0 0 75556324.491165161 25108907.792251587 0 25108907.792251587 -137574574.85323334 0 0 0 0 -390566013.89303589 118783809.00968552 0 118783809.00968552 3745515.2752838135 0 0 0 0 320975.10823648423 680116.8631112352 0 680116.8631112352 -204363.61082210392 0 0 0 0 55177969.413742065 -12868058.755523682 0 -12868058.755523682 -36617463.883052826 0 0 0 0 -147670469.64351654 -93800110.2429142 0 -93800110.2429142 133514792.00676727 0 0 0 0 -347688288.11706543 157117549.31108475 0 157117549.31108475 -122625417.16258073 0 0 0 0 145486039.98828125 43156635.088329315 0 43156635.088329315 -82170137.082359314 0 0 0 0 530971.83488868922 -692840.2569587715 0 -692840.2569587715 232715.85779883782 0 0 0 0 33493024.59765625 39505794.824958801 0 39505794.824958801 45775964.272914886 0 0 0 0 -21748814.680206299 12843446.482002258 0 12843446.482002258 176385685.98396063 0 0 0 0 5040758.9773406982 1235869.5184173584 0 1235869.5184173584 1461242.6328811646 0 0 0 0 36526174.061229706 -4086021.6153450012 0 -4086021.6153450012 2013869.3216781616 0 0 0 0 47135697.174034119 -17770984.115278244 0 -17770984.115278244 -26664991.736206055 0 0 0 0 -673239.03341674805 -62250030.456375122 0 -62250030.456375122 -67065367.464409828 0 0 0 0 -16231303.086795807 -46036044.629767418 0 -46036044.629767418 26148860.573806763 0 0 0 0 17609321.170654297 -29586665.635150909 0 -29586665.635150909 28524550.77217865 0 0 0 0 -340967.36126992851 4304421.6706145098 0 4304421.6706145098 -2472944.6176555455 0 0 0 0 -210035.30579609424 2168671.3771333806 0 2168671.3771333806 -1394960.857127063 0 0 0 0 -7354462.2641868591 9596623.1813678741 0 9596623.1813678741 -4932916.4176483154 0 0 0 0 -11102925.831508636 17047325.7765522 0 17047325.7765522 -15087586.469619751 0 0 0 0 472604.31112957001 1387334.905284252 0 1387334.905284252 -1192807.8279261068 0 0 0 0 5681041.455871582 10019865.232990265 0 10019865.232990265 -39692252.741186142 0 0 0 0 -1130223.4175643921 12242193.856363297 0 12242193.856363297 -17169720.149978638 0 0 0 0 -29712.37247467041 12597450.782299042 0 12597450.782299042 -18821894.291118622 0 0 0 0 -1209268.7579269409 15032349.937988281 0 15032349.937988281 -25884374.653930664 0 0 0 0 -6531103.2968063354 12743372.026626587 0 12743372.026626587 -13496649.984189034 0 0 0 0 -3209687.4700164795 12749833.463291168 0 12749833.463291168 -18043218.852867126 0 0 0 0 4887.1310195922852 10239596.927726746 0 10239596.927726746 -16260998.614151001 0 0 0 0 -5219445.0911750793 11032163.157910347 0 11032163.157910347 -13842198.638023376 0 0 0 0 -2751670.6448516846 8751786.6255378723 0 8751786.6255378723 -13757883.997585773 0 0 0 0 83774.458195015788 635441.94085812289 0 635441.94085812289 -1643967.3418929353 0 0 0 0 1606622.9267316163 -1940524.1412762087 0 -1940524.1412762087 696158.83822655329 0 0 0 0 4073642.7237091064 -16634157.103710175 0 -16634157.103710175 149022200.49075317 0 0 0 0 8817149.8719291687 -2313372.2025260925 0 -2313372.2025260925 1565470.6666297913 0 0 0 0 -191588.52185472846 -1814020.3842330836 0 -1814020.3842330836 797481.32645339915 0 0 0 0 -2758631.2104492188 7805877.7368774414 0 7805877.7368774414 -17777894.547264099 0 0 0 0 3698395.1932830811 -48919592.141460419 0 -48919592.141460419 451654189.08748627 0 0 0 0 -1114.2377777099609 2334766.6184997559 0 2334766.6184997559 293500.61916875839 0 0 0 0 1923833.2563553378 170333.06166686211 0 170333.06166686211 -1745913.6078012772 0 0 0 0 34276009.542793274 165182098.70038605 0 165182098.70038605 98153894.699783325 0 0 0 0 -430500.35706329346 264082695.71484756 0 264082695.71484756 378871159.86133575 0 0 0 0 164483792.08942413 238430123.92424774 0 238430123.92424774 130050583.64393997 0 0 0 0 1675040.3185577393 349351306.06446457 0 349351306.06446457 57120725.744224548 0 0 0 0 109217985.3156929 140124834.29172134 0 140124834.29172134 -6579005.4207839966 0 0 0 0 148699073.81391907 179044969.10825729 0 179044969.10825729 17486735.757232666 0 0 0 0 51184105.993148804 86123148.515102386 0 86123148.515102386 245648136.58171463 0 0 0 0 11660750.296508789 468611.72222137451 0 468611.72222137451 68618276.172836304 0 0 0 0 54178874.624404907 -18924045.375198364 0 -18924045.375198364 10346257.292366028 0 0 0 0 -180406079.19852448 102417566.37259674 0 102417566.37259674 20922827.15487504 0 0 0 0 -26590727.995857239 -10334221.683418274 0 -10334221.683418274 -36402959.531242371 0 0 0 0 81537248.995544434 106795172.77352524 0 106795172.77352524 90466840.367660522 0 0 0 0 149123777.42672729 140730467.20207977 0 140730467.20207977 27459578.180744171 0 0 0 0 -67030357.008056641 224585395.83112335 0 224585395.83112335 -4163182.4683494568 0 0 0 0 147188431.75178528 96758638.308666229 0 96758638.308666229 -127580868.06282997 0 0 0 0 -160876267.01365662 71972840.765985489 0 71972840.765985489 103737153.43260193 0 0 0 0 -55549241.245697021 75546373.364711761 0 75546373.364711761 80725047.92911911 0 0 0 0 144877547.19393921 131833623.17811584 0 131833623.17811584 82698518.093048096 0 0 0 0 -4870338.5944862366 186936623.87705803 0 186936623.87705803 90891151.535171509 0 0 0 0 472350149.23391724 121524612.17341232 0 121524612.17341232 100780646.02010345 0 0 0 0 250204454.04118347 229717565.47253418 0 229717565.47253418 100290319.18078613 0 0 0 0 326178288.62513733 176613867.22205353 0 176613867.22205353 94201892.443333626 0 0 0 0 147812934.79576874 128541523.75104523 0 128541523.75104523 102302328.61750793 0 0 0 0 348463065.94212532 257616885.84223652 0 257616885.84223652 272233768.7040329 0 0 0 0 644724398.92784882 367347864.50910378 0 367347864.50910378 -14452743.275413513 0 0 0 0 319574.11990356445 70231762.676452637 0 70231762.676452637 69987553.208126068 0 0 0 0 -1041380.5017083474 1916920.4750103168 0 1916920.4750103168 1759829.1183706857 0 0 0 0 329149541.31710815 387863234.49985123 0 387863234.49985123 10234282.640483856 0 0 0 0 281976730.45359802 150883893.83042145 0 150883893.83042145 -1027699.4877624512 0 0 0 0 327359290.77905273 236793948.67444229 0 236793948.67444229 36251718.036079407 0 0 0 0 -3392169.5672149658 31499900.391311646 0 31499900.391311646 -57855856.012016296 0 0 0 0 866401.02951049805 38847829.087516785 0 38847829.087516785 -71869204.248199463 0 0 0 0 -522160.67640686035 31917554.136112213 0 31917554.136112213 -88249052.491924286 0 0 0 0 -8950582.9898529053 50691480.623432159 0 50691480.623432159 -78028735.185223579 0 0 0 0 -6191083.4697570801 42325046.741069794 0 42325046.741069794 -66442302.963989258 0 0 0 0 -4964110.4278373718 35442710.757367134 0 35442710.757367134 -49412227.149446487 0 0 0 0 9573.0969848632812 40755624.454875946 0 40755624.454875946 -67217127.224765778 0 0 0 0 -1778825.8274230957 21735940.222063065 0 21735940.222063065 -43375196.279637337 0 0 0 0 10451668.996932983 32461890.027606964 0 32461890.027606964 -36763470.51079464 0 0 0 0 6463102.6722869873 30471432.838193893 0 30471432.838193893 -60389157.361549377 0 0 0 0 -14023552.279212952 39217556.720338821 0 39217556.720338821 -26848787.694656372 0 0 0 0 3039733.1420898438 32176692.181884766 0 32176692.181884766 -25155897.233284473 0 0 0 0 -8932554.5246582031 38374990.192527771 0 38374990.192527771 -29247147.731984138 0 0 0 0 -25539224.175964355 56015607.685056686 0 56015607.685056686 -39898785.115012169 0 0 0 0 -25261544.306396484 20286383.170824051 0 20286383.170824051 -51857583.358062744 0 0 0 0 6221596.7014465332 22895185.016597748 0 22895185.016597748 -46984235.73828125 0 0 0 0 -10996402.181167603 44043020.023790359 0 44043020.023790359 -300608.88338470459 0 0 0 0 8285823.6789926589 2713516.5964793433 0 2713516.5964793433 -1750783.6793560553 0 0 0 0 6798627.1890449524 34504417.770974159 0 34504417.770974159 -52054783.392009735 0 0 0 0 1894645.1362533569 3324103.6262207031 0 3324103.6262207031 -923736.46388626099 0 0 0 0 4285711.6489639282 5002033.8942995071 0 5002033.8942995071 -4840126.3178825378 0 0 0 0 6300579.8982759938 4140859.0999350287 0 4140859.0999350287 -3608441.9486172274 0 0 0 0 1280510.1488826126 570675.01240865141 0 570675.01240865141 -650281.64927708544 0 0 0 0 8265486.1982879639 27696154.674074173 0 27696154.674074173 -109795099.91352844 0 0 0 0 -41833986.138023376 42367615.30354023 0 42367615.30354023 -24375968.994634628 0 0 0 0 7111808.9796295166 9731277.5380020142 0 9731277.5380020142 3384331.4064788818 0 0 0 0 4846653.7226723358 5077263.6326797903 0 5077263.6326797903 354592.98133637104 0 0 0 0 1115505.0100097656 10181741.303482056 0 10181741.303482056 17361879.050052643 0 0 0 0 -6936954.5291595459 -25366894.744057655 0 -25366894.744057655 2224790.5154647827 0 0 0 0 20268.853218965232 1441428.5598315382 0 1441428.5598315382 310689.58305983478 0 0 0 0 1862346.206161499 5648660.0141983032 0 5648660.0141983032 11975816.114616394 0 0 0 0 9380809.4461975098 12105950.245159149 0 12105950.245159149 5854068.7351531982 0 0 0 0 7056936.8654308319 7259659.2272396088 0 7259659.2272396088 2980651.951499939 0 0 0 0 7876257.0571975708 3017107.5257005692 0 3017107.5257005692 -11659585.31237793 0 0 0 0 21630085.473510742 17602099.416122437 0 17602099.416122437 3806369.8062896729 0 0 0 0 7083672.6562973633 2274024.4962475114 0 2274024.4962475114 -3432836.3010112625 0 0 0 0 -33754084.317841649 -7317383.8064281344 0 -7317383.8064281344 -4293956.680316925 0 0 0 0 -157350.89147949591 -484568.28689434752 0 -484568.28689434752 -532748.87638554722 0 0 0 0 -18156507.713928223 85970262.634016037 0 85970262.634016037 -281546625.44406605 0 0 0 0 -35215805.987846375 -103600747.61661148 0 -103600747.61661148 -152629317.07786369 0 0 0 0 74144083.216445923 -15246474.423009872 0 -15246474.423009872 -205525025.03523129 0 0 0 0 63538206.1759758 -120457314.15378857 0 -120457314.15378857 -300261076.18672943 0 0 0 0 80489980.942062378 -78481270.186004639 0 -78481270.186004639 -206755978.79092121 0 0 0 0 29157005.286056519 -40517079.429940224 0 -40517079.429940224 -179849324.48806763 0 0 0 0 -31863028.497436523 -100954879.96636391 0 -100954879.96636391 -207180281.73369312 0 0 0 0 70250835.181015015 -39496667.887498856 0 -39496667.887498856 -252992238.24472618 0 0 0 0 183112.26793323457 2632051.2354990905 0 2632051.2354990905 952238.8695475948 0 0 0 0 -662896.62372970581 925927.26545810699 0 925927.26545810699 1578342.8558807373 0 0 0 0 36286613.184051514 140194915.84840202 0 140194915.84840202 97003456.726848602 0 0 0 0 -1009124.6263275146 39257373.328443527 0 39257373.328443527 -64854305.439180374 0 0 0 0 1983059.2523964643 2651241.8019704842 0 2651241.8019704842 -96319.781776702031 0 0 0 0 -1215627.3619537354 884259.44988250732 0 884259.44988250732 4608145.5761947632 0 0 0 0 -4446577.2466163635 27380767.626469135 0 27380767.626469135 -88853714.608287811 0 0 0 0 -370430.92679771781 1626005.0287883822 0 1626005.0287883822 -459119.70478656795 0 0 0 0 -26470.500579833984 7731681.9464645386 0 7731681.9464645386 983693.11192142963 0 0 0 0 -51507.029262438416 1230330.4437193461 0 1230330.4437193461 1235709.4520090071 0 0 0 0 -2065783643.3020325 -740260150.47429657 0 -740260150.47429657 1080634107.7320633 0 0 0 0 818378.89236450195 568605805.34315491 0 568605805.34315491 -540693936.80004406 0 0 0 0 68291910.02331543 -365007441.71741104 0 -365007441.71741104 -619220103.8091712 0 0 0 0 -997580.69035355747 1575739.692971196 0 1575739.692971196 -1890284.7540339436 0 0 0 0 502339236.65818787 184291852.19839478 0 184291852.19839478 -740515002.08392334 0 0 0 0 -243422459.92989922 39816979.506897926 0 39816979.506897926 25077244.648826599 0 0 0 0 -5198248.6010665894 23864227.001239777 0 23864227.001239777 -9106949.2675352097 0 0 0 0 -3367390.1340745948 4799185.0000338554 0 4799185.0000338554 -4957643.0168053927 0 0 0 0 -5953133.2896375656 20838388.135324955 0 20838388.135324955 7993796.94947052 0 0 0 0 -403353.9475479126 17052309.671945572 0 17052309.671945572 -1883823.5354423523 0 0 0 0 -4922721.0626831055 11317535.33682251 0 11317535.33682251 -4972355.557094574 0 0 0 0 -3327051.9656677246 13099179.476669312 0 13099179.476669312 -5695136.8252124786 0 0 0 0 -4535731.752986908 15168631.435339928 0 15168631.435339928 1573212.8587493896 0 0 0 0 -11564616.242851257 6503133.6530818939 0 6503133.6530818939 -16027268.90896225 0 0 0 0 -2878001.2407550812 14425500.162473202 0 14425500.162473202 -10682528.444000244 0 0 0 0 107001.42543792725 13233360.074380875 0 13233360.074380875 -16795789.228221893 0 0 0 0 5207269.2126274109 20466317.772586823 0 20466317.772586823 -9372847.3224639893 0 0 0 0 1728882.9624633789 11410328.962381363 0 11410328.962381363 -8621076.3900585175 0 0 0 0 2338310.4236412048 9980689.7494716644 0 9980689.7494716644 -10342279.460269928 0 0 0 0 -3069906.5217437744 22760378.275543213 0 22760378.275543213 -19131538.389373779 0 0 0 0 -969956.36813354492 7903512.7080154419 0 7903512.7080154419 -4528011.9388046265 0 0 0 0 -3917949.2060070038 19047792.262298822 0 19047792.262298822 6186054.039352417 0 0 0 0 6327537.642364502 25405743.949424744 0 25405743.949424744 4311561.4294261932 0 0 0 0 81019568.20097065 -1263940.0417906046 0 -1263940.0417906046 -48345802.932151794 0 0 0 0 71247040.214954138 209453134.5283913 0 209453134.5283913 113952258.02549744 0 0 0 0 -6030492.1628433242 7917281.7417385187 0 7917281.7417385187 -6897488.095560018 0 0 0 0 5304154.5733337402 10594417.195337296 0 10594417.195337296 3503070.853805542 0 0 0 0 139309532.05925751 147068720.7781105 0 147068720.7781105 -142670680.05855942 0 0 0 0 169175488.63498497 77883511.124102354 0 77883511.124102354 -383150465.18457413 0 0 0 0 26201021.443641663 -96866387.692929268 0 -96866387.692929268 -415288496.8438549 0 0 0 0 -133512482.54081726 3506307.4134254456 0 3506307.4134254456 98856339.711645603 0 0 0 0 53035733.154582977 -54752791.998184204 0 -54752791.998184204 -287884719.07664871 0 0 0 0 23361362.413780212 -37379818.133995056 0 -37379818.133995056 -161286970.900105 0 0 0 0 50744816.599212646 -67825941.750878334 0 -67825941.750878334 -350355418.6467247 0 0 0 0 16432256.687767029 -145900468.33443451 0 -145900468.33443451 -498800080.51359844 0 0 0 0 954098.60933317244 744370.21668728068 0 744370.21668728068 -1253757.9011624884 0 0 0 0 10742422.174102783 -109349532.19789314 0 -109349532.19789314 -278799803.83838463 0 0 0 0 -297631.8608455658 43064320.985551119 0 43064320.985551119 -175287778.08280182 0 0 0 0 2344358.6426172256 41362206.36965394 0 41362206.36965394 -444522813.12243271 0 0 0 0 -86618338.854454041 48890937.346370697 0 48890937.346370697 10598354.916908264 0 0 0 0 -95153345.316795349 119808065.50587749 0 119808065.50587749 -205640836.04774666 0 0 0 0 59087511.5390625 58815030.955432892 0 58815030.955432892 -121791155.18804932 0 0 0 0 6518853.7985458374 50199813.500455856 0 50199813.500455856 -179368087.14554739 0 0 0 0 -4084063.6453323364 54299792.596759796 0 54299792.596759796 -14494732.500665665 0 0 0 0 -8961466.1273727007 11015609.427991683 0 11015609.427991683 -7331355.4198252186 0 0 0 0 50277883.810409546 126470561.42054558 0 126470561.42054558 103737424.21310616 0 0 0 0 15982909.74546814 -6422919.644785881 0 -6422919.644785881 41112887.97504425 0 0 0 0 12620193.370697021 118504703.43759823 0 118504703.43759823 113817282.51520157 0 0 0 0 -35379980.657073975 17552205.227519989 0 17552205.227519989 58708265.755252838 0 0 0 0 93734136.423233032 76253161.436279297 0 76253161.436279297 70962690.752232075 0 0 0 0 -45197833.504333496 41029957.093645096 0 41029957.093645096 11803462.210730314 0 0 0 0 -138167430.78586578 49121129.167822838 0 49121129.167822838 98202968.675552368 0 0 0 0 -28495685.313144684 58485825.393600702 0 58485825.393600702 42981150.903930664 0 0 0 0 123018229.92687988 99944818.259628296 0 99944818.259628296 50027056.704336166 0 0 0 0 -185926208.42313576 -51554706.188147306 0 -51554706.188147306 57100814.522500992 0 0 0 0 -75470321.613700867 -22862278.982590199 0 -22862278.982590199 105415735.74701118 0 0 0 0 -13846815.417354584 47610369.003587723 0 47610369.003587723 -4230779.8281803131 0 0 0 0 49748350.38032794 91189814.358780086 0 91189814.358780086 187331576.01413727 0 0 0 0 -154196.06224874407 691046.75461070612 0 691046.75461070612 -1123161.3283185055 0 0 0 0 -41888116.416175842 40437890.165938377 0 40437890.165938377 18216698.096867561 0 0 0 0 -17671445.922185898 36655718.941956043 0 36655718.941956043 -4909176.1791343689 0 0 0 0 -23618555.414237976 48767771.617801428 0 48767771.617801428 19799181.720603943 0 0 0 0 -1533625.4065464139 845162.34764586389 0 845162.34764586389 716620.90918759536 0 0 0 0 5137930.3137130737 73453730.785970688 0 73453730.785970688 -35565633.975905418 0 0 0 0 100999998.74822235 35486130.431351662 0 35486130.431351662 -33055722.144576073 0 0 0 0 -87395290.963619232 -295948.79414224625 0 -295948.79414224625 -543347.73177528381 0 0 0 0 91602977.250448227 -156782614.48976707 0 -156782614.48976707 -99840528.436994553 0 0 0 0 -36401697.036064148 -22049910.373311043 0 -22049910.373311043 -29001480.957414329 0 0 0 0 -186025547.87054443 -112624732.56824875 0 -112624732.56824875 -77961921.879714966 0 0 0 0 28441318.150749207 -2361016.8654441833 0 -2361016.8654441833 -347594423.13141632 0 0 0 0 17553699.732715607 15843123.078120232 0 15843123.078120232 4628209.1699428558 0 0 0 0 -1033722.2006616592 95473787.538748384 0 95473787.538748384 -73720067.526576996 0 0 0 0 -1537736.5708861351 99379501.92730689 0 99379501.92730689 -79758802.98179245 0 0 0 0 22552082.892730713 34107702.000324249 0 34107702.000324249 -38461816.652457833 0 0 0 0 -63216829.591384888 77654495.263929367 0 77654495.263929367 -34433009.482687712 0 0 0 0 -171990984.21111298 102289588.36516285 0 102289588.36516285 -4499049.0421257019 0 0 0 0 -99624063.184059143 200638053.06912041 0 200638053.06912041 -177655038.10349846 0 0 0 0 -25099538.289588928 34335729.284867287 0 34335729.284867287 -24011979.05229187 0 0 0 0 -120757083.47428894 16874506.754367828 0 16874506.754367828 14699575.778942108 0 0 0 0 35621806.146371186 12559178.260632187 0 12559178.260632187 -18431876.400169373 0 0 0 0 11748971.706207275 -95177065.050976753 0 -95177065.050976753 -239395424.68835449 0 0 0 0 -22587769.95640564 60174268.54069519 0 60174268.54069519 -147104541.0889883 0 0 0 0 2534953.1142152548 2139487.3234064765 0 2139487.3234064765 -3075665.6959665306 0 0 0 0 35538024.221396625 3486335.5961347446 0 3486335.5961347446 -2043479.1283569336 0 0 0 0 2903753.2848815918 3329636.1422176361 0 3329636.1422176361 -1150134.7626438141 0 0 0 0 2821816.3353805542 2560517.9276866913 0 2560517.9276866913 -1045804.0038032532 0 0 0 0 1605112.9591953829 2227363.771460522 0 2227363.771460522 392378.66246443056 0 0 0 0 11681567.976551056 3025708.2820224762 0 3025708.2820224762 -1174277.017493248 0 0 0 0 1198963.0658250269 -485335.25408396311 0 -485335.25408396311 136220.5154445339 0 0 0 0 30695680.794128418 -78738.394342422485 0 -78738.394342422485 -22115117.227565765 0 0 0 0 -46861294.371231079 4439993.6463317871 0 4439993.6463317871 14010575.066524506 0 0 0 0 2178521.4033813477 2648149.49584198 0 2648149.49584198 -851756.06980705261 0 0 0 0 6211949.7757027075 6585027.57342197 0 6585027.57342197 1462354.8920534225 0 0 0 0 76382.622459411621 5164291.6010894775 0 5164291.6010894775 -2457905.9279232025 0 0 0 0 -4253014.291015625 39448762.54341507 0 39448762.54341507 -20715943.279147148 0 0 0 0 -16218669.675013542 -5393091.6272096634 0 -5393091.6272096634 16598365.1287117 0 0 0 0 -2369183.8666100875 -30993.885848090053 0 -30993.885848090053 1508007.5535415765 0 0 0 0 7198724.7156902403 3365578.9822777901 0 3365578.9822777901 779121.6932321731 0 0 0 0 55887800.614273071 -13428975.198915482 0 -13428975.198915482 -1493924.2202110291 0 0 0 0 33105908.860031128 20208345.764358521 0 20208345.764358521 10547483.131458759 0 0 0 0 9359002.5539398193 23783535.699493408 0 23783535.699493408 16652833.846042633 0 0 0 0 47956189.623409271 22438185.317470551 0 22438185.317470551 -35008264.749885559 0 0 0 0 19852277.75617981 53777820.077542782 0 53777820.077542782 -95947590.780824661 0 0 0 0 3566171.6531066895 47402582.60804224 0 47402582.60804224 -20133937.148666382 0 0 0 0 -5208197.7147750854 15105957.60349369 0 15105957.60349369 4861503.725227356 0 0 0 0 9466057.8671035767 16158446.422263145 0 16158446.422263145 -52620245.506513596 0 0 0 0 14104584.854679108 70706532.347539902 0 70706532.347539902 -151394655.73612976 0 0 0 0 -7233775.4184799194 48231873.48582077 0 48231873.48582077 -29327067.911309242 0 0 0 0 17240035.148117065 29320598.883497238 0 29320598.883497238 -36675426.917985439 0 0 0 0 4219281.6748123169 36121902.565124512 0 36121902.565124512 -46049997.769837379 0 0 0 0 6724953.4369888306 41314253.536441803 0 41314253.536441803 -27771095.407749176 0 0 0 0 26251459.625350952 9405507.6627006531 0 9405507.6627006531 -57185386.096450806 0 0 0 0 23466887.071910858 11206996.48808527 0 11206996.48808527 -19949470.982048035 0 0 0 0 10297474.711212158 49551929.474240303 0 49551929.474240303 -104995052.69934082 0 0 0 0 151370028.76778412 -31986756.876110077 0 -31986756.876110077 -87574013.895285606 0 0 0 0 86052829.861158371 -4051596.4589419365 0 -4051596.4589419365 -225362035.17301559 0 0 0 0 85036390.263088226 19160767.155872345 0 19160767.155872345 -115071910.80405569 0 0 0 0 36285336.379858971 120733589.87283874 0 120733589.87283874 -28937389.329883575 0 0 0 0 5768377.6674690247 69256583.706371307 0 69256583.706371307 -41777965.896405697 0 0 0 0 -102415021.5271225 153134665.35249424 0 153134665.35249424 -122579208.04668045 0 0 0 0 -759601.95370109007 -432697.42427687533 0 -432697.42427687533 635303.34179241024 0 0 0 0 -19442607.287815094 69961778.176003456 0 69961778.176003456 -88439148.011806488 0 0 0 0 -593989.72470092773 95417448.101863861 0 95417448.101863861 -73854280.545495033 0 0 0 0 45819240.481525421 99983704.969696999 0 99983704.969696999 -132084529.03475952 0 0 0 0 63925243.076000214 42621904.39024353 0 42621904.39024353 -82909872.769140005 0 0 0 0 -1267357.3149997368 -758995.57753070816 0 -758995.57753070816 972135.68841686845 0 0 0 0 12572275.329864502 68027952.23504591 0 68027952.23504591 -43755912.608348846 0 0 0 0 24389168.670204163 36382093.702164173 0 36382093.702164173 -58968204.009376526 0 0 0 0 -18250504.650730133 36969959.648159504 0 36969959.648159504 -58666863.79248476 0 0 0 0 -7496256.3109664917 55602680.152493238 0 55602680.152493238 -68624846.230800629 0 0 0 0 -796189.42469312251 -481587.90763836913 0 -481587.90763836913 622205.59030728135 0 0 0 0 -55158906.071706772 96213604.487688065 0 96213604.487688065 -142932073.38329983 0 0 0 0 -30110505.149078369 -31207251.381402969 0 -31207251.381402969 -120670827.50824356 0 0 0 0 -25937673.325565338 19258590.123481989 0 19258590.123481989 -13116099.012924194 0 0 0 0 -20994663.855304718 21482241.491833687 0 21482241.491833687 -52911653.996486664 0 0 0 0 -46141820.932258606 7273215.4607906342 0 7273215.4607906342 -2465175.610367775 0 0 0 0 3324437.0752067566 11533425.232794762 0 11533425.232794762 -11017346.285102844 0 0 0 0 -12774571.4043293 6856823.7340314388 0 6856823.7340314388 -39606616.144208908 0 0 0 0 -2454295.6633371711 2982699.9380411822 0 2982699.9380411822 -1001589.9266381096 0 0 0 0 11524228.777683258 7027761.1389389038 0 7027761.1389389038 -19682040.579914331 0 0 0 0 -25092122.285533905 62585271.133366108 0 62585271.133366108 -66601017.456354141 0 0 0 0 -17035937.732643127 48622251.483529091 0 48622251.483529091 -73661108.767338753 0 0 0 0 33265771.703411102 5365644.201454401 0 5365644.201454401 -10382857.530107498 0 0 0 0 -2026054.089820791 1131504.2542430274 0 1131504.2542430274 636520.97865828313 0 0 0 0 -11568906.625015259 57146678.958375931 0 57146678.958375931 -65295154.939274311 0 0 0 0 -15201887.77973175 51757840.815349579 0 51757840.815349579 -53118240.916275024 0 0 0 0 -83765611.03534317 106323035.34109449 0 106323035.34109449 -20833184.096796036 0 0 0 0 -57425902.853271484 53612415.886903763 0 53612415.886903763 38809817.498609066 0 0 0 0 67673609.484882355 102528248.751297 0 102528248.751297 7233528.8403282166 0 0 0 0 160754944.98011398 19600084.994078636 0 19600084.994078636 -1541908.1603813171 0 0 0 0 -910071.02704258077 231175.6369746346 0 231175.6369746346 562697.71539061796 0 0 0 0 10237320.025367737 14716846.279337883 0 14716846.279337883 -1281368.2117042542 0 0 0 0 39265613.359266281 73114175.782373667 0 73114175.782373667 42866012.953922272 0 0 0 0 -17027763.857092857 49166060.784355402 0 49166060.784355402 -18625526.087572098 0 0 0 0 -28883982.993022919 15206585.705895424 0 15206585.705895424 1764091.2882328033 0 0 0 0 83691945.895639896 -9762635.6077641249 0 -9762635.6077641249 -10154311.793949127 0 0 0 0 170457732.40091705 -4610088.4649925232 0 -4610088.4649925232 -10621752.169244528 0 0 0 0 -498259.41922486946 590712.7571500456 0 590712.7571500456 246449.27969176508 0 0 0 0 -37361845.431247234 50847783.06064558 0 50847783.06064558 117615058.54969597 0 0 0 0 102977791.02168274 153077092.07617569 0 153077092.07617569 82697034.571679592 0 0 0 0 475248.7357711792 44857629.361804008 0 44857629.361804008 -84863895.701898575 0 0 0 0 365139.32620448619 554083.15569669101 0 554083.15569669101 -358950.69693091139 0 0 0 0 -7071906.0140037537 78393852.562188298 0 78393852.562188298 37200858.181938171 0 0 0 0 -8628807.5457649231 98771516.920063972 0 98771516.920063972 30782311.738361359 0 0 0 0 9228392.0579223633 22547380.853082657 0 22547380.853082657 -118741037.7441349 0 0 0 0 9842402.3396816254 -17701726.605395317 0 -17701726.605395317 -174647654.33507347 0 0 0 0 -15632955.096853256 23876198.554071188 0 23876198.554071188 -117474345.34803009 0 0 0 0 -164233202.29233932 192854090.04750919 0 192854090.04750919 -217216179.48705751 0 0 0 0 17653590.395896912 -16791093.176995277 0 -16791093.176995277 -233929782.88409615 0 0 0 0 -60690113.542217255 -39259155.574114799 0 -39259155.574114799 -62578702.088827133 0 0 0 0 33207403.131698608 177708234.13145924 0 177708234.13145924 -173640351.58414459 0 0 0 0 -131675.67839595675 -501319.26291587763 0 -501319.26291587763 -143687.38936699368 0 0 0 0 73794613.646339417 -72912251.372313499 0 -72912251.372313499 -71567148.326971054 0 0 0 0 30308115.057434082 18032934.665891647 0 18032934.665891647 -17180528.349467278 0 0 0 0 30194525.966033936 22221162.941131592 0 22221162.941131592 -28394009.574144363 0 0 0 0 41714135.477111816 19247988.09570694 0 19247988.09570694 -20912980.325027466 0 0 0 0 49883447.795256615 8810863.0735390186 0 8810863.0735390186 -14865155.903831482 0 0 0 0 47205893.139297485 -7221703.0097255707 0 -7221703.0097255707 -9929884.1897964478 0 0 0 0 2828352.3774511218 366996.50279234815 0 366996.50279234815 -3219480.8737339396 0 0 0 0 -70787479.781902313 145323451.98651886 0 145323451.98651886 -210090504.60651398 0 0 0 0 -59779579.017578125 97623455.809327126 0 97623455.809327126 -111998306.10216904 0 0 0 0 -169604236.98455429 110591264.75070286 0 110591264.75070286 -57353247.196086884 0 0 0 0 -65717011.890764236 48512087.155351639 0 48512087.155351639 -204086958.60949326 0 0 0 0 -73912189.909912109 46673586.08468914 0 46673586.08468914 -33455133.319061279 0 0 0 0 -87045926.824630737 102772269.18389797 0 102772269.18389797 -112156672.03602219 0 0 0 0 -16940278.548416138 -4378850.1615810394 0 -4378850.1615810394 -2971419.7071342468 0 0 0 0 -19310263.977647781 -4120258.0197434425 0 -4120258.0197434425 3833808.458114624 0 0 0 0 -8833790.5002326965 -983269.76683139801 0 -983269.76683139801 -4784267.4735183716 0 0 0 0 -19821726.010856628 -2144115.1336421967 0 -2144115.1336421967 6484321.5017814636 0 0 0 0 -19934385.624542236 -6683342.7070236206 0 -6683342.7070236206 -6266691.9046173096 0 0 0 0 547850.06837828085 917481.25116926059 0 917481.25116926059 35592.055848700926 0 0 0 0 -18574279.616149902 -9490254.0065383911 0 -9490254.0065383911 -11500728.783325195 0 0 0 0 -18884942.607563019 -2211990.1556758881 0 -2211990.1556758881 5417193.3756942749 0 0 0 0 -4981980.6066915616 -756369.11308779754 0 -756369.11308779754 3573916.3791638594 0 0 0 0 -37754529.667415619 6861651.818901062 0 6861651.818901062 -21146604.351949692 0 0 0 0 -184929497.12134552 56714648.153851509 0 56714648.153851509 13699316.883068085 0 0 0 0 -173011224.63022232 194489896.63055182 0 194489896.63055182 -112810474.1014595 0 0 0 0 -65143035.264827728 141069172.79361725 0 141069172.79361725 -87134550.517658234 0 0 0 0 -246292967.57640839 87302935.097390175 0 87302935.097390175 542988.85530853271 0 0 0 0 1198187.6486857776 831493.73214596696 0 831493.73214596696 79519.566674603149 0 0 0 0 6262562.8702011108 -7484916.1475582123 0 -7484916.1475582123 -5343574.119808197 0 0 0 0 -18115899.029632568 15075321.77028656 0 15075321.77028656 12499897.44833374 0 0 0 0 10575861.247065099 10888407.050936032 0 10888407.050936032 6027679.1312861852 0 0 0 0 28885789.040992737 15208742.70701313 0 15208742.70701313 -10710105.932964325 0 0 0 0 29687725.851284027 12858991.279136658 0 12858991.279136658 -14368651.672019958 0 0 0 0 24371684.856590271 19965800.042036057 0 19965800.042036057 -10467574.579522133 0 0 0 0 30843726.429069519 18596440.520046234 0 18596440.520046234 -10178603.709114075 0 0 0 0 21798213.506652832 18528383.043907166 0 18528383.043907166 7295241.9625396729 0 0 0 0 -16985494.253158569 -10799453.733779907 0 -10799453.733779907 4600972.6561050415 0 0 0 0 45531891.764892578 37850733.965105295 0 37850733.965105295 18866904.030104876 0 0 0 0 19712331.228809893 10364227.390387978 0 10364227.390387978 -5012667.2828122899 0 0 0 0 -6831336.119975768 6045130.6107767001 0 6045130.6107767001 14675240.344189931 0 0 0 0 -14900674.333797455 -4627215.6571044922 0 -4627215.6571044922 1852883.1171569824 0 0 0 0 -22094775.601356506 -388238.22345542908 0 -388238.22345542908 19690778.857315063 0 0 0 0 -21808931.28024292 1005640.8401222229 0 1005640.8401222229 18397449.747673035 0 0 0 0 48992236.243255615 53440603.48342514 0 53440603.48342514 45928916.006484449 0 0 0 0 -6307368.5207913853 5358340.9477878287 0 5358340.9477878287 14472512.723268818 0 0 0 0 736150.4750213623 20237830.704844236 0 20237830.704844236 49113381.75984621 0 0 0 0 60295293.15788269 60579166.407990456 0 60579166.407990456 36907482.716097355 0 0 0 0 49021942.580810547 54747074.542741776 0 54747074.542741776 62129835.233253479 0 0 0 0 -21239250.897310257 -1589612.6675691605 0 -1589612.6675691605 17748303.388633728 0 0 0 0 -20716802.027816772 3436924.3053455353 0 3436924.3053455353 21691920.281364441 0 0 0 0 -19475195.421516418 4383485.0779094696 0 4383485.0779094696 13656710.014045715 0 0 0 0 -220667.08000365924 -400860.06799397245 0 -400860.06799397245 56761.8333311202 0 0 0 0 -21359989.992469788 -3360400.0688304901 0 -3360400.0688304901 27922570.217475891 0 0 0 0 -20404196.740875244 -269165.1616973877 0 -269165.1616973877 18853254.487348557 0 0 0 0 -21109031.883163452 -1780612.1047706604 0 -1780612.1047706604 21412863.314689636 0 0 0 0 -23076987.933532715 5499565.4270648956 0 5499565.4270648956 24355194.678146362 0 0 0 0 -20627088.916851044 3951998.3566942215 0 3951998.3566942215 24551101.523681641 0 0 0 0 -22897290.707801819 6784023.4295654297 0 6784023.4295654297 33520291.70152092 0 0 0 0 -18747327.392845154 -279284.9979839325 0 -279284.9979839325 23343912.693778038 0 0 0 0 -10961854.718578339 -12249095.467355728 0 -12249095.467355728 37787625.85972023 0 0 0 0 -16403669.002822876 -9095726.6010761261 0 -9095726.6010761261 20789278.233934879 0 0 0 0 -6530832.4191684723 -3711321.9204797745 0 -3711321.9204797745 6535269.6891288757 0 0 0 0 -1983110.5110999905 -154455.13317413535 0 -154455.13317413535 1625578.4034951851 0 0 0 0 -2580564.25822258 -12898105.455924988 0 -12898105.455924988 24867648.43419838 0 0 0 0 -8550366.5798377991 -3978263.8254938126 0 -3978263.8254938126 31704983.001588821 0 0 0 0 1481607.9670715332 -21634174.628876686 0 -21634174.628876686 45106874.976142883 0 0 0 0 -37736692.04794693 -280802.96703243256 0 -280802.96703243256 124833217.16666031 0 0 0 0 -43046958.051429749 19576861.30513382 0 19576861.30513382 50595786.411409378 0 0 0 0 -29545911.126438141 26581116.911794662 0 26581116.911794662 34980957.060840607 0 0 0 0 -30566314.620865345 4602521.722871542 0 4602521.722871542 60244421.855758667 0 0 0 0 -7211197.5830993652 71625302.883190155 0 71625302.883190155 -39936832.825439453 0 0 0 0 -7394334.3727523386 45753001.85584642 0 45753001.85584642 18326732.197547913 0 0 0 0 -84104550.677482605 85796614.455940247 0 85796614.455940247 67858537.582193375 0 0 0 0 -50492863.23295784 -7533032.7561407089 0 -7533032.7561407089 97612791.91991806 0 0 0 0 -51880768.344718933 89122892.038537025 0 89122892.038537025 -106925301.98939896 0 0 0 0 -331566.10702732578 1047848.9713478703 0 1047848.9713478703 2678145.0515566776 0 0 0 0 25625521.070297241 21174120.272987366 0 21174120.272987366 -22020215.233635902 0 0 0 0 -1057822.3830739819 2600158.226271458 0 2600158.226271458 1966228.8267457895 0 0 0 0 5438127.0466842651 30174875.63117218 0 30174875.63117218 -1001294.3566474915 0 0 0 0 -1157244.3772850037 22149005.96475029 0 22149005.96475029 20568723.448402405 0 0 0 0 -86897767.321849823 6085101.1986398697 0 6085101.1986398697 53480476.085861206 0 0 0 0 -4172919.337269444 12700216.413720518 0 12700216.413720518 3471431.3062231401 0 0 0 0 169826799.90284252 119430135.58645535 0 119430135.58645535 418650639.89274597 0 0 0 0 -168279361.58150101 66678588.176017761 0 66678588.176017761 12340274.033812165 0 0 0 0 -2451531.683658177 -4425179.229545312 0 -4425179.229545312 18380566.403229993 0 0 0 0 422619485.18148041 325452382.1432476 0 325452382.1432476 194975642.32353592 0 0 0 0 817352926.55358887 368205399.85762024 0 368205399.85762024 341950585.04006195 0 0 0 0 234042130.903759 516423196.23500443 0 516423196.23500443 459733785.82209396 0 0 0 0 17819797.038536072 28499511.262842655 0 28499511.262842655 849250.59955614805 0 0 0 0 581719.21133053675 18088956.426266275 0 18088956.426266275 2051887.7037223577 0 0 0 0 25331254.123040438 38972708.76580815 0 38972708.76580815 -44458500.889925957 0 0 0 0 25263694.15253067 40948652.221488953 0 40948652.221488953 -53884878.95987606 0 0 0 0 -1403808.9749221802 17523968.442106247 0 17523968.442106247 28451469.797912598 0 0 0 0 7581846.0870285034 21837489.837962627 0 21837489.837962627 20214133.586658478 0 0 0 0 -967749.62439346313 19543347.918408394 0 19543347.918408394 21936156.766994476 0 0 0 0 -3899677.529445271 11241670.324003583 0 11241670.324003583 17673592.749313865 0 0 0 0 -5271044.160949707 17276157.968999863 0 17276157.968999863 21051581.810413361 0 0 0 0 -19780750.220031738 13199949.515899658 0 13199949.515899658 24520153.031090736 0 0 0 0 -12348268.571052551 29911173.067609787 0 29911173.067609787 17129454.480784416 0 0 0 0 -10354310.284286499 37545592.876480103 0 37545592.876480103 37683275.34344101 0 0 0 0 -19533029.237487793 19524089.112537384 0 19524089.112537384 38742623.063114166 0 0 0 0 -19772644.417070866 14256977.773319483 0 14256977.773319483 26339178.043216705 0 0 0 0 -21598634.413955688 10731921.091207504 0 10731921.091207504 30439015.158683777 0 0 0 0 -29235400.720679283 9933624.7199230194 0 9933624.7199230194 32532906.380348206 0 0 0 0 -4672757.3792071473 7837608.848107798 0 7837608.848107798 17994465.008286987 0 0 0 0 -18120548.995268345 12036207.864223003 0 12036207.864223003 23211074.175941467 0 0 0 0 -19815262.881820679 10470169.667472839 0 10470169.667472839 21202625.46504879 0 0 0 0 -20429067.485412598 8774530.7927398682 0 8774530.7927398682 18606312.535152435 0 0 0 0 -2276571.333486557 15316450.972146809 0 15316450.972146809 25855600.232598305 0 0 0 0 2625333.6919946931 4122288.2291902248 0 4122288.2291902248 3319059.1577932006 0 0 0 0 26982342.235076904 93355461.304103851 0 93355461.304103851 24472081.698625445 0 0 0 0 50158213.920837402 56147054.549645662 0 56147054.549645662 42007055.931575298 0 0 0 0 4288216.7671661377 84419794.229609489 0 84419794.229609489 68663777.760954142 0 0 0 0 -107204123.26564026 60496402.141186714 0 60496402.141186714 89844840.481633663 0 0 0 0 -8881207.9369487762 139319429.5131551 0 139319429.5131551 43653301.409031868 0 0 0 0 -40944408.383346558 181504481.10697269 0 181504481.10697269 113435539.98704433 0 0 0 0 21485832.195388794 59465049.356500387 0 59465049.356500387 -22905750.853541851 0 0 0 0 982166.08312182873 1248219.0300161429 0 1248219.0300161429 764686.34671793599 0 0 0 0 -61914765.498703003 153064803.95625329 0 153064803.95625329 -21769469.638979748 0 0 0 0 -45443411.826971054 2117044.4194267541 0 2117044.4194267541 25684941.877147675 0 0 0 0 20107525.34967041 16870985.231459141 0 16870985.231459141 4424310.0260910988 0 0 0 0 -70945355.542419434 36385834.494901419 0 36385834.494901419 6156919.7154750377 0 0 0 0 -37704602.67959404 7981107.3997390717 0 7981107.3997390717 27287253.891701221 0 0 0 0 -199981027.49518585 -9102478.0833793283 0 -9102478.0833793283 102905111.56033616 0 0 0 0 -62367553.568090439 86395983.096925199 0 86395983.096925199 117868356.76821375 0 0 0 0 59915461.006698608 -167641268.74097264 0 -167641268.74097264 -103563040.1020771 0 0 0 0 -97315927.356645584 386791723.95994794 0 386791723.95994794 82232111.698564291 0 0 0 0 -107156929.36614227 99166630.596551895 0 99166630.596551895 -43579272.003600955 0 0 0 0 763217.71185839921 6928078.5133582 0 6928078.5133582 1057780.0068549649 0 0 0 0 -87106793.398582458 -46550177.139080852 0 -46550177.139080852 -32524148.088759542 0 0 0 0 208257078.07458496 43152594.947027385 0 43152594.947027385 26675268.860239267 0 0 0 0 71771143.188865662 -44714771.308270693 0 -44714771.308270693 -18265004.770140648 0 0 0 0 -580437.70854088664 182711.54578334466 0 182711.54578334466 588784.1238158471 0 0 0 0 895350970.57139587 260466818.86436924 0 260466818.86436924 -235513878.73721829 0 0 0 0 -4278.9946268619969 -576595.54967506602 0 -576595.54967506602 813867.73907991324 0 0 0 0 -177762803.18608856 88461476.627704263 0 88461476.627704263 152895581.34169465 0 0 0 0 270889892.1229248 178519914.82540298 0 178519914.82540298 45759413.73899436 0 0 0 0 312210462.34854126 -17032894.084152818 0 -17032894.084152818 166814998.55905151 0 0 0 0 11634121.493865967 -3282584.5003443956 0 -3282584.5003443956 -44727765.449990511 0 0 0 0 -12451692.3724823 14132842.631341457 0 14132842.631341457 415855.31448936462 0 0 0 0 7516614.9823226929 3200696.0156635642 0 3200696.0156635642 -15718827.048010588 0 0 0 0 3272745.6855413616 2586915.4506752277 0 2586915.4506752277 -3342843.1106693037 0 0 0 0 7852149.0313415527 2324573.840836525 0 2324573.840836525 -13432216.19849503 0 0 0 0 -342217.70305113401 161002.67950030044 0 161002.67950030044 2800261.1214013821 0 0 0 0 425535465.57926178 83129494.759596586 0 83129494.759596586 -86988097.896524906 0 0 0 0 353417.79562918842 195306.71898924373 0 195306.71898924373 -169991.43614060699 0 0 0 0 295565230.39370728 55422711.630484104 0 55422711.630484104 -101994650.87101054 0 0 0 0 326380660.84999084 149747471.73398685 0 149747471.73398685 151043538.09410286 0 0 0 0 121030520.98729706 36162038.66380167 0 36162038.66380167 2302047.4268875122 0 0 0 0 -27650650.758597374 -22875458.433144182 0 -22875458.433144182 3486285.2501583099 0 0 0 0 1258817.2583817285 208928.21065047383 0 208928.21065047383 -964738.76322347973 0 0 0 0 303885796.95285034 -68330678.392106533 0 -68330678.392106533 -53433110.355471134 0 0 0 0 166322994.30111694 198913461.19704819 0 198913461.19704819 62963748.573440075 0 0 0 0 33164322.871704102 -68954330.455116749 0 -68954330.455116749 18820066.288359642 0 0 0 0 100696944.61325073 113073448.49661398 0 113073448.49661398 28137597.906971931 0 0 0 0 126512807.14013672 35776228.742158413 0 35776228.742158413 -4272769.9413042068 0 0 0 0 9932145.180847168 6921815.2199269533 0 6921815.2199269533 -21249420.752275467 0 0 0 0 7837064.3449172974 5173336.2917732596 0 5173336.2917732596 -13735064.36239481 0 0 0 0 7453839.501159668 -1619958.1437215805 0 -1619958.1437215805 -15810492.475165129 0 0 0 0 14222698.094909668 1355714.0867791176 0 1355714.0867791176 -21967146.655592918 0 0 0 0 18817608.283370972 5874088.6951603889 0 5874088.6951603889 -26068337.440478802 0 0 0 0 30135712.653778076 783490.32061719894 0 783490.32061719894 -25731974.02325058 0 0 0 0 9126395.2014389038 15943828.793378353 0 15943828.793378353 -26879643.273639441 0 0 0 0 33113203.49746418 -54178575.911398292 0 -54178575.911398292 -37795227.026912689 0 0 0 0 35225530.57698822 42796772.817379653 0 42796772.817379653 8042106.4995765686 0 0 0 0 2778896.4421840385 185710.38558591902 0 185710.38558591902 -4754407.4963347651 0 0 0 0 26888489.656608582 9637375.5337734222 0 9637375.5337734222 6258972.0713577271 0 0 0 0 15290201.496926285 12360988.042306278 0 12360988.042306278 -4045194.0878189662 0 0 0 0 21627108.048904419 8008533.1903610229 0 8008533.1903610229 5773835.0599708557 0 0 0 0 -96044849.590950012 -126817317.6866411 0 -126817317.6866411 -11526026.126179218 0 0 0 0 8434738.3523101807 20601252.183074951 0 20601252.183074951 32759178.15511322 0 0 0 0 19940726.248527527 13486647.555761337 0 13486647.555761337 19807574.288166046 0 0 0 0 -70900638.011451721 -63135498.154345989 0 -63135498.154345989 -49593512.841486931 0 0 0 0 45942328.886436462 44507147.283229589 0 44507147.283229589 -123071499.96055698 0 0 0 0 -21288966.126997948 62228189.065070957 0 62228189.065070957 -21230541.644102097 0 0 0 0 392927.52439084114 -45477.358099654317 0 -45477.358099654317 -304162.2826502102 0 0 0 0 75431889.064537048 39276006.465186357 0 39276006.465186357 -266846675.29590988 0 0 0 0 55083865.402709961 39858309.629136086 0 39858309.629136086 -28202307.085861564 0 0 0 0 50474056.28553772 20533305.796348095 0 20533305.796348095 -3893898.0587951988 0 0 0 0 49242802.31098938 37994277.312410951 0 37994277.312410951 2812364.0981588364 0 0 0 0 35027423.629211426 31714478.244241238 0 31714478.244241238 3456435.8844323754 0 0 0 0 32244605.061645508 89147740.252732754 0 89147740.252732754 2795904.3799858093 0 0 0 0 87280766.743612289 61273668.001525775 0 61273668.001525775 54757483.315786839 0 0 0 0 56666097.147476196 80712456.494688511 0 80712456.494688511 54307501.582363605 0 0 0 0 69647700.534093857 34629063.970103979 0 34629063.970103979 21773582.506716728 0 0 0 0 37146912.201690674 37926382.223451138 0 37926382.223451138 61004883.885967016 0 0 0 0 49164536.456245422 29164257.530389309 0 29164257.530389309 1033669.9015479088 0 0 0 0 48330172.548812866 4216832.149545908 0 4216832.149545908 -12175710.030161381 0 0 0 0 30472000.205627441 23857996.424782276 0 23857996.424782276 27067181.900543213 0 0 0 0 15407050.18255952 9736769.7292823009 0 9736769.7292823009 -4693768.6122354399 0 0 0 0 13588445.968864441 1751478.414839983 0 1751478.414839983 -3184852.068780899 0 0 0 0 -5734147.1532592773 -2810705.2278137207 0 -2810705.2278137207 36424317.421575308 0 0 0 0 1834237.8389434814 13318657.449914932 0 13318657.449914932 30888593.666873932 0 0 0 0 29298341.627998352 18809649.228157043 0 18809649.228157043 9881706.7311019897 0 0 0 0 17018672.245069988 9098336.1646001246 0 9098336.1646001246 -4940613.6415966637 0 0 0 0 13096097.219024658 29301385.43456459 0 29301385.43456459 19217407.635120392 0 0 0 0 19636753.233375549 30512075.220558167 0 30512075.220558167 -10326952.564006805 0 0 0 0 19217131.932862997 21630140.623803914 0 21630140.623803914 -8006290.3161048889 0 0 0 0 -3620152.1380882263 25676112.292721748 0 25676112.292721748 -1629584.0677871704 0 0 0 0 3551376.575920105 28176874.220514297 0 28176874.220514297 7491065.6163253784 0 0 0 0 14222989.192996979 20276779.904676437 0 20276779.904676437 -1446050.6934013367 0 0 0 0 9791662.1874084473 7338499.5359725952 0 7338499.5359725952 11832218.739251614 0 0 0 0 -10550093.280130386 29121914.32375145 0 29121914.32375145 17741303.489696503 0 0 0 0 9384846.8421897888 10105635.371991158 0 10105635.371991158 21304669.275093079 0 0 0 0 31854624.664054871 -2325066.7023773193 0 -2325066.7023773193 11508743.329696655 0 0 0 0 14698558.370201111 667744.42586898804 0 667744.42586898804 24661349.002552032 0 0 0 0 13413030.61366272 12493296.632213593 0 12493296.632213593 20257040.472924232 0 0 0 0 5875528.8983230591 9480872.0278968811 0 9480872.0278968811 20920704.01385498 0 0 0 0 -3840966.0294876099 16023815.934240341 0 16023815.934240341 19752717.656017303 0 0 0 0 12947674.954071045 36649549.046749115 0 36649549.046749115 42437882.816074371 0 0 0 0 60818063.44393158 25831532.852628708 0 25831532.852628708 -3276964.523021698 0 0 0 0 -5264617.5629692078 8655336.8435516357 0 8655336.8435516357 778380.08771514893 0 0 0 0 7590663.4182128906 42018735.157745361 0 42018735.157745361 -16151863.222546577 0 0 0 0 6145778.9481658936 15537312.409719467 0 15537312.409719467 2429882.3836517334 0 0 0 0 60136426.908042908 -11574803.389242172 0 -11574803.389242172 8781693.0600547791 0 0 0 0 26873236.538497925 9119119.3928070068 0 9119119.3928070068 -2408216.5331840515 0 0 0 0 15423600.636434555 -9097192.9126935005 0 -9097192.9126935005 63830037.795951843 0 0 0 0 53709637.793548584 41256073.14809227 0 41256073.14809227 22612688.157236099 0 0 0 0 61277967.994918823 -9483423.2028160095 0 -9483423.2028160095 17705377.052451611 0 0 0 0 -3520869.8697448708 2752639.3743647337 0 2752639.3743647337 3441689.7028768733 0 0 0 0 61505765.399093628 -10713354.703929901 0 -10713354.703929901 15117402.227283478 0 0 0 0 -13568053.203781128 19041101.858520508 0 19041101.858520508 45110177.553119659 0 0 0 0 -18792611.855880737 12863377.599456787 0 12863377.599456787 38292834.84727478 0 0 0 0 -24422684.82118988 16679464.728606701 0 16679464.728606701 31605453.336338043 0 0 0 0 9299433.390813224 10064412.586368283 0 10064412.586368283 5866055.7212052792 0 0 0 0 16474460.579063416 25471288.735050201 0 25471288.735050201 -17417837.137180328 0 0 0 0 18044084.840202332 34665931.142947674 0 34665931.142947674 -26032073.050857544 0 0 0 0 2204042.0369033813 54964142.252625465 0 54964142.252625465 3945981.7420692444 0 0 0 0 -4077526.8160020858 1635838.916813191 0 1635838.916813191 3006268.2001381507 0 0 0 0 -11934269.30960083 6367785.4217839241 0 6367785.4217839241 -14231684.54630661 0 0 0 0 -126802.22076416016 45028045.75851059 0 45028045.75851059 -22338668.650727272 0 0 0 0 1267359.5365195191 892386.72480315715 0 892386.72480315715 -172809.38447766379 0 0 0 0 -18156981.068450928 2657113.7116155624 0 2657113.7116155624 -59245617.672807693 0 0 0 0 20871448.717214584 35238639.169911385 0 35238639.169911385 -88174670.021245956 0 0 0 0 812997.36160120368 -617021.9080673717 0 -617021.9080673717 -671514.90148042748 0 0 0 0 22499948.261383057 46482649.200857162 0 46482649.200857162 -87588947.95717603 0 0 0 0 16615797.544837952 28923238.666009665 0 28923238.666009665 -59658703.051515579 0 0 0 0 -39773937.552383423 32348392.419615746 0 32348392.419615746 -26123662.96729064 0 0 0 0 8268418.5710449219 -40653730.318071365 0 -40653730.318071365 -7627718.3649730682 0 0 0 0 18311698.55770874 1265052.1725654602 0 1265052.1725654602 -68568835.405908585 0 0 0 0 -10989616.442169189 18986801.504171371 0 18986801.504171371 63662484.104700089 0 0 0 0 -28473343.319274902 8200632.7622699738 0 8200632.7622699738 66242161.033496857 0 0 0 0 -2130237.2626190186 52733984.446628571 0 52733984.446628571 79661164.340652466 0 0 0 0 106214859.75073242 62544409.189058304 0 62544409.189058304 76808702.897018433 0 0 0 0 61792379.658081055 29243838.899990082 0 29243838.899990082 54969300.279870987 0 0 0 0 16034997.101516724 73554025.544548035 0 73554025.544548035 108578977.46155167 0 0 0 0 -18809895.117479324 17945447.12422514 0 17945447.12422514 177548469.8551178 0 0 0 0 50720145.506454468 111022912.10125828 0 111022912.10125828 188620575.70107269 0 0 0 0 36476214.159194946 75619102.011327744 0 75619102.011327744 108002862.61139679 0 0 0 0 -19391020.336091995 39844473.80897516 0 39844473.80897516 251356212.87847137 0 0 0 0 2848.7897686101496 230123.7320182696 0 230123.7320182696 -297885.80559943151 0 0 0 0 92290379.505065918 111880505.86610794 0 111880505.86610794 126589012.26273298 0 0 0 0 146788738.50848389 80008215.311851501 0 80008215.311851501 29812020.257778168 0 0 0 0 356841.86876791716 473118.01836952567 0 473118.01836952567 -598476.25514984783 0 0 0 0 29794902.998672485 -341203.50237369537 0 -341203.50237369537 146557983.56218719 0 0 0 0 30642085.804000854 8759289.8226876259 0 8759289.8226876259 59029293.481388092 0 0 0 0 42972028.23828125 47572815.178922653 0 47572815.178922653 45749970.217075348 0 0 0 0 -9379010.1641845703 43647961.058317184 0 43647961.058317184 112663001.1538887 0 0 0 0 2274073.1023483276 33604451.959601402 0 33604451.959601402 77940196.691240311 0 0 0 0 2959312.2501678467 66522260.265124321 0 66522260.265124321 77277723.78418541 0 0 0 0 941239.7912902832 5351106.2926621437 0 5351106.2926621437 -9076316.7099967003 0 0 0 0 -4241606.258529149 6697669.4835512079 0 6697669.4835512079 1425974.5565255943 0 0 0 0 -3603213.4283447266 58057667.920986176 0 58057667.920986176 91339797.009502411 0 0 0 0 -24111908.502532959 79083232.45570755 0 79083232.45570755 89088090.679466248 0 0 0 0 11085122.416778564 60669834.175888062 0 60669834.175888062 81059233.4809165 0 0 0 0 1931671.8344726562 9050064.7459030151 0 9050064.7459030151 -9302374.4307334423 0 0 0 0 16468736.97118187 -13701025.667259812 0 -13701025.667259812 17973092.679302216 0 0 0 0 -4472441.8074505478 11162612.32008638 0 11162612.32008638 1028641.0677009171 0 0 0 0 2867837.9599761963 8031847.8548247814 0 8031847.8548247814 -10413636.952353477 0 0 0 0 -13092904.360782623 63010463.568416119 0 63010463.568416119 7478275.5033092499 0 0 0 0 14239585.045265198 48566082.148630142 0 48566082.148630142 -65094926.811367035 0 0 0 0 12657967.933511596 12930346.991491824 0 12930346.991491824 1534423.0488530388 0 0 0 0 18149725.557582855 32245725.110513926 0 32245725.110513926 -57994424.553409576 0 0 0 0 16681484.794708252 24770057.355056763 0 24770057.355056763 -10181820.408432961 0 0 0 0 36929998.61907959 8553494.3082847595 0 8553494.3082847595 -6577234.0312385559 0 0 0 0 16643301.562111795 14672118.162179992 0 14672118.162179992 -1862910.7630327828 0 0 0 0 2241609.0852050781 9376706.7942335606 0 9376706.7942335606 -10891378.232851267 0 0 0 0 2636169.5752792358 13372568.092342496 0 13372568.092342496 -18727082.217069149 0 0 0 0 2943583.6740570068 8820342.1318421364 0 8820342.1318421364 -12912733.645712852 0 0 0 0 5465785.8628082275 5062279.3383806944 0 5062279.3383806944 -14310702.882853001 0 0 0 0 3120045.3369941711 3415221.9565383494 0 3415221.9565383494 -6411945.0361816883 0 0 0 0 413593.08294677734 6115865.171125412 0 6115865.171125412 -9463290.812977314 0 0 0 0 1569790.6243286133 5713173.82807827 0 5713173.82807827 -9616079.804315567 0 0 0 0 4696740.2210800573 3066273.6555272862 0 3066273.6555272862 -4083176.7414010502 0 0 0 0 5680707.2614511251 1770215.6391437277 0 1770215.6391437277 -6868336.6185259819 0 0 0 0 5269226.3095626831 2669400.0329040885 0 2669400.0329040885 -7195724.9322605133 0 0 0 0 5611549.6266860962 4944193.087156862 0 4944193.087156862 -5173283.5553389639 0 0 0 0 5704381.6007841229 2671539.4704986978 0 2671539.4704986978 -4791190.8053987473 0 0 0 0 10318124.885665894 -2145787.5843248367 0 -2145787.5843248367 -9391336.4192588329 0 0 0 0 427038.6253474094 359903.7284289524 0 359903.7284289524 -1299205.6895986625 0 0 0 0 -555695.30476055294 3363717.9011809397 0 3363717.9011809397 -2128133.8260221579 0 0 0 0 11572354.783027649 13967993.268445015 0 13967993.268445015 -3844180.5983719826 0 0 0 0 -18153855.647514343 68024094.313839674 0 68024094.313839674 -346417184.56964999 0 0 0 0 253060757.22068024 -325035380.10297447 0 -325035380.10297447 -738361377.86927855 0 0 0 0 -41012789.403215408 662443862.81606007 0 662443862.81606007 -474341087.03760982 0 0 0 0 -482443954.47328186 -9151691.1066507325 0 -9151691.1066507325 -320295869.21727079 0 0 0 0 -616830.49945166707 577759.37593720667 0 577759.37593720667 -223937.71274163458 0 0 0 0 -104921107.36029053 -2783732.3670620918 0 -2783732.3670620918 41073347.67480135 0 0 0 0 -30317067.053138733 -522495635.06527424 0 -522495635.06527424 -731638223.27999794 0 0 0 0 15342226.144569397 4397621.6423854828 0 4397621.6423854828 -44082286.697117805 0 0 0 0 -176974086.55453491 102963882.95069563 0 102963882.95069563 -29210735.08656311 0 0 0 0 -26641882.547294617 22302713.719094574 0 22302713.719094574 -30328808.94790554 0 0 0 0 -23541409.630584717 33277854.168838024 0 33277854.168838024 -14900983.481142998 0 0 0 0 -33798068.187667847 14254814.738173604 0 14254814.738173604 -7711954.3202309608 0 0 0 0 1651575.8093261719 -6893840.4075565338 0 -6893840.4075565338 -1129182.5057322979 0 0 0 0 1536244.7407684326 5027615.3280758858 0 5027615.3280758858 -9331742.4572844505 0 0 0 0 13006055.211898804 -4505775.7124223709 0 -4505775.7124223709 -1374914.1787128448 0 0 0 0 3967060.4122503847 857706.67282034084 0 857706.67282034084 -6031247.8469315572 0 0 0 0 -23230030.038665771 37025607.938595772 0 37025607.938595772 15855672.602405548 0 0 0 0 -2767427.3739929199 44901212.400535822 0 44901212.400535822 -9702797.4223499298 0 0 0 0 -15825520.444458008 10381006.371912241 0 10381006.371912241 102005.91066360474 0 0 0 0 44017062.339233398 17575657.41842556 0 17575657.41842556 -90926.604914188385 0 0 0 0 12181473.008617401 -11119288.324479818 0 -11119288.324479818 1826065.3500328064 0 0 0 0 17936600.83934021 56825234.570821762 0 56825234.570821762 46993507.265388489 0 0 0 0 16079608.376174927 48415655.189431667 0 48415655.189431667 18681509.629226685 0 0 0 0 -25428611.291091919 44554416.09132576 0 44554416.09132576 64288813.435947418 0 0 0 0 -23980550.794830322 46681628.155469894 0 46681628.155469894 24417391.615598679 0 0 0 0 -36651739.164596558 48090354.163432121 0 48090354.163432121 29360213.932042122 0 0 0 0 -14596737.740005493 53229775.554956436 0 53229775.554956436 -3035649.5063323975 0 0 0 0 -32151141.631347656 47637760.107060909 0 47637760.107060909 7436298.2745256424 0 0 0 0 -32652526.443044662 59337867.475635231 0 59337867.475635231 -14630639.950731277 0 0 0 0 -33565603.696865082 91071414.804910302 0 91071414.804910302 -50456141.879843712 0 0 0 0 -47054846.804580688 71710006.491751194 0 71710006.491751194 -14643137.960936252 0 0 0 0 -62448137.386322021 99858337.369947195 0 99858337.369947195 -50140556.057508588 0 0 0 0 -55981648.359710693 59792928.673520565 0 59792928.673520565 1331364.3829483986 0 0 0 0 -36910016.288909912 73512700.414536476 0 73512700.414536476 -39705023.515090942 0 0 0 0 -81746311.969573975 49719341.746217966 0 49719341.746217966 -17652201.439320087 0 0 0 0 -50080545.386779785 80100360.927636981 0 80100360.927636981 -75467680.335241556 0 0 0 0 -99199967.099090576 179942929.61034954 0 179942929.61034954 -180733140.52397251 0 0 0 0 -36223580.144878387 119058975.32172143 0 119058975.32172143 -117059375.8980813 0 0 0 0 -22406284.720436096 60772707.629835755 0 60772707.629835755 -124387286.89596057 0 0 0 0 4126786.3599090576 57120359.529434919 0 57120359.529434919 -150539049.48444104 0 0 0 0 -32645340.305267334 7620901.9650592208 0 7620901.9650592208 -399226005.9967584 0 0 0 0 14831369.678260803 68282322.725427747 0 68282322.725427747 -139895217.45358801 0 0 0 0 15288411.104621887 53947208.602994144 0 53947208.602994144 -100607347.51279455 0 0 0 0 4992.1041030883789 56723955.474342465 0 56723955.474342465 -62163393.244740486 0 0 0 0 -5913817.9391937256 84967592.161693573 0 84967592.161693573 -104283420.554297 0 0 0 0 145.66232299804688 64862028.033771753 0 64862028.033771753 -66124972.612751007 0 0 0 0 -6562137.9585876465 76529877.16683054 0 76529877.16683054 -72822224.169276237 0 0 0 0 -17990246.606636047 58814601.293799043 0 58814601.293799043 -26859080.260843277 0 0 0 0 -22962904.687805176 66292201.538188934 0 66292201.538188934 -38069932.99612999 0 0 0 0 -11346370.183959961 71339863.766156197 0 71339863.766156197 -62156962.96421051 0 0 0 0 -16923.49300636792 57862964.949700765 0 57862964.949700765 -46699010.752967834 0 0 0 0 2127519.0921936035 42108869.24431324 0 42108869.24431324 -73045277.757708073 0 0 0 0 305643.05511474609 36203429.496148109 0 36203429.496148109 32107150.751821518 0 0 0 0 -674247.92317481339 -1645582.8534469735 0 -1645582.8534469735 638525.65107958857 0 0 0 0 12333616.560440063 17088499.51723814 0 17088499.51723814 -13889738.828927994 0 0 0 0 -4499740.2084503174 40463224.519632339 0 40463224.519632339 -34595070.978113174 0 0 0 0 -22979993.714324951 24537620.878843307 0 24537620.878843307 10913846.541572571 0 0 0 0 -28508373.485534668 33533961.503070831 0 33533961.503070831 3533916.6878700256 0 0 0 0 -32159016.242156982 20371430.296117783 0 20371430.296117783 10443268.273229599 0 0 0 0 -21257370.560142517 24314629.755917072 0 24314629.755917072 6686838.1249103546 0 0 0 0 -21515129.071502686 22904538.003080368 0 22904538.003080368 6621151.1382843256 0 0 0 0 -30637135.294586182 27935750.333385468 0 27935750.333385468 62587638.930145264 0 0 0 0 -12295242.775062561 29933293.833981037 0 29933293.833981037 49518749.759159088 0 0 0 0 -32976035.106140137 21539589.595998764 0 21539589.595998764 45320965.62139225 0 0 0 0 -34759035.922492981 29514657.941602707 0 29514657.941602707 18884124.600175858 0 0 0 0 -30359820.087265015 14718996.891763687 0 14718996.891763687 28200809.810085297 0 0 0 0 -18482327.962867737 17194302.240116596 0 17194302.240116596 -987058.64763641357 0 0 0 0 -14140364.286809921 -4872286.9566866159 0 -4872286.9566866159 30561866.788963318 0 0 0 0 -15953687.475250244 10548842.853370667 0 10548842.853370667 12757531.297645569 0 0 0 0 -985696.62795257568 49844464.374761581 0 49844464.374761581 -52012804.326448441 0 0 0 0 1369778.2945024818 -1041341.6925771357 0 -1041341.6925771357 -1140867.4947969136 0 0 0 0 9582522.9976196289 28251483.607362747 0 28251483.607362747 -65440515.25417161 0 0 0 0 -6756012.6051635742 3961602.4708738327 0 3961602.4708738327 -10553263.867340088 0 0 0 0 -3144354.2465820312 -3584079.9991865158 0 -3584079.9991865158 3778457.7148628235 0 0 0 0 -19404943.0675354 32355180.977197647 0 32355180.977197647 -35245713.80245018 0 0 0 0 -17321090.438980103 25606427.035186768 0 25606427.035186768 -22258972.349647522 0 0 0 0 -20583682.822875977 28880812.342460632 0 28880812.342460632 -37430398.180192947 0 0 0 0 -11409157.099731445 39127955.823671341 0 39127955.823671341 -44984813.516582489 0 0 0 0 -28105126.322540283 13169883.743598938 0 13169883.743598938 -64538406.232301712 0 0 0 0 -16991728.89956665 9929624.8689556122 0 9929624.8689556122 23783937.441711426 0 0 0 0 -380292.61915825307 -894407.92208389193 0 -894407.92208389193 347546.19689243101 0 0 0 0 661544.27310180664 40140185.534568787 0 40140185.534568787 -77153893.621653557 0 0 0 0 -26699403.071456909 28097057.340711594 0 28097057.340711594 31520425.149736404 0 0 0 0 -24258821.973800659 20745017.607696056 0 20745017.607696056 10673721.112297058 0 0 0 0 -22942219.115478516 17640178.97077179 0 17640178.97077179 10000720.717182159 0 0 0 0 -40983683.858459473 28423324.564617157 0 28423324.564617157 -80345971.486953735 0 0 0 0 -20641323.296630859 40278206.724979401 0 40278206.724979401 -5748600.6687984467 0 0 0 0 -393558.78874206543 36808132.84687233 0 36808132.84687233 -81343296.980586767 0 0 0 0 773401.06320020556 -643234.330886079 0 -643234.330886079 -684178.06124312803 0 0 0 0 -28035199.232032776 22163277.12762928 0 22163277.12762928 82399946.691392899 0 0 0 0 -19731723.729431152 46269303.23238945 0 46269303.23238945 37860242.707447052 0 0 0 0 2572233.2548217773 33668487.820106506 0 33668487.820106506 -46749204.342205048 0 0 0 0 -19653822.038116455 16346601.363105774 0 16346601.363105774 36394463.165527344 0 0 0 0 -19534428.514877319 22718060.283745766 0 22718060.283745766 -9685087.672504425 0 0 0 0 -20704292.488235474 26233055.427627563 0 26233055.427627563 46880567.441579819 0 0 0 0 -20244345.403968811 35204106.992621422 0 35204106.992621422 4773731.7057991028 0 0 0 0 -6801282.6854705811 64257637.400249481 0 64257637.400249481 58608639.295536041 0 0 0 0 -11299383.299484253 38060622.26570034 0 38060622.26570034 15340083.022327423 0 0 0 0 -19201163.641220093 47041176.635396957 0 47041176.635396957 34834209.016253352 0 0 0 0 -13342359.762062073 53318789.17018795 0 53318789.17018795 9233481.4511508942 0 0 0 0 -9945154.7488937378 37061927.25825882 0 37061927.25825882 9363205.3469638824 0 0 0 0 28778721.412704468 37122741.399463654 0 37122741.399463654 8983405.9444012642 0 0 0 0 -9710.9533009068746 37914610.807164147 0 37914610.807164147 1852940.0132007599 0 0 0 0 458144.38223266602 27059303.502367973 0 27059303.502367973 10870980.561944008 0 0 0 0 9071.7592183964643 37617201.573890716 0 37617201.573890716 28682204.891342163 0 0 0 0 9336020.2062683105 41319914.351305962 0 41319914.351305962 -82552121.087957382 0 0 0 0 8443219.5697784424 39579420.003248215 0 39579420.003248215 27677876.157470703 0 0 0 0 -1505933.5464630127 32040160.169405937 0 32040160.169405937 35503537.539768219 0 0 0 0 383795179.40970004 261577195.42875838 0 261577195.42875838 -87561803.138137817 0 0 0 0 244400258.70762825 101224391.54395866 0 101224391.54395866 -53053319.44644928 0 0 0 0 1113023.2066122466 -529723.28498863894 0 -529723.28498863894 -1643186.0048283413 0 0 0 0 296473120.26473379 -25041858.2491436 0 -25041858.2491436 -377818083.03826523 0 0 0 0 -71149705.425230026 267052227.59534454 0 267052227.59534454 -17081545.144937038 0 0 0 0 -47522290.280423403 85079949.356778622 0 85079949.356778622 279837362.64596176 0 0 0 0 -33894431.448021173 58838293.646199942 0 58838293.646199942 158061661.24120712 0 0 0 0 53179727.218938351 241507821.98298836 0 241507821.98298836 194956030.54716015 0 0 0 0 15193049.776189804 168770909.57018661 0 168770909.57018661 146814456.97413206 0 0 0 0 222318310.42494583 127829249.31946945 0 127829249.31946945 -37233190.507802963 0 0 0 0 228822326.63541031 156111294.04263687 0 156111294.04263687 -112903932.83290863 0 0 0 0 8325515.6425409317 169874237.14815712 0 169874237.14815712 -42365535.516165733 0 0 0 0 94016061.423186302 10535932.45361042 0 10535932.45361042 -6175318.679813385 0 0 0 0 366624.94402362406 -27849027.650737107 0 -27849027.650737107 -15106093.700183868 0 0 0 0 206490124.38255119 28519310.281921387 0 28519310.281921387 31659405.693658352 0 0 0 0 75579208.668667793 -5949981.359670639 0 -5949981.359670639 25313238.746377945 0 0 0 0 137608398.24967098 124194583.61507416 0 124194583.61507416 -29513991.543048859 0 0 0 0 228909351.58395624 59551303.540712357 0 59551303.540712357 13070276.510944366 0 0 0 0 221806080.94832587 112105331.72275472 0 112105331.72275472 56277553.465278625 0 0 0 0 196319201.17686224 27823758.24063015 0 27823758.24063015 37421688.797258377 0 0 0 0 1260843.8519142498 -722327.48270819802 0 -722327.48270819802 -1531540.8389578518 0 0 0 0 188711733.6602391 -39120498.402023256 0 -39120498.402023256 43562818.086948395 0 0 0 0 198056614.80530173 43171285.082250595 0 43171285.082250595 71628337.554218292 0 0 0 0 263683859.07492185 -92111635.71695137 0 -92111635.71695137 132530854.74953079 0 0 0 0 290394625.73766947 52351046.920232534 0 52351046.920232534 65895948.428859711 0 0 0 0 269544911.14199352 71466801.42868042 0 71466801.42868042 24441028.436683655 0 0 0 0 267619535.47816181 21606785.831115723 0 21606785.831115723 331151684.61873627 0 0 0 0 245646954.9811492 -29875499.373759747 0 -29875499.373759747 35859579.377113342 0 0 0 0 293198293.7609849 26060702.324588776 0 26060702.324588776 60079354.951823235 0 0 0 0 161492126.39428902 107168133.10804558 0 107168133.10804558 27948735.441741943 0 0 0 0 -1589667.969879508 131827246.32561302 0 131827246.32561302 36040392.125003815 0 0 0 0 139983783.91062069 62908746.433790207 0 62908746.433790207 -63058853.49776125 0 0 0 0 120102374.1867013 47276930.794309616 0 47276930.794309616 118182295.09783554 0 0 0 0 148333119.38835531 110533904.47286129 0 110533904.47286129 34147371.037517548 0 0 0 0 387225385.72925663 110487423.6211853 0 110487423.6211853 131114962.49958229 0 0 0 0 58471003.550120831 209706978.5559082 0 209706978.5559082 511184159.99550247 0 0 0 0 -4958675.283499077 61523358.486157417 0 61523358.486157417 191322432.28861618 0 0 0 0 -75058000.320507973 22723043.406482518 0 22723043.406482518 159754856.87316895 0 0 0 0 -75042991.755679607 20832891.057435989 0 20832891.057435989 320721473.69055176 0 0 0 0 -45508470.641708851 117872784.50123024 0 117872784.50123024 237474716.99166393 0 0 0 0 -91306091.718138218 81510539.552541733 0 81510539.552541733 180741075.14403081 0 0 0 0 -74555186.01806879 28973231.859550476 0 28973231.859550476 172868688.92470741 0 0 0 0 -47765738.364819527 46473046.641464233 0 46473046.641464233 135613299.36052513 0 0 0 0 -70138074.586232662 56916945.62027359 0 56916945.62027359 148930822.00385475 0 0 0 0 -76870603.76716572 39848024.044504166 0 39848024.044504166 154299736.59992218 0 0 0 0 -65644893.813655615 93067987.853759766 0 93067987.853759766 43607666.910022736 0 0 0 0 -61481936.494554043 140638189.11269093 0 140638189.11269093 -67659955.157314301 0 0 0 0 -122371661.70809126 99099685.381622314 0 99099685.381622314 46038133.861392736 0 0 0 0 31430517.172039151 76676662.329201221 0 76676662.329201221 -278486645.73774529 0 0 0 0 -104674963.5737381 32735667.956124306 0 32735667.956124306 -2752973.5480570793 0 0 0 0 -42372034.740173042 115542211.56088471 0 115542211.56088471 41910295.667430878 0 0 0 0 -13613860.297074318 106156710.59454346 0 106156710.59454346 161858306.51292229 0 0 0 0 11343977.092837334 63736286.995691299 0 63736286.995691299 125326778.82130814 0 0 0 0 47221325.723056793 94849128.352481842 0 94849128.352481842 19636947.036220551 0 0 0 0 42864924.324708641 57416147.266294241 0 57416147.266294241 71815521.86693573 0 0 0 0 14408972.842206955 119509152.52539444 0 119509152.52539444 102224444.00434875 0 0 0 0 18821472.379426003 103128426.17457581 0 103128426.17457581 65307398.420174599 0 0 0 0 14729643.890192032 126173425.99145508 0 126173425.99145508 75269095.871263504 0 0 0 0 722664.78462600708 134132376.41970444 0 134132376.41970444 118482832.37581635 0 0 0 0 -41679828.174966812 65326682.605937958 0 65326682.605937958 52375375.731987953 0 0 0 0 -18220850.801662445 78070798.955913544 0 78070798.955913544 1318046.0197162628 0 0 0 0 -99814329.184265137 68460021.062652588 0 68460021.062652588 -42553424.060272217 0 0 0 0 -46317281.957736969 11850103.898052216 0 11850103.898052216 13292888.053071022 0 0 0 0 -46983771.396831512 45793119.51473999 0 45793119.51473999 82763993.369003296 0 0 0 0 -10868835.250490189 110701971.24658585 0 110701971.24658585 72766421.979317188 0 0 0 0 -26346251.332261324 125454315.86973 0 125454315.86973 58905131.51940155 0 0 0 0 17099616.131094456 194958572.89260674 0 194958572.89260674 131579430.67883682 0 0 0 0 -559004.70127464645 3527170.4832823388 0 3527170.4832823388 1146449.3826417336 0 0 0 0 -33473785.794511795 54662477.408691406 0 54662477.408691406 228529557.6683321 0 0 0 0 -17643140.478004456 146940520.74982452 0 146940520.74982452 206267066.45034885 0 0 0 0 19227038.245168686 145368614.21281242 0 145368614.21281242 89677771.16986084 0 0 0 0 255611.16082572937 114553709.18202972 0 114553709.18202972 85849282.643798828 0 0 0 0 -8397503.1269936562 112188218.82966518 0 112188218.82966518 100746319.13609314 0 0 0 0 33088039.530776978 -1931537.0719299316 0 -1931537.0719299316 36710771.260269165 0 0 0 0 -25786765.406066895 26698809.318836212 0 26698809.318836212 99080658.443031311 0 0 0 0 37744457.737171173 155578655.61155701 0 155578655.61155701 25776842.258928537 0 0 0 0 -127566710.85744858 175192810.27644157 0 175192810.27644157 -79009659.390066147 0 0 0 0 -70435222.531679153 160863772.25212669 0 160863772.25212669 -99886137.281909943 0 0 0 0 -9870924.4618910849 8938155.5233354568 0 8938155.5233354568 16339600.146961212 0 0 0 0 6337894.2086861134 13042440.65935421 0 13042440.65935421 7719959.6246585846 0 0 0 0 4629353.6148217916 75807023.649133682 0 75807023.649133682 -173170076.38673401 0 0 0 0 -409959.84340485232 1298636.8014983523 0 1298636.8014983523 1321369.6651195921 0 0 0 0 180991221.54333496 43982686.02456665 0 43982686.02456665 -222419787.16314697 0 0 0 0 -16186.326802238706 41752.239242014941 0 41752.239242014941 -22842.706827845424 0 0 0 0 -33087117.02822876 -78104028.796196938 0 -78104028.796196938 -133542978.98527527 0 0 0 0 3961152.3264348507 -1949735.9392824173 0 -1949735.9392824173 12355460.959857941 0 0 0 0 -408569543.35872841 -315741164.84779167 0 -315741164.84779167 122748891.94516373 0 0 0 0 -353371508.25965881 -354926832.02194595 0 -354926832.02194595 -6932401.5418243408 0 0 0 0 245690179.57197475 178005970.04990387 0 178005970.04990387 -48816748.115446091 0 0 0 0 247757.57209764118 -203226.82743259938 0 -203226.82743259938 -208353.96698549949 0 0 0 0 -406927638.74942446 218273329.37743616 0 218273329.37743616 -115083823.75290489 0 0 0 0 -655655154.51442146 35946806.816173553 0 35946806.816173553 75886288.901371002 0 0 0 0 -246084010.69360352 153923177.50377274 0 153923177.50377274 -73794909.923179626 0 0 0 0 -2896935.3967235088 55802454.885734558 0 55802454.885734558 142967261.31172037 0 0 0 0 86676490.871693134 285527854.37279034 0 285527854.37279034 -419873565.19459915 0 0 0 0 -1143423.4000698491 870765.03063511197 0 870765.03063511197 453182.42203162331 0 0 0 0 -3568866.7450701618 2047076.031713468 0 2047076.031713468 1341396.3442719844 0 0 0 0 25727025.676498055 11121225.949298859 0 11121225.949298859 5007244.5768489838 0 0 0 0 58669747.392075062 95671405.202495575 0 95671405.202495575 58088610.570726395 0 0 0 0 243167.41868674755 31424489.938146114 0 31424489.938146114 57080988.382144928 0 0 0 0 64333568.426499665 27392450.906103134 0 27392450.906103134 191688.04045915604 0 0 0 0 97437638.418749213 120156263.63235903 0 120156263.63235903 -105296437.73953629 0 0 0 0 52269444.177323341 152055589.04356003 0 152055589.04356003 91720318.520256042 0 0 0 0 100190620.04211903 101258391.62618065 0 101258391.62618065 -6868539.5102393627 0 0 0 0 46393648.850877017 127234738.42891479 0 127234738.42891479 -2165852.8655204773 0 0 0 0 47128105.728084803 69673617.608575821 0 69673617.608575821 3705528.1098632812 0 0 0 0 118165337.5988667 69103212.602340698 0 69103212.602340698 3612079.9261021614 0 0 0 0 145468917.70135307 16696095.902676582 0 16696095.902676582 9362220.3344817162 0 0 0 0 86228605.784049511 40169495.342570305 0 40169495.342570305 1251607.1073303223 0 0 0 0 169620195.65613914 75761375.855184555 0 75761375.855184555 -31871868.957555294 0 0 0 0 80429825.979462028 101414373.61446142 0 101414373.61446142 330007.89290428162 0 0 0 0 100700368.01633132 96082518.501597404 0 96082518.501597404 -23284763.821027756 0 0 0 0 -15145446.448987007 13736989.59576416 0 13736989.59576416 -39090530.062028885 0 0 0 0 -468583242.22216201 -54845746.079570174 0 -54845746.079570174 32576071.870258331 0 0 0 0 29096.477132294327 729191.07020125631 0 729191.07020125631 -451873.11103128083 0 0 0 0 -49198.550747189845 1358800.5456210936 0 1358800.5456210936 856287.90780025534 0 0 0 0 -535223573.54737473 414602833.65638351 0 414602833.65638351 -79911733.65405798 0 0 0 0 -337588200.16983604 197933242.04255581 0 197933242.04255581 -5176574.0575313568 0 0 0 0 88167905.851980984 38514947.699409485 0 38514947.699409485 553193.43685340881 0 0 0 0 -256336453.147192 150430425.71331692 0 150430425.71331692 -111418548.11425591 0 0 0 0 -149355782.48895645 -6692026.3294143677 0 -6692026.3294143677 15875961.858085632 0 0 0 0 -117189348.32363319 4178155.6981182098 0 4178155.6981182098 20317770.867189407 0 0 0 0 -16104.475085522048 965389.13537019491 0 965389.13537019491 217274.31816383358 0 0 0 0 -112553998.98332882 10661601.69819355 0 10661601.69819355 -40034640.070959091 0 0 0 0 -15479.280176786287 939761.61388269369 0 939761.61388269369 1062917.8562033921 0 0 0 0 -519332316.41990519 208819930.19994164 0 208819930.19994164 128679471.71116257 0 0 0 0 -260640641.77414274 -84517657.017862797 0 -84517657.017862797 -27447646.934295654 0 0 0 0 -617113037.95743942 79358144.727116585 0 79358144.727116585 62126503.447834015 0 0 0 0 -37567110.813236713 123345840.0091486 0 123345840.0091486 -37233191.084447861 0 0 0 0 -14621516.178073883 59114737.800667763 0 59114737.800667763 129667223.12054825 0 0 0 0 82416657.344835758 106359467.92369127 0 106359467.92369127 2654300.6626052856 0 0 0 0 215669175.33374727 91879866.009812355 0 91879866.009812355 -29193272.573551178 0 0 0 0 201366369.71072155 61207366.691901207 0 61207366.691901207 16333241.893758774 0 0 0 0 288725700.96142924 28491190.004926682 0 28491190.004926682 -36028458.676140785 0 0 0 0 -142829.20186987455 94606.44692318351 0 94606.44692318351 907443.88080250099 0 0 0 0 534171961.60740072 -43014704.928081036 0 -43014704.928081036 -49061319.43488121 0 0 0 0 265457468.02098608 51008555.328074455 0 51008555.328074455 -21105893.756206512 0 0 0 0 73579390.820163965 160154881.60207653 0 160154881.60207653 -3860884.7137069702 0 0 0 0 123052085.60560369 212571734.34829617 0 212571734.34829617 -163588928.59606552 0 0 0 0 68718825.843977273 140969686.79719067 0 140969686.79719067 -5553093.8264656067 0 0 0 0 -31744860.551781893 123237798.96694517 0 123237798.96694517 3300888.984079361 0 0 0 0 -181782210.33382058 2072621.4073777199 0 2072621.4073777199 -110222266.27815628 0 0 0 0 -252305515.00146151 299155856.2458086 0 299155856.2458086 -123460936.3010006 0 0 0 0 -33150282.187060833 45637071.590859413 0 45637071.590859413 30337775.503860474 0 0 0 0 41455975.464328408 134705486.41582322 0 134705486.41582322 -142778701.52978516 0 0 0 0 -176891572.30607986 54990330.567258835 0 54990330.567258835 49690135.313860893 0 0 0 0 -57781342.75469017 125081081.93330765 0 125081081.93330765 33132651.512874603 0 0 0 0 -80091057.730420589 51586382.80008316 0 51586382.80008316 74995720.532470703 0 0 0 0 4682348.3275051117 60740995.50056076 0 60740995.50056076 -21495843.525770187 0 0 0 0 13113068.671060801 122149716.15748787 0 122149716.15748787 -99952956.337221146 0 0 0 0 68092133.725001335 42390946.497933388 0 42390946.497933388 -2724734.0171804428 0 0 0 0 76894527.776718915 -56944770.394682944 0 -56944770.394682944 5777288.3941726685 0 0 0 0 326364473.43143046 34007533.316326141 0 34007533.316326141 -180080332.34046173 0 0 0 0 250865245.22731256 -101547855.70941353 0 -101547855.70941353 -99186472.050710678 0 0 0 0 477278.88320583617 -211615.06582144834 0 -211615.06582144834 -751614.92153345793 0 0 0 0 194264755.94123894 13192880.605072498 0 13192880.605072498 240015037.59566498 0 0 0 0 47593932.227136612 194413109.57196331 0 194413109.57196331 59463249.396677017 0 0 0 0 68400298.716335058 177222820.39744663 0 177222820.39744663 -57108485.752731323 0 0 0 0 -10880204.815032959 149046808.40421796 0 149046808.40421796 -116776674.53962135 0 0 0 0 52093359.811133385 7122495.7079610825 0 7122495.7079610825 -117950288.1869061 0 0 0 0 -132680.0239646025 567258.34568632208 0 567258.34568632208 618991.45447596535 0 0 0 0 169327964.02451229 -90388788.130498886 0 -90388788.130498886 -98946837.586344719 0 0 0 0 -108332.43504075333 1042170.0857844213 0 1042170.0857844213 1068003.6080720676 0 0 0 0 22969972.897528648 64314072.628627777 0 64314072.628627777 -129378180.2146616 0 0 0 0 310686035.9650383 53804843.907036781 0 53804843.907036781 -106980589.09485912 0 0 0 0 -54936283.824121952 45839302.292004585 0 45839302.292004585 236625660.59879112 0 0 0 0 61546193.253838539 -145145435.01089478 0 -145145435.01089478 132179510.27854729 0 0 0 0 214654765.22413111 181188123.77103472 0 181188123.77103472 -14301089.184645653 0 0 0 0 289777798.6017288 -10623813.52788949 0 -10623813.52788949 -120003326.72161102 0 0 0 0 47807816.514346361 -29157434.944396496 0 -29157434.944396496 277959503.93819237 0 0 0 0 659000.00889032427 1024636.4815758215 0 1024636.4815758215 -672221.89569114521 0 0 0 0 -48645677.736487865 249119778.97456074 0 249119778.97456074 -66131843.10869503 0 0 0 0 -111780444.52139664 -10072175.463400841 0 -10072175.463400841 212103674.18814135 0 0 0 0 -58544380.894692421 143028282.34014988 0 143028282.34014988 -8094532.7728796005 0 0 0 0 -219675.7473221356 615650.69283502968 0 615650.69283502968 701908.53261909448 0 0 0 0 -23198888.796079159 -139423009.30290461 0 -139423009.30290461 185725522.33184052 0 0 0 0 64604423.632659912 99231457.22414875 0 99231457.22414875 7041306.8399925232 0 0 0 0 -119857647.02633333 -358304533.34785461 0 -358304533.34785461 -200783436.01850653 0 0 0 0 2205407.2939399928 4311860.2469859086 0 4311860.2469859086 -2537724.1097863782 0 0 0 0 6067067.0263710022 5950780.7083702087 0 5950780.7083702087 -2096273.5626296997 0 0 0 0 -413333.31250762939 4846265.0550441742 0 4846265.0550441742 1730436.1527299881 0 0 0 0 49795.659103700891 7461663.3135028472 0 7461663.3135028472 174510.09748649225 0 0 0 0 -2057051.3500843048 3168403.2818479538 0 3168403.2818479538 535743.37603378296 0 0 0 0 -106504594.6677537 -84611600.087589741 0 -84611600.087589741 166785839.80531311 0 0 0 0 180222305.29820347 88448668.463357925 0 88448668.463357925 -84895378.257147789 0 0 0 0 1979629.8388144902 4864941.520630938 0 4864941.520630938 -2159581.180778712 0 0 0 0 21271892.814591408 35376191.634452105 0 35376191.634452105 -30624252.679861069 0 0 0 0 86455070.374653816 -15688571.589266777 0 -15688571.589266777 -1193820.8469362259 0 0 0 0 2727393.2246510638 3647200.925437957 0 3647200.925437957 -1483017.5673412345 0 0 0 0 -1017269.0999469757 7260706.7995004654 0 7260706.7995004654 -1416311.9014759064 0 0 0 0 -657347.90424862877 4557882.8849263359 0 4557882.8849263359 2482263.7652285993 0 0 0 0 10994415.436340332 -5772957.3325214386 0 -5772957.3325214386 -16483715.809907913 0 0 0 0 3778388.6659763907 5174723.5394219691 0 5174723.5394219691 108865.07205423713 0 0 0 0 -2921273.715511322 13931321.531641006 0 13931321.531641006 20812732.210139275 0 0 0 0 37975974.642498016 22680773.283596992 0 22680773.283596992 -8480814.5429039001 0 0 0 0 -3871060.010670159 1255778.7938068251 0 1255778.7938068251 2217591.5610341718 0 0 0 0 86960102.553425789 -19964284.613492966 0 -19964284.613492966 -48195218.660603523 0 0 0 0 62453874.598484993 -44915527.815862656 0 -44915527.815862656 -51074808.938611031 0 0 0 0 -7495991.2704973221 28524810.175435066 0 28524810.175435066 -65862716.73850894 0 0 0 0 137910721.08151245 -36772817.371128082 0 -36772817.371128082 -40417533.238589287 0 0 0 0 39064529.22127533 -35449237.112347603 0 -35449237.112347603 -37267239.541917801 0 0 0 0 10795954.675773621 -23062957.822747707 0 -23062957.822747707 19047098.273583412 0 0 0 0 -19208129.851490021 -46906498.913030624 0 -46906498.913030624 225295778.09238911 0 0 0 0 142438973.02550888 115713643.43839741 0 115713643.43839741 58642511.126684189 0 0 0 0 47724271.330795288 55617861.642494202 0 55617861.642494202 20668840.178508759 0 0 0 0 94078394.192847252 76106833.652751565 0 76106833.652751565 -16379801.169502258 0 0 0 0 35481863.360641479 55673893.833370209 0 55673893.833370209 -2042940.4768180847 0 0 0 0 44945378.240821838 46231427.332934856 0 46231427.332934856 -8906241.132900238 0 0 0 0 24014979.565021515 62712441.355870247 0 62712441.355870247 13113278.701065063 0 0 0 0 -14580517.076553345 42046713.603291512 0 42046713.603291512 2063732.8602561951 0 0 0 0 33041470.316064835 44026082.916808605 0 44026082.916808605 -42817215.167793274 0 0 0 0 -24732704.374687195 18981324.0831604 0 18981324.0831604 -34562075.255065918 0 0 0 0 -73220783.180519104 65511509.883333683 0 65511509.883333683 9817600.2701454163 0 0 0 0 -14686105.156763434 34345518.095550895 0 34345518.095550895 4653314.1278533936 0 0 0 0 -15704525.386146545 351830.25509643555 0 351830.25509643555 81233766.775302887 0 0 0 0 -104390215.91913605 3297299.2913961411 0 3297299.2913961411 87024664.840910912 0 0 0 0 -47985485.940601349 53780904.862071991 0 53780904.862071991 6193222.5913963318 0 0 0 0 186404.74455334246 473955.82391111925 0 473955.82391111925 -285502.96381790051 0 0 0 0 -72877761.686088562 60375848.773710251 0 60375848.773710251 14525679.867640495 0 0 0 0 4740801.3692328595 5960419.2356432732 0 5960419.2356432732 380107.81199528091 0 0 0 0 -69341886.370018005 36573715.329166412 0 36573715.329166412 26607163.895301819 0 0 0 0 -76568884.944906235 66822728.261738539 0 66822728.261738539 -1249067.0468730927 0 0 0 0 -138482046.57068634 32899089.063195229 0 32899089.063195229 -4138572.3339672089 0 0 0 0 -69393762.964347839 69513023.654778481 0 69513023.654778481 -261604.27894592285 0 0 0 0 -76683870.305930138 69544810.563629627 0 69544810.563629627 10980751.804534912 0 0 0 0 -5993550.419467926 8564420.0903301239 0 8564420.0903301239 -1872951.1995806694 0 0 0 0 884390.333070755 5148400.1274189949 0 5148400.1274189949 -3467394.6607475281 0 0 0 0 2028186.9384876229 4901828.664015118 0 4901828.664015118 1871428.8500844929 0 0 0 0 -45706468.180656433 -17063672.177957535 0 -17063672.177957535 -30578659.369117737 0 0 0 0 -6838129.7917079926 10643921.355132103 0 10643921.355132103 -1945189.0436706543 0 0 0 0 -65347839.141723633 60483543.264478683 0 60483543.264478683 5301715.6357355118 0 0 0 0 -66313279.995948792 23491734.04816246 0 23491734.04816246 24937529.790363312 0 0 0 0 -85923251.66053772 -11315116.998040199 0 -11315116.998040199 38319694.883472443 0 0 0 0 -19085154.83026886 19231711.217819214 0 19231711.217819214 20156555.349489212 0 0 0 0 -43566518.021976471 -17637534.50676775 0 -17637534.50676775 31801399.517353058 0 0 0 0 -128071003.77549744 -58524947.841161728 0 -58524947.841161728 13373841.064102173 0 0 0 0 58629654.647831917 -62867331.800423145 0 -62867331.800423145 -76286231.528785706 0 0 0 0 -214618828.40609741 -170266841.28098297 0 -170266841.28098297 -38327581.426242828 0 0 0 0 -92947109.390594482 27453939.336492538 0 27453939.336492538 -49630626.923440017 0 0 0 0 -324541112.29653168 117848880.43773842 0 117848880.43773842 -50222830.267904401 0 0 0 0 30565796.440571308 118339816.45252752 0 118339816.45252752 -344937209.50525665 0 0 0 0 -42300835.57706356 -37276912.135119438 0 -37276912.135119438 28639602.959102631 0 0 0 0 22767774.061683655 68943683.642085552 0 68943683.642085552 -74252510.946691513 0 0 0 0 41768496.297260284 27568910.618980408 0 27568910.618980408 -237446335.21225166 0 0 0 0 -5185137.8815879822 -32850143.373649597 0 -32850143.373649597 -132927249.94790077 0 0 0 0 373512.33749008179 57684118.908555984 0 57684118.908555984 -131214041.18102932 0 0 0 0 46254019.389533997 -11289702.541397095 0 -11289702.541397095 -77070980.756404877 0 0 0 0 437010.18295214698 858969.98322768789 0 858969.98322768789 -531224.1382688554 0 0 0 0 -41014915.044464111 69737067.84894228 0 69737067.84894228 64383105.689214706 0 0 0 0 43838703.725151062 -89371953.189219475 0 -89371953.189219475 -91083084.552489281 0 0 0 0 -53881732.319421768 59374500.67177248 0 59374500.67177248 -41546573.576883316 0 0 0 0 -65350.453471031506 -581779.50184217654 0 -581779.50184217654 -170843.01469176263 0 0 0 0 35669636.566184998 61788078.386270523 0 61788078.386270523 -219153179.95085573 0 0 0 0 20657282.231739044 -13512056.044344902 0 -13512056.044344902 89206.457062721252 0 0 0 0 27015640.376811981 2403529.6334075928 0 2403529.6334075928 -11655310.261249542 0 0 0 0 22520705.716220856 8191700.3550682068 0 8191700.3550682068 29645633.798910141 0 0 0 0 100395189.34318733 -49585119.50475502 0 -49585119.50475502 -71668885.584606171 0 0 0 0 72627529.652406693 34057080.960848808 0 34057080.960848808 -300314326.52960587 0 0 0 0 -42372044.270557404 380546766.09400558 0 380546766.09400558 -238463087.24720001 0 0 0 0 12020915.377841949 341298900.71057224 0 341298900.71057224 -371953123.16377544 0 0 0 0 -3095453.0482494831 86381459.656460911 0 86381459.656460911 -102218449.40395546 0 0 0 0 -379805822.7129364 186089543.65395117 0 186089543.65395117 -114480545.79813957 0 0 0 0 -190128.33067128807 -554103.75590205193 0 -554103.75590205193 -844477.37462905608 0 0 0 0 -106240195.72015953 498167283.00052357 0 498167283.00052357 -234124519.4499054 0 0 0 0 -401846407.82780075 566507370.33600807 0 566507370.33600807 -99453836.98623848 0 0 0 0 152012419.13043308 -354812450.25644612 0 -354812450.25644612 -229627326.22204971 0 0 0 0 65758085.420284271 10180873.554586172 0 10180873.554586172 -736753.752784729 0 0 0 0 -479842.66255293693 -1367341.4454342984 0 -1367341.4454342984 -1368608.6114952434 0 0 0 0 36783780.854930878 -11520482.342464447 0 -11520482.342464447 -16954311.386703491 0 0 0 0 43612728.410858154 1463121.3338794708 0 1463121.3338794708 9366868.0324783325 0 0 0 0 -97364.132507660193 -926872.83040209301 0 -926872.83040209301 -362566.96935589425 0 0 0 0 34380469.511417389 7132119.8532581329 0 7132119.8532581329 5891093.9197635651 0 0 0 0 -78552941.292575836 55519592.190177917 0 55519592.190177917 22672539.379188538 0 0 0 0 126490695.56998444 5571452.2566833496 0 5571452.2566833496 -80247449.747182846 0 0 0 0 -13016023.311232328 -6112054.4940458536 0 -6112054.4940458536 -4423888.9640808105 0 0 0 0 84057075.091881752 -67831933.375009537 0 -67831933.375009537 23956624.689943254 0 0 0 0 -1894589.5989833171 373753.30101286503 0 373753.30101286503 1460962.5541110076 0 0 0 0 71685913.1207304 -44884260.372429848 0 -44884260.372429848 43346804.207069397 0 0 0 0 56768042.617636204 -41120172.287474632 0 -41120172.287474632 44536558.628976822 0 0 0 0 46237263.773143291 -32555006.42791748 0 -32555006.42791748 21059500.885023117 0 0 0 0 -9397253.5026521683 6081390.8200340271 0 6081390.8200340271 1706191.0850582123 0 0 0 0 -2056500.8750108872 709741.54911648016 0 709741.54911648016 1624160.4729938591 0 0 0 0 -755801969.91952896 322186783.08215046 0 322186783.08215046 11769519.654964447 0 0 0 0 1172835.8693291079 809246.64378153533 0 809246.64378153533 -814757.24309601821 0 0 0 0 8381730.2489185333 12749561.90007925 0 12749561.90007925 -294204238.79051208 0 0 0 0 -17963250.367303848 12419795.440951347 0 12419795.440951347 354222.59630942345 0 0 0 0 3353920.1793300323 5415216.3543593101 0 5415216.3543593101 3383857.7064948771 0 0 0 0 -122801426.19477844 227782073.02095127 0 227782073.02095127 -247004843.62773323 0 0 0 0 -47601043.93396759 198469052.84626293 0 198469052.84626293 -292130695.93167347 0 0 0 0 -148395026.86312962 199563863.13035226 0 199563863.13035226 -134917000.04200554 0 0 0 0 -91770289.668174744 13128571.020791054 0 13128571.020791054 88161124.468385696 0 0 0 0 -27478420.281749725 109370519.73333549 0 109370519.73333549 -327890356.53754616 0 0 0 0 -54363786.455867767 51358621.267422199 0 51358621.267422199 -145959011.5119133 0 0 0 0 21512535.082561493 89870996.448759079 0 89870996.448759079 -519839186.30597341 0 0 0 0 3410391.3994973414 4933989.1290113227 0 4933989.1290113227 3935083.6263622679 0 0 0 0 -25612156.402971268 68113056.212966919 0 68113056.212966919 13880016.781791687 0 0 0 0 -96911283.443104744 350328246.9005003 0 350328246.9005003 -505360021.17926407 0 0 0 0 -833963.54447880946 -41609.67288635741 0 -41609.67288635741 760204.24160755612 0 0 0 0 178212181.03028297 -17352408.604322433 0 -17352408.604322433 70721924.367528915 0 0 0 0 2342621.9033049662 4180771.3829202037 0 4180771.3829202037 4338961.1072500665 0 0 0 0 41988081.238649368 181566078.29633522 0 181566078.29633522 108441480.91411781 0 0 0 0 -26324719.656486511 -50903130.016983032 0 -50903130.016983032 -84402635.588593483 0 0 0 0 -252467759.49792671 632042563.93807793 0 632042563.93807793 -331803577.44397736 0 0 0 0 -39111686.992053986 769768464.55910206 0 769768464.55910206 -893864340.33672333 0 0 0 0 -97691877.565515995 -45145476.003023148 0 -45145476.003023148 -154465644.90950012 0 0 0 0 83446752.220794678 677463441.8522768 0 677463441.8522768 522009925.01914215 0 0 0 0 -502450227.05214119 477690044.85017586 0 477690044.85017586 1828843614.8967342 0 0 0 0 671111245.61776352 709691927.79987526 0 709691927.79987526 532755405.7197094 0 0 0 0 64335320.871879578 -19252886.743899822 0 -19252886.743899822 892595383.24681473 0 0 0 0 591492120.328022 -225896485.37695694 0 -225896485.37695694 121440543.76235008 0 0 0 0 -126221434.22754908 -2738620.494273901 0 -2738620.494273901 -206543003.85219574 0 0 0 0 11635657.253406525 138581394.88982487 0 138581394.88982487 -61898502.871353149 0 0 0 0 -32356505.50345993 -150819499.22565842 0 -150819499.22565842 130708958.03613281 0 0 0 0 148877598.92124176 -84236092.403217316 0 -84236092.403217316 -164644470.90529394 0 0 0 0 -22811002.210388184 -130954109.91481495 0 -130954109.91481495 45188826.348412752 0 0 0 0 88428857.92049408 -32098903.967952728 0 -32098903.967952728 40887071.117003441 0 0 0 0 134959306.96287155 221463206.57740021 0 221463206.57740021 124041235.30602646 0 0 0 0 -4339328.6477832794 235861490.52148247 0 235861490.52148247 275017334.47342491 0 0 0 0 -364119.44384044455 -720525.9666460054 0 -720525.9666460054 153828.17514162138 0 0 0 0 191982928.00817871 301409326.68234444 0 301409326.68234444 87086658.350703239 0 0 0 0 250021746.88233185 224181200.92435837 0 224181200.92435837 6765136.6345977783 0 0 0 0 295845494.49066162 258654410.99013329 0 258654410.99013329 30017843.903530121 0 0 0 0 505858140.59261322 346071309.34577942 0 346071309.34577942 29025175.686426967 0 0 0 0 258328124.41636276 213061692.33820724 0 213061692.33820724 7888402.6284866333 0 0 0 0 355314594.53360176 192405835.87696552 0 192405835.87696552 -84835143.383594513 0 0 0 0 272040212.30036163 133978387.28632355 0 133978387.28632355 -75364522.694451332 0 0 0 0 1117491.8266318263 2087819.8492156845 0 2087819.8492156845 870039.50306835584 0 0 0 0 -130388870.91102219 26328729.859130859 0 26328729.859130859 32067236.539756775 0 0 0 0 109376238.83759689 -4646538.1182365417 0 -4646538.1182365417 -40712972.518392563 0 0 0 0 -198580722.75614166 39214549.799495697 0 39214549.799495697 -77509895.639497757 0 0 0 0 118609774.23486996 -149671164.95819998 0 -149671164.95819998 38150170.1147995 0 0 0 0 2717518.790085651 2259299.3895322438 0 2259299.3895322438 -1494246.0986118647 0 0 0 0 631369562.24647141 -77978135.570350647 0 -77978135.570350647 -214423624.46491814 0 0 0 0 386981438.2833786 628857425.79087067 0 628857425.79087067 619346887.00065231 0 0 0 0 183535629.0411911 342430907.20922089 0 342430907.20922089 362650001.03522491 0 0 0 0 364799858.23645782 163594993.38307953 0 163594993.38307953 605359.76330566406 0 0 0 0 867615983.79189682 449359217.80307674 0 449359217.80307674 67729919.638671875 0 0 0 0 -32568480.983345032 46170418.037067413 0 46170418.037067413 -115547561.28365445 0 0 0 0 -78484985.214471817 63446586.475016594 0 63446586.475016594 -13487960.45132637 0 0 0 0 -38728700.442653656 138729510.63655949 0 138729510.63655949 -116333590.42936707 0 0 0 0 -56666382.005844116 136551688.04294443 0 136551688.04294443 -105163645.52102661 0 0 0 0 -61125.590269671986 -506966.85647696815 0 -506966.85647696815 -166588.11256155558 0 0 0 0 50227740.885607243 -20366863.006988049 0 -20366863.006988049 -38659320.862678528 0 0 0 0 -78135648.456428528 101433260.48030472 0 101433260.48030472 -73599349.171616554 0 0 0 0 54171890.905784607 24268871.561078072 0 24268871.561078072 -137064438.8022089 0 0 0 0 41835308.916358948 15937754.314903259 0 15937754.314903259 -26573141.958364487 0 0 0 0 -615517.11379180383 -1434708.8827799661 0 -1434708.8827799661 -419030.97233657911 0 0 0 0 13108579.868318558 46325696.707485676 0 46325696.707485676 -54554909.77220726 0 0 0 0 -118448822.03760576 87017154.922115088 0 87017154.922115088 58709964.32204628 0 0 0 0 77681009.05978775 179716047.24304771 0 179716047.24304771 92701704.785404205 0 0 0 0 30957100.300811768 86846459.049298286 0 86846459.049298286 -42097709.178932667 0 0 0 0 -3104677.2371511459 152054596.73936892 0 152054596.73936892 141163445.3098526 0 0 0 0 35333517.06615591 41204694.881480157 0 41204694.881480157 -42434148.427875519 0 0 0 0 -57909630.981575012 58817873.246955872 0 58817873.246955872 1514628.7513456345 0 0 0 0 73042203.214801788 49715566.483785629 0 49715566.483785629 -2167194.0776195526 0 0 0 0 -20460214.885316849 24855201.725316525 0 24855201.725316525 -17089435.91377449 0 0 0 0 192274500.23791504 54952282.89411068 0 54952282.89411068 90674880.826541901 0 0 0 0 53024991.718719482 102745465.00683212 0 102745465.00683212 207695427.12752914 0 0 0 0 27698212.679172516 -79839064.601026535 0 -79839064.601026535 171241472.78662491 0 0 0 0 -700285.6117695272 -126656.39194022026 0 -126656.39194022026 684493.92025519349 0 0 0 0 59310926.039834976 151287386.98858643 0 151287386.98858643 91642633.315093994 0 0 0 0 227082720.51303864 142055099.38981438 0 142055099.38981438 230725225.34784508 0 0 0 0 71815914.007110596 64646052.097105026 0 64646052.097105026 192230211.41735077 0 0 0 0 105003772.58564663 189155089.71307826 0 189155089.71307826 207291834.37760544 0 0 0 0 91695250.653366089 139794486.78091431 0 139794486.78091431 267837867.0743618 0 0 0 0 119791855.17060852 152249665.271595 0 152249665.271595 141030766.20565093 0 0 0 0 59819497.597349167 164039334.32581234 0 164039334.32581234 222250231.0959053 0 0 0 0 67540184.439857483 135953519.77836227 0 135953519.77836227 333297233.48242188 0 0 0 0 120746434.82284546 185958976.49224091 0 185958976.49224091 229672940.62014961 0 0 0 0 5520422.8439793997 -2443043.1631618924 0 -2443043.1631618924 -5374909.1402665973 0 0 0 0 85665322.313753128 214934849.85883713 0 214934849.85883713 385282477.73237228 0 0 0 0 184843815.6557312 -125592671.56318283 0 -125592671.56318283 -163306201.3769474 0 0 0 0 218683535.15199661 62633757.723331451 0 62633757.723331451 -22425263.933506012 0 0 0 0 328118116.365242 -217439722.71738052 0 -217439722.71738052 20738328.395706177 0 0 0 0 -241086823.99411011 -26920456.555147171 0 -26920456.555147171 457358497.63270187 0 0 0 0 -22341838.894256592 -5330234.3347396851 0 -5330234.3347396851 -105983069.26646042 0 0 0 0 -140168685.95867157 -711946.86592483521 0 -711946.86592483521 -140045434.25046158 0 0 0 0 -90365616.910362244 -105107641.33409882 0 -105107641.33409882 67949329.695111275 0 0 0 0 -302831221.38350677 200008878.41655731 0 200008878.41655731 -38205521.674361229 0 0 0 0 119627001.12546539 127210152.42276144 0 127210152.42276144 318811473.32904434 0 0 0 0 161326817.72198868 179845454.54569817 0 179845454.54569817 284988938.18634892 0 0 0 0 239535698.0662117 373544503.12475967 0 373544503.12475967 504414182.59742355 0 0 0 0 2778117.7713200264 -1051787.8579550367 0 -1051787.8579550367 -2063091.4764589937 0 0 0 0 -14053903.491088867 4466300.014415741 0 4466300.014415741 -141157553.82314014 0 0 0 0 79305745.277954102 -65050773.285007477 0 -65050773.285007477 -453577411.82629395 0 0 0 0 585357.08575779945 -336982.51528909802 0 -336982.51528909802 -376207.18770215288 0 0 0 0 -192890102.07624054 215302994.47555161 0 215302994.47555161 952587010.80699253 0 0 0 0 152208439.65805054 749819344.72771263 0 749819344.72771263 1043111438.7585039 0 0 0 0 339741138.82605553 177014465.17551994 0 177014465.17551994 136535793.90093231 0 0 0 0 100544164.8570137 177874894.87151909 0 177874894.87151909 -55618813.90133667 0 0 0 0 96710189.806602478 171128582.4154377 0 171128582.4154377 235261783.48809814 0 0 0 0 -11167540.362308025 104327520.74887985 0 104327520.74887985 68598661.33455658 0 0 0 0 -6338239.5419940948 -27711236.629531622 0 -27711236.629531622 99679646.614738464 0 0 0 0 85054386.412597656 43547020.40820694 0 43547020.40820694 66621416.698532104 0 0 0 0 9545014.3322238922 24033906.817295432 0 24033906.817295432 399254.33216571808 0 0 0 0 5382127.0863907523 14109076.949368671 0 14109076.949368671 11705675.173610231 0 0 0 0 1306535.5507945837 30567400.570397511 0 30567400.570397511 8260590.3066918999 0 0 0 0 23698792.538154516 9354369.0651408881 0 9354369.0651408881 -30450797.272402596 0 0 0 0 104123534.92165375 41339400.72687149 0 41339400.72687149 -4707478.855348587 0 0 0 0 114932684.81030273 63960430.043685913 0 63960430.043685913 -17486040.364440918 0 0 0 0 66158968.137207031 73392836.956787109 0 73392836.956787109 176812130.66485214 0 0 0 0 -537105.97945616394 -996999.36205033679 0 -996999.36205033679 -1551415.0113865109 0 0 0 0 9744970.6136646271 24680813.464554667 0 24680813.464554667 -6470967.2694762945 0 0 0 0 12014201.132946014 25151806.811355233 0 25151806.811355233 -15112897.281733036 0 0 0 0 3025012.3258986473 31110438.28747233 0 31110438.28747233 6641804.2274900079 0 0 0 0 3815650.922039032 33005420.541844696 0 33005420.541844696 2303399.1292420328 0 0 0 0 4943857.5072097778 30517368.496982336 0 30517368.496982336 5808385.1807158887 0 0 0 0 4829655.9916114807 54981539.138733864 0 54981539.138733864 88974481.992637634 0 0 0 0 3080748.670408736 15413842.409899546 0 15413842.409899546 -4101782.2201459561 0 0 0 0 4741035.3505592346 30913183.572569013 0 30913183.572569013 5649904.8673948646 0 0 0 0 5605543.8413586617 29092980.584888212 0 29092980.584888212 6407877.3195723891 0 0 0 0 100792736.01066971 116052714.38281822 0 116052714.38281822 80286665.513961792 0 0 0 0 1427679.6683139624 9674625.0310014728 0 9674625.0310014728 5741488.7410541959 0 0 0 0 4220375.8798974594 4358067.4001913052 0 4358067.4001913052 -4513092.2504358552 0 0 0 0 288880853.92692566 148160627.36806488 0 148160627.36806488 37027847.475074768 0 0 0 0 242319441.31897449 179762879.28092384 0 179762879.28092384 65435753.528457642 0 0 0 0 130096321.00691986 219183857.07275391 0 219183857.07275391 151439204.1362915 0 0 0 0 151054197.70956421 208664077.80229187 0 208664077.80229187 91777368.889955521 0 0 0 0 143052493.65306473 204542545.47245598 0 204542545.47245598 112457847.05354309 0 0 0 0 25103951.016254425 171378013.39373589 0 171378013.39373589 151902837.98649216 0 0 0 0 29241969.627368927 263893732.42560387 0 263893732.42560387 131798197.65865135 0 0 0 0 87301945.113220215 202205449.88468266 0 202205449.88468266 166981015.56428146 0 0 0 0 55196180.303344727 192609803.51504326 0 192609803.51504326 218841141.54970932 0 0 0 0 72950847.461301804 207704070.41717052 0 207704070.41717052 151959036.82997894 0 0 0 0 95773649.48613739 147434999.07170868 0 147434999.07170868 216051906.08907545 0 0 0 0 83265222.10710907 166371067.04249954 0 166371067.04249954 187596153.76823044 0 0 0 0 8195146.7991493866 -4295509.3801762331 0 -4295509.3801762331 -12781483.300849214 0 0 0 0 108457655.27738953 170053330.79672241 0 170053330.79672241 188076021.0140152 0 0 0 0 121334414.09621429 146351075.82217026 0 146351075.82217026 131553575.35130024 0 0 0 0 -35764812.087837219 94142296.565402985 0 94142296.565402985 126547723.26595688 0 0 0 0 1820085.8884611689 4144755.4138674568 0 4144755.4138674568 3429547.5742152818 0 0 0 0 8821522.5916464217 15261427.772454476 0 15261427.772454476 -19180562.605478071 0 0 0 0 94674340.39855957 143535809.54515457 0 143535809.54515457 63536988.996040344 0 0 0 0 -149867894.92172241 -36969832.821022034 0 -36969832.821022034 64599675.631940842 0 0 0 0 50483683.927597046 27619474.047517776 0 27619474.047517776 -128487076.19253159 0 0 0 0 127699212.61432648 96815746.632455826 0 96815746.632455826 69088304.054763794 0 0 0 0 121142997.64135742 149577171.61883926 0 149577171.61883926 122912469.07157135 0 0 0 0 4443657.5617807955 14063186.928761266 0 14063186.928761266 -21157033.201182641 0 0 0 0 34317329.640750885 103991857.64377117 0 103991857.64377117 117024674.05883026 0 0 0 0 68617648.45526886 65024909.939064026 0 65024909.939064026 55894014.765598416 0 0 0 0 -24671665.826907635 5801565.1778373718 0 5801565.1778373718 29771197.537597656 0 0 0 0 40254073.627960205 99258231.322299957 0 99258231.322299957 84434203.3813591 0 0 0 0 -20041089.501396686 13449379.088837465 0 13449379.088837465 12664076.559929736 0 0 0 0 115575991.01106262 111067932.56386471 0 111067932.56386471 2973171.9463424683 0 0 0 0 127594702.59038544 135122746.10845947 0 135122746.10845947 50993802.072788239 0 0 0 0 128887408.6765976 66893142.159681797 0 66893142.159681797 6317767.4905853271 0 0 0 0 -3755011.229309082 48110908.577026367 0 48110908.577026367 56773149.028831482 0 0 0 0 -10978248.623739138 2401134.874730356 0 2401134.874730356 9408667.2316015344 0 0 0 0 171956225.37157822 54084694.626276493 0 54084694.626276493 1097885.8581161499 0 0 0 0 161327934.30848122 110103337.84760046 0 110103337.84760046 -17095852.43094635 0 0 0 0 10154301.879933357 18942344.111640453 0 18942344.111640453 -17689701.281440258 0 0 0 0 11109470.898810863 24133947.431522608 0 24133947.431522608 -11719107.296170712 0 0 0 0 -13957869.626289368 1458932.215013504 0 1458932.215013504 7882709.0128631592 0 0 0 0 -12296089.351485748 16147832.455286777 0 16147832.455286777 14449946.235330367 0 0 0 0 -11578498.680967022 11607770.977396902 0 11607770.977396902 11546294.662935734 0 0 0 0 -1540250.5803972036 7542037.1900361031 0 7542037.1900361031 10204374.039138589 0 0 0 0 13873004.565757751 8426829.0910282135 0 8426829.0910282135 11002626.601817131 0 0 0 0 -16813610.258476257 5496081.5815820694 0 5496081.5815820694 5315974.5089159012 0 0 0 0 -16782081.160758972 6827254.4641866684 0 6827254.4641866684 7036055.5218791962 0 0 0 0 -14497304.756289961 6874320.1909141932 0 6874320.1909141932 11885764.399836946 0 0 0 0 -14505051.62223166 1105545.17196562 0 1105545.17196562 7625330.9893180141 0 0 0 0 -58031205.291637421 -5292454.7009341717 0 -5292454.7009341717 4462484.2023466825 0 0 0 0 -735311.43042564392 6356948.094414711 0 6356948.094414711 13690608.70028162 0 0 0 0 123774767.01229668 5512994.1576370001 0 5512994.1576370001 -26863657.611481667 0 0 0 0 39664682.049072266 101259093.16334105 0 101259093.16334105 21945828.955819607 0 0 0 0 -40583696.589548111 60202943.7908957 0 60202943.7908957 162937935.01249886 0 0 0 0 87136223.319853783 35008888.30678606 0 35008888.30678606 -31617514.345126152 0 0 0 0 4035391.9601383209 44906655.985338688 0 44906655.985338688 25045458.161793709 0 0 0 0 -42945805.035636902 -13504772.119739056 0 -13504772.119739056 19985992.596578538 0 0 0 0 -87889890.120029449 49080152.540598631 0 49080152.540598631 74734556.066367865 0 0 0 0 -2944845.0647516781 14940425.84756076 0 14940425.84756076 8203474.0603123643 0 0 0 0 763028.60588362068 1766628.9616099694 0 1766628.9616099694 2656865.7440087376 0 0 0 0 -22627953.159328461 66800404.671019077 0 66800404.671019077 -4105791.5621070862 0 0 0 0 -18513872.512325287 43122133.701226234 0 43122133.701226234 -31406481.483128548 0 0 0 0 12585344.680324554 8970071.9137721062 0 8970071.9137721062 9222395.6360719204 0 0 0 0 3187109.1111754179 502837.82238240633 0 502837.82238240633 -2385735.7021158212 0 0 0 0 1291307.8674095864 1567404.8903713319 0 1567404.8903713319 -276286.96832714323 0 0 0 0 1258332.8473854065 95778146.094856739 0 95778146.094856739 18204762.387271881 0 0 0 0 49734767.024178028 152383377.80493027 0 152383377.80493027 84221677.973856926 0 0 0 0 -7163412.3653697968 49709452.74962604 0 49709452.74962604 -64094205.999313354 0 0 0 0 12060943.877064705 103839744.65135288 0 103839744.65135288 9009180.9663324356 0 0 0 0 -946937.60917663574 79765881.836312056 0 79765881.836312056 -23248422.262413979 0 0 0 0 -45465715.694816589 55327782.094650745 0 55327782.094650745 243002207.7825737 0 0 0 0 41750667.494754314 114518016.69173229 0 114518016.69173229 -38187162.930957794 0 0 0 0 30862541.010309219 152965022.07385021 0 152965022.07385021 16538087.309461594 0 0 0 0 -37378848.886230469 71708957.174688816 0 71708957.174688816 45343878.527134657 0 0 0 0 -44326874.919780374 38275634.662683815 0 38275634.662683815 -18169285.729818344 0 0 0 0 -102518928.48919296 -70408699.403576374 0 -70408699.403576374 66011554.068095446 0 0 0 0 102624032.82076645 -72708918.788051605 0 -72708918.788051605 14054194.295035839 0 0 0 0 -12237183.917179108 27654365.145157054 0 27654365.145157054 15158754.663929015 0 0 0 0 400101.70870399475 37766546.164140522 0 37766546.164140522 -2918069.9813743383 0 0 0 0 9467196.3402309418 30070415.514459848 0 30070415.514459848 -23875183.820360661 0 0 0 0 -1183298.4686050415 42231759.589528114 0 42231759.589528114 -15339427.678344414 0 0 0 0 -73102876.959339142 -38469602.026786327 0 -38469602.026786327 -29578090.469624184 0 0 0 0 -6707745.5506602172 13082974.646102972 0 13082974.646102972 6027874.1945168665 0 0 0 0 80121758.598286629 10678719.681151941 0 10678719.681151941 -59344286.623358428 0 0 0 0 -8911886.5900367647 12693146.3000366 0 12693146.3000366 4733125.0442238022 0 0 0 0 31444437.345251083 21889877.819444835 0 21889877.819444835 10030894.162598133 0 0 0 0 -2582568.9280662537 25111423.824158996 0 25111423.824158996 16250744.497587476 0 0 0 0 10681523.952611923 14002067.197335154 0 14002067.197335154 18779856.976036936 0 0 0 0 12781403.166894913 19441862.867732525 0 19441862.867732525 16309872.340782018 0 0 0 0 -931276.722754905 12492265.953480853 0 12492265.953480853 -4140711.4351065662 0 0 0 0 449045.89113235474 150913436.95773792 0 150913436.95773792 50570684.839977264 0 0 0 0 -89828262.316204071 153955443.86195469 0 153955443.86195469 -24278117.316566467 0 0 0 0 102248234.41055298 10109084.308193207 0 10109084.308193207 -67395285.997829437 0 0 0 0 -40432115.991752625 82376919.47203064 0 82376919.47203064 76901288.339637756 0 0 0 0 76772028.16683197 87049956.016811371 0 87049956.016811371 -222733286.73573303 0 0 0 0 20315561.513189316 20046855.078524351 0 20046855.078524351 7663038.5473191738 0 0 0 0 94223769.091442108 9337750.8204994202 0 9337750.8204994202 -26626541.302757263 0 0 0 0 2641158.3278073296 12370318.94066938 0 12370318.94066938 -6356585.1039172411 0 0 0 0 13401918.752067924 25353347.90512874 0 25353347.90512874 11122990.46596384 0 0 0 0 -30468512.620443344 -2795590.8794205189 0 -2795590.8794205189 -20945544.494275093 0 0 0 0 11948743.669639587 -20182805.038082123 0 -20182805.038082123 -43173527.472167015 0 0 0 0 47727111.990344048 53873329.994842052 0 53873329.994842052 -51837863.363072395 0 0 0 0 -19460097.937171936 7621541.474285841 0 7621541.474285841 -15950064.127332687 0 0 0 0 -38790423.544765472 -15359964.95561409 0 -15359964.95561409 -39853034.292574883 0 0 0 0 21522087.633728027 24251866.577195942 0 24251866.577195942 9217868.3850231171 0 0 0 0 -11194200.238384433 13940528.35182295 0 13940528.35182295 4676511.0097093675 0 0 0 0 -1113688.5760135651 18397000.228610992 0 18397000.228610992 3761014.4116897583 0 0 0 0 11012261.705301285 13889046.200367928 0 13889046.200367928 4166280.9508790374 0 0 0 0 10842209.373195648 15430912.39441612 0 15430912.39441612 -10696124.435370579 0 0 0 0 -373077650.53847027 -57478000.446788788 0 -57478000.446788788 153562163.98205948 0 0 0 0 4094426.6420094124 9716132.2346909475 0 9716132.2346909475 -3744150.2804830475 0 0 0 0 -14133953.544401012 8934954.563795412 0 8934954.563795412 5873749.4979230175 0 0 0 0 -12895591.76982975 6492548.1440067291 0 6492548.1440067291 7004036.793618381 0 0 0 0 -30167179.993270099 11640243.770454407 0 11640243.770454407 39452164.739044189 0 0 0 0 8116575.1623325348 11546854.356884956 0 11546854.356884956 -5075070.4062004089 0 0 0 0 -13286001.320694476 5392633.2982404381 0 5392633.2982404381 6858279.6362937745 0 0 0 0 -325189.4780210118 286673.00303044287 0 286673.00303044287 299803.56224513333 0 0 0 0 -24857388.17871666 -57970019.172668457 0 -57970019.172668457 2997194.0645980835 0 0 0 0 -3927393.8431997299 2413650.4150466919 0 2413650.4150466919 19835431.184545517 0 0 0 0 -7007505.4573302269 -18857854.473060608 0 -18857854.473060608 39840305.66418457 0 0 0 0 -678976.98383767996 -18758.612280565314 0 -18758.612280565314 741601.98035965115 0 0 0 0 -429808.84522248933 1323290.1926195419 0 1323290.1926195419 -464973.1619598791 0 0 0 0 240534882.43483591 342158508.37992477 0 342158508.37992477 137697649.37496185 0 0 0 0 151231347.65401459 -112428670.18235779 0 -112428670.18235779 90780805.220748901 0 0 0 0 -10856490.633460045 -116927792.60778809 0 -116927792.60778809 398437538.95792294 0 0 0 0 -1105318.7370407581 -74647170.158164978 0 -74647170.158164978 88384211.152755737 0 0 0 0 253784172.40254593 203321538.5965004 0 203321538.5965004 179237234.25911713 0 0 0 0 295469111.41217232 267317886.73922348 0 267317886.73922348 43767343.227350235 0 0 0 0 239950506.12031555 233889622.14324474 0 233889622.14324474 149957269.97215271 0 0 0 0 208949892.49986267 286333438.29616547 0 286333438.29616547 331000722.42371327 0 0 0 0 699374816.40434074 27866126.373806 0 27866126.373806 -21026106.299665451 0 0 0 0 261942105.3282342 181956851.33923101 0 181956851.33923101 -14991775.42842865 0 0 0 0 704414.83279594593 -450279.39280282799 0 -450279.39280282799 -691983.05013352633 0 0 0 0 1366102036.1477051 413312233.04450607 0 413312233.04450607 -18160805.377292216 0 0 0 0 429593462.30830669 -346339831.35939026 0 -346339831.35939026 115455556.30083084 0 0 0 0 -85667920.771188736 -66216409.627384186 0 -66216409.627384186 177433746.51724625 0 0 0 0 -662547693.43451309 -190977780.29712105 0 -190977780.29712105 -445261027.7354517 0 0 0 0 -303803128.25864005 556744336.53958893 0 556744336.53958893 156148177.10451126 0 0 0 0 1043853653.3455715 -382892227.10564041 0 -382892227.10564041 -49460990.391277313 0 0 0 0 -610187807.44677925 756153032.82480335 0 756153032.82480335 382903473.42155838 0 0 0 0 393113.90271231532 1776958.1693941199 0 1776958.1693941199 2602569.8798993137 0 0 0 0 -835370501.58712387 546175058.53806496 0 546175058.53806496 704429369.54933929 0 0 0 0 -565846908.23405075 -89846915.329496384 0 -89846915.329496384 965297103.0859766 0 0 0 0 -202634658.95549774 296439112.84525299 0 296439112.84525299 445458578.95813942 0 0 0 0 -487592075.00506735 527557025.47335291 0 527557025.47335291 746868681.07997131 0 0 0 0 8794198.1418786757 6948618.7623677673 0 6948618.7623677673 -5699648.4700260824 0 0 0 0 1883390167.0592804 555162478.9098053 0 555162478.9098053 54207109.392016411 0 0 0 0 1046421418.2528 2027280753.2126999 0 2027280753.2126999 1254707656.0122566 0 0 0 0 1867021447.2897949 340017423.56684494 0 340017423.56684494 -294836089.48160553 0 0 0 0 414415237.96333694 357698354.23858547 0 357698354.23858547 39342963.38766098 0 0 0 0 278638525.50636673 441023467.90695477 0 441023467.90695477 284790936.75329208 0 0 0 0 -6723949.9544773102 19225541.246255875 0 19225541.246255875 32844403.692786694 0 0 0 0 -11477743.917761685 8029568.2147566499 0 8029568.2147566499 -1883386.7006582739 0 0 0 0 210179098.1685791 156558339.69046021 0 156558339.69046021 226774654.65611935 0 0 0 0 337902420.44545746 89848627.146942139 0 89848627.146942139 -246426483.12767029 0 0 0 0 -392106596.70386887 -83678566.714083672 0 -83678566.714083672 -22249725.272071838 0 0 0 0 324746396.71107864 -41807966.8303442 0 -41807966.8303442 -435679726.57201004 0 0 0 0 247207.16416524071 2733438.5850136168 0 2733438.5850136168 -780073.83590792574 0 0 0 0 6236132.2043790817 20909518.511751175 0 20909518.511751175 -22919836.148668289 0 0 0 0 -10234660.607608208 5268171.3885997413 0 5268171.3885997413 -356689.8464223817 0 0 0 0 -241104123.03244209 628320969.36308324 0 628320969.36308324 617374800.59419441 0 0 0 0 40285151.990942001 67818808.886505127 0 67818808.886505127 38368606.262844086 0 0 0 0 -29292602.2370224 74822063.866729736 0 74822063.866729736 137618696.36128426 0 0 0 0 -59756157.340082169 22341737.729122162 0 22341737.729122162 137161725.27780533 0 0 0 0 -29954974.029076576 32130016.543476105 0 32130016.543476105 94806718.714629173 0 0 0 0 -51683095.604497433 44131770.397994995 0 44131770.397994995 97233230.378353119 0 0 0 0 -14066059.287101209 -89704280.997608185 0 -89704280.997608185 140834676.4897995 0 0 0 0 -63703713.926855564 16767945.452667236 0 16767945.452667236 162712943.24738312 0 0 0 0 -29671230.30682373 10627375.810302734 0 10627375.810302734 87213098.108787537 0 0 0 0 -29923301.087532401 -24896657.296298981 0 -24896657.296298981 115081950.69754791 0 0 0 0 -16667214.916673779 -16098689.757064819 0 -16098689.757064819 71594134.737174988 0 0 0 0 -25584578.191893339 -2653446.4937744141 0 -2653446.4937744141 73876344.18290329 0 0 0 0 -15046524.720787004 -35874662.659368515 0 -35874662.659368515 120223681.58328247 0 0 0 0 -6407400.8167157173 10416308.728982925 0 10416308.728982925 -1380262.8662338257 0 0 0 0 -17738055.575132441 7049853.9138047909 0 7049853.9138047909 3951081.1469339761 0 0 0 0 -15010878.245406389 9076884.0172996521 0 9076884.0172996521 43069406.679389954 0 0 0 0 -21810600.83318162 -5915260.002532959 0 -5915260.002532959 34940220.74533844 0 0 0 0 -1355339.0903768539 37683595.445638657 0 37683595.445638657 39316658.944297791 0 0 0 0 -18409387.634689808 24442485.740451813 0 24442485.740451813 44555863.333053589 0 0 0 0 -29132464.829921722 13911953.098579407 0 13911953.098579407 47449314.458946228 0 0 0 0 152176884.00579834 171243165.50933647 0 171243165.50933647 133480614.0076561 0 0 0 0 -16946950.055978119 3082262.3409636021 0 3082262.3409636021 1959611.085609436 0 0 0 0 -12966928.523678571 9545835.9918598067 0 9545835.9918598067 -1479100.6597502083 0 0 0 0 221851449.13702583 77771338.021661758 0 77771338.021661758 -23233131.374500275 0 0 0 0 126455197.59588242 50107141.976530075 0 50107141.976530075 -5005331.0360431671 0 0 0 0 58091515.477672577 78130742.831618309 0 78130742.831618309 16412084.60436821 0 0 0 0 90453435.542926788 86570266.059864998 0 86570266.059864998 17601777.715848923 0 0 0 0 -3068788.837794153 -1356690.2429287257 0 -1356690.2429287257 2377776.7342415284 0 0 0 0 135885751.73089981 46062715.109639168 0 46062715.109639168 -39410185.412796021 0 0 0 0 112204.33142089844 15123747.723304749 0 15123747.723304749 5885828.9899587631 0 0 0 0 -44448367.638275146 8640365.3414154053 0 8640365.3414154053 8411853.165992558 0 0 0 0 -8889666.8121159934 4134993.1303287968 0 4134993.1303287968 2333874.7540816949 0 0 0 0 -48626272.022224426 44482552.722563982 0 44482552.722563982 -43174453.472647667 0 0 0 0 -5076106.7951469421 27530318.991316795 0 27530318.991316795 12053839.475702286 0 0 0 0 78526819.079540253 11356646.976501465 0 11356646.976501465 -9736276.0958709717 0 0 0 0 78104007.656234741 -9265366.6789898872 0 -9265366.6789898872 -26476475.294902325 0 0 0 0 105367336.89851761 34679939.886581421 0 34679939.886581421 -36075520.955308199 0 0 0 0 134433501.69767761 -3108647.572537899 0 -3108647.572537899 -71540903.875919342 0 0 0 0 62203857.667850494 -60599472.473313332 0 -60599472.473313332 -63298180.782176971 0 0 0 0 76047534.496917725 -37935904.025255203 0 -37935904.025255203 -39088888.09430027 0 0 0 0 112349263.91384125 -34993396.081372261 0 -34993396.081372261 -110431427.77658272 0 0 0 0 182088622.89676285 26202816.953541756 0 26202816.953541756 -80249954.032972336 0 0 0 0 61816202.999855042 -63921740.825949669 0 -63921740.825949669 -98199719.622997761 0 0 0 0 59649386.959663391 -40745767.549913406 0 -40745767.549913406 -205555643.56991768 0 0 0 0 28623317.352149963 -6929552.4058790207 0 -6929552.4058790207 -10995922.173301697 0 0 0 0 -134067000.21141052 -86660469.522272587 0 -86660469.522272587 -40791396.884680748 0 0 0 0 -63002933.521149874 -39101289.145165741 0 -39101289.145165741 44414970.982873917 0 0 0 0 130130473.47434425 -34699400.476951838 0 -34699400.476951838 -4547195.2685222626 0 0 0 0 20023215.129367828 33692087.396526337 0 33692087.396526337 127748539.49820328 0 0 0 0 114048631.79533386 116503210.96738052 0 116503210.96738052 195668128.27495861 0 0 0 0 13693249.152236938 14318477.424097061 0 14318477.424097061 78316931.329408169 0 0 0 0 -67303705.669490814 4859334.1141018867 0 4859334.1141018867 140124917.91872978 0 0 0 0 -136144971.5190773 52409480.266045809 0 52409480.266045809 52457184.713731289 0 0 0 0 58690359.315691471 158407677.62009898 0 158407677.62009898 109979179.61754894 0 0 0 0 -3393139.7418708857 2560665.0329304002 0 2560665.0329304002 1323790.3755101622 0 0 0 0 80140780.916843414 -14801686.734107971 0 -14801686.734107971 -11562396.963363647 0 0 0 0 -846270.61840659194 861679.09645494074 0 861679.09645494074 485302.73763703182 0 0 0 0 201417322.58090591 30782938.419439793 0 30782938.419439793 46243936.56385088 0 0 0 0 -56465658.380670547 -146092971.30551863 0 -146092971.30551863 150999365.45328045 0 0 0 0 184619.89863590151 316620.77714870684 0 316620.77714870684 301083.64368424006 0 0 0 0 -62650445.899024963 -149612944.40934706 0 -149612944.40934706 196568756.00449324 0 0 0 0 -89685478.461914062 72459967.859964848 0 72459967.859964848 54264677.283226967 0 0 0 0 -90570516.581481934 46669804.469790459 0 46669804.469790459 -18485866.254786491 0 0 0 0 581257.54815824516 833629.15757361148 0 833629.15757361148 500970.6418684246 0 0 0 0 168387779.9386673 -209449319.45553088 0 -209449319.45553088 81283350.482456207 0 0 0 0 -111837209.85681534 266443299.71778727 0 266443299.71778727 214227352.47700453 0 0 0 0 1072297.3156263828 1187602.0043914663 0 1187602.0043914663 106319.36431931658 0 0 0 0 -31761293.397075653 201816323.89191389 0 201816323.89191389 -88352403.054329872 0 0 0 0 -78556352.261249542 167390223.52881718 0 167390223.52881718 47242449.873094559 0 0 0 0 -20774674.214495659 70543140.357054472 0 70543140.357054472 -16116167.799455643 0 0 0 0 -51867525.619483948 110273579.10263491 0 110273579.10263491 -57729393.03123951 0 0 0 0 -52104405.724094391 109361027.04268122 0 109361027.04268122 -58000750.185411453 0 0 0 0 -25210731.656257629 -35066799.487308025 0 -35066799.487308025 118103350.14662194 0 0 0 0 -56696747.61239624 -38837339.9576931 0 -38837339.9576931 314133995.64125204 0 0 0 0 -22062538.534032822 -24429583.621733665 0 -24429583.621733665 153902680.89979172 0 0 0 0 69143266.877670288 -11277264.618836403 0 -11277264.618836403 -132622137.05211449 0 0 0 0 73569209.266899109 -113179427.65660763 0 -113179427.65660763 61011414.701061249 0 0 0 0 -14524965.215900421 81603498.619848728 0 81603498.619848728 -100913575.49540472 0 0 0 0 18942039.515041351 -46163985.923635483 0 -46163985.923635483 32432546.518063545 0 0 0 0 -7864161.5367927551 -5350003.5097813606 0 -5350003.5097813606 -15385506.167098045 0 0 0 0 21120812.22303009 -15298094.82821703 0 -15298094.82821703 -42659281.651147842 0 0 0 0 3175139.8196601868 5505211.0606081486 0 5505211.0606081486 -30158405.600878239 0 0 0 0 3087407.4662769437 -6950617.9861929473 0 -6950617.9861929473 -18229459.953345299 0 0 0 0 1686844.1092071533 -5295004.026766777 0 -5295004.026766777 -20048100.516312599 0 0 0 0 14594093.6635952 161972541.51875472 0 161972541.51875472 17437453.985916138 0 0 0 0 -60522244.079105377 24714382.722845793 0 24714382.722845793 -2434685.7115471214 0 0 0 0 53477502.052978516 16918037.605418444 0 16918037.605418444 -3843420.726662159 0 0 0 0 1468011.4209534191 1737847.1968656611 0 1737847.1968656611 -109238.04010847956 0 0 0 0 -973334.08279159293 1441269.4637770681 0 1441269.4637770681 574664.8199874924 0 0 0 0 179964.29447634704 1853319.6569164267 0 1853319.6569164267 1137393.8691933411 0 0 0 0 -21021975.80463028 28649957.201098859 0 28649957.201098859 -96743163.273896217 0 0 0 0 13446342.942195892 57128186.613930941 0 57128186.613930941 -225772906.90801811 0 0 0 0 -160397457.45937347 -66067186.601629734 0 -66067186.601629734 -24880782.275788307 0 0 0 0 -187009073.05613708 -266991064.84809446 0 -266991064.84809446 -159675110.21886539 0 0 0 0 2273961.565952301 169880719.0270443 0 169880719.0270443 -178972360.99921799 0 0 0 0 -319103511.61127186 -4116460.4146438241 0 -4116460.4146438241 75466451.050183296 0 0 0 0 -258880532.63452911 223490624.50408649 0 223490624.50408649 86410936.533731222 0 0 0 0 -166885736.2527771 83589941.434155464 0 83589941.434155464 52384853.193123341 0 0 0 0 -153326042.97745514 78513468.788088083 0 78513468.788088083 53231790.67800504 0 0 0 0 -137605560.61617661 48497168.759363651 0 48497168.759363651 68349664.235194206 0 0 0 0 -180646525.37193298 685602.98744153976 0 685602.98744153976 22676132.079581261 0 0 0 0 3388105.8617706299 -18729946.670694351 0 -18729946.670694351 -15766059.37532258 0 0 0 0 35144592.541835785 -13211933.527544737 0 -13211933.527544737 -35723480.59812212 0 0 0 0 2470953.8920310759 4727070.3991178181 0 4727070.3991178181 3107955.7465686286 0 0 0 0 -37690009.274143219 31830304.085104465 0 31830304.085104465 21366257.7502985 0 0 0 0 -45910899.09929657 27983742.804359913 0 27983742.804359913 27456860.288334727 0 0 0 0 -9815795.741230011 5486874.8732691854 0 5486874.8732691854 11218011.865020264 0 0 0 0 4213980.4430599678 3269867.9182185284 0 3269867.9182185284 -3376156.8136788136 0 0 0 0 -2931347.2097959518 5502191.4854960442 0 5502191.4854960442 617985.07468605042 0 0 0 0 6389949.203414917 28313087.223749161 0 28313087.223749161 -13296205.183444977 0 0 0 0 2027553.2001909493 5457018.4451962169 0 5457018.4451962169 5948077.5331426114 0 0 0 0 -170153599.32955551 151902927.09572193 0 151902927.09572193 -4042206.2851867676 0 0 0 0 1333011.3617973328 80281580.652698204 0 80281580.652698204 -4490858.4545677304 0 0 0 0 -151175846.39278793 76820416.638108611 0 76820416.638108611 25885789.513637066 0 0 0 0 43659232.761535645 100500087.16275525 0 100500087.16275525 60165800.353626251 0 0 0 0 1238682.9420578759 3141904.7109260522 0 3141904.7109260522 3842899.9559669155 0 0 0 0 -67854354.277702332 -101835831.01571357 0 -101835831.01571357 -131782917.35791701 0 0 0 0 -15855875.962591171 -18460607.635590076 0 -18460607.635590076 -23271726.218156338 0 0 0 0 20647.528046488063 -70863.208494364284 0 -70863.208494364284 4965225.8042806555 0 0 0 0 -2442591.7600031886 -10060.007787707727 0 -10060.007787707727 1932638.226200683 0 0 0 0 -33112897.734510422 -24874300.531552553 0 -24874300.531552553 -6119982.9299488068 0 0 0 0 -90574176.20979929 70038590.813050747 0 70038590.813050747 -52975625.246147156 0 0 0 0 105782662.96044159 255317099.63821143 0 255317099.63821143 210762791.16125262 0 0 0 0 403387781.97684479 539075641.25971258 0 539075641.25971258 385994500.7469697 0 0 0 0 790356.37384956703 799992.49422170222 0 799992.49422170222 -178482.59443778754 0 0 0 0 15596784.270092487 76673564.557615131 0 76673564.557615131 430107752.78677827 0 0 0 0 2952252.9541282654 -66626815.335446879 0 -66626815.335446879 69764202.58443892 0 0 0 0 -1113274.9106821623 1447118.3115478717 0 1447118.3115478717 652626.03210320766 0 0 0 0 -70611744.505756378 21816557.990523815 0 21816557.990523815 28297858.416211843 0 0 0 0 -484997.33418785036 482741.63749496918 0 482741.63749496918 325718.6943107894 0 0 0 0 -313245450.14918137 -18121478.091356784 0 -18121478.091356784 27652729.16134306 0 0 0 0 63604559.11236763 107762907.32327794 0 107762907.32327794 -122746519.32138199 0 0 0 0 -140236613.67381287 109305457.90160179 0 109305457.90160179 33902906.60529232 0 0 0 0 232115847.7650528 270566793.14012969 0 270566793.14012969 -79304254.954431057 0 0 0 0 181251866.66844177 320892945.34030461 0 320892945.34030461 -92649311.868735194 0 0 0 0 147481078.97348452 326686281.97395164 0 326686281.97395164 28579882.46371156 0 0 0 0 287946750.92655182 419871602.73742354 0 419871602.73742354 40338884.746609449 0 0 0 0 170853813.17772675 302469950.93538469 0 302469950.93538469 -25590058.868331075 0 0 0 0 459738791.69429398 250259108.46724939 0 250259108.46724939 39984214.152224302 0 0 0 0 192428277.61814499 400030952.51150382 0 400030952.51150382 297726527.79574913 0 0 0 0 593701284.19153976 601489837.47564983 0 601489837.47564983 -214611272.25031257 0 0 0 0 186206188.75922775 493484465.29325914 0 493484465.29325914 5499190.3243741989 0 0 0 0 1229676.32835849 2324397.5015541604 0 2324397.5015541604 -1145855.553824631 0 0 0 0 25665750.213266373 18202965.089097142 0 18202965.089097142 70365.723833084106 0 0 0 0 -50600320.639068604 -507157871.43758833 0 -507157871.43758833 727492616.32671595 0 0 0 0 151455517.21595001 534852984.42038512 0 534852984.42038512 356287535.59958756 0 0 0 0 -192681697.99394989 237801519.73441267 0 237801519.73441267 1042865805.8706579 0 0 0 0 -160318801.31460953 262161743.31681418 0 262161743.31681418 498885616.18264675 0 0 0 0 21083890.762451172 -3780243.5706014633 0 -3780243.5706014633 622212848.85057831 0 0 0 0 736218454.43367386 264235666.47814572 0 264235666.47814572 -134387102.79995835 0 0 0 0 319435.3788199313 1003834.707476005 0 1003834.707476005 1489887.9609460579 0 0 0 0 557794788.16223907 -65897767.658270717 0 -65897767.658270717 76302377.593553782 0 0 0 0 -1291268.0369100962 60859.889148814138 0 60859.889148814138 1143714.3103170916 0 0 0 0 45470152.618709564 98328359.576637268 0 98328359.576637268 395571416.60305882 0 0 0 0 51955627.159988403 -184738321.4956522 0 -184738321.4956522 -45467738.871479034 0 0 0 0 -331667.2614941597 -68890420.332725763 0 -68890420.332725763 43445975.765892029 0 0 0 0 416480270.86831284 436681663.01022816 0 436681663.01022816 385350220.534199 0 0 0 0 -267172.54847233114 -975878.14432286844 0 -975878.14432286844 2187859.8027104083 0 0 0 0 -369569359.54759979 124632998.05129862 0 124632998.05129862 726025162.47131634 0 0 0 0 172817969.08987045 205114258.56083655 0 205114258.56083655 171466452.76447427 0 0 0 0 118180108.623703 361863785.20684648 0 361863785.20684648 439149257.82440472 0 0 0 0 -5562925.2644042969 282896107.51888752 0 282896107.51888752 405162296.42510462 0 0 0 0 -39750529.608295441 324413859.77135712 0 324413859.77135712 540804858.45570791 0 0 0 0 -38719451.529438019 349867967.98946738 0 349867967.98946738 541479361.5948801 0 0 0 0 -6455392.7341995239 -63042177.633553386 0 -63042177.633553386 349210760.92304981 0 0 0 0 -27349857.414985657 251769412.74058676 0 251769412.74058676 325549560.53633094 0 0 0 0 -52432561.837591171 292797664.52136183 0 292797664.52136183 945393886.62298012 0 0 0 0 102122844.07777786 -333736750.82640219 0 -333736750.82640219 692702841.05580807 0 0 0 0 72854746.080141068 -174839358.99827376 0 -174839358.99827376 -77128466.668565273 0 0 0 0 82203950.278316498 -13279637.792078733 0 -13279637.792078733 31749688.130106449 0 0 0 0 127891884.60121918 25814529.419222355 0 25814529.419222355 -105403338.93200397 0 0 0 0 72817688.232925415 -98721953.578087986 0 -98721953.578087986 -148042199.56737995 0 0 0 0 -424335970.86191845 173411519.95453477 0 173411519.95453477 634990221.84825945 0 0 0 0 -360460447.45554543 330025281.02300167 0 330025281.02300167 903905906.6893909 0 0 0 0 420307275.54982758 427540573.27197516 0 427540573.27197516 253384598.94749236 0 0 0 0 607153408.62978363 -179679653.61379337 0 -179679653.61379337 -65925958.085406303 0 0 0 0 138597728.97021103 42417123.610067606 0 42417123.610067606 -89769160.685992956 0 0 0 0 210348988.54849625 109802818.10734355 0 109802818.10734355 -570414300.3863821 0 0 0 0 311995578.13372803 -82719586.513195038 0 -82719586.513195038 -810784246.28511906 0 0 0 0 -120388525.44480896 16616022.851857185 0 16616022.851857185 -35421247.793598175 0 0 0 0 -96254111.133441925 17846737.3142308 0 17846737.3142308 -388586809.35134602 0 0 0 0 2757867.7259781836 3835658.254393104 0 3835658.254393104 84821.698853149195 0 0 0 0 47715810.162006378 139492470.66219425 0 139492470.66219425 -370317934.18738407 0 0 0 0 201732602.32884312 -98974901.359129906 0 -98974901.359129906 -25366226.816833019 0 0 0 0 -6575816.0071334839 -3827515.0977258682 0 -3827515.0977258682 -12646764.967739105 0 0 0 0 1305899.6731020175 -535964.79953766614 0 -535964.79953766614 -2210180.9630433992 0 0 0 0 179713243.79441071 370042764.32395649 0 370042764.32395649 -858182009.40251052 0 0 0 0 8363089.914041548 4172715.9157829876 0 4172715.9157829876 -8466973.4655191768 0 0 0 0 8569674.1079463959 12886937.216592789 0 12886937.216592789 -160745.58152580261 0 0 0 0 -3782089.5146903992 4332036.237347126 0 4332036.237347126 -138562126.98034644 0 0 0 0 -36384364.103961945 -34638675.027170658 0 -34638675.027170658 -181652469.99836922 0 0 0 0 4109032.4221817516 10563666.931886539 0 10563666.931886539 528043.91318152216 0 0 0 0 -111880271.37328339 93676538.531225681 0 93676538.531225681 -267872077.17328596 0 0 0 0 -2185966.0587768555 315983255.06566429 0 315983255.06566429 -274129388.52692866 0 0 0 0 114089735.53511238 -53634645.944501519 0 -53634645.944501519 -333151950.72572994 0 0 0 0 -103034866.14455414 253151002.40454483 0 253151002.40454483 -482220535.06651735 0 0 0 0 -176996740.14200592 -75578764.280621529 0 -75578764.280621529 -667667632.64002609 0 0 0 0 -19031.277109920047 245502.18085020967 0 245502.18085020967 256155.98646677821 0 0 0 0 8845253.9134640694 12401399.623912811 0 12401399.623912811 -6716635.9119224548 0 0 0 0 17738547.850580215 5593645.7084329128 0 5593645.7084329128 -3302934.1034965515 0 0 0 0 3233682.1607403029 5700618.9909638464 0 5700618.9909638464 -3591556.1717838682 0 0 0 0 -49280129.006332397 -132235709.05889153 0 -132235709.05889153 -170912208.3561914 0 0 0 0 25475786.195665359 13945195.455251098 0 13945195.455251098 1243093.8442997932 0 0 0 0 122121736.06272697 315882601.60679042 0 315882601.60679042 -113106229.64086318 0 0 0 0 70019111.094688416 -89495692.78389585 0 -89495692.78389585 -251423455.3753455 0 0 0 0 -16620963.830654621 130172086.11929512 0 130172086.11929512 83553384.117607594 0 0 0 0 34742607.54635644 -165662590.55770934 0 -165662590.55770934 -189534652.36528361 0 0 0 0 -248737571.25527692 107260339.59467387 0 107260339.59467387 467211797.64300299 0 0 0 0 -223610000.91803205 -131846142.47421837 0 -131846142.47421837 -155135862.58624315 0 0 0 0 1250200.6886907334 -1369527.4686383428 0 -1369527.4686383428 -647010.43630632514 0 0 0 0 113869214.72689581 259676472.45384675 0 259676472.45384675 197487797.41307408 0 0 0 0 20048516.261980057 253635757.75250542 0 253635757.75250542 79590361.573344231 0 0 0 0 -77264932.44852066 114425649.17383122 0 114425649.17383122 97482994.347195745 0 0 0 0 121532621.23661995 -103288821.38936579 0 -103288821.38936579 -86434174.653172016 0 0 0 0 155833588.34525967 -38232228.214058101 0 -38232228.214058101 32381720.473209858 0 0 0 0 7022.5637633013539 370410.54731098423 0 370410.54731098423 1133964.5655280841 0 0 0 0 27359913.029987335 191212175.94401073 0 191212175.94401073 328231856.64498901 0 0 0 0 698520333.3550148 49284554.003045082 0 49284554.003045082 67234925.772361755 0 0 0 0 288591704.171772 -90378361.764803171 0 -90378361.764803171 52283246.034303188 0 0 0 0 350562025.48961031 261853813.94416693 0 261853813.94416693 145765299.63163567 0 0 0 0 -30005456.466471791 196466688.05356899 0 196466688.05356899 200653072.05631685 0 0 0 0 27484525.050947189 195661097.62529659 0 195661097.62529659 156729160.8519063 0 0 0 0 -188512792.2175622 127763893.94686937 0 127763893.94686937 332296184.92083597 0 0 0 0 14704362.598898172 -165218174.57267344 0 -165218174.57267344 -50363511.030341148 0 0 0 0 -37509115.31902504 -194619092.2966547 0 -194619092.2966547 581048275.51311803 0 0 0 0 422772031.58404732 498259439.54485941 0 498259439.54485941 543448669.55438614 0 0 0 0 332395882.62147522 19293317.858922958 0 19293317.858922958 -184490385.65439606 0 0 0 0 38393213.982257843 66537655.942029953 0 66537655.942029953 -182183476.14662737 0 0 0 0 -191031567.95673656 -112204630.13839817 0 -112204630.13839817 -60514335.504864693 0 0 0 0 -11457589.654546738 68928027.73724556 0 68928027.73724556 97811176.729564667 0 0 0 0 2196672.5265632328 -2481221.9239363456 0 -2481221.9239363456 -999480.5280788159 0 0 0 0 -38076607.426464528 166403012.08260059 0 166403012.08260059 65257583.986366272 0 0 0 0 -199925994.99505568 84658098.571247101 0 84658098.571247101 146085071.31290627 0 0 0 0 -93390442.717056274 156947300.00316715 0 156947300.00316715 200084006.59077454 0 0 0 0 -344557425.46350634 -209993011.78181267 0 -209993011.78181267 105142809.76759338 0 0 0 0 2226857.8544633654 -2589178.535530204 0 -2589178.535530204 -844621.93433431443 0 0 0 0 -265792973.90247917 -18248919.768268108 0 -18248919.768268108 202667651.58939743 0 0 0 0 -185571066.29013991 16514533.239092827 0 16514533.239092827 115532261.95825863 0 0 0 0 -170532992.70321035 -84734070.115495205 0 -84734070.115495205 580328315.89085007 0 0 0 0 246474146.98569155 448561041.77907658 0 448561041.77907658 380836690.60002899 0 0 0 0 -21702026.085256159 169509830.43349266 0 169509830.43349266 97728802.290206909 0 0 0 0 -20926328.050657868 145298772.32882023 0 145298772.32882023 90863785.136737823 0 0 0 0 4732349.7646673322 120858791.21034813 0 120858791.21034813 159213748.71369934 0 0 0 0 -37234338.060639381 173735380.72342682 0 173735380.72342682 100027652.81383038 0 0 0 0 9181267.4083006382 156152989.31367111 0 156152989.31367111 103470504.9838829 0 0 0 0 53896907.657939911 75815540.956504822 0 75815540.956504822 -95387553.518547058 0 0 0 0 92612986.856690407 42276602.146312714 0 42276602.146312714 62196316.174642563 0 0 0 0 162375686.29699391 13029384.549622774 0 13029384.549622774 -156146481.79675674 0 0 0 0 671630.37964621291 1361784.5151418652 0 1361784.5151418652 -983104.93564360542 0 0 0 0 19018702.501329422 85166698.983520508 0 85166698.983520508 -95606224.797470093 0 0 0 0 -11631565.863567352 200163287.09673119 0 200163287.09673119 228931750.06269038 0 0 0 0 -76882967.068652153 128340456.79445267 0 128340456.79445267 231411784.82985687 0 0 0 0 -34628492.977600098 124923921.29730225 0 124923921.29730225 8700876.8769226074 0 0 0 0 1409906.4544147241 822164.01913619787 0 822164.01913619787 -1111142.7565571154 0 0 0 0 162160942.39517975 156029179.6324749 0 156029179.6324749 100504984.49931282 0 0 0 0 -30907819.88822183 18640105.019648552 0 18640105.019648552 -113983261.93526077 0 0 0 0 -23493015.524155617 46741990.167255402 0 46741990.167255402 -32046295.671379089 0 0 0 0 -4274202.0720558167 89084092.764549255 0 89084092.764549255 -95484079.375345469 0 0 0 0 -19032796.32985878 65750369.204055786 0 65750369.204055786 19788153.116645813 0 0 0 0 -19846320.301502645 101293044.63612986 0 101293044.63612986 25585270.322052002 0 0 0 0 -19428916.587597013 114313269.09330034 0 114313269.09330034 -38316485.071304321 0 0 0 0 -25230506.314308167 56664602.777301788 0 56664602.777301788 -58542766.611927032 0 0 0 0 -28822870.813360214 51346845.799999237 0 51346845.799999237 1498287.4332847595 0 0 0 0 18800002.235492706 -14284038.750450134 0 -14284038.750450134 11511210.68893671 0 0 0 0 -8187645.4345264435 40167731.456644058 0 40167731.456644058 -61324441.203948975 0 0 0 0 47755845.82460475 -13368294.521193504 0 -13368294.521193504 -222025338.97437286 0 0 0 0 5164322.0798988342 -10401103.994714737 0 -10401103.994714737 18067282.822576523 0 0 0 0 619035.3085488833 4324851.2887122296 0 4324851.2887122296 1586338.5111442618 0 0 0 0 74835694.433551311 57019138.788160324 0 57019138.788160324 -175793140.56668282 0 0 0 0 115396590.16989732 -7208353.1527047157 0 -7208353.1527047157 -114802791.55788803 0 0 0 0 597669.78995723499 -536263.89203178789 0 -536263.89203178789 -152587.9257241562 0 0 0 0 -26843265.678707123 261047.03214454651 0 261047.03214454651 15214776.235125542 0 0 0 0 233918834.4397254 264032375.62356138 0 264032375.62356138 85201470.196834564 0 0 0 0 -274438485.09394836 -54886364.948667526 0 -54886364.948667526 -33612226.756462097 0 0 0 0 1192841.9249915029 -1243530.5583593175 0 -1243530.5583593175 -780810.39422295429 0 0 0 0 -128977925.79029846 -86792957.891028881 0 -86792957.891028881 -65737099.641059875 0 0 0 0 -199068619.12069893 152123704.04347038 0 152123704.04347038 285463525.7882843 0 0 0 0 25468150.893185109 177112003.5443072 0 177112003.5443072 260875400.74838638 0 0 0 0 106812089.27509403 255795520.34064198 0 255795520.34064198 172935100.20009613 0 0 0 0 306473635.65258789 47597520.194561005 0 47597520.194561005 -161598440.81604385 0 0 0 0 29550515.71749115 44164025.496635437 0 44164025.496635437 23701041.495762587 0 0 0 0 39821347.980290413 36877115.120648384 0 36877115.120648384 81506565.041954041 0 0 0 0 6019124.4998283386 -125524164.12390137 0 -125524164.12390137 27311580.80768013 0 0 0 0 -135697827.57722282 -2266760.099029541 0 -2266760.099029541 320810686.13961029 0 0 0 0 -99721804.561574936 -209916563.55661392 0 -209916563.55661392 94015053.614788055 0 0 0 0 -2745244.0278549194 -58113618.577903748 0 -58113618.577903748 -206830651.12184906 0 0 0 0 -1644884.349187851 6411109.4867162704 0 6411109.4867162704 -93752.978708267212 0 0 0 0 13943692.783299446 33146761.629554749 0 33146761.629554749 5655992.243698597 0 0 0 0 2746054.0513083888 3071662.3955679834 0 3071662.3955679834 -1050709.0942234527 0 0 0 0 501712.47666845471 5400190.4078225717 0 5400190.4078225717 6238165.3706625849 0 0 0 0 57469.174952507019 2238936.6948155165 0 2238936.6948155165 -213297.44831562042 0 0 0 0 4700270.5951682087 5041631.5279881749 0 5041631.5279881749 3697901.983118122 0 0 0 0 464208.77058872581 2172081.4540572884 0 2172081.4540572884 1221021.7645713277 0 0 0 0 -371708.32132339478 5423800.5011386871 0 5423800.5011386871 342183.24230575562 0 0 0 0 -360446.31387329102 5838532.9637994766 0 5838532.9637994766 72041.279153823853 0 0 0 0 -243139.51849460602 6072515.4807741642 0 6072515.4807741642 311864.13962554932 0 0 0 0 3206037.5526270512 8018137.2779570334 0 8018137.2779570334 8122764.3717418713 0 0 0 0 7309568.1364816427 15367107.556841185 0 15367107.556841185 7694885.4338333504 0 0 0 0 11025227.789344788 4197014.5909562111 0 4197014.5909562111 308150.22023487091 0 0 0 0 9649615.4431965537 9873788.1493201088 0 9873788.1493201088 6616393.5201536994 0 0 0 0 1020324.5383377075 5573240.4114582539 0 5573240.4114582539 -1802173.4704208374 0 0 0 0 6724904.2201111037 6625857.8406063756 0 6625857.8406063756 -718244.61909170821 0 0 0 0 -12400075.538537979 60228819.385944366 0 60228819.385944366 -246563630.16138458 0 0 0 0 2374541.4113467084 8221416.4135965621 0 8221416.4135965621 2483410.5056944573 0 0 0 0 -6618830.922203064 1851.325008392334 0 1851.325008392334 -94719356.45746994 0 0 0 0 13383772.937461138 29113225.001709446 0 29113225.001709446 -16930568.374796867 0 0 0 0 25683716.754852295 22964097.860326052 0 22964097.860326052 -21201876.352352142 0 0 0 0 8524375.6016206071 3575092.2351162592 0 3575092.2351162592 -5759051.7076637689 0 0 0 0 38476589.233660698 12205017.364071369 0 12205017.364071369 -20230838.523210526 0 0 0 0 1404070.2272078153 2181995.5295078997 0 2181995.5295078997 -591198.97243068274 0 0 0 0 25792258.740385056 4696847.0285561085 0 4696847.0285561085 -12665654.288751602 0 0 0 0 3711090.7550792694 6352835.8548026085 0 6352835.8548026085 -2426480.8290421963 0 0 0 0 17949503.380836487 11509983.293281555 0 11509983.293281555 -12698318.259881973 0 0 0 0 7643725.5153427124 15999316.384107113 0 15999316.384107113 -9628079.6804447174 0 0 0 0 5361901.6212442657 6337276.8687788239 0 6337276.8687788239 -719404.04184870934 0 0 0 0 9900512.6776275635 3312754.5075492859 0 3312754.5075492859 -2980161.1843838692 0 0 0 0 4192558.9523220062 17475721.166059494 0 17475721.166059494 27932484.117604256 0 0 0 0 8360165.4657831192 40974768.357834101 0 40974768.357834101 74221588.092948914 0 0 0 0 -8852154.1330597401 17081553.562607288 0 17081553.562607288 39346742.8110466 0 0 0 0 33481800.171266556 -32579146.167585373 0 -32579146.167585373 -82879185.917552948 0 0 0 0 -16675355.417171478 22972442.663682938 0 22972442.663682938 19726028.421096802 0 0 0 0 1126667.2443846962 8329583.7399564739 0 8329583.7399564739 4379613.601159336 0 0 0 0 -13025951.895032883 18147225.509788513 0 18147225.509788513 17968618.95451355 0 0 0 0 -9472875.7929958105 13451087.646979332 0 13451087.646979332 23053865.553886414 0 0 0 0 -17420426.467890501 19575821.406993866 0 19575821.406993866 25239827.445726395 0 0 0 0 -4748063.7377090454 1678751.5912241936 0 1678751.5912241936 -11848907.523187876 0 0 0 0 -885832.56323623657 21528772.954341888 0 21528772.954341888 -2021968.2307853699 0 0 0 0 2911480.8258422036 18379868.47701918 0 18379868.47701918 11328514.889051985 0 0 0 0 104269.39780139923 35732411.10786438 0 35732411.10786438 -3154833.9047203064 0 0 0 0 3796407.3244218826 35140854.420928955 0 35140854.420928955 35651399.742054939 0 0 0 0 -68959.960320947692 862325.26619719621 0 862325.26619719621 -727896.9414214734 0 0 0 0 36788893.091204643 26177465.332353592 0 26177465.332353592 -2771775.4310455322 0 0 0 0 -10575272.149553061 13844706.671440125 0 13844706.671440125 -5614925.5452346802 0 0 0 0 4391393.6088079242 12110997.206737923 0 12110997.206737923 -486301.01591116376 0 0 0 0 -23873168.866324663 6459404.5889792442 0 6459404.5889792442 8929444.397819519 0 0 0 0 31565565.627530813 49960514.434886456 0 49960514.434886456 42152727.986534119 0 0 0 0 -1964062.0923280118 1447180.6443247306 0 1447180.6443247306 1804780.0230251662 0 0 0 0 -29848002.755842686 -19029983.412698746 0 -19029983.412698746 20513881.254890442 0 0 0 0 -65871140.412120819 40225027.847202301 0 40225027.847202301 65688422.075708866 0 0 0 0 -34634594.190951347 -14482831.82551384 0 -14482831.82551384 57892958.799051046 0 0 0 0 -37021838.690784931 -907290.5993335247 0 -907290.5993335247 26417579.799617767 0 0 0 0 70326034.011161804 92838753.002456665 0 92838753.002456665 115723419.23974061 0 0 0 0 -20321855.327002313 7756204.778862522 0 7756204.778862522 11496838.556451548 0 0 0 0 74490717.129223347 128440191.50838017 0 128440191.50838017 138191563.33675003 0 0 0 0 -18610010.998774067 3948820.0268554883 0 3948820.0268554883 12116449.82757641 0 0 0 0 -25498968.219543695 46927191.474341989 0 46927191.474341989 42459343.388195038 0 0 0 0 -4704580.5393066406 12648589.139266014 0 12648589.139266014 19171879.267559052 0 0 0 0 -77095814.725898266 95003514.833046913 0 95003514.833046913 -54733902.671999931 0 0 0 0 13199118.040397406 43648620.780792236 0 43648620.780792236 -5812516.955915451 0 0 0 0 11457579.800753593 -6291295.1623644829 0 -6291295.1623644829 -11493954.011978149 0 0 0 0 10884374.345469475 -24276650.537847519 0 -24276650.537847519 -23861403.061310053 0 0 0 0 26763154.071947098 -14681021.585583687 0 -14681021.585583687 -21335574.702724457 0 0 0 0 43800518.800781488 -12128978.452241421 0 -12128978.452241421 -176335882.5093708 0 0 0 0 -25400388.800905228 257246842.67562103 0 257246842.67562103 -97573903.43543148 0 0 0 0 -41203102.266859055 -156440391.45881557 0 -156440391.45881557 -23484237.89648056 0 0 0 0 22085078.848484993 112882105.68618011 0 112882105.68618011 -277259968.34285164 0 0 0 0 -87813722.825266123 44571114.16701889 0 44571114.16701889 104154506.62432289 0 0 0 0 -135910130.02726841 172127735.96588516 0 172127735.96588516 154733116.15156198 0 0 0 0 870667.36388665251 2181479.2714987933 0 2181479.2714987933 -1514474.5891414294 0 0 0 0 131788763.82855654 -119681719.36382294 0 -119681719.36382294 -45454868.909721375 0 0 0 0 -84131756.989354134 -105868760.68270874 0 -105868760.68270874 109494395.55717134 0 0 0 0 451262.42496169987 1546843.144541563 0 1546843.144541563 156199.51906255912 0 0 0 0 -37856149.665742874 -14759961.823465347 0 -14759961.823465347 -20941853.033578873 0 0 0 0 -6738744.4066939354 -159245583.47534752 0 -159245583.47534752 -317260800.41622591 0 0 0 0 -85819973.297206402 -33433735.890867233 0 -33433735.890867233 -76772782.32358551 0 0 0 0 -12367789.313869476 -17455934.797214508 0 -17455934.797214508 80422677.531328678 0 0 0 0 37504198.153400898 21581386.880414963 0 21581386.880414963 -4987665.5813102722 0 0 0 0 -105826219.69105792 12812950.017071247 0 12812950.017071247 47138747.665439606 0 0 0 0 215118383.39689064 29112393.03655529 0 29112393.03655529 144822993.17903709 0 0 0 0 -74442914.291503906 53989812.756591797 0 53989812.756591797 35344548.327147007 0 0 0 0 2915098.9376296997 45148741.673313141 0 45148741.673313141 33605602.273683548 0 0 0 0 -2800678.604557503 1520623.3145445064 0 1520623.3145445064 2062204.8472505473 0 0 0 0 -35122775.029296875 -36459112.057339668 0 -36459112.057339668 16219344.268657684 0 0 0 0 -14040060.384281158 19770767.856645584 0 19770767.856645584 -161526875.03568268 0 0 0 0 -7715630.0611772537 87842658.376776695 0 87842658.376776695 -225002909.54727173 0 0 0 0 50364556.072219849 -75678920.160865784 0 -75678920.160865784 -429273831.91039848 0 0 0 0 49334159.779396057 -40062295.669050217 0 -40062295.669050217 -237178557.66123676 0 0 0 0 23880489.929323196 11164765.246003151 0 11164765.246003151 -307036515.67406082 0 0 0 0 18788542.468238831 -19417551.656756401 0 -19417551.656756401 -248071386.28395081 0 0 0 0 122835041.70834374 202524585.0098033 0 202524585.0098033 215688150.45614624 0 0 0 0 -70981983.794578552 354318940.9251976 0 354318940.9251976 166707488.21218872 0 0 0 0 1965439.4529975727 13037481.491028599 0 13037481.491028599 -21967148.104021091 0 0 0 0 81884219.20603323 148864960.11904228 0 148864960.11904228 163107285.23068237 0 0 0 0 127450911.6484375 136253190.95410538 0 136253190.95410538 149483693.5622139 0 0 0 0 -1392260.0359095931 305808.6061167866 0 305808.6061167866 1076276.9692591503 0 0 0 0 -127414761.00286102 145087088.7479229 0 145087088.7479229 -306930177.65023804 0 0 0 0 2460134.1131375618 13550620.230584554 0 13550620.230584554 -21969357.217310093 0 0 0 0 -179876895.39321899 590942779.69371033 0 590942779.69371033 -165910568.6660614 0 0 0 0 429137203.89273834 -7705752.7870788574 0 -7705752.7870788574 329382020.33752251 0 0 0 0 113858614.46082306 162746734.67042732 0 162746734.67042732 153491144.04584122 0 0 0 0 116100043.93243408 120930049.14893913 0 120930049.14893913 117202043.09491205 0 0 0 0 85605969.947387695 105819480.54306793 0 105819480.54306793 134718796.18503094 0 0 0 0 -4040696.5083179474 -14525669.341184139 0 -14525669.341184139 -11019817.841932297 0 0 0 0 -4445899.7206068039 -9215318.5563573837 0 -9215318.5563573837 -743157.6975069046 0 0 0 0 -16017622.840446925 1114469.2697034664 0 1114469.2697034664 13812577.042737374 0 0 0 0 85299877.437400818 97973282.356555939 0 97973282.356555939 154671750.86874008 0 0 0 0 76127229.282175064 140741446.07480073 0 140741446.07480073 207684270.58511353 0 0 0 0 161621550.70847702 172770290.99009323 0 172770290.99009323 161246899.05354762 0 0 0 0 -6194220.2801208496 61613102.87928772 0 61613102.87928772 168385034.68364644 0 0 0 0 106855625.31189632 287370561.18908596 0 287370561.18908596 297664504.22104645 0 0 0 0 108964519.67738342 176972445.00952148 0 176972445.00952148 248011378.14920807 0 0 0 0 17474509.496845245 164970365.41700745 0 164970365.41700745 109860495.98214793 0 0 0 0 2554915.1883900315 12535178.76299559 0 12535178.76299559 -21753872.166241769 0 0 0 0 -30437812.108837128 -23631965.458752155 0 -23631965.458752155 36421284.398081779 0 0 0 0 -8675011.385402523 -1614289.6526945867 0 -1614289.6526945867 19439091.103856053 0 0 0 0 5984816.0600805283 226379653.19907188 0 226379653.19907188 230124562.51633453 0 0 0 0 77521604.379516602 99795135.169700623 0 99795135.169700623 11291580.505805969 0 0 0 0 -12781227.022856347 -896375.37452056096 0 -896375.37452056096 16239750.907304648 0 0 0 0 -26497695.485895157 -12742338.256885529 0 -12742338.256885529 1560122.2773971558 0 0 0 0 -30399597.795938492 -33440073.878272057 0 -33440073.878272057 -8932564.9069600105 0 0 0 0 -16432368.139989853 5241991.4515991211 0 5241991.4515991211 129867397.82987213 0 0 0 0 622715.82902408205 749832.70178506966 0 749832.70178506966 -578820.00895031355 0 0 0 0 -17770362.419921875 -36167784.406560898 0 -36167784.406560898 -41822648.482331753 0 0 0 0 -9727900.2181892395 -9967936.1674957275 0 -9967936.1674957275 -20855816.684970856 0 0 0 0 -25453154.059992194 -17848308.165652633 0 -17848308.165652633 -4289971.3535575867 0 0 0 0 -7633457.7467837334 -17541879.589454889 0 -17541879.589454889 2435559.3881082535 0 0 0 0 1042000.1523572961 1428899.7851645523 0 1428899.7851645523 -1074883.0307131181 0 0 0 0 14244278.875047684 89974909.835016251 0 89974909.835016251 177094515.2717495 0 0 0 0 -26906528.152441025 50501531.504517078 0 50501531.504517078 161247328.87137985 0 0 0 0 46023455.479858398 82810051.125189781 0 82810051.125189781 156619420.74796104 0 0 0 0 44951299.030899048 82054985.300777912 0 82054985.300777912 160165868.18229485 0 0 0 0 45713396.776376724 82761098.206008673 0 82761098.206008673 150629560.24810791 0 0 0 0 1141076.5335072195 910416.75351215876 0 910416.75351215876 694129.37429231498 0 0 0 0 -107805451.26474953 -10196788.471813679 0 -10196788.471813679 44911461.441555023 0 0 0 0 114180209.66204643 106298386.42944622 0 106298386.42944622 75699858.248513699 0 0 0 0 219636639.68520164 155026323.29692793 0 155026323.29692793 90160976.597915649 0 0 0 0 55438323.776199341 115174557.07617188 0 115174557.07617188 177110837.88188362 0 0 0 0 85764457.668276787 78611934.875936508 0 78611934.875936508 107125241.35108948 0 0 0 0 38566482.45757103 60336331.387819767 0 60336331.387819767 102696351.85254955 0 0 0 0 43444666.759426117 41329060.823420525 0 41329060.823420525 50017118.200740814 0 0 0 0 3973056.6323823929 11606982.454562426 0 11606982.454562426 85170589.855047226 0 0 0 0 -21619044.429207563 8111504.3512314558 0 8111504.3512314558 131191635.53787231 0 0 0 0 11682804.418582916 47249097.340922356 0 47249097.340922356 141760690.13567257 0 0 0 0 18929596.729043961 41187461.428594112 0 41187461.428594112 138765520.75305176 0 0 0 0 -22806869.819084167 -407223.15220308304 0 -407223.15220308304 125721217.15919638 0 0 0 0 -5704031.8762645721 42168079.812470436 0 42168079.812470436 95447996.78482759 0 0 0 0 -5687106.5169882774 36208727.26120317 0 36208727.26120317 32784253.304151535 0 0 0 0 -55906659.782930374 4559084.4020857811 0 4559084.4020857811 44732525.005017877 0 0 0 0 -24863500.904146194 -14565240.470787495 0 -14565240.470787495 51707989.493819237 0 0 0 0 -16599054.311362267 -173563497.82777739 0 -173563497.82777739 56372487.750139236 0 0 0 0 -11323471.308191299 101797780.05921745 0 101797780.05921745 185434427.35039663 0 0 0 0 81319713.40773201 271104986.18978786 0 271104986.18978786 456115718.1927433 0 0 0 0 -158249048.36880779 -117579381.36882782 0 -117579381.36882782 550247485.65148497 0 0 0 0 302729583.84628487 15544381.064548969 0 15544381.064548969 -188149094.37403297 0 0 0 0 2727960.7865858302 1200553.6551168743 0 1200553.6551168743 -1807953.6730936491 0 0 0 0 93399864.375930786 14073773.975039482 0 14073773.975039482 12587551.022943497 0 0 0 0 604938024.31980705 184552350.17440939 0 184552350.17440939 -165850790.99505615 0 0 0 0 2422832.627293278 905858.17275443021 0 905858.17275443021 -1442819.0009418144 0 0 0 0 -75701395.132236481 60262195.72027874 0 60262195.72027874 90968884.859117031 0 0 0 0 -39624256.975909233 -16505757.47648859 0 -16505757.47648859 132076058.71983242 0 0 0 0 77163533.324538231 -8433243.2851018906 0 -8433243.2851018906 -16608522.873675346 0 0 0 0 897804.63065778743 1851646.895881502 0 1851646.895881502 -1309305.2742297612 0 0 0 0 11061496.788653374 -21671293.32356596 0 -21671293.32356596 -7701153.1637573242 0 0 0 0 -43220760.477557182 71330081.282418489 0 71330081.282418489 81288643.149726868 0 0 0 0 64854377.015684128 -54664974.62683773 0 -54664974.62683773 35251419.881583214 0 0 0 0 -34288003.371113777 52729488.905355453 0 52729488.905355453 273719744.98180676 0 0 0 0 1064893.4463915369 497048.90109333978 0 497048.90109333978 -708474.60174117051 0 0 0 0 -45075688.15164423 77278897.496341228 0 77278897.496341228 219942539.59673119 0 0 0 0 9302552.0537843704 89887704.703794479 0 89887704.703794479 210628275.82087421 0 0 0 0 79906132.970514297 78026651.359653473 0 78026651.359653473 144841318.54365921 0 0 0 0 42642791.864715576 6374762.4478149414 0 6374762.4478149414 199737435.6404953 0 0 0 0 -7164064.9095497131 44607498.935474396 0 44607498.935474396 181483833.36047268 0 0 0 0 -32655035.849994659 79880857.868017197 0 79880857.868017197 144218092.57383007 0 0 0 0 8625295.4986190796 100883123.48511887 0 100883123.48511887 145077110.45629692 0 0 0 0 29738563.858324051 53267915.376368761 0 53267915.376368761 114453225.7326622 0 0 0 0 -23529482.066589355 27229269.448856354 0 27229269.448856354 108098690.72229099 0 0 0 0 1842054.9590578079 54609806.051042438 0 54609806.051042438 58083800.332960129 0 0 0 0 -48094675.601337433 45718275.981069565 0 45718275.981069565 58517202.377043247 0 0 0 0 -28986369.582937241 76165151.060547829 0 76165151.060547829 22595969.738481522 0 0 0 0 9771276.0715284348 48407708.735607624 0 48407708.735607624 111687314.26916695 0 0 0 0 6977941.6237030029 47462321.705851555 0 47462321.705851555 152350854.19532204 0 0 0 0 43786918.607427597 56840974.927598476 0 56840974.927598476 69958628.576538086 0 0 0 0 -6895788.6280169487 21414909.735444188 0 21414909.735444188 94224997.898796082 0 0 0 0 17003035.572330475 59962854.233089447 0 59962854.233089447 51823217.043078423 0 0 0 0 25296789.98270607 36129005.962471008 0 36129005.962471008 58751886.999572277 0 0 0 0 114104038.88285065 65450727.950613976 0 65450727.950613976 38136053.867402077 0 0 0 0 46402159.793735266 68538149.475068808 0 68538149.475068808 120616404.26040459 0 0 0 0 23548053.531354904 87951543.579087257 0 87951543.579087257 125214212.93346572 0 0 0 0 86769859.813394547 174028185.43921566 0 174028185.43921566 228803403.35680008 0 0 0 0 -10776778.324309349 87100148.802228928 0 87100148.802228928 229437484.06594086 0 0 0 0 618815.69256483531 -1057371.7645154919 0 -1057371.7645154919 2084541.3056403217 0 0 0 0 17210055.293213606 -196126140.54154766 0 -196126140.54154766 58111993.071200371 0 0 0 0 409837089.38128829 218497396.01186323 0 218497396.01186323 128267798.19797611 0 0 0 0 196817544.09388137 64234715.081838131 0 64234715.081838131 29799015.40354538 0 0 0 0 90890808.969730377 9330902.5350581408 0 9330902.5350581408 23997113.425485611 0 0 0 0 60392586.282572746 16571878.562800407 0 16571878.562800407 29693743.438706398 0 0 0 0 69846375.956852913 11906389.066102982 0 11906389.066102982 5160669.0991897583 0 0 0 0 2767972.9145230353 -107104.32085104543 0 -107104.32085104543 5373012.4784994107 0 0 0 0 55899983.412617683 -3617157.2286643982 0 -3617157.2286643982 -6147777.6315364838 0 0 0 0 26686633.197646379 13611831.89612484 0 13611831.89612484 -16221339.204610705 0 0 0 0 14382657.198430061 33479859.610013485 0 33479859.610013485 -15685972.537550211 0 0 0 0 43368659.321889877 24843655.836410522 0 24843655.836410522 -14262242.747459054 0 0 0 0 81070587.447220802 25194061.845712185 0 25194061.845712185 -1704677.4258079529 0 0 0 0 40344256.853866339 30391503.990450859 0 30391503.990450859 -2334508.3311510086 0 0 0 0 50245979.976840973 32812363.475706577 0 32812363.475706577 27616765.247808456 0 0 0 0 55521817.648603678 57480628.224591553 0 57480628.224591553 15847199.51079464 0 0 0 0 25561327.598423004 37073737.830296993 0 37073737.830296993 2110569.2674121857 0 0 0 0 6582694.2552809715 75035636.582773566 0 75035636.582773566 -13311159.611280441 0 0 0 0 -4276615.1794376373 54856247.933778763 0 54856247.933778763 -18776174.184746742 0 0 0 0 435433.04837226868 24110213.134100437 0 24110213.134100437 8628744.4896306992 0 0 0 0 -74443091.35635376 52816519.813258171 0 52816519.813258171 6485476.3228206635 0 0 0 0 1176830.272471474 3331431.8560733991 0 3331431.8560733991 1055353.4597051176 0 0 0 0 -193073.73876953125 8880049.2589130402 0 8880049.2589130402 -1839726.2422180176 0 0 0 0 8250222.6508672265 13357689.408528727 0 13357689.408528727 7217704.6044455031 0 0 0 0 -1161745.0042285919 48685570.990742922 0 48685570.990742922 6413756.22781533 0 0 0 0 -913473.96732521057 3445642.5327019691 0 3445642.5327019691 3306425.4200363159 0 0 0 0 7827283.5641602296 10804117.247517701 0 10804117.247517701 1602703.0143363271 0 0 0 0 27649.706617355347 40298033.118157387 0 40298033.118157387 -11399885.34462595 0 0 0 0 31457008.600103855 54385762.36770761 0 54385762.36770761 -6841738.9530487061 0 0 0 0 26790601.064495087 40030749.942345858 0 40030749.942345858 -23124516.682224035 0 0 0 0 46485585.759723663 2842549.5626392365 0 2842549.5626392365 -37622345.773555756 0 0 0 0 17246164.868930541 16241229.541720569 0 16241229.541720569 10287841.342671432 0 0 0 0 9578621.6090068314 4852170.0481382646 0 4852170.0481382646 -6688686.7845039368 0 0 0 0 14280872.065757751 11205508.417430878 0 11205508.417430878 -7280533.4831113815 0 0 0 0 3958000.2257613819 8020502.7270774338 0 8020502.7270774338 3499631.0821019635 0 0 0 0 20960231.771770477 18397230.60291481 0 18397230.60291481 -2337479.7053833008 0 0 0 0 5430522.7945234701 7501329.3317178972 0 7501329.3317178972 7146394.4799453039 0 0 0 0 20414321.09961319 9446524.151802063 0 9446524.151802063 3478036.9255580902 0 0 0 0 6821068.2815217972 25668188.625198841 0 25668188.625198841 30856.308174133301 0 0 0 0 21815674.436569214 22456179.478149414 0 22456179.478149414 -7024706.8229408264 0 0 0 0 21863475.226413727 29253193.766910553 0 29253193.766910553 -24426082.703278065 0 0 0 0 -53385663.068210602 77789086.572792053 0 77789086.572792053 6941825.5410728455 0 0 0 0 20667220.961943425 17605324.049852218 0 17605324.049852218 9099183.6334334724 0 0 0 0 34619171.185055614 11499203.038003445 0 11499203.038003445 -30557248.022126436 0 0 0 0 42785973.967590332 43918685.161880493 0 43918685.161880493 -35366829.227767944 0 0 0 0 1615502.9213653766 13902486.939151023 0 13902486.939151023 27065375.728606973 0 0 0 0 -228986.96107243001 10158362.476802142 0 10158362.476802142 29156127.122166939 0 0 0 0 -72336408.414068222 42402630.267262697 0 42402630.267262697 53320747.140995502 0 0 0 0 17660346.284610748 33417342.152126312 0 33417342.152126312 18273951.368987083 0 0 0 0 20238242.675313473 43474759.403853416 0 43474759.403853416 31798542.757827759 0 0 0 0 -7702436.997674942 56765382.505154967 0 56765382.505154967 17543287.427051034 0 0 0 0 14215656.6281147 33547856.156855047 0 33547856.156855047 15739216.988987207 0 0 0 0 7148429.4881121777 6579662.4723351235 0 6579662.4723351235 -4767093.7848618627 0 0 0 0 74493790.427854419 61769333.050120264 0 61769333.050120264 22271391.413879395 0 0 0 0 53014712.706733704 40078140.013246536 0 40078140.013246536 22247009.094923973 0 0 0 0 434358.96826862916 -1340894.7490293677 0 -1340894.7490293677 -1479437.6358161736 0 0 0 0 73599108.635231018 53337064.576277256 0 53337064.576277256 16719548.996757507 0 0 0 0 60148329.266624451 61292358.244852066 0 61292358.244852066 21189776.698612213 0 0 0 0 64834005.312797546 59763609.874305725 0 59763609.874305725 19077524.29185009 0 0 0 0 57050431.258838654 65597982.812582016 0 65597982.812582016 43771928.396579742 0 0 0 0 103341922.88788605 68127579.613375187 0 68127579.613375187 46851657.159003258 0 0 0 0 57068887.264920019 51048120.344386883 0 51048120.344386883 41031061.667593002 0 0 0 0 -187348.15478134155 8833058.771654129 0 8833058.771654129 4178690.9533615112 0 0 0 0 800296.77774047852 11918112.352121353 0 11918112.352121353 4455456.1371994019 0 0 0 0 6081374.4271283466 10173285.078972094 0 10173285.078972094 6957337.1620269781 0 0 0 0 6279027.6177371545 3194125.5134122372 0 3194125.5134122372 -6191114.1431572856 0 0 0 0 -81200.571388244629 4982772.0943756104 0 4982772.0943756104 5840459.3947601318 0 0 0 0 1283442.6361236572 5682400.666683197 0 5682400.666683197 111166.50701904297 0 0 0 0 1401518.3039016724 6795682.1680107117 0 6795682.1680107117 4950175.8358650208 0 0 0 0 6405652.932511108 6421221.8563070446 0 6421221.8563070446 732339.458588304 0 0 0 0 7276889.5688781738 11505103.094007492 0 11505103.094007492 4541871.678062439 0 0 0 0 -38364.456110794097 396926.24317108467 0 396926.24317108467 1198785.624511186 0 0 0 0 6070193.2852230072 12742874.144089699 0 12742874.144089699 15270497.83820343 0 0 0 0 11919788.694034576 15250407.784385681 0 15250407.784385681 9311884.1173238754 0 0 0 0 4478848.9443359375 7555839.1325721741 0 7555839.1325721741 11242520.115509033 0 0 0 0 3167178.7305221558 15914618.894870758 0 15914618.894870758 38724955.138324738 0 0 0 0 24268137.685371399 19653909.420032501 0 19653909.420032501 13699313.46559906 0 0 0 0 1916062.7251221705 6674828.0294315824 0 6674828.0294315824 10095212.414645296 0 0 0 0 12424942.685834885 16681351.603570938 0 16681351.603570938 13344243.570877075 0 0 0 0 7900256.6986176027 9328067.9849810004 0 9328067.9849810004 -10965006.022334931 0 0 0 0 6394827.2103729248 47170892.899616241 0 47170892.899616241 30744946.91683197 0 0 0 0 33818962.061750412 32113225.442206979 0 32113225.442206979 4043700.8398926258 0 0 0 0 76628516.304321289 36813369.794845581 0 36813369.794845581 29445189.830207825 0 0 0 0 42794809.373708725 50561952.308390617 0 50561952.308390617 42406880.500183105 0 0 0 0 8848262.6742973328 -50657755.903469086 0 -50657755.903469086 78837612.840896606 0 0 0 0 2207406.0179877877 2357661.3671170799 0 2357661.3671170799 3956851.0064849406 0 0 0 0 2580856.1332626641 2574982.9536021492 0 2574982.9536021492 2616346.6625427566 0 0 0 0 -12449851.678394318 112664740.86383629 0 112664740.86383629 90168350.037155151 0 0 0 0 96921998.150253296 -14397064.733825684 0 -14397064.733825684 136703502.59643555 0 0 0 0 67136412.400777817 53994366.965093613 0 53994366.965093613 15343401.387023926 0 0 0 0 -187696023.73233223 -37807876.544769287 0 -37807876.544769287 12455481.728164673 0 0 0 0 1252530.9393350864 1270895.7886749655 0 1270895.7886749655 -885102.49933547527 0 0 0 0 8627988.995967865 365179349.36796188 0 365179349.36796188 -531486138.1761322 0 0 0 0 -358215478.56490326 266426532.69216156 0 266426532.69216156 -76638182.772199631 0 0 0 0 -126537946.0012207 -37328380.498893738 0 -37328380.498893738 -89496828.643179417 0 0 0 0 -22875549.660049438 -3694977.8058433533 0 -3694977.8058433533 -18926174.571910858 0 0 0 0 851837.34902394749 582039.66296403855 0 582039.66296403855 1032279.3563457057 0 0 0 0 -162850141.51321793 99105837.250185013 0 99105837.250185013 101508714.33744812 0 0 0 0 -7970107.6481704712 40745496.62695694 0 40745496.62695694 -61627112.925422668 0 0 0 0 107789362.03449249 146910849.18437576 0 146910849.18437576 -33975243.822402954 0 0 0 0 -890751.98739624023 25548177.867465973 0 25548177.867465973 72014622.647045135 0 0 0 0 33846411.334936142 -12102858.584299088 0 -12102858.584299088 24387091.375671387 0 0 0 0 -24978288.445625305 30743928.075004578 0 30743928.075004578 -6652634.1366348267 0 0 0 0 -309939226.05579376 121326565.25092697 0 121326565.25092697 -37343163.040081024 0 0 0 0 -71703245.417037487 -17045162.960595131 0 -17045162.960595131 -53008311.441452026 0 0 0 0 -101171395.75223541 180494577.93585968 0 180494577.93585968 -33632979.726142883 0 0 0 0 -106867278.44476318 49493654.959991455 0 49493654.959991455 -87094912.911716461 0 0 0 0 8964417.0525054932 41265793.304084778 0 41265793.304084778 -58680028.751150131 0 0 0 0 -16417640.378019333 -22909010.905477524 0 -22909010.905477524 -201482231.57727051 0 0 0 0 9159824.2730865479 5357013.4020309448 0 5357013.4020309448 -73895189.09226799 0 0 0 0 -20176858.86314249 -27504271.378516674 0 -27504271.378516674 -10393983.590843201 0 0 0 0 1539650.9236450195 896953.70212936401 0 896953.70212936401 23360800.956489563 0 0 0 0 -1366700.714302063 5694898.9369277954 0 5694898.9369277954 18321655.848190308 0 0 0 0 -2190467.8573410511 -10570310.438470364 0 -10570310.438470364 3348194.5656433105 0 0 0 0 2250088.5141273723 2799168.1220981367 0 2799168.1220981367 1389640.7380995266 0 0 0 0 9751303.5999679565 1761941.6915512085 0 1761941.6915512085 15594358.528831482 0 0 0 0 10002867.981929779 28595693.726325989 0 28595693.726325989 -35425323.945861816 0 0 0 0 671788.77157389559 822462.63039770164 0 822462.63039770164 415418.36060645431 0 0 0 0 9022861.5397000313 7617809.9048144817 0 7617809.9048144817 2008768.441734314 0 0 0 0 66601727.637461662 109065859.32067108 0 109065859.32067108 46012971.335998535 0 0 0 0 48355722.585449696 16541029.252975464 0 16541029.252975464 -55012346.056114197 0 0 0 0 129208.26401412115 -288567.389971653 0 -288567.389971653 -61974.314380023163 0 0 0 0 102639114.57727051 99711521.461711884 0 99711521.461711884 -436065429.28989077 0 0 0 0 -23725211.78225708 154548912.93075562 0 154548912.93075562 176260155.19822764 0 0 0 0 -144827981.31221581 170605611.74876499 0 170605611.74876499 -173115282.58683014 0 0 0 0 16147743.850246429 225411877.16686249 0 225411877.16686249 -189392498.2263031 0 0 0 0 10376265.566177368 31096916.312606812 0 31096916.312606812 -31065671.997169495 0 0 0 0 71102097.05286026 163752044.27291489 0 163752044.27291489 -80400448.155670166 0 0 0 0 -9391429.5575561523 215373814.18734741 0 215373814.18734741 90538053.030830383 0 0 0 0 -76788523.713417053 187843602.46819305 0 187843602.46819305 -94737129.136062622 0 0 0 0 -144508729.43714905 285833328.40140533 0 285833328.40140533 -558611066.43128967 0 0 0 0 -194414299.90514374 -87208217.506839752 0 -87208217.506839752 -260098904.99472046 0 0 0 0 -216808142.96682739 150001382.0366745 0 150001382.0366745 -111327125.16867828 0 0 0 0 -62494322.306900024 77559313.84450531 0 77559313.84450531 -102707276.90944672 0 0 0 0 -384917960.5328064 67759690.048160553 0 67759690.048160553 7088086.8538818359 0 0 0 0 -67794207.588897705 231153769.12259674 0 231153769.12259674 -215905005.80721521 0 0 0 0 -90162605.553405762 134462767.99558258 0 134462767.99558258 -220981645.04858398 0 0 0 0 -32677751.158668518 151644800.48501968 0 151644800.48501968 -138253901.09609985 0 0 0 0 -128788532.69054413 230674571.59649658 0 230674571.59649658 5457603.7011032104 0 0 0 0 -265735479.83498001 379224104.39978504 0 379224104.39978504 -472901925.49879456 0 0 0 0 -124612597.57563782 216520041.17333603 0 216520041.17333603 -72914336.976806641 0 0 0 0 1421721.6126048341 1021364.7388434 0 1021364.7388434 -816273.71550898999 0 0 0 0 -212846805.78388977 409943267.80537415 0 409943267.80537415 -518482467.11425781 0 0 0 0 -262021342.96626282 395377059.82068634 0 395377059.82068634 -403412450.27914429 0 0 0 0 -138107645.81591797 107200687.08227539 0 107200687.08227539 48676304.622924805 0 0 0 0 -152171925.88726807 284708930.88201904 0 284708930.88201904 -355554945.23116302 0 0 0 0 -237974648.58635712 387504042.554245 0 387504042.554245 -435330187.0779953 0 0 0 0 -203224243.77703857 431481085.26783752 0 431481085.26783752 -400587861.47476959 0 0 0 0 -214219472.12350464 290265895.93307495 0 290265895.93307495 -177481047.24206543 0 0 0 0 -251091877.47538757 447912422.08693695 0 447912422.08693695 -518903507.38387299 0 0 0 0 -214512352.33726501 430487585.50041962 0 430487585.50041962 -532580709.56167603 0 0 0 0 -247089249.67932129 403480631.6316452 0 403480631.6316452 -550327505.308918 0 0 0 0 -245882496.73917675 426085317.30160046 0 426085317.30160046 -522387234.69091797 0 0 0 0 -260162024.17393494 295355810.96911621 0 295355810.96911621 -425296760.65185547 0 0 0 0 13473480.133300781 16339563.318008423 0 16339563.318008423 -12827056.941505432 0 0 0 0 -69727445.874397278 -34687628.237564087 0 -34687628.237564087 -6346698.3775367737 0 0 0 0 1667590.4503676184 1490448.1064643562 0 1490448.1064643562 -292990.25841419399 0 0 0 0 -981862.90438305214 108121.96096473932 0 108121.96096473932 266183.55273866281 0 0 0 0 -137914296.59218407 -30715255.760492325 0 -30715255.760492325 365861.73526000977 0 0 0 0 -197605142.72203827 185314288.99602509 0 185314288.99602509 -422296231.89189148 0 0 0 0 -268791447.65150452 345445800.48574066 0 345445800.48574066 -387181680.04998016 0 0 0 0 124524.77675694227 39061.735425263643 0 39061.735425263643 -221591.78953133151 0 0 0 0 -152595722.70128632 -14631682.414997101 0 -14631682.414997101 34364891.983156204 0 0 0 0 -8208109.620349884 103820589.02609253 0 103820589.02609253 166119138.01120663 0 0 0 0 71868565.664054871 -106880609.24379444 0 -106880609.24379444 -31896578.57598114 0 0 0 0 -172391201.21937561 32441586.375583649 0 32441586.375583649 224852286.65814972 0 0 0 0 134156787.40181541 115165523.00572395 0 115165523.00572395 -54493450.004234314 0 0 0 0 2063360.1858644318 1098517.2661646456 0 1098517.2661646456 -1101030.6170214489 0 0 0 0 181136815.32997131 -41304764.256177902 0 -41304764.256177902 -13409328.862202168 0 0 0 0 -2359197.1347122192 -12689455.434225082 0 -12689455.434225082 115619230.99021149 0 0 0 0 -1632741.0724487305 -9742830.0748596191 0 -9742830.0748596191 27788255.634792328 0 0 0 0 -2137254.0108661652 35753618.841576576 0 35753618.841576576 99777379.883369446 0 0 0 0 -1120918.380531311 38395600.87607193 0 38395600.87607193 28340298.45044899 0 0 0 0 49113046.157019615 33390713.716626644 0 33390713.716626644 23185052.337371826 0 0 0 0 109216761.98239708 74322702.632144928 0 74322702.632144928 26085469.577735901 0 0 0 0 -8281177.6383018494 89311165.053474426 0 89311165.053474426 27026634.244384766 0 0 0 0 -76695460.817344666 39699545.460910797 0 39699545.460910797 -53414837.622226715 0 0 0 0 27020870.560125351 52492611.673139572 0 52492611.673139572 -55621482.620849609 0 0 0 0 -18934775.474395752 77966538.425712585 0 77966538.425712585 37341585.429443359 0 0 0 0 200544.00471661612 -479035.04990230128 0 -479035.04990230128 -95798.105026014848 0 0 0 0 -32020745.455123901 140347074.10359192 0 140347074.10359192 -45073773.886085033 0 0 0 0 51122600.031776428 60177948.212522507 0 60177948.212522507 -135034683.68456268 0 0 0 0 79111.503365986049 -364458.17327144928 0 -364458.17327144928 -48548.556726940791 0 0 0 0 -98338485.606033325 62234541.306682587 0 62234541.306682587 227500216.27287245 0 0 0 0 -55419633.942901611 80018369.481620789 0 80018369.481620789 -62238641.148422241 0 0 0 0 90629398.512069702 64640764.668075562 0 64640764.668075562 -295960685.61705017 0 0 0 0 176180517.44454193 40739494.245721817 0 40739494.245721817 -96936833.563560486 0 0 0 0 -53726313.486567497 -74862069.361104965 0 -74862069.361104965 -28865245.372276306 0 0 0 0 -15471714.840301514 54043550.369804382 0 54043550.369804382 -96740938.792491913 0 0 0 0 -8740629.7129707336 34274758.414140701 0 34274758.414140701 -42408598.75831604 0 0 0 0 -30276542.710502625 37358832.833789825 0 37358832.833789825 8090713.2740325928 0 0 0 0 6366242.3179130554 8213738.0914497375 0 8213738.0914497375 824425.98805236816 0 0 0 0 11641921.788772583 18942228.856990814 0 18942228.856990814 15103467.668453217 0 0 0 0 2747297.6239709128 8669764.5351189822 0 8669764.5351189822 2779613.3043458536 0 0 0 0 17568415.037139893 11979297.912345886 0 11979297.912345886 158083.43076324463 0 0 0 0 11080567.774848938 11787285.306968689 0 11787285.306968689 1015330.9636383057 0 0 0 0 6100998.0373792648 6033148.5605983734 0 6033148.5605983734 -1326323.58152771 0 0 0 0 3895258.9943488659 10276388.053035082 0 10276388.053035082 383835.6069374308 0 0 0 0 6575268.4722976685 4421755.3485107422 0 4421755.3485107422 -2796695.4687805176 0 0 0 0 2547014.3811731609 5096732.507354103 0 5096732.507354103 -3234071.57090424 0 0 0 0 10065950.405002594 4661817.9069061279 0 4661817.9069061279 -1662532.1654663086 0 0 0 0 10083151.672870485 4744830.419050185 0 4744830.419050185 -586449.73074473441 0 0 0 0 15021060.926624298 3571588.1422557831 0 3571588.1422557831 -2230724.1108703613 0 0 0 0 -3799931.998714447 9333170.4051570892 0 9333170.4051570892 8597781.7828292847 0 0 0 0 26510236.157569885 3898801.0658302307 0 3898801.0658302307 -2527755.7545318604 0 0 0 0 63599.97147225868 264050.12190022506 0 264050.12190022506 -306508.34962545708 0 0 0 0 8236765.6942184977 9464501.4326808825 0 9464501.4326808825 2823356.2759045772 0 0 0 0 11652282.876724243 9118559.7711029053 0 9118559.7711029053 -1010083.9123077393 0 0 0 0 4331236.8138715327 10432527.498772874 0 10432527.498772874 3915897.5458613262 0 0 0 0 6094901.5058693886 7873205.8534154892 0 7873205.8534154892 1420045.5264129639 0 0 0 0 44919815.881774902 22683778.013004303 0 22683778.013004303 2099521.1995620728 0 0 0 0 6599550.4433335215 4592167.1537086144 0 4592167.1537086144 2078985.9177405946 0 0 0 0 8920062.2516593933 4475967.4868011475 0 4475967.4868011475 4148716.2887210846 0 0 0 0 5653699.081401825 6353708.5835180283 0 6353708.5835180283 1073993.4125442505 0 0 0 0 11683483.693185551 10230653.771332277 0 10230653.771332277 4553423.9216762967 0 0 0 0 4125500.9127098536 10224051.600782586 0 10224051.600782586 6830960.2509361692 0 0 0 0 7431503.3731365204 8558749.4710426331 0 8558749.4710426331 1771112.8894901276 0 0 0 0 7329342.7477893829 10191619.979476929 0 10191619.979476929 123004.66447353363 0 0 0 0 13732763.091340542 14074123.133728981 0 14074123.133728981 3583314.4737243652 0 0 0 0 3166493.4788444634 10387375.389461603 0 10387375.389461603 748877.40427709743 0 0 0 0 3919297.2255764008 15811040.407261848 0 15811040.407261848 2706877.0945854187 0 0 0 0 8901924.3907203674 9265552.3936767578 0 9265552.3936767578 3033881.2410674095 0 0 0 0 8936178.598365685 12217464.281853132 0 12217464.281853132 3178455.9144062437 0 0 0 0 -1588652.7141075134 11206682.729511261 0 11206682.729511261 9312504.0745811462 0 0 0 0 3516087.5774600497 8629156.0824406035 0 8629156.0824406035 1469970.8945750967 0 0 0 0 16364225.587631702 12115408.950803757 0 12115408.950803757 -1871815.8743495941 0 0 0 0 14877754.695466518 19492912.589990854 0 19492912.589990854 10916841.120239258 0 0 0 0 9431486.3859291077 11110797.998527527 0 11110797.998527527 1117745.2996120453 0 0 0 0 5646685.37886356 9490069.1380268056 0 9490069.1380268056 -1033936.9254076499 0 0 0 0 18656888.519184113 12871760.021829605 0 12871760.021829605 114906.27746582031 0 0 0 0 12180001.637253046 11305356.705327988 0 11305356.705327988 6529433.4605026245 0 0 0 0 6742298.4393149475 7476838.9477820322 0 7476838.9477820322 259724.50359806418 0 0 0 0 3338627.8563216766 6301047.3560720487 0 6301047.3560720487 -1906025.5120706856 0 0 0 0 17797844.101783752 16769553.58454895 0 16769553.58454895 5339000.0512490273 0 0 0 0 5773883.9829355255 7320724.0284046736 0 7320724.0284046736 -2326658.7542206012 0 0 0 0 14141207.740205765 15476414.037548065 0 15476414.037548065 514385.98458862305 0 0 0 0 13810841.310300469 10948290.610270143 0 10948290.610270143 -1941915.3596725464 0 0 0 0 2406161.5575751998 5712627.6841328517 0 5712627.6841328517 -5971724.7338516712 0 0 0 0 35993405.209864616 37897701.983615875 0 37897701.983615875 -1702748.7281341553 0 0 0 0 -346455.92642763816 1125119.6564053409 0 1125119.6564053409 -242335.57952843234 0 0 0 0 22543434.370154023 -26657961.35486412 0 -26657961.35486412 -72462433.492683411 0 0 0 0 -23325404.493678093 83834149.539131165 0 83834149.539131165 -8377591.9600830078 0 0 0 0 15776020.101858616 14256044.452651978 0 14256044.452651978 2840791.7143211365 0 0 0 0 23972983.701786518 34516805.493860245 0 34516805.493860245 -8747826.6438751221 0 0 0 0 10197988.573529243 17453328.572078705 0 17453328.572078705 -2964109.1948242188 0 0 0 0 23834246.406695843 21761444.561496735 0 21761444.561496735 5544187.802022934 0 0 0 0 13795347.296832085 11951230.864135742 0 11951230.864135742 3471550.8575134277 0 0 0 0 25191156.04808569 7249922.1594734192 0 7249922.1594734192 5039898.5153808594 0 0 0 0 -48818356.062326193 70417808.351686478 0 70417808.351686478 41225976.433578491 0 0 0 0 -588668.17306728172 393898.17868866399 0 393898.17868866399 388865.84806531295 0 0 0 0 -51916215.910381317 50638252.547088623 0 50638252.547088623 3461087.2715568542 0 0 0 0 -16632864.304411173 59259573.117427826 0 59259573.117427826 -19017117.446380615 0 0 0 0 -5039619.282740593 16460884.347137451 0 16460884.347137451 19347800.027545929 0 0 0 0 -279716736.97218323 92668874.30506897 0 92668874.30506897 -130635899.97293031 0 0 0 0 1912264.994904995 61972870.394557953 0 61972870.394557953 114251085.5175705 0 0 0 0 610411.58389472123 102127.64755964279 0 102127.64755964279 1597991.8523708237 0 0 0 0 -29106709.95103693 107742878.39437389 0 107742878.39437389 -71946488.981506348 0 0 0 0 103559813.75499439 -276551239.57041168 0 -276551239.57041168 -128921664.81582642 0 0 0 0 100021617.2046591 62751240.498927116 0 62751240.498927116 5969260.6073150635 0 0 0 0 -33877535.89810276 33886897.036144257 0 33886897.036144257 80902051.14705658 0 0 0 0 70029892.252658963 -29516152.612068176 0 -29516152.612068176 -13366183.206680298 0 0 0 0 -27575553.82081604 -39379614.631378174 0 -39379614.631378174 8424990.5397872925 0 0 0 0 2363606.8610124588 32757362.301074982 0 32757362.301074982 6378377.3865489364 0 0 0 0 -14341375.87180233 -11344371.848587036 0 -11344371.848587036 63021526.245803833 0 0 0 0 45084739.349645138 23777682.324054718 0 23777682.324054718 -51009263.498771667 0 0 0 0 20817095.315288544 18307459.86258316 0 18307459.86258316 2802640.2079657912 0 0 0 0 2521782.6774128946 6758928.3796116114 0 6758928.3796116114 -5080588.2433743924 0 0 0 0 -17623036.827828407 54536950.621257782 0 54536950.621257782 24289378.442764282 0 0 0 0 19771957.900521755 17994368.689306259 0 17994368.689306259 5878468.4929199219 0 0 0 0 19211835.238163948 16483527.882714272 0 16483527.882714272 7465426.3393707275 0 0 0 0 19340219.991857529 17388543.760011673 0 17388543.760011673 5828446.2623109818 0 0 0 0 5164877.2438097801 7577403.1150395405 0 7577403.1150395405 -520661.70744473487 0 0 0 0 2875307.8651101943 10827450.948259737 0 10827450.948259737 -1748674.7414882705 0 0 0 0 13180571.739670038 17540616.72778511 0 17540616.72778511 450701.25148391724 0 0 0 0 11880760.485437393 9419348.0021190643 0 9419348.0021190643 -3104910.375377655 0 0 0 0 10717770.83536711 9751452.2635681294 0 9751452.2635681294 -7652209.6379767358 0 0 0 0 19157792.568047523 41036359.678437233 0 41036359.678437233 -27255950.100062847 0 0 0 0 13414211.890942292 8796603.9948581979 0 8796603.9948581979 -14006240.440767594 0 0 0 0 22286255.805144906 -39093924.57351914 0 -39093924.57351914 10591016.88445282 0 0 0 0 -2661301.0231952667 18586747.100263596 0 18586747.100263596 17650861.392253876 0 0 0 0 -2527710.0206055641 19568996.789553165 0 19568996.789553165 4595965.3797798157 0 0 0 0 13838723.852441788 12460837.47259903 0 12460837.47259903 7484402.6927242279 0 0 0 0 -19791181.555942535 25531618.520769119 0 25531618.520769119 9451676.6667394638 0 0 0 0 10973420.254116587 12063260.424038066 0 12063260.424038066 -1596762.0863189134 0 0 0 0 2779221.015622139 30164360.604279518 0 30164360.604279518 -13694995.58672142 0 0 0 0 21932424.180793762 30163799.777545929 0 30163799.777545929 3754299.2952880859 0 0 0 0 5277869.3598840944 11161992.178292908 0 11161992.178292908 302086.90511883609 0 0 0 0 207943.17501449585 19555909.65779686 0 19555909.65779686 4444198.7194442749 0 0 0 0 823862.66164373141 1669262.8148220396 0 1669262.8148220396 1231916.1370339729 0 0 0 0 27154933.277980804 19955115.982894897 0 19955115.982894897 14276154.117607117 0 0 0 0 42642561.029153824 49488571.151571274 0 49488571.151571274 -7981664.2473106384 0 0 0 0 23338838.10617733 25575543.014496326 0 25575543.014496326 2550017.5308151245 0 0 0 0 432202.6517162323 21654977.190620422 0 21654977.190620422 19023970.974544525 0 0 0 0 1099132.8664674759 18345030.690027237 0 18345030.690027237 19895565.492927551 0 0 0 0 1212098.3762893677 18357961.88375473 0 18357961.88375473 19883484.99155426 0 0 0 0 -6390575.1724395752 27510042.585420609 0 27510042.585420609 9616762.0514183044 0 0 0 0 5404632.1002932843 9580642.8985687438 0 9580642.8985687438 -2637800.6768811615 0 0 0 0 8910925.1081848145 13540575.341421127 0 13540575.341421127 22882935.208099365 0 0 0 0 7192556.2365813255 7469834.476017952 0 7469834.476017952 25152755.521331787 0 0 0 0 5836937.1443462372 18588279.60600853 0 18588279.60600853 20409071.0045681 0 0 0 0 -11624800.946270943 10669281.229834557 0 10669281.229834557 -9992848.3664417267 0 0 0 0 -9158123.5855515003 28472446.795297503 0 28472446.795297503 12841323.416290283 0 0 0 0 17541588.857765198 35710944.75748539 0 35710944.75748539 -16487043.624998093 0 0 0 0 13279561.842889786 12395991.314032555 0 12395991.314032555 -44455756.19921875 0 0 0 0 9560461.0970335007 12805700.526226044 0 12805700.526226044 -10333481.947130203 0 0 0 0 36818256.304840088 25179686.670940399 0 25179686.670940399 2457117.5303039551 0 0 0 0 10437602.340395335 7478571.5256345011 0 7478571.5256345011 -8211233.0625516307 0 0 0 0 48687114.277137756 11560919.978507996 0 11560919.978507996 -11658441.033380508 0 0 0 0 827198.87576219486 766360.6725414414 0 766360.6725414414 483814.55832458101 0 0 0 0 21122670.121131897 23727590.370625973 0 23727590.370625973 21934300.310682297 0 0 0 0 2032142.9221585821 -2220020.8229305465 0 -2220020.8229305465 -3061775.9487286317 0 0 0 0 -10250489.633041382 -6519574.1106338501 0 -6519574.1106338501 -14340036.559513092 0 0 0 0 11770824.550676005 5267028.4410614334 0 5267028.4410614334 -6019549.2211415097 0 0 0 0 -29716.523446083069 6292769.5845184326 0 6292769.5845184326 5328550.565580368 0 0 0 0 9652818.3642692566 16496601.214804888 0 16496601.214804888 164575.03975486755 0 0 0 0 97997320.674818993 -14529429.569078922 0 -14529429.569078922 -13845616.989967346 0 0 0 0 -10181017.807549477 11803745.010080338 0 11803745.010080338 14759589.607181549 0 0 0 0 757021.54374095565 856031.8954503272 0 856031.8954503272 -692174.19661403261 0 0 0 0 7736621.8566474915 -4602235.0780982971 0 -4602235.0780982971 6963695.4324216843 0 0 0 0 41647585.710647583 -1814074.1427636147 0 -1814074.1427636147 -17509898.443881989 0 0 0 0 32199359.370195389 19124192.70164299 0 19124192.70164299 -41409133.978778839 0 0 0 0 -14050699.664156914 21838225.420086861 0 21838225.420086861 -3449167.0802230835 0 0 0 0 91765005.197452545 140105032.55637264 0 140105032.55637264 -44472832.533511162 0 0 0 0 3365365.571908494 3712055.1154208304 0 3712055.1154208304 -3184318.5270475354 0 0 0 0 7518961.6134264702 5595280.8392850012 0 5595280.8392850012 -8679073.5883231591 0 0 0 0 144164023.67165375 -17578936.5749259 0 -17578936.5749259 62075524.59423542 0 0 0 0 82948698.897312164 176602140.53059864 0 176602140.53059864 -111809341.33019257 0 0 0 0 137927882.69926131 44333240.609269097 0 44333240.609269097 -236642270.31655931 0 0 0 0 -60416113.524914265 -14191389.133830428 0 -14191389.133830428 38022630.984538078 0 0 0 0 52915913.590211868 51267120.545769691 0 51267120.545769691 -89276637.344677448 0 0 0 0 30086415.550113559 2430390.7052952051 0 2430390.7052952051 13432741.516280174 0 0 0 0 2470830.8232961176 1636236.3280297515 0 1636236.3280297515 195871.80090867821 0 0 0 0 36730864.9658041 5602189.048722744 0 5602189.048722744 -46213713.295566559 0 0 0 0 1582762.9066867828 33564521.45359087 0 33564521.45359087 300644373.26573646 0 0 0 0 44816593.269468307 51967910.390040636 0 51967910.390040636 -26474517.653175354 0 0 0 0 49063839.542824268 -102591595.5424366 0 -102591595.5424366 -78934485.907542229 0 0 0 0 -47291374.456321716 83745367.092014313 0 83745367.092014313 -23259059.822731972 0 0 0 0 8378613.6652749283 10156858.012146557 0 10156858.012146557 6370502.1637318879 0 0 0 0 21440654.98248148 78463516.861863136 0 78463516.861863136 -93195892.245266557 0 0 0 0 61335262.62686491 777224.63415813446 0 777224.63415813446 1276474.4109687805 0 0 0 0 73126517.44485569 29837006.549845695 0 29837006.549845695 -53864071.289474487 0 0 0 0 22877789.129521161 30180117.481435299 0 30180117.481435299 6519135.6554679871 0 0 0 0 7487581.7925295653 15846010.152377976 0 15846010.152377976 9640051.1073233671 0 0 0 0 27357550.21061039 32882902.628451347 0 32882902.628451347 -19509279.38376236 0 0 0 0 -21782870.372297287 56830225.296823502 0 56830225.296823502 -9225428.7875332832 0 0 0 0 3352747.2697089165 7286340.9083095342 0 7286340.9083095342 29699.272747818381 0 0 0 0 -1171993.8207530975 9920828.880449295 0 9920828.880449295 4529157.8731765747 0 0 0 0 10596429.320143413 16299321.437490815 0 16299321.437490815 8894939.8827080578 0 0 0 0 3370034.0442733765 9822844.1800413132 0 9822844.1800413132 -4307672.6756896973 0 0 0 0 8726284.3320007324 9639388.34740448 0 9639388.34740448 883192.59469985962 0 0 0 0 8899926.6116991043 12426017.994362831 0 12426017.994362831 1989759.3053359985 0 0 0 0 8787798.5471968334 12315115.129665647 0 12315115.129665647 4131842.0941168051 0 0 0 0 18071673.760236263 17611915.454307079 0 17611915.454307079 1147214.3223419189 0 0 0 0 10292676.963391952 16424574.334012937 0 16424574.334012937 -4102639.1706532752 0 0 0 0 8301010.9740562439 12904956.799430847 0 12904956.799430847 3116593.9475784302 0 0 0 0 17220892.300403595 8378751.3007621765 0 8378751.3007621765 10268399.672813416 0 0 0 0 14110450.268862844 3721203.1842354489 0 3721203.1842354489 -18218572.926595595 0 0 0 0 605760.97395768808 486138.33470460959 0 486138.33470460959 372360.31109115668 0 0 0 0 9977770.1138950624 10289696.714033356 0 10289696.714033356 -6446090.604635261 0 0 0 0 13067257.550096512 12716475.001159668 0 12716475.001159668 -11738894.182064056 0 0 0 0 8729422.4484786987 22517737.941373825 0 22517737.941373825 -8947486.6211400032 0 0 0 0 25598318.235748291 14372353.635374069 0 14372353.635374069 13154110.818957329 0 0 0 0 16513623.380729675 25271523.949074745 0 25271523.949074745 714357.75913238525 0 0 0 0 1963436.283659935 15333022.005282402 0 15333022.005282402 6382707.3576545715 0 0 0 0 17428201.158084869 23270684.46440506 0 23270684.46440506 4904321.6901473999 0 0 0 0 748515.33935020328 689610.25662963465 0 689610.25662963465 432662.52877497859 0 0 0 0 7407377.6464331057 10383229.941847991 0 10383229.941847991 -6325037.0292199757 0 0 0 0 4071956.7673293795 9688160.0206019711 0 9688160.0206019711 5661259.3024321087 0 0 0 0 9548533.9593048096 18585725.616465092 0 18585725.616465092 31004745.959001541 0 0 0 0 22902005.905168533 74424063.328679085 0 74424063.328679085 49081766.34176743 0 0 0 0 22111192.275421143 91928880.74954319 0 91928880.74954319 182531809.2270484 0 0 0 0 56932.54573059082 70891083.328191757 0 70891083.328191757 162615291.45705986 0 0 0 0 -2437969.7232446223 712859.29796350375 0 712859.29796350375 4370046.2459171852 0 0 0 0 28323844.508090973 59165272.711752534 0 59165272.711752534 90898274.820957184 0 0 0 0 2768584.380040288 1274942.9027567864 0 1274942.9027567864 -2562520.1573048737 0 0 0 0 264479.99792480469 7341701.0581626892 0 7341701.0581626892 15286983.816225052 0 0 0 0 -4650342.1107380316 2970142.0005674288 0 2970142.0005674288 4044401.1339821797 0 0 0 0 2308239.4478149414 9523376.3427867889 0 9523376.3427867889 17441180.773522377 0 0 0 0 45408699.858789444 18238585.266223669 0 18238585.266223669 45042358.585432053 0 0 0 0 16707934.502258301 67335044.038658142 0 67335044.038658142 122658802.19711685 0 0 0 0 -4522697.6009674072 102049273.85568285 0 102049273.85568285 337276541.9817009 0 0 0 0 115499427.25606537 180054953.2020793 0 180054953.2020793 140513175.1269716 0 0 0 0 99291704.976187706 66917866.790311754 0 66917866.790311754 -43264950.108613968 0 0 0 0 244618.93133665621 299745.74651947431 0 299745.74651947431 1328964.5454600649 0 0 0 0 39840213.73412323 231499483.58974361 0 231499483.58974361 288190217.65729904 0 0 0 0 70130044.473091125 25242543.832656384 0 25242543.832656384 239632017.44998693 0 0 0 0 -3366317.3585681915 98110963.036764979 0 98110963.036764979 214825817.75364876 0 0 0 0 -29154.115737915039 83937150.146768093 0 83937150.146768093 185221547.06393683 0 0 0 0 -48769.316108703613 73791460.262062073 0 73791460.262062073 120066535.17832947 0 0 0 0 -17677631.697059631 32119626.158798456 0 32119626.158798456 221375137.59714186 0 0 0 0 39949.984809875488 56638207.962337852 0 56638207.962337852 -62170864.294335604 0 0 0 0 -22240296.751739502 12166474.337014675 0 12166474.337014675 95286952.33801052 0 0 0 0 -13523181.418649673 61917887.254370093 0 61917887.254370093 48375354.43248415 0 0 0 0 -443271559.03965759 -148442824.46912479 0 -148442824.46912479 -64133408.683704853 0 0 0 0 -128884245.40813446 38916849.819344521 0 38916849.819344521 7341860.3652262688 0 0 0 0 -8347914.0316467285 72357901.522151649 0 72357901.522151649 -114921967.30966806 0 0 0 0 -68203761.554252625 -39757037.95146966 0 -39757037.95146966 -87809963.734887719 0 0 0 0 -92368390.062210083 62970353.382584572 0 62970353.382584572 96702734.837126255 0 0 0 0 -116709871.39478874 75678561.998411953 0 75678561.998411953 91306213.861382961 0 0 0 0 -35962859.829223633 129203266.55851173 0 129203266.55851173 159431764.05295753 0 0 0 0 -38926025.098228455 15424590.615788937 0 15424590.615788937 130127060.93187237 0 0 0 0 7231041.7665634155 86766394.83484745 0 86766394.83484745 179576410.16151428 0 0 0 0 -18503284.657775879 108666818.14611864 0 108666818.14611864 181384316.48478699 0 0 0 0 128025560.5495224 169288769.39600408 0 169288769.39600408 202519451.40653992 0 0 0 0 24378998.842048645 181714711.51529646 0 181714711.51529646 229090035.69865608 0 0 0 0 50197329.238349915 170381810.56338453 0 170381810.56338453 164482684.76435566 0 0 0 0 77925802.183486938 223589007.00934458 0 223589007.00934458 136821867.7468586 0 0 0 0 24829784.953483582 199082813.30668211 0 199082813.30668211 132553769.34950638 0 0 0 0 41598973.311569214 141789952.69108105 0 141789952.69108105 90688485.391633034 0 0 0 0 133836400.25018311 192746100.83921862 0 192746100.83921862 72632033.242998123 0 0 0 0 137611280.11138916 279751815.8245976 0 279751815.8245976 125338049.56248951 0 0 0 0 -23058708.666870117 316581502.55994725 0 316581502.55994725 228468047.28015757 0 0 0 0 -1723808.6797599792 217027793.22603408 0 217027793.22603408 189567993.89081478 0 0 0 0 -57549830.243682861 192386655.41305757 0 192386655.41305757 179645241.04647231 0 0 0 0 -106077546.15223789 188575310.63803828 0 188575310.63803828 211723074.62561226 0 0 0 0 -266409683.0042572 92627480.339620233 0 92627480.339620233 162676822.27198267 0 0 0 0 -184951504.94910431 275915764.00625789 0 275915764.00625789 222381984.32118988 0 0 0 0 -89323903.743255615 235498516.27987385 0 235498516.27987385 204156274.41758513 0 0 0 0 38384017.823883057 440811566.10071623 0 440811566.10071623 391012951.87771034 0 0 0 0 -122200227.08672714 178232207.11006796 0 178232207.11006796 297714596.19051123 0 0 0 0 -73201990.077720642 150073170.09642255 0 150073170.09642255 33462464.837584257 0 0 0 0 -319662864.80445862 251323401.756271 0 251323401.756271 -7319581.8130774498 0 0 0 0 621905306.91947937 1015032987.512454 0 1015032987.512454 581978538.65219009 0 0 0 0 -225697551.04425049 -50875633.887952328 0 -50875633.887952328 934118489.49162841 0 0 0 0 -350868146.38673782 478547187.60898054 0 478547187.60898054 407318094.60998821 0 0 0 0 653571854.73239136 -685695152.20991182 0 -685695152.20991182 342044117.39620161 0 0 0 0 260243182.76344299 693994033.72438645 0 693994033.72438645 857358103.19318724 0 0 0 0 933016757.06410217 421093329.50067925 0 421093329.50067925 64074186.08633852 0 0 0 0 451545786.01351166 374738231.1031034 0 374738231.1031034 100319142.34157276 0 0 0 0 359064863.59472656 260789415.39397573 0 260789415.39397573 45269215.256011486 0 0 0 0 858981107.3838768 -20167736.49396795 0 -20167736.49396795 -10063856.433440208 0 0 0 0 360326702.49766541 283683986.70882607 0 283683986.70882607 3577708.9653177261 0 0 0 0 673094212.01356506 -311888039.06747103 0 -311888039.06747103 324493344.21518135 0 0 0 0 -2345652.0018850118 1316805.2780687995 0 1316805.2780687995 3724256.0446742075 0 0 0 0 -15917433.881835938 -126105576.81338501 0 -126105576.81338501 224530077.32423019 0 0 0 0 502926282.80090332 -66301800.272921562 0 -66301800.272921562 -26229590.338764191 0 0 0 0 -43396693.04523468 33398422.666332483 0 33398422.666332483 51030734.461814404 0 0 0 0 723394.82013726979 6737342.358975213 0 6737342.358975213 6071309.7884504292 0 0 0 0 -354846.12736974657 686174.24986502621 0 686174.24986502621 367417.56274878595 0 0 0 0 136028635.65032959 -144386586.0649066 0 -144386586.0649066 -26652148.827400208 0 0 0 0 10484342.472198486 54985740.595751762 0 54985740.595751762 -109970603.3416667 0 0 0 0 146892757.99050903 270856878.58989906 0 270856878.58989906 69550585.632425308 0 0 0 0 322896012.11758423 96581429.041434288 0 96581429.041434288 -23209839.879832268 0 0 0 0 582599266.32183838 123202577.37193775 0 123202577.37193775 -73637369.658720016 0 0 0 0 265434574.98422241 69468283.149722099 0 69468283.149722099 -34614780.387589455 0 0 0 0 63103672.153793335 58161718.871551514 0 58161718.871551514 18606852.920502663 0 0 0 0 117692148.52354431 160967514.77737522 0 160967514.77737522 19316947.459831238 0 0 0 0 282245208.71660805 228424340.93530685 0 228424340.93530685 39847805.684127808 0 0 0 0 70836681.198760986 93982430.278075218 0 93982430.278075218 57743974.870985985 0 0 0 0 169779715.06546021 118866551.29964256 0 118866551.29964256 29862207.139994621 0 0 0 0 50519095.739257812 74433828.691040993 0 74433828.691040993 38936976.022526741 0 0 0 0 39310916.486867905 14778268.185764909 0 14778268.185764909 -12711178.406527519 0 0 0 0 61301631.549060822 64947362.320678949 0 64947362.320678949 8730513.460893631 0 0 0 0 -39524507.162918091 7125612.3231387138 0 7125612.3231387138 41646789.809986591 0 0 0 0 -15831978.978103638 -3123578.9938669205 0 -3123578.9938669205 28467548.607667446 0 0 0 0 941329.34647750854 29519632.060837984 0 29519632.060837984 48405891.767467499 0 0 0 0 -8930461.4417419434 28693340.753370285 0 28693340.753370285 41283321.307553291 0 0 0 0 16707763.592765808 70197635.329519272 0 70197635.329519272 105132246.62718201 0 0 0 0 -13507437.645886295 -3636527.7183046024 0 -3636527.7183046024 15732990.674400531 0 0 0 0 -4645422.4719390869 -10097213.929093361 0 -10097213.929093361 12350260.618310928 0 0 0 0 -21504772.984401703 8431056.429459095 0 8431056.429459095 76468166.273929596 0 0 0 0 -2838458.5415039062 29151147.226034641 0 29151147.226034641 56598376.813967705 0 0 0 0 31185103.355377197 61448322.50376606 0 61448322.50376606 78572640.837097168 0 0 0 0 2289744.5628356934 79504605.741414547 0 79504605.741414547 163142522.28383541 0 0 0 0 -18824089.347991943 44337626.557137012 0 44337626.557137012 116197944.79120827 0 0 0 0 -23373995.766525269 51645187.278894901 0 51645187.278894901 464150096.12545252 0 0 0 0 -2525457.7900511473 5070375.6752192145 0 5070375.6752192145 7555204.5022375686 0 0 0 0 3376493.077331543 40619570.51665163 0 40619570.51665163 114610261.25898361 0 0 0 0 13003462.397094727 27369242.516963959 0 27369242.516963959 5421582.7832107544 0 0 0 0 -6009489.0946815759 6533858.4072435675 0 6533858.4072435675 5083596.0920679681 0 0 0 0 -4703650.4111251831 13546009.878649235 0 13546009.878649235 8333509.3272457123 0 0 0 0 -1055968.0528869629 16048319.88481617 0 16048319.88481617 18261492.597616196 0 0 0 0 -2302788.3693021107 11944576.397394646 0 11944576.397394646 8511133.6743995603 0 0 0 0 -31097639.690620422 40920002.604685783 0 40920002.604685783 48900098.580898285 0 0 0 0 -10792970.706451416 4858694.2445955276 0 4858694.2445955276 47567223.966243744 0 0 0 0 7221228.8850134686 4075494.6046714694 0 4075494.6046714694 -5627345.3664290551 0 0 0 0 4630910.7124633789 12550191.671713829 0 12550191.671713829 9421949.184803009 0 0 0 0 714716.41853773594 16953306.565180816 0 16953306.565180816 -9515903.4225445893 0 0 0 0 3988454.5133209229 61210900.751335144 0 61210900.751335144 294989030.58442688 0 0 0 0 37864992.159729004 197389821.97585678 0 197389821.97585678 227839256.44346237 0 0 0 0 401921.21363180876 17666738.143525112 0 17666738.143525112 -2615508.6300856997 0 0 0 0 -60347384.543029785 198478837.64614105 0 198478837.64614105 480025933.20481491 0 0 0 0 -102524338.83224487 -96963488.103843689 0 -96963488.103843689 90509029.181419373 0 0 0 0 -3524196.1280059814 10932712.456169128 0 10932712.456169128 5003969.6402044296 0 0 0 0 -3820795.5229475945 4531677.146527689 0 4531677.146527689 9781622.8014271073 0 0 0 0 17370039.822425842 -13475732.470628738 0 -13475732.470628738 141743846.49547958 0 0 0 0 -89826.018231607974 20207191.013136327 0 20207191.013136327 2300518.5378677784 0 0 0 0 1728403.4216003418 13609097.479457855 0 13609097.479457855 -2235059.6743106842 0 0 0 0 -15271304.351132147 -6656807.6894007735 0 -6656807.6894007735 27608100.164314043 0 0 0 0 1534079.5131864697 15846582.741912317 0 15846582.741912317 -1462220.5823307536 0 0 0 0 -12131937.493423462 -74545004.255231857 0 -74545004.255231857 99756914.49143219 0 0 0 0 -930612.85157775879 3779834.5681114197 0 3779834.5681114197 13188217.083627701 0 0 0 0 43940620.148200989 -49890111.526115417 0 -49890111.526115417 -106433245.64861298 0 0 0 0 -1179125.298995968 18557688.088060815 0 18557688.088060815 -5152009.0844393503 0 0 0 0 -1262837.9717552997 -321914.89712357149 0 -321914.89712357149 3587443.2362641692 0 0 0 0 103707887.63671875 -105250149.01730347 0 -105250149.01730347 209737023.42736053 0 0 0 0 73165392.994544983 166202265.11200905 0 166202265.11200905 125947800.24853134 0 0 0 0 221598.04898639023 17677041.654741891 0 17677041.654741891 5387250.3923545498 0 0 0 0 1002839.145565033 9695272.9777975082 0 9695272.9777975082 -6024088.7228317261 0 0 0 0 68117549.726226807 142602503.43110085 0 142602503.43110085 82753291.420780182 0 0 0 0 800735.90916826576 18594942.206605807 0 18594942.206605807 -7433893.6839138735 0 0 0 0 150006717.74414062 184604638.73239136 0 184604638.73239136 98820763.261688232 0 0 0 0 -7317642.3776702881 95817105.278556824 0 95817105.278556824 141532074.63051796 0 0 0 0 -112291657.95479584 205575496.60445786 0 205575496.60445786 311756745.02778244 0 0 0 0 -98961692.662368774 100868145.04418182 0 100868145.04418182 543884045.8429451 0 0 0 0 49968195.500844955 24075374.344221115 0 24075374.344221115 407929634.87155151 0 0 0 0 -63247467.562820435 46175314.265853882 0 46175314.265853882 393702176.99972916 0 0 0 0 -4711549.5649261475 20209862.911567688 0 20209862.911567688 569460653.93112183 0 0 0 0 -8884518.7383346558 115006116.57185364 0 115006116.57185364 451524777.20637512 0 0 0 0 24531577.525375366 49652994.130081177 0 49652994.130081177 717557113.76660919 0 0 0 0 10061490.181139946 -37404407.993360519 0 -37404407.993360519 558525614.49917603 0 0 0 0 15770450.646232605 41717104.606113434 0 41717104.606113434 411108539.85920715 0 0 0 0 -53202724.510971069 -32951687.657089233 0 -32951687.657089233 669555190.45270538 0 0 0 0 423601.46105169132 15306567.510162828 0 15306567.510162828 -7470342.4358898383 0 0 0 0 -76721180.068023682 19936670.56703186 0 19936670.56703186 608225872.87450218 0 0 0 0 -42040128.385681152 -34481769.578285217 0 -34481769.578285217 584888792.74446869 0 0 0 0 18466448.808074951 2678112.0232772827 0 2678112.0232772827 607699233.67623901 0 0 0 0 -8949520.0115737915 -48732207.95331955 0 -48732207.95331955 600032158.09701538 0 0 0 0 -504921.076188609 14152259.457502045 0 14152259.457502045 -2674531.3967278954 0 0 0 0 -111348906.21684265 4062928.4352035522 0 4062928.4352035522 9697593.4872245789 0 0 0 0 30706506.685134888 -8873084.0877304077 0 -8873084.0877304077 948588888.7775116 0 0 0 0 106287710.42198181 197168296.34376526 0 197168296.34376526 722861486.63277817 0 0 0 0 14685680.445800781 -91622563.013870239 0 -91622563.013870239 832758232.97873497 0 0 0 0 2573922.4911855459 16496575.733963605 0 16496575.733963605 -5379386.9994605593 0 0 0 0 15446613.712425232 36723984.704284668 0 36723984.704284668 36720715.31761837 0 0 0 0 -22871137.868812561 64200208.961307526 0 64200208.961307526 17087650.612100244 0 0 0 0 -71800289.268886566 33867303.213057518 0 33867303.213057518 29382466.35231781 0 0 0 0 -28840084.481216431 -12660816.526744843 0 -12660816.526744843 779107.87559509277 0 0 0 0 -34155654.915847778 88081555.415294647 0 88081555.415294647 -36578795.104215622 0 0 0 0 43980639.654045105 16460714.966564178 0 16460714.966564178 14737890.755439758 0 0 0 0 14099801.917160034 35879783.678981781 0 35879783.678981781 7965989.3103637695 0 0 0 0 -14560183.848068237 50723763.638793945 0 50723763.638793945 98931810.671424866 0 0 0 0 6142689.9899749756 3835760.3212051392 0 3835760.3212051392 9658157.7971191406 0 0 0 0 -2442009.0313805789 3509378.6208087206 0 3509378.6208087206 13492231.925846957 0 0 0 0 43447286.026367188 14591037.417003632 0 14591037.417003632 8388174.8921432495 0 0 0 0 306898.8470248878 937100.15437413286 0 937100.15437413286 -489720.31145646609 0 0 0 0 -17654042.944493771 31218186.944235444 0 31218186.944235444 89906205.530258179 0 0 0 0 -3218919.0917282104 74749324.602489471 0 74749324.602489471 102768874.95216513 0 0 0 0 -45301393.400034904 65674215.965049267 0 65674215.965049267 200921922.08857346 0 0 0 0 25235792.071643829 110607910.31839085 0 110607910.31839085 147890955.59051895 0 0 0 0 -3998098.7065767683 1771754.8789584134 0 1771754.8789584134 2461137.6636985601 0 0 0 0 -17471223.090560913 58862645.103268623 0 58862645.103268623 138870819.17390251 0 0 0 0 -37023365.899589539 40589837.172348022 0 40589837.172348022 128937236.88152981 0 0 0 0 63499103.444999695 51372280.167944908 0 51372280.167944908 50605885.907016754 0 0 0 0 -3389000.8194972798 3194727.2421117956 0 3194727.2421117956 4341366.0671831239 0 0 0 0 -6730865.3848648071 4108965.4854645729 0 4108965.4854645729 8431563.0287761688 0 0 0 0 -6968662.5193271637 87707152.537569046 0 87707152.537569046 164423368.18034744 0 0 0 0 150027268.59613037 112053231.82697868 0 112053231.82697868 84765665.202949524 0 0 0 0 -6961212.3647117615 123619776.53424072 0 123619776.53424072 329211259.74765015 0 0 0 0 -29659854.556983948 46247866.783061981 0 46247866.783061981 135774211.3421936 0 0 0 0 10778605.406951904 -27779096.412338257 0 -27779096.412338257 29916234.824228287 0 0 0 0 -14476818.085178249 571228.28579443321 0 571228.28579443321 12535218.728460118 0 0 0 0 15692771.557525635 145311835.24578667 0 145311835.24578667 232835361.54954147 0 0 0 0 -30543549.854545593 -19866105.290863037 0 -19866105.290863037 211055716.15925741 0 0 0 0 -4406946.1184794046 -3135488.9539702982 0 -3135488.9539702982 3891234.7014125586 0 0 0 0 -8570841.7677459717 6750090.5449845791 0 6750090.5449845791 7078455.9133329391 0 0 0 0 -24040484.183258057 9029807.6506524086 0 9029807.6506524086 19107145.672540665 0 0 0 0 -44530834.718811035 18760433.91186285 0 18760433.91186285 32713092.316478729 0 0 0 0 -4940109.2008060738 5851695.4043698236 0 5851695.4043698236 13634675.639721692 0 0 0 0 -6038801.5007476807 3417511.6648893356 0 3417511.6648893356 5374928.4095398188 0 0 0 0 -1285652.8874053955 4295866.8185777664 0 4295866.8185777664 6058881.6720018387 0 0 0 0 -6091717.2743911743 4093406.5903890133 0 4093406.5903890133 8213916.8337631226 0 0 0 0 900677909.01594162 250896008.14157999 0 250896008.14157999 -375095654.34368849 0 0 0 0 -2236698.0064849854 5773364.2412149906 0 5773364.2412149906 7145888.3869843483 0 0 0 0 -1427797935.7868958 -689493815.32192898 0 -689493815.32192898 233390551.99663925 0 0 0 0 -11038257.966430664 5067684.8836116791 0 5067684.8836116791 6706484.9395165443 0 0 0 0 -8565128.8602091372 5258722.5483705606 0 5258722.5483705606 5724628.6582173593 0 0 0 0 -128864544.53579712 488277473.59003735 0 488277473.59003735 -10701195.443950772 0 0 0 0 -338049292.47567749 252678907.75790453 0 252678907.75790453 524055285.65798235 0 0 0 0 -338933161.89700317 271758292.98198605 0 271758292.98198605 224017522.9190073 0 0 0 0 -725294377.71764469 -314763597.18416458 0 -314763597.18416458 27344610.113749504 0 0 0 0 -805360413.13986206 280968844.83795571 0 280968844.83795571 364138543.46332741 0 0 0 0 -1794793.3347504362 3556856.2999587571 0 3556856.2999587571 -874896.891275567 0 0 0 0 -59279981.327377319 -389615342.71449375 0 -389615342.71449375 -456365898.85614252 0 0 0 0 69648072.609161377 20374683.750417471 0 20374683.750417471 46656678.446024477 0 0 0 0 273065517.71187592 421922862.54784942 0 421922862.54784942 539928889.79434705 0 0 0 0 245396152.77921295 349805375.93306762 0 349805375.93306762 612353909.54678702 0 0 0 0 210617851.65480042 -189487638.55082649 0 -189487638.55082649 227952946.95519075 0 0 0 0 -162247301.21726227 -161766506.73544878 0 -161766506.73544878 247293877.16186357 0 0 0 0 358228434.15959167 488865924.90760303 0 488865924.90760303 438769536.84888411 0 0 0 0 -452440764.20965219 983181490.42719603 0 983181490.42719603 404893249.50664192 0 0 0 0 -292854953.47406006 451891935.49567461 0 451891935.49567461 215788242.01851082 0 0 0 0 -264692853.98441863 380260470.73075682 0 380260470.73075682 332570183.00191116 0 0 0 0 -258297155.03753662 54577501.981128275 0 54577501.981128275 293419653.34983552 0 0 0 0 20621283.667209625 8751267.2901310921 0 8751267.2901310921 -10075849.334693909 0 0 0 0 -301777585.47414398 44871331.003404438 0 44871331.003404438 158724284.77385044 0 0 0 0 -123458218.72005463 -91907309.373878956 0 -91907309.373878956 141875281.10042462 0 0 0 0 -25888558.274665833 -87761959.27557981 0 -87761959.27557981 -241265163.95390558 0 0 0 0 -6690453.9628664404 8566549.753895063 0 8566549.753895063 -1048032.1041250863 0 0 0 0 -81443428.87707901 166184955.38222516 0 166184955.38222516 216599310.61793697 0 0 0 0 -128393572.04796219 -35655818.207095385 0 -35655818.207095385 -9646307.0643107891 0 0 0 0 87490619.141101837 287363676.55620289 0 287363676.55620289 -261294519.17068768 0 0 0 0 -124109634.05090332 66380863.737564087 0 66380863.737564087 131597310.95867443 0 0 0 0 -121811800.21884918 81940513.560919762 0 81940513.560919762 221895399.86879253 0 0 0 0 -4833675.7463054061 6944476.5998156928 0 6944476.5998156928 4449737.3796401285 0 0 0 0 -628402.94138479233 8515469.1257138848 0 8515469.1257138848 11445864.342592239 0 0 0 0 -2329399.0978393555 4208897.6429495811 0 4208897.6429495811 8535123.9978337288 0 0 0 0 446596.20156368241 8158399.6878810581 0 8158399.6878810581 3571851.3796250205 0 0 0 0 892004.48145484924 8237210.5944212675 0 8237210.5944212675 9828018.058177948 0 0 0 0 -4516056.1683950312 705140.47159243748 0 705140.47159243748 1525781.7973267976 0 0 0 0 -117722905.27365875 -127222837.08274269 0 -127222837.08274269 33274781.54974556 0 0 0 0 -103682510.07611084 -181003599.41975307 0 -181003599.41975307 233697959.74907684 0 0 0 0 -517283678.44793701 310179901.74809265 0 310179901.74809265 -155466994.41142654 0 0 0 0 -80042902.150180817 -371401209.71051407 0 -371401209.71051407 -1070359987.9809608 0 0 0 0 -1483975.1671322621 1687328.9745682678 0 1687328.9745682678 1325902.4846617021 0 0 0 0 426197.01231815666 912638.19087302312 0 912638.19087302312 -76368.598877836484 0 0 0 0 -77667681.305648804 114612592.66561508 0 114612592.66561508 -971845541.38376999 0 0 0 0 1120219599.8963394 655654427.67064619 0 655654427.67064619 -302854707.85177231 0 0 0 0 939181.43125824071 -1803324.958984917 0 -1803324.958984917 2155266.288315326 0 0 0 0 730515128.5581913 841743531.42249155 0 841743531.42249155 -227615099.08899307 0 0 0 0 -500156232.74066925 -837947819.5826931 0 -837947819.5826931 375154189.81638718 0 0 0 0 -463484006.67329216 -236002224.43053699 0 -236002224.43053699 161936272.30175018 0 0 0 0 -530430559.56634521 214349101.2029078 0 214349101.2029078 -459778997.42227554 0 0 0 0 -265012168.59309387 -194676623.89156628 0 -194676623.89156628 166254344.39092433 0 0 0 0 -32727591.234306335 240621653.94067097 0 240621653.94067097 -164754888.09491348 0 0 0 0 -31568740.447135925 141261287.89411163 0 141261287.89411163 -1194984913.2827091 0 0 0 0 -613450848.0861454 277058450.58045459 0 277058450.58045459 -17141622.887062073 0 0 0 0 50422175.951652527 -144908084.80660009 0 -144908084.80660009 223540264.5739975 0 0 0 0 212037118.49602509 490183151.66398335 0 490183151.66398335 2251960.8348145485 0 0 0 0 -34053169.724761963 -35754314.556400418 0 -35754314.556400418 731686928.68322635 0 0 0 0 -623677.57511550095 165127.77776067145 0 165127.77776067145 447075.18048001453 0 0 0 0 -112874355.212883 94530261.877984703 0 94530261.877984703 324409768.89309955 0 0 0 0 4248965.1262130588 6876849.0782786664 0 6876849.0782786664 -3490404.3523378107 0 0 0 0 -241901563.53137207 55707703.486959457 0 55707703.486959457 708287763.07074833 0 0 0 0 206882530.6480813 411964852.80281121 0 411964852.80281121 627245936.46285439 0 0 0 0 -186326552.98757362 -97151762.419125319 0 -97151762.419125319 304163537.20529574 0 0 0 0 -88618543.222740173 47197312.960681617 0 47197312.960681617 416539935.43468153 0 0 0 0 61942805.351379395 -120782344.58000992 0 -120782344.58000992 116428958.3028008 0 0 0 0 1486670.1079146974 2534720.7761573368 0 2534720.7761573368 -1238656.1584910853 0 0 0 0 32853656.073684692 10011824.838364244 0 10011824.838364244 -79020261.155859947 0 0 0 0 32252731.751750946 3070792.9495218992 0 3070792.9495218992 -35210628.849611282 0 0 0 0 21484790.592285156 -2454261.1675400734 0 -2454261.1675400734 -3925407.3297233582 0 0 0 0 75147.016789378598 8388041.6476160847 0 8388041.6476160847 -2369110.9722905457 0 0 0 0 7428187.6216678619 13996190.924685746 0 13996190.924685746 -18816311.744277954 0 0 0 0 -15256424.390463829 54734795.537485123 0 54734795.537485123 -68797302.171424866 0 0 0 0 266666240.648983 104709901.08914566 0 104709901.08914566 -108486242.83691216 0 0 0 0 -313487.01671608537 1171027.7153582741 0 1171027.7153582741 1108605.6355468296 0 0 0 0 412473775.43424225 298147822.82007027 0 298147822.82007027 -61832166.970542908 0 0 0 0 514959233.29924011 286777835.42961884 0 286777835.42961884 -512358618.04588318 0 0 0 0 401955233.46556091 335663812.8364296 0 335663812.8364296 150585068.47438049 0 0 0 0 315631232.877388 176008531.07640457 0 176008531.07640457 395838686.23482513 0 0 0 0 335663176.87108612 182142684.86863518 0 182142684.86863518 102991101.52575684 0 0 0 0 -36956085.230270386 204608131.67998445 0 204608131.67998445 -243941365.34235191 0 0 0 0 35314627.378578186 30705956.388325691 0 30705956.388325691 -46880056.778414011 0 0 0 0 369614130.33958435 -65697166.311793327 0 -65697166.311793327 -647729264.99665165 0 0 0 0 522243613.23146057 175964284.91166687 0 175964284.91166687 -22454717.648395538 0 0 0 0 458411043.64196777 227999711.97811127 0 227999711.97811127 30516226.805030823 0 0 0 0 651293962.28879166 389925334.08725166 0 389925334.08725166 34355158.291923523 0 0 0 0 509201677.19689178 204296262.80869293 0 204296262.80869293 -33217360.03249836 0 0 0 0 -61201793.033874512 -299499637.64906526 0 -299499637.64906526 285497092.92423248 0 0 0 0 850781.60899269767 -4188339.7895024177 0 -4188339.7895024177 9043689.4222480506 0 0 0 0 457373924.37364197 332886354.42806244 0 332886354.42806244 382756947.3560791 0 0 0 0 499491989.86850739 308033185.06002045 0 308033185.06002045 -64598830.831130981 0 0 0 0 -37022199.58432579 21899411.75186491 0 21899411.75186491 17747044.021495819 0 0 0 0 25734992.554946899 228950.34341430664 0 228950.34341430664 23216179.945663452 0 0 0 0 286270145.7681427 322785322.00362778 0 322785322.00362778 20608636.309986115 0 0 0 0 7055156.7088394165 -1416175.1656246185 0 -1416175.1656246185 23398370.401855707 0 0 0 0 13226584.259040833 3198921.7803173065 0 3198921.7803173065 26457180.182479858 0 0 0 0 -2007685.1622668579 4010081.0136825722 0 4010081.0136825722 1781897.0416304292 0 0 0 0 223327412.96025848 21490044.108184814 0 21490044.108184814 393824833.99594879 0 0 0 0 -639317.34986911714 3945345.4926869012 0 3945345.4926869012 3255965.3176534083 0 0 0 0 327572993.22140503 95763428.346942902 0 95763428.346942902 603891951.0852623 0 0 0 0 370842720.6557312 73362603.116207123 0 73362603.116207123 171700403.15875244 0 0 0 0 205184148.45707703 403788935.39016342 0 403788935.39016342 92510881.946853638 0 0 0 0 636045995.0766449 -53138023.156654358 0 -53138023.156654358 494658614.28314495 0 0 0 0 34314524.169685364 72930565.080352783 0 72930565.080352783 56876561.452654183 0 0 0 0 -57001766.323280334 -10340935.324119568 0 -10340935.324119568 -20383987.75884819 0 0 0 0 110732700.77711487 26543032.204025269 0 26543032.204025269 -484762426.73142242 0 0 0 0 55546.054690066725 -35237.332884725183 0 -35237.332884725183 -469124.83748064563 0 0 0 0 4716049.0378338471 12142546.888361197 0 12142546.888361197 -21977076.051869512 0 0 0 0 70593904.999214172 31426806.192296028 0 31426806.192296028 61057089.15275383 0 0 0 0 369487784.65962219 243804357.68470001 0 243804357.68470001 60351461.495849609 0 0 0 0 197108972.07335663 322604561.0891571 0 322604561.0891571 277913187.75498962 0 0 0 0 -44221275.833468914 1248828.8104610443 0 1248828.8104610443 459280107.93382263 0 0 0 0 48186168.382064819 149155489.79991913 0 149155489.79991913 477627840.26663208 0 0 0 0 79756016.425933838 244391669.58208466 0 244391669.58208466 264545646.99538231 0 0 0 0 173544716.96331024 507421203.19773865 0 507421203.19773865 914930559.71795654 0 0 0 0 -31302160.884246826 -121105437.98570251 0 -121105437.98570251 199061039.13286209 0 0 0 0 24121213.711647034 -159146861.90530396 0 -159146861.90530396 94182205.072032928 0 0 0 0 -2801375.4939350318 -3977517.7123599872 0 -3977517.7123599872 3464849.3107086904 0 0 0 0 345637270.28562164 341022908.69149017 0 341022908.69149017 217846575.03555298 0 0 0 0 182459879.33769187 750640016.43518054 0 750640016.43518054 416008846.2358017 0 0 0 0 -181743090.08283997 775416449.06958008 0 775416449.06958008 -23242196.793869019 0 0 0 0 -480706231.54161835 -158293501.10793304 0 -158293501.10793304 -25850658.694900513 0 0 0 0 182980711.23326874 423794325.65724945 0 423794325.65724945 783643886.66996765 0 0 0 0 33681249.724406779 39613116.412052087 0 39613116.412052087 40660408.509471893 0 0 0 0 -275997.01367487572 17613886.285602063 0 17613886.285602063 6783903.9835033417 0 0 0 0 11054879.053714396 3566700.7199695539 0 3566700.7199695539 -25753547.533698112 0 0 0 0 1378457.1182672195 -361567.49051935785 0 -361567.49051935785 -6247947.0391327646 0 0 0 0 834264060.76104736 387575252.51248169 0 387575252.51248169 725233896.21270752 0 0 0 0 1544350.31712199 9388398.415614089 0 9388398.415614089 -12671288.625782503 0 0 0 0 15935826.018005371 22892236.975608826 0 22892236.975608826 18223936.037620544 0 0 0 0 504502916.33115768 662268515.53807831 0 662268515.53807831 418713782.93135262 0 0 0 0 -247353292.83715439 -10142880.846347809 0 -10142880.846347809 915788134.22610664 0 0 0 0 29664769.057704926 105974568.37974262 0 105974568.37974262 29003267.281262398 0 0 0 0 -609656528.70318604 -305620687.34746742 0 -305620687.34746742 880097367.22600365 0 0 0 0 12244876.167297363 30576576.901321411 0 30576576.901321411 32093456.367870331 0 0 0 0 5564880.513094686 14212141.848546119 0 14212141.848546119 -15844941.951324921 0 0 0 0 -2656710.2008666992 12282650.611808777 0 12282650.611808777 41439713.676794052 0 0 0 0 2569317.075908035 942356.08218939556 0 942356.08218939556 -2236772.7918035872 0 0 0 0 318481967.27626801 293825972.32736206 0 293825972.32736206 433891940.34619832 0 0 0 0 -3425715.8430793323 13254141.958494913 0 13254141.958494913 17046983.152061611 0 0 0 0 916430626.76496506 611280750.27406883 0 611280750.27406883 -49178707.132034302 0 0 0 0 3500634.4389703237 13817403.357465761 0 13817403.357465761 -10722556.604831383 0 0 0 0 485264234.28629971 328584367.98004913 0 328584367.98004913 148654683.64022827 0 0 0 0 853053454.66439819 407158618.77450562 0 407158618.77450562 119930937.5752182 0 0 0 0 26977344.046266556 -2282722.077999115 0 -2282722.077999115 -9046950.9911117554 0 0 0 0 33725351.727767944 5717596.8155670166 0 5717596.8155670166 -11316303.6979599 0 0 0 0 -29943747.942443848 23754557.790569305 0 23754557.790569305 24218185.565879822 0 0 0 0 776575141.41853333 222471128.32185364 0 222471128.32185364 147537069.97218323 0 0 0 0 6972784.4023580886 10616161.591888338 0 10616161.591888338 -17275378.081281722 0 0 0 0 14193850.246002197 -36405213.07906723 0 -36405213.07906723 -35809200.610839844 0 0 0 0 59348042.97088623 31975491.130519867 0 31975491.130519867 -25951813.607818604 0 0 0 0 953485.01632782444 298014.10420533689 0 298014.10420533689 -844845.83456101082 0 0 0 0 57851543.187309265 -16275111.130147934 0 -16275111.130147934 -56274352.685411453 0 0 0 0 30579023.210113525 293519550.26989746 0 293519550.26989746 2607706226.9015503 0 0 0 0 1403071896.8758087 313267716.25184631 0 313267716.25184631 -162864953.91496277 0 0 0 0 752933449.11490631 564117458.08974838 0 564117458.08974838 900183367.83273315 0 0 0 0 489961.29556690902 494174.83917020634 0 494174.83917020634 -1587938.4370959792 0 0 0 0 797261100.51648712 -168316615.34628296 0 -168316615.34628296 882050559.34080505 0 0 0 0 973344078.80413818 101603395.82440186 0 101603395.82440186 672066924.93666077 0 0 0 0 1520150811.6992645 555207034.11165619 0 555207034.11165619 908362854.87875366 0 0 0 0 814374398.25361633 925789695.09519958 0 925789695.09519958 2030250437.5496216 0 0 0 0 416477821.63450623 336108334.04336548 0 336108334.04336548 1239180520.9603882 0 0 0 0 -133599449.08743286 -67705924.903343201 0 -67705924.903343201 1813687847.2638855 0 0 0 0 344924228.4317627 383325518.64851379 0 383325518.64851379 1359072051.3206177 0 0 0 0 414321188.52993774 262313993.22981262 0 262313993.22981262 802872871.13104248 0 0 0 0 674845480.13106537 561958383.21544266 0 561958383.21544266 1144597277.6051025 0 0 0 0 278001012.23136902 296095893.91407776 0 296095893.91407776 896540187.14131165 0 0 0 0 322800350.23599243 349241311.66622925 0 349241311.66622925 941776072.01958513 0 0 0 0 12318707.720397949 -127461477.8104248 0 -127461477.8104248 1174885845.4055786 0 0 0 0 183428868.43475342 124567594.14801025 0 124567594.14801025 946343027.08045578 0 0 0 0 129794304.14876556 190979153.2802124 0 190979153.2802124 586537176.60108185 0 0 0 0 496998965.18032837 128678655.48805237 0 128678655.48805237 194470693.74511528 0 0 0 0 364720856.2379303 97879247.213378906 0 97879247.213378906 765275299.23912048 0 0 0 0 297642857.27432251 -79453554.647499084 0 -79453554.647499084 351530209.94610596 0 0 0 0 70839702.78540802 34903980.185718536 0 34903980.185718536 173380216.17036438 0 0 0 0 -371858678.60276031 13604070.069881439 0 13604070.069881439 382862400.30200958 0 0 0 0 -434362579.7658844 344041795.22245789 0 344041795.22245789 83774620.588955879 0 0 0 0 -276816435.10958862 86698957.993114471 0 86698957.993114471 49160182.449324608 0 0 0 0 -3328869.6810498303 7763490.736884173 0 7763490.736884173 29959360.408059813 0 0 0 0 -191049888.73946762 237949498.19982338 0 237949498.19982338 -241849265.0637207 0 0 0 0 -2189040.350946676 1489998.4334705984 0 1489998.4334705984 3878188.1206907853 0 0 0 0 508349941.23578405 192313487.41532326 0 192313487.41532326 -444065945.85871887 0 0 0 0 -491045902.199646 -48562458.90675354 0 -48562458.90675354 213517427.44088745 0 0 0 0 -11193486.859771729 -93489668.347160339 0 -93489668.347160339 120048097.25802994 0 0 0 0 12469000.917671204 -162925416.39136505 0 -162925416.39136505 76182033.838378906 0 0 0 0 -94878213.92024231 -106266643.96047974 0 -106266643.96047974 48213224.487640381 0 0 0 0 -160805349.47645569 -77816899.437332153 0 -77816899.437332153 71864556.943660736 0 0 0 0 -434899612.46661758 68429470.252987862 0 68429470.252987862 183833751.54276276 0 0 0 0 -224603867.167202 24728615.503486633 0 24728615.503486633 41992687.22427845 0 0 0 0 -191736701.00601673 -138835631.64360857 0 -138835631.64360857 273278947.89556885 0 0 0 0 -31698531.711860657 -92698698.116119385 0 -92698698.116119385 207163741.48583984 0 0 0 0 240636407.86315918 -154953980.76272583 0 -154953980.76272583 264094498.27321625 0 0 0 0 -38065231.58808136 -97785190.117134094 0 -97785190.117134094 465919335.51898193 0 0 0 0 546850187.57789612 -219041113.28334045 0 -219041113.28334045 469296121.27500153 0 0 0 0 236294617.24737549 -104288593.88498688 0 -104288593.88498688 433298171.21534729 0 0 0 0 269771689.84411621 -134645241.9289093 0 -134645241.9289093 229357145.10263634 0 0 0 0 483590740.80111694 -111384643.14782715 0 -111384643.14782715 222880365.54270935 0 0 0 0 7908900.0355129242 -163242600.27978802 0 -163242600.27978802 269777057.56233215 0 0 0 0 309237577.71780396 201688373.84519958 0 201688373.84519958 804534941.30215454 0 0 0 0 718819161.22026062 196364444.61470032 0 196364444.61470032 439642845.14814758 0 0 0 0 426519277.67321777 157739561.62496948 0 157739561.62496948 439008024.79360175 0 0 0 0 565766843.78747559 142730904.49551392 0 142730904.49551392 689707201.65405273 0 0 0 0 742986728.89470673 48390141.492259979 0 48390141.492259979 387755771.99313354 0 0 0 0 419204221.80473328 -54330183.186035156 0 -54330183.186035156 381983770.01105213 0 0 0 0 421875216.04441833 -11559595.559707642 0 -11559595.559707642 92557539.939407349 0 0 0 0 353094264.01754761 -20702539.590797424 0 -20702539.590797424 217742300.58054733 0 0 0 0 587166542.56556702 54150814.912567139 0 54150814.912567139 239668541.95245361 0 0 0 0 350892056.99250412 52189283.034696579 0 52189283.034696579 113679225.8651123 0 0 0 0 394956429.80444336 73271079.031669617 0 73271079.031669617 301898488.84233093 0 0 0 0 398628313.49819946 146609135.64238739 0 146609135.64238739 246526805.92164612 0 0 0 0 261935634.17650986 171669035.34122086 0 171669035.34122086 320968034.91064453 0 0 0 0 389367333.02156305 208363754.90665078 0 208363754.90665078 327987678.76577759 0 0 0 0 245561656.58611488 42513678.516708851 0 42513678.516708851 112965547.43450928 0 0 0 0 285667266.61410522 94051187.556732178 0 94051187.556732178 -10126159.592208862 0 0 0 0 303401078.96488953 -36149619.206474304 0 -36149619.206474304 -23703686.615081787 0 0 0 0 244404976.90627289 -18919480.602203369 0 -18919480.602203369 92680701.92666626 0 0 0 0 244064462.69798279 15748111.606796265 0 15748111.606796265 -154254993.07376099 0 0 0 0 181718325.83154297 15527908.417724609 0 15527908.417724609 -43509720.62713623 0 0 0 0 179654842.51828003 27832887.27796936 0 27832887.27796936 -47911883.020606995 0 0 0 0 217541795.51541138 114596637.49637794 0 114596637.49637794 -118832419.55200195 0 0 0 0 23957859.299405098 -94726494.255218983 0 -94726494.255218983 73021002.93788147 0 0 0 0 199951248.29285431 -179966661.97851562 0 -179966661.97851562 112950752.48851013 0 0 0 0 285705963.28469849 -112455121.14701843 0 -112455121.14701843 12902156.560466766 0 0 0 0 224543688.66657066 -67600381.70318222 0 -67600381.70318222 131240433.02468872 0 0 0 0 230703478.28616333 -25175023.82554245 0 -25175023.82554245 -119207002.85845947 0 0 0 0 123685457.67362976 -61479435.681564331 0 -61479435.681564331 -2144709.8312263489 0 0 0 0 151609519.69033813 -119102629.7671814 0 -119102629.7671814 -26290038.306381226 0 0 0 0 17383656.843666077 -53777226.048286438 0 -53777226.048286438 -54837882.650409698 0 0 0 0 85242762.768257141 -65240067.191407204 0 -65240067.191407204 -107425890.19122314 0 0 0 0 113115395.76152611 25679144.934754372 0 25679144.934754372 -194117707.83934021 0 0 0 0 25121740.379333496 52802527.842308044 0 52802527.842308044 -179616885.41278839 0 0 0 0 -11360671.844467163 3516281.4268989563 0 3516281.4268989563 -147815081.74340057 0 0 0 0 134608442.63434601 -21406288.769332886 0 -21406288.769332886 -117394869.84766293 0 0 0 0 146277629.35105133 90202174.586685181 0 90202174.586685181 -179737533.47333336 0 0 0 0 91820149.450746536 159332921.42405796 0 159332921.42405796 -326002293.74227905 0 0 0 0 159087980.12744904 48364302.878135681 0 48364302.878135681 -266224645.48014069 0 0 0 0 110705408.07161713 189286444.03238678 0 189286444.03238678 -299425574.13537598 0 0 0 0 114082172.70188332 94558186.825414658 0 94558186.825414658 -259094580.52612305 0 0 0 0 -17956118.48134613 269359997.85980606 0 269359997.85980606 -317913751.43524933 0 0 0 0 -419407.25638470799 378086.58468288556 0 378086.58468288556 339491.0374860242 0 0 0 0 -79622862.149978638 121694768.06255341 0 121694768.06255341 -239296578.60630798 0 0 0 0 -18143671.21156311 75970940.910964966 0 75970940.910964966 -223997752.32242966 0 0 0 0 46637723.798713684 11598462.419120789 0 11598462.419120789 -182182735.99797821 0 0 0 0 -7635437.3141021729 76136145.229141235 0 76136145.229141235 -281157765.21379852 0 0 0 0 -30242800.263069153 69947946.288440704 0 69947946.288440704 -226933091.69366455 0 0 0 0 -94328762.730377197 68677117.600566864 0 68677117.600566864 -176463525.99156952 0 0 0 0 -101233629.08209991 21287035.857666016 0 21287035.857666016 -22736687.094039917 0 0 0 0 -44825614.461151123 19417041.611667633 0 19417041.611667633 -127452052.04179382 0 0 0 0 -81992439.435317993 -40953083.872711182 0 -40953083.872711182 -67902337.698104858 0 0 0 0 1320609.6672897339 -24412517.694396973 0 -24412517.694396973 -129754889.7274375 0 0 0 0 -79041356.558640957 -77904709.125663519 0 -77904709.125663519 -7375502.2507476807 0 0 0 0 27075747.894728661 -105129220.52910471 0 -105129220.52910471 -32445256.496200562 0 0 0 0 -108407652.33018684 -65098543.248007774 0 -65098543.248007774 -2881188.2843170166 0 0 0 0 -146149383.17343903 -66249494.77784729 0 -66249494.77784729 -5849988.565536499 0 0 0 0 -154588121.89307404 -19064644.551818848 0 -19064644.551818848 -53077422.031887054 0 0 0 0 -160046665.82936096 5843449.4605636597 0 5843449.4605636597 -80458018.060371399 0 0 0 0 -163910489.26863098 161607529.99163437 0 161607529.99163437 -137107857.04005432 0 0 0 0 -169840363.5035944 186271496.80574036 0 186271496.80574036 -380310999.37425232 0 0 0 0 -97639980.273979187 152444965.00833893 0 152444965.00833893 -182416906.80122375 0 0 0 0 -52210574.208816528 83867062.831451416 0 83867062.831451416 -172778229.1460495 0 0 0 0 -91387300.677902222 156897548.41980934 0 156897548.41980934 -252108889.87740326 0 0 0 0 -332297593.99819946 382243477.19630432 0 382243477.19630432 -334271895.63008881 0 0 0 0 5384235.11277771 8298658.4393081665 0 8298658.4393081665 -4369498.7388305664 0 0 0 0 522025.54482346028 290092.1296521239 0 290092.1296521239 -245027.11546959728 0 0 0 0 -295397830.585495 234639985.34241104 0 234639985.34241104 -359944047.24062729 0 0 0 0 -7215468.450340271 51615494.517669678 0 51615494.517669678 -288504026.88234329 0 0 0 0 -21517022.384399414 -3039803.2192764282 0 -3039803.2192764282 -202448.10919189453 0 0 0 0 -357156.68719394878 1390556.8245747164 0 1390556.8245747164 769450.97710212506 0 0 0 0 -401762362.67970276 487703306.74104309 0 487703306.74104309 -356926150.05197239 0 0 0 0 101418.5937649142 -11145.865200780332 0 -11145.865200780332 -402395.78299587965 0 0 0 0 -356409822.6158371 341699732.60504913 0 341699732.60504913 -549080127.0488739 0 0 0 0 -126432407.47767639 305182766.73111725 0 305182766.73111725 -568399829.18408203 0 0 0 0 -136097049.22032547 422005466.26505661 0 422005466.26505661 -452997527.60723877 0 0 0 0 -65321225.566261292 334094610.4417038 0 334094610.4417038 -562555916.31201172 0 0 0 0 -306174553.00350952 420988008.60572815 0 420988008.60572815 -543733624.21070099 0 0 0 0 -333142781.14448547 347857165.49723816 0 347857165.49723816 -480766755.24139404 0 0 0 0 -387117005.75792789 448779059.55847168 0 448779059.55847168 -540688487.44003296 0 0 0 0 -357663039.0102005 302395007.90514374 0 302395007.90514374 -453435817.2545929 0 0 0 0 -443569568.99872279 518844091.41110027 0 518844091.41110027 -665196371.89245605 0 0 0 0 -444996144.2693634 381603784.88796234 0 381603784.88796234 -553463933.99167252 0 0 0 0 -523936349.35965157 410579121.58754444 0 410579121.58754444 -665322041.71187592 0 0 0 0 -274048187.33659363 420990854.46456909 0 420990854.46456909 -684684999.02533722 0 0 0 0 -372286106.83721161 515443837.52047348 0 515443837.52047348 -840805027.22850037 0 0 0 0 -261693788.92468262 470694258.91864777 0 470694258.91864777 -657887596.06617546 0 0 0 0 -210692083.70673752 305174459.02361107 0 305174459.02361107 -633018181.20600891 0 0 0 0 -496178090.17254639 794734285.23704147 0 794734285.23704147 -913533783.21350861 0 0 0 0 -505954105.50960541 882864225.571064 0 882864225.571064 -838018452.58499527 0 0 0 0 -779875879.59196091 684148579.171278 0 684148579.171278 -642587887.29414368 0 0 0 0 -469411355.83514404 546911889.27138519 0 546911889.27138519 -879204065.56020355 0 0 0 0 -602925208.40451813 440390336.36713409 0 440390336.36713409 -703777046.50358582 0 0 0 0 -497063872.18977356 418686247.99784851 0 418686247.99784851 -544502059.78654099 0 0 0 0 -425965100.74271011 641164367.5117116 0 641164367.5117116 -670157742.39841461 0 0 0 0 -324919106.73117065 826310901.8976326 0 826310901.8976326 -779655371.44928741 0 0 0 0 -397315511.69618225 596704174.65521622 0 596704174.65521622 -623276170.11066437 0 0 0 0 -506081559.46425629 853542608.81498337 0 853542608.81498337 -778638304.6136322 0 0 0 0 -404804125.9574585 789139417.04023743 0 789139417.04023743 -774340648.82106018 0 0 0 0 -165860207.76408386 647499417.21797943 0 647499417.21797943 -732095317.48046494 0 0 0 0 -289544305.47635651 518716228.4940567 0 518716228.4940567 -597871904.68403625 0 0 0 0 -260981072.54536438 513243087.76916504 0 513243087.76916504 -607725563.13218689 0 0 0 0 -290800602.69317627 352730906.41011047 0 352730906.41011047 -488067330.53639603 0 0 0 0 -377518470.42032623 503576876.65972519 0 503576876.65972519 -540352459.65715027 0 0 0 0 -287684228.02703857 557031913.15157318 0 557031913.15157318 -650560771.29932022 0 0 0 0 -238173656.86172676 408960940.50912285 0 408960940.50912285 -517815272.22956848 0 0 0 0 -212110497.82637787 443249060.44698715 0 443249060.44698715 -476378721.37191772 0 0 0 0 -151082488.41443634 340983697.46891022 0 340983697.46891022 -536027781.53113937 0 0 0 0 -7468396.1420593262 1379946.5538253784 0 1379946.5538253784 -6534118.8684272766 0 0 0 0 -10724738.634002686 104330138.80877686 0 104330138.80877686 -296436065.80697632 0 0 0 0 -154505399.62304688 282338296.75911713 0 282338296.75911713 -473081568.9053421 0 0 0 0 -279912358.05644226 400481043.53618622 0 400481043.53618622 -429476984.62831879 0 0 0 0 -1773284.2588168606 597220.58934287727 0 597220.58934287727 656165.01983137242 0 0 0 0 -39487815.339523315 163169418.48921967 0 163169418.48921967 -283722617.27455139 0 0 0 0 1230309.7016261443 637681.81753757223 0 637681.81753757223 -10427.847181703895 0 0 0 0 -55405629.134140015 115459071.93526459 0 115459071.93526459 -250446773.5605278 0 0 0 0 -88312795.860713959 572179648.79761124 0 572179648.79761124 -753562141.93667603 0 0 0 0 -172896268.9540863 398128154.75310898 0 398128154.75310898 -542082459.78396606 0 0 0 0 -150345140.67323303 392377227.73956299 0 392377227.73956299 -571328167.54393387 0 0 0 0 -139609345.10035706 207876752.67790985 0 207876752.67790985 -352154180.43789673 0 0 0 0 63101853.66241312 438108513.54535007 0 438108513.54535007 -702095509.72932434 0 0 0 0 78672716.439651489 307582690.66519165 0 307582690.66519165 -656954871.19497681 0 0 0 0 -181907921.38926697 673264384.85952759 0 673264384.85952759 -827525149.88830566 0 0 0 0 -4469707.921913147 426414914.37481689 0 426414914.37481689 -938459672.55673981 0 0 0 0 -303220801.52457047 660992182.03214455 0 660992182.03214455 -1019035781.1957817 0 0 0 0 -115663217.77761841 634000014.52766037 0 634000014.52766037 -1275237679.1109695 0 0 0 0 -405288033.16576385 1123750534.4653416 0 1123750534.4653416 -1118571344.5910225 0 0 0 0 -85720831.664970398 543242559.50609589 0 543242559.50609589 -800194254.4613533 0 0 0 0 -241883428.13132858 769422226.51846504 0 769422226.51846504 -913867567.07019806 0 0 0 0 -273766783.79931831 927379911.81738186 0 927379911.81738186 -836984198.38737488 0 0 0 0 -317029680.94875336 838334999.8055191 0 838334999.8055191 -815179221.15414429 0 0 0 0 -307211549.55190277 917305662.86450577 0 917305662.86450577 -837695573.54508924 0 0 0 0 -460785146.50107574 812211723.72515106 0 812211723.72515106 -571609011.05138397 0 0 0 0 -316517133.81236649 924444768.26846504 0 924444768.26846504 -831971131.38367081 0 0 0 0 -503158867.95420074 924859366.54520798 0 924859366.54520798 -803590870.35641861 0 0 0 0 -843134560.86979675 428896667.57105255 0 428896667.57105255 -119071594.56569672 0 0 0 0 -483655212.3175354 860548640.01604271 0 860548640.01604271 -663001440.54184723 0 0 0 0 -575925775.45658112 977823252.0082283 0 977823252.0082283 -647442779.01362371 0 0 0 0 -1931631726.6961575 608476205.03328609 0 608476205.03328609 -99541731.018424988 0 0 0 0 -328342894.64445114 -68162098.603254318 0 -68162098.603254318 34222669.245681763 0 0 0 0 76054.601621484384 2131453.5035902951 0 2131453.5035902951 -4068671.0652862415 0 0 0 0 -1079666754.9708138 1628219476.2084122 0 1628219476.2084122 -1471761461.6587143 0 0 0 0 -214954820.88581467 580057084.80947685 0 580057084.80947685 -2219579315.1592941 0 0 0 0 -981114414.0834465 419216939.59355736 0 419216939.59355736 -954629089.04832458 0 0 0 0 -343244484.26650238 676508008.76239777 0 676508008.76239777 -855806264.29339981 0 0 0 0 -168817145.08609772 444586418.13673401 0 444586418.13673401 -480996579.16940689 0 0 0 0 -124047153.76243782 337830429.0522089 0 337830429.0522089 -636701225.69229889 0 0 0 0 -165533425.95249176 372549456.43087769 0 372549456.43087769 -538993272.97732925 0 0 0 0 -295198805.9314003 276102204.85077095 0 276102204.85077095 -137881732.63540649 0 0 0 0 -174036666.24797058 170626444.11850739 0 170626444.11850739 -339122747.96567154 0 0 0 0 -519024617.65645313 191134995.4346571 0 191134995.4346571 -631437077.99018097 0 0 0 0 -167960075.71551132 363715784.25542927 0 363715784.25542927 -606051497.93605042 0 0 0 0 -96365247.193336487 387393540.53377151 0 387393540.53377151 -1202281812.7408276 0 0 0 0 17603223.59046936 251929429.10655212 0 251929429.10655212 -694218874.62343788 0 0 0 0 -28906261.321739197 171490632.67282867 0 171490632.67282867 -351033775.71721649 0 0 0 0 -56599840.052909851 404174823.07484436 0 404174823.07484436 -459219150.15354919 0 0 0 0 124012262.71639252 166829124.34873962 0 166829124.34873962 -521057749.53702545 0 0 0 0 139017853.31196594 149789756.57188416 0 149789756.57188416 -390621947.68746185 0 0 0 0 34905669.87563324 58689348.968158722 0 58689348.968158722 -250834358.38009644 0 0 0 0 -42890139.361408234 161026842.43280983 0 161026842.43280983 -121148668.81323242 0 0 0 0 97338521.762771606 149001251.44901848 0 149001251.44901848 -229091722.71144104 0 0 0 0 139554573.09564209 46253813.776313782 0 46253813.776313782 -175432078.82980347 0 0 0 0 119599532.57388306 157033545.2310791 0 157033545.2310791 -146437971.29194641 0 0 0 0 -230555317.19835663 166097702.46444321 0 166097702.46444321 -326191074.20264435 0 0 0 0 21945299.694206238 196470582.50834656 0 196470582.50834656 -327678886.49668503 0 0 0 0 -105282668.70468473 271256558.48873234 0 271256558.48873234 -212263114.31442261 0 0 0 0 -114737708.81745148 112979125.2972908 0 112979125.2972908 -63558830.418937683 0 0 0 0 -19559795.673688889 101494655.02389526 0 101494655.02389526 44498628.492736816 0 0 0 0 -14270004.681448936 222753952.86952245 0 222753952.86952245 48885831.304412842 0 0 0 0 -43575803.314804077 85769373.947235107 0 85769373.947235107 125585404.71399307 0 0 0 0 155895736.40995789 65340334.569549561 0 65340334.569549561 4556591.8651275635 0 0 0 0 153951229.31103516 165816328.99491882 0 165816328.99491882 2799767.8989257812 0 0 0 0 89109870.19442749 186559656.28907776 0 186559656.28907776 -119734876.02643585 0 0 0 0 73079760.527786255 88948461.718345642 0 88948461.718345642 -65050749.885765076 0 0 0 0 75177971.268997192 212339417.85960388 0 212339417.85960388 156526835.07499695 0 0 0 0 107920181.13925171 84533623.890007019 0 84533623.890007019 98825401.999610901 0 0 0 0 256233679.23785782 149905703.19771624 0 149905703.19771624 70058098.284606934 0 0 0 0 217842853.22119141 87213928.701843262 0 87213928.701843262 169064376.69538116 0 0 0 0 191189340.80489922 186914705.78382874 0 186914705.78382874 208469371.17457581 0 0 0 0 83049540.83631897 108522277.34786987 0 108522277.34786987 369473900.41789246 0 0 0 0 77453064.276744843 201289806.55061483 0 201289806.55061483 405665799.03074646 0 0 0 0 46665042.792442322 52242164.746318817 0 52242164.746318817 406323671.472229 0 0 0 0 42011459.865005493 107643526.82406998 0 107643526.82406998 653929262.80595398 0 0 0 0 189190917.22314453 168229901.35335541 0 168229901.35335541 396813072.1076889 0 0 0 0 191225641.75641632 132052745.71560669 0 132052745.71560669 593462177.83175659 0 0 0 0 184884889.52394104 187436762.08852386 0 187436762.08852386 605380009.49674988 0 0 0 0 -102541752.92147827 198088583.84192085 0 198088583.84192085 219121935.58595276 0 0 0 0 -24100367.218125343 112649611.00207615 0 112649611.00207615 224045065.19210815 0 0 0 0 7787724.4014434814 185125700.57656097 0 185125700.57656097 255033421.63960266 0 0 0 0 22281798.133880615 81925614.782180786 0 81925614.782180786 236770588.15701675 0 0 0 0 -28409806.078330994 122967051.82302666 0 122967051.82302666 527928796.00976562 0 0 0 0 -41811832.178459167 30382199.884620667 0 30382199.884620667 394334216.587677 0 0 0 0 -38348125.547288895 178158180.26151562 0 178158180.26151562 185188591.00582886 0 0 0 0 -96124941.81552124 62214012.486106873 0 62214012.486106873 426269920.4036026 0 0 0 0 -141640178.13140106 153393642.10589218 0 153393642.10589218 179314544.14544678 0 0 0 0 -139058416.17600632 291873979.20182991 0 291873979.20182991 29758031.800346375 0 0 0 0 -55870703.55626297 271345589.01656723 0 271345589.01656723 -156105692.45497894 0 0 0 0 -155557936.33861542 284754229.17182541 0 284754229.17182541 -146402713.69285583 0 0 0 0 -111778252.06774902 133348472.17879868 0 133348472.17879868 99633859.847442627 0 0 0 0 -101436473.54692078 275752887.10005951 0 275752887.10005951 -163769837.03930664 0 0 0 0 135890459.68248749 64140355.465873718 0 64140355.465873718 -484944841.26339722 0 0 0 0 20309924.544113159 170536146.33042145 0 170536146.33042145 -81549230.080024719 0 0 0 0 47333788.939315796 322392866.58179474 0 322392866.58179474 -494641139.33634949 0 0 0 0 27979772.449485779 188228499.30596161 0 188228499.30596161 -220120168.53691864 0 0 0 0 -46744481.924922943 403695129.74040985 0 403695129.74040985 -527648750.76628876 0 0 0 0 11247825.545394897 97005104.168762207 0 97005104.168762207 128447116.75080109 0 0 0 0 -82079041.188922882 236779482.18512344 0 236779482.18512344 208661820.00147247 0 0 0 0 87020488.92615509 186569668.60839844 0 186569668.60839844 -84874866.148429871 0 0 0 0 27493691.648513794 125760425.91801071 0 125760425.91801071 161513848.11786652 0 0 0 0 196579652.04560089 241594759.52734947 0 241594759.52734947 -29527436.931098938 0 0 0 0 2523986.4580033831 13001240.564120255 0 13001240.564120255 -18234933.011696655 0 0 0 0 36281298.515914917 8874188.6258049011 0 8874188.6258049011 -15634525.0333395 0 0 0 0 49382054.766387939 6186373.9783878326 0 6186373.9783878326 -33310273.30581665 0 0 0 0 132690761.10304475 159430461.78435928 0 159430461.78435928 -552074113.25134277 0 0 0 0 47295052.381057739 -64586100.758678436 0 -64586100.758678436 62344229.526773453 0 0 0 0 513765582.78900909 -50828424.674690247 0 -50828424.674690247 -1861677112.1054688 0 0 0 0 67903437.669059753 -585177371.53633499 0 -585177371.53633499 -834273334.91111183 0 0 0 0 -77762197.218759537 -238484075.37420321 0 -238484075.37420321 200083446.4792099 0 0 0 0 2731604.6688750461 5289032.7720693797 0 5289032.7720693797 -15744397.496872246 0 0 0 0 334042202.3953476 63460148.441090584 0 63460148.441090584 -352265132.03595352 0 0 0 0 -143046228.07304382 -748831326.37730789 0 -748831326.37730789 -3031538140.8090515 0 0 0 0 -862368.24246630818 208352.31436925381 0 208352.31436925381 -2010047.7409710223 0 0 0 0 281010622.39601898 -248661018.37602425 0 -248661018.37602425 -2228429197.2117615 0 0 0 0 377802292.22039795 -142486384.22912598 0 -142486384.22912598 -3945370606.5891647 0 0 0 0 732511399.76538086 197192627.17129898 0 197192627.17129898 -1814070434.6627541 0 0 0 0 692234618.83389282 423769863.96286011 0 423769863.96286011 -1667422898.4176903 0 0 0 0 700607845.13961792 267392267.38495827 0 267392267.38495827 -1964959955.9773483 0 0 0 0 289894522.64549255 277993479.56494522 0 277993479.56494522 -552688953.07621574 0 0 0 0 281805103.56411743 225218425.09546661 0 225218425.09546661 -890449570.98110199 0 0 0 0 516795401.46063066 38099160.931171954 0 38099160.931171954 -1213029185.1752396 0 0 0 0 -209804925.28997421 450372226.45519257 0 450372226.45519257 -493777624.71212006 0 0 0 0 85674083.028011322 629429474.55660248 0 629429474.55660248 -1147201579.0764618 0 0 0 0 669903796.63863373 668866569.19651794 0 668866569.19651794 -1196163866.4264469 0 0 0 0 1211363776.8042297 1233934755.3839493 0 1233934755.3839493 -1938085085.775423 0 0 0 0 -230991246.16844559 1263480189.3621922 0 1263480189.3621922 -1587576720.9687767 0 0 0 0 915551360.65563583 475231097.96119738 0 475231097.96119738 -1410372461.6545334 0 0 0 0 1029504871.4225769 619066706.90445328 0 619066706.90445328 -2006669073.9136734 0 0 0 0 1232076518.7524414 1001949679.2975979 0 1001949679.2975979 -1105860506.1568108 0 0 0 0 1530918325.2319946 463451740.08251953 0 463451740.08251953 -1465650757.217061 0 0 0 0 877097511.97293472 505344581.1586504 0 505344581.1586504 314695482.70309067 0 0 0 0 924930838.16382027 1417936004.7408657 0 1417936004.7408657 1721183744.7549171 0 0 0 0 797209701.50219727 993358056.61015987 0 993358056.61015987 434715774.35733056 0 0 0 0 -967455.60907259211 6999439.198415257 0 6999439.198415257 -7642668.3654506207 0 0 0 0 63498765.257926941 91373124.779785156 0 91373124.779785156 -150256694.68164444 0 0 0 0 729138441.9670639 -113791743.21109486 0 -113791743.21109486 1003298063.5488129 0 0 0 0 1960479344.8268852 625569898.53408337 0 625569898.53408337 -392117219.12500381 0 0 0 0 634365326.73467255 881435777.05249214 0 881435777.05249214 -437555333.15987492 0 0 0 0 469255019.41471672 -3721324.8704984188 0 -3721324.8704984188 -559500204.18840027 0 0 0 0 124037562.45704651 611623151.53159142 0 611623151.53159142 145668674.18699074 0 0 0 0 1135797097.51194 442074636.50227737 0 442074636.50227737 -1435532230.6428032 0 0 0 0 686897606.02390289 367612044.42030334 0 367612044.42030334 -1404591105.6122665 0 0 0 0 357447798.43961525 161195376.39313745 0 161195376.39313745 -2481494301.9415054 0 0 0 0 568365591.813797 785796042.44389153 0 785796042.44389153 -2327716572.481102 0 0 0 0 -298391050.84456635 198373829.07959366 0 198373829.07959366 -2443941537.240036 0 0 0 0 -1616919129.9188385 79737056.700874329 0 79737056.700874329 -2260697027.8568287 0 0 0 0 -170250656.63261414 -10783868.958827972 0 -10783868.958827972 -2263671132.0201302 0 0 0 0 -629857426.85255814 -284440994.90406227 0 -284440994.90406227 -1490873323.6631889 0 0 0 0 55961444.59262085 207850741.78392982 0 207850741.78392982 -2380522740.7203522 0 0 0 0 -391806980.30231476 -443367527.63872147 0 -443367527.63872147 -3038313581.2962151 0 0 0 0 -127766749.92493057 19575323.878227711 0 19575323.878227711 -1396696877.6489906 0 0 0 0 -715025971.92971039 401926430.70427704 0 401926430.70427704 -1341250622.9940033 0 0 0 0 252679222.66647339 454181888.37082672 0 454181888.37082672 -1342222241.1239264 0 0 0 0 92426353.789321899 163525165.23444366 0 163525165.23444366 -255388711.81495571 0 0 0 0 -506125106.78446198 253258689.3459816 0 253258689.3459816 -254786588.52394485 0 0 0 0 -350187054.21793556 254965513.72542429 0 254965513.72542429 369446177.62108231 0 0 0 0 -281276168.35823631 486328507.16516447 0 486328507.16516447 595757017.29660034 0 0 0 0 -268252255.08148193 220467000.03250885 0 220467000.03250885 -43440611.493484497 0 0 0 0 -142142921.5189209 356628059.75011063 0 356628059.75011063 -481690743.5351522 0 0 0 0 -334110504.23387909 103488588.27972984 0 103488588.27972984 -520128157.82765508 0 0 0 0 -191458.17240142822 446275044.88580608 0 446275044.88580608 -710562023.29986954 0 0 0 0 154697135.59810638 -53076269.315221786 0 -53076269.315221786 -2283872051.7273483 0 0 0 0 103309.16982269287 389510540.32717609 0 389510540.32717609 -1757757935.0877686 0 0 0 0 -121869437.13167572 -142897228.03527451 0 -142897228.03527451 -1201325721.1394968 0 0 0 0 127181761.99012756 453358103.68711662 0 453358103.68711662 -2374854363.736763 0 0 0 0 185006.25884865678 484806094.97868675 0 484806094.97868675 -2342223084.3606014 0 0 0 0 -16654.873744606972 351611.99740050919 0 351611.99740050919 -4531153.3105815789 0 0 0 0 -42303086.194366455 -10844858.181476593 0 -10844858.181476593 185534813.1218009 0 0 0 0 143168045.4774189 446946350.4991858 0 446946350.4991858 -3353926107.0619621 0 0 0 0 -869993521.21655273 1228179063.5000877 0 1228179063.5000877 -1728787306.902462 0 0 0 0 -540345788.37792206 1019462153.6565971 0 1019462153.6565971 -4793442678.8576508 0 0 0 0 -451448.48117252812 1336472.1119255163 0 1336472.1119255163 -1933663.6688906662 0 0 0 0 -416021892.64285278 -1417830664.0824356 0 -1417830664.0824356 -4613508737.1732664 0 0 0 0 -254423.04355303198 1884622.4709472265 0 1884622.4709472265 -5720142.441365432 0 0 0 0 -9651164.4672851562 17853506.076839447 0 17853506.076839447 62064092.638358116 0 0 0 0 -3069215.9303512573 67231993.797369003 0 67231993.797369003 -14818968.09495163 0 0 0 0 -44217618.056518555 36486742.143373489 0 36486742.143373489 -18700862.47362709 0 0 0 0 -11384955.715942383 -4537237.8537397385 0 -4537237.8537397385 10255384.452957153 0 0 0 0 26818361.897151947 44040587.354158878 0 44040587.354158878 -27126148.307533264 0 0 0 0 20398334.129562378 53103792.785578728 0 53103792.785578728 -89968607.894166946 0 0 0 0 194074.59550327808 -825255.45158258826 0 -825255.45158258826 -350550.91904514888 0 0 0 0 2307397.6395683289 -11743242.919284821 0 -11743242.919284821 6531049.0269603729 0 0 0 0 4557760.8133392334 -3909901.0204048157 0 -3909901.0204048157 -9895283.5440249443 0 0 0 0 244960.69673060626 -1755301.0847572368 0 -1755301.0847572368 -877909.85109618399 0 0 0 0 -661705.41496276855 -2165490.9914131165 0 -2165490.9914131165 -2819662.0993518829 0 0 0 0 53172866.025741577 40404021.204080582 0 40404021.204080582 -175443399.02403975 0 0 0 0 -391274.06634824723 95645.551936413161 0 95645.551936413161 1926229.0762935653 0 0 0 0 -344387.65776787698 -880904.39941434935 0 -880904.39941434935 1082287.7177589168 0 0 0 0 5469288.518951416 1026979.4102210999 0 1026979.4102210999 -6631900.8129425049 0 0 0 0 434741.62488055229 -1407996.3151117591 0 -1407996.3151117591 -513290.75947096548 0 0 0 0 1885.1099548339844 2871374.6972770691 0 2871374.6972770691 167010.54985237122 0 0 0 0 -897894.94506835938 99580999.757858276 0 99580999.757858276 52628500.012184143 0 0 0 0 -12909343.279586792 -11223843.102567673 0 -11223843.102567673 -355016043.50218201 0 0 0 0 -1127661.2290283814 -824515.28696116293 0 -824515.28696116293 1638079.3011511471 0 0 0 0 189667.01920750079 133780853.90614927 0 133780853.90614927 -101661720.37627411 0 0 0 0 -49994534.057197571 150312203.11117649 0 150312203.11117649 -2043218.5166931152 0 0 0 0 -19196099.523848534 34885516.142340422 0 34885516.142340422 -63631311.712593079 0 0 0 0 25030186.255279541 32571103.395362854 0 32571103.395362854 -51900001.956207275 0 0 0 0 -24396202.031944275 -3037760.5817804337 0 -3037760.5817804337 -64120153.020446777 0 0 0 0 -308003710.4883728 909082975.22808456 0 909082975.22808456 -298522881.48423767 0 0 0 0 -249030906.74150085 820584836.45026398 0 820584836.45026398 -170631722.06820536 0 0 0 0 -97720378.394165039 955361529.77398682 0 955361529.77398682 -175718609.26739883 0 0 0 0 142128.47994995117 914030223.90884781 0 914030223.90884781 -193941921.09676743 0 0 0 0 -159149043.12479401 821213054.06252289 0 821213054.06252289 -199293852.4442296 0 0 0 0 -270725918.46230316 939900171.67314148 0 939900171.67314148 -43118558.146835327 0 0 0 0 -578150012.84057617 651909110.47302246 0 651909110.47302246 -246067261.69670105 0 0 0 0 -710990887.12526703 783336250.79539299 0 783336250.79539299 -235368962.24635315 0 0 0 0 -1199904310.1142807 489380881.35313416 0 489380881.35313416 -263928430.03125572 0 0 0 0 -1197572889.9041824 459765445.45041847 0 459765445.45041847 20027791.838752747 0 0 0 0 966874.55634586513 489937.00267050602 0 489937.00267050602 -1102704.775015641 0 0 0 0 -1310606424.0593414 191780981.7828846 0 191780981.7828846 -12731585.944847107 0 0 0 0 -558071898.0165863 701340073.16862488 0 701340073.16862488 -548997204.2772789 0 0 0 0 -974506541.57794189 874714862.70921326 0 874714862.70921326 -292762205.23102188 0 0 0 0 -603355853.66882324 709822739.04055405 0 709822739.04055405 -276439206.320961 0 0 0 0 -376921073.05879211 955510344.23073196 0 955510344.23073196 -257477172.98647261 0 0 0 0 -424541989.23542786 878163229.06858253 0 878163229.06858253 232642332.83720016 0 0 0 0 -209039418.62708282 780905165.33833122 0 780905165.33833122 -76656574.903442383 0 0 0 0 -489582296.61924362 265722399.21911812 0 265722399.21911812 -112906896.43955231 0 0 0 0 -1178111.2962305993 961260.12063955516 0 961260.12063955516 -102538.71229944006 0 0 0 0 -138998783.55432129 48611126.003601074 0 48611126.003601074 3889596.1666412354 0 0 0 0 -607955921.63935089 608235280.52785301 0 608235280.52785301 -150136839.00734711 0 0 0 0 -194024561.39918518 827572358.08999252 0 827572358.08999252 -99113767.203744888 0 0 0 0 585649750.42110062 371220067.85104942 0 371220067.85104942 219184301.27485657 0 0 0 0 -56404414.662555695 782097681.33700943 0 782097681.33700943 602251232.81008911 0 0 0 0 -16552707.418731689 791120459.45565033 0 791120459.45565033 240895512.76445389 0 0 0 0 -201713150.77510643 873826721.46551728 0 873826721.46551728 326851453.85610962 0 0 0 0 -155852868.32496643 1007883716.7819729 0 1007883716.7819729 -165963006.20024616 0 0 0 0 -153573358.21102905 933696751.34640884 0 933696751.34640884 47933871.064788818 0 0 0 0 -40613260.902381897 878760066.97706985 0 878760066.97706985 67746810.069272995 0 0 0 0 -247730.99952302317 787075754.19406438 0 787075754.19406438 236962798.71844482 0 0 0 0 -107748833.60285187 815211485.94781685 0 815211485.94781685 281465948.55531502 0 0 0 0 -129246215.36056519 743130529.03927612 0 743130529.03927612 493792521.52288437 0 0 0 0 -104035460.25202179 689434484.02271652 0 689434484.02271652 419883034.56460953 0 0 0 0 -83576.725708007812 713774196.82533455 0 713774196.82533455 377014697.39537811 0 0 0 0 -136895638.85606384 562332722.6711998 0 562332722.6711998 397027860.81196666 0 0 0 0 -79467746.766983032 680765025.57390022 0 680765025.57390022 400919660.24608612 0 0 0 0 -170408028.94846249 467757239.66084671 0 467757239.66084671 229971732.3863678 0 0 0 0 -13307653.979110718 533964802.92024612 0 533964802.92024612 44525052.66546154 0 0 0 0 -306306.69091796875 599965301.33863831 0 599965301.33863831 180262189.44395447 0 0 0 0 75348980.382896423 779479485.21276855 0 779479485.21276855 477016675.8613224 0 0 0 0 148227104.62106705 666809747.90366936 0 666809747.90366936 637575915.29012299 0 0 0 0 -18211177.85710144 548703676.78393936 0 548703676.78393936 267142061.66552353 0 0 0 0 -206527779.2069273 645075316.55576968 0 645075316.55576968 534380783.67825317 0 0 0 0 185617317.5895462 723943102.96498489 0 723943102.96498489 436563228.06230164 0 0 0 0 186048219.16669607 723949580.43669224 0 723949580.43669224 338787272.43957901 0 0 0 0 644261024.70922089 646125879.63618469 0 646125879.63618469 351877573.22819138 0 0 0 0 -103544917.81479454 698718548.82670307 0 698718548.82670307 515531181.20020676 0 0 0 0 -184131768.62210941 738220699.6432023 0 738220699.6432023 511911345.01246643 0 0 0 0 49456288.427047729 726553124.24897385 0 726553124.24897385 430199789.65322876 0 0 0 0 116713366.00279999 479012302.20713806 0 479012302.20713806 705964839.8285141 0 0 0 0 628579329.35056305 668900452.24787331 0 668900452.24787331 374623807.44336367 0 0 0 0 49119813.075195312 17405911.257751465 0 17405911.257751465 -25938268.569173813 0 0 0 0 35236986.156829834 23005929.950569153 0 23005929.950569153 44855474.943344116 0 0 0 0 35435065.254470825 59618908.617095947 0 59618908.617095947 -34030363.824935913 0 0 0 0 9135818.7077178955 -32060319.032608032 0 -32060319.032608032 26602750.914474487 0 0 0 0 -4285769.0127726123 9862354.9797994308 0 9862354.9797994308 -5351507.104043033 0 0 0 0 -43905140.654006958 -27051299.183128357 0 -27051299.183128357 65223715.760162354 0 0 0 0 394699741.89710236 384633329.31021595 0 384633329.31021595 89729752.149837494 0 0 0 0 1592197744.894001 1061261544.1253576 0 1061261544.1253576 255236781.46464157 0 0 0 0 696367249.36191559 1093221449.6347904 0 1093221449.6347904 565748452.8682518 0 0 0 0 890320563.99523735 633616806.54853773 0 633616806.54853773 317730.80240631104 0 0 0 0 527425886.54682159 1245173504.9485245 0 1245173504.9485245 1446091212.4325027 0 0 0 0 889552594.55879974 -224298964.2025528 0 -224298964.2025528 49449566.802709579 0 0 0 0 -669157.00097189099 7573453.76790962 0 7573453.76790962 -2447788.8202588167 0 0 0 0 6647934.8791618347 13037224.160796165 0 13037224.160796165 -47153081.466438293 0 0 0 0 -54581535.946289062 -89976078.77571106 0 -89976078.77571106 50030991.549446106 0 0 0 0 1753317.8602269888 5107674.7790111471 0 5107674.7790111471 -1248693.8102069646 0 0 0 0 24317241.678649902 13311354.676826477 0 13311354.676826477 -45126542.384910583 0 0 0 0 -3225638.8927454296 10894536.662121743 0 10894536.662121743 -8412799.7464881241 0 0 0 0 -22250928.957902908 -16081397.557986259 0 -16081397.557986259 -16800602.038791656 0 0 0 0 21265440.953392029 16579350.422992706 0 16579350.422992706 -8528743.2559356689 0 0 0 0 -5105228.1613006592 20314975.691478729 0 20314975.691478729 33964021.721855164 0 0 0 0 -6748407.1820373535 54439853.345664978 0 54439853.345664978 77723244.576992035 0 0 0 0 42169502.234506607 20294853.229416847 0 20294853.229416847 31573898.506530762 0 0 0 0 -5209860.5845031738 73399790.828987122 0 73399790.828987122 8319108.0925445557 0 0 0 0 22454650.924621582 41414747.930595398 0 41414747.930595398 37286587.92678833 0 0 0 0 -45972014.075790405 39417145.33070755 0 39417145.33070755 57800967.756851196 0 0 0 0 19222929.410720825 3051262.6996459961 0 3051262.6996459961 78078545.599731445 0 0 0 0 32478893.487449646 57479315.548030853 0 57479315.548030853 162366121.20437622 0 0 0 0 16614100.804904938 40573566.378757477 0 40573566.378757477 185439236.64178467 0 0 0 0 -5602.9167532213032 85173.645075425506 0 85173.645075425506 -8246.1994600747712 0 0 0 0 206949.38845508173 268835.67186045274 0 268835.67186045274 -188650.39482091926 0 0 0 0 24902172.268218994 -18113287.185913086 0 -18113287.185913086 -22872395.024841309 0 0 0 0 28036343.575073242 71139266.599060059 0 71139266.599060059 150736751.43243408 0 0 0 0 1476905.1403899901 944169.85279398412 0 944169.85279398412 -541365.21647773054 0 0 0 0 738707.98764419556 10799316.403993607 0 10799316.403993607 -66512.391372680664 0 0 0 0 2700010.3416290283 5495547.9617118835 0 5495547.9617118835 1246291.8147711754 0 0 0 0 1722216.0918624178 817238.82964607887 0 817238.82964607887 -1264593.0047138482 0 0 0 0 2052967.5298157111 611952.18772256654 0 611952.18772256654 -1501978.5842803195 0 0 0 0 19078636.518321991 9023398.3838195801 0 9023398.3838195801 -495007.69035339355 0 0 0 0 23698789.637451172 227657.4342956543 0 227657.4342956543 -16665841.147277832 0 0 0 0 55866854.814285278 6088383.4010848999 0 6088383.4010848999 -7297427.8298950195 0 0 0 0 29971522.911499023 -10737709.968688965 0 -10737709.968688965 13510579.583602905 0 0 0 0 -942877.71835307777 1022825.2720505223 0 1022825.2720505223 -164525.13465464115 0 0 0 0 279413.193359375 1115945.4799499512 0 1115945.4799499512 1317849.2969512939 0 0 0 0 3317630.2016245015 8120194.6535044014 0 8120194.6535044014 -3669187.6089128698 0 0 0 0 12905589.142318964 29227369.717404842 0 29227369.717404842 -1598805.2721176147 0 0 0 0 26011.562484741211 7708491.6307754517 0 7708491.6307754517 7788480.9179763794 0 0 0 0 -2701614.605280906 721194.91524255089 0 721194.91524255089 551799.63808590174 0 0 0 0 1376021.4839477539 2651608.5920715332 0 2651608.5920715332 3466975.8423461914 0 0 0 0 -37050.71760673821 400660.23665179685 0 400660.23665179685 263502.54491846636 0 0 0 0 1871873.3061876372 3486543.7592570186 0 3486543.7592570186 -1886754.9977441414 0 0 0 0 14099549.853324294 -22622008.16257292 0 -22622008.16257292 27756220.626075745 0 0 0 0 -7305285.7572391517 8571635.5130930711 0 8571635.5130930711 -554165.71362593025 0 0 0 0 -16556161.481708527 5805602.1223220825 0 5805602.1223220825 -8597302.0356025696 0 0 0 0 4948277.1613756754 5783289.8911308888 0 5783289.8911308888 -3925625.7951309346 0 0 0 0 -32906497.081287384 14906334.798547745 0 14906334.798547745 2833310.3279724121 0 0 0 0 23073990.674058914 -5175872.7767696381 0 -5175872.7767696381 -11489585.814743042 0 0 0 0 7732616.2130279541 9679630.4761199951 0 9679630.4761199951 -7871627.391869545 0 0 0 0 3227470.7471618652 25423259.955692291 0 25423259.955692291 -19000725.968558311 0 0 0 0 -17668764.501182556 36337438.958286285 0 36337438.958286285 -20993402.749717712 0 0 0 0 57656210.152565002 32144091.221380234 0 32144091.221380234 -86009645.606323242 0 0 0 0 34091212.297271729 -21014206.648891449 0 -21014206.648891449 5780735.3042144775 0 0 0 0 2173733.1808070652 1095745.7760402588 0 1095745.7760402588 -1960013.654721044 0 0 0 0 -58610286.431518555 108114385.37599182 0 108114385.37599182 -16608335.712211609 0 0 0 0 592163.39563058317 177720.00775974803 0 177720.00775974803 -404150.76003501564 0 0 0 0 -9456808.7895584106 21371380.990921021 0 21371380.990921021 20312844.409755707 0 0 0 0 110595553.60424805 -120057242.4009552 0 -120057242.4009552 60265869.735641479 0 0 0 0 26314352.994979858 12898279.297012329 0 12898279.297012329 -59966658.801132202 0 0 0 0 21169124.864120483 79167559.318855286 0 79167559.318855286 29220131.444431305 0 0 0 0 -8752678.887512207 31189100.496248245 0 31189100.496248245 2553768.4553222656 0 0 0 0 481271.22506674007 232859.7785955267 0 232859.7785955267 -337344.60327756032 0 0 0 0 24798058.866790771 88949032.891868591 0 88949032.891868591 -12294749.596981049 0 0 0 0 1786662.4409561157 24854743.620048523 0 24854743.620048523 -23136284.010665894 0 0 0 0 21203173.977233887 21572082.601516724 0 21572082.601516724 1748828.3971557617 0 0 0 0 -3087946.9218141865 9856649.6880980711 0 9856649.6880980711 -3443930.625556428 0 0 0 0 -15934216.214561462 -4614929.5501117706 0 -4614929.5501117706 204256330.13592672 0 0 0 0 -8022423.9230117798 25713378.181735992 0 25713378.181735992 -5720738.0172424316 0 0 0 0 -1233663.7643925808 2803735.9233777188 0 2803735.9233777188 636761.92983426154 0 0 0 0 -1528639.2984008789 2545012.1938476562 0 2545012.1938476562 351002.22164916992 0 0 0 0 -5674540.6268795282 4028058.8355718106 0 4028058.8355718106 557840.66563966125 0 0 0 0 -14980572.663024902 -4810030.2923660278 0 -4810030.2923660278 1628358.6361236572 0 0 0 0 3498088.5079694726 5802538.719548516 0 5802538.719548516 -5892583.7999865934 0 0 0 0 -101644.06766312197 4779470.2003667317 0 4779470.2003667317 -1698928.6932022646 0 0 0 0 -4588967.9293823242 11502166.209655762 0 11502166.209655762 -4852095.5998773575 0 0 0 0 -7810014.3149795532 23554366.289718628 0 23554366.289718628 -3518469.930721283 0 0 0 0 5006411.4195155948 10703565.800432809 0 10703565.800432809 520886.03379386663 0 0 0 0 -13514336.300140381 16533646.8373909 0 16533646.8373909 -11382651.31772995 0 0 0 0 23086495.644989014 27551736.299102783 0 27551736.299102783 1884261.5432815552 0 0 0 0 -7992059.5745010376 -998052.90582847595 0 -998052.90582847595 -23052625.227890015 0 0 0 0 -37821414.265594482 15784131.055404663 0 15784131.055404663 2082257.2929619551 0 0 0 0 -355512649.94530106 453682748.81429863 0 453682748.81429863 -555623796.88929749 0 0 0 0 56190732.026527405 35075496.980369568 0 35075496.980369568 -15475332.540756226 0 0 0 0 1586253.9375096029 2865230.4141220748 0 2865230.4141220748 -7683966.8363353834 0 0 0 0 32024922.703708649 65390115.506950378 0 65390115.506950378 6313639.2791900635 0 0 0 0 -73222090.312057495 21913843.42697525 0 21913843.42697525 38678601.430534363 0 0 0 0 -104925168.33642578 -78677228.628856659 0 -78677228.628856659 -42339270.420732498 0 0 0 0 71663855.818229675 -18452001.851341248 0 -18452001.851341248 -276102969.93943024 0 0 0 0 5774690.7160110474 17692567.479663849 0 17692567.479663849 2269113.9813232422 0 0 0 0 52031635.691268921 34857348.69320488 0 34857348.69320488 -301245590.20792389 0 0 0 0 428702.59934997559 57502615.826065063 0 57502615.826065063 -103429125.03769612 0 0 0 0 66149816.414123535 -7065512.3476676941 0 -7065512.3476676941 -182813963.37032259 0 0 0 0 6650381.589978274 9457375.4003707245 0 9457375.4003707245 -1181566.3064019801 0 0 0 0 -15431.037466280162 2108429.8138925582 0 2108429.8138925582 794108.89073769096 0 0 0 0 12833145.145671844 9086464.2855052948 0 9086464.2855052948 -11541417.531642914 0 0 0 0 2321319.3850231171 6019799.3400306702 0 6019799.3400306702 -10188133.778007507 0 0 0 0 17659117.807792664 14051761.96352005 0 14051761.96352005 -15162807.764434814 0 0 0 0 4817212.0260873735 7992195.0178207159 0 7992195.0178207159 1292474.4533833526 0 0 0 0 9177552.5757827759 18972674.886623383 0 18972674.886623383 -15669795.288414001 0 0 0 0 6905408.9130935669 44742917.751125336 0 44742917.751125336 -74311364.371116638 0 0 0 0 9987070.4945678711 70661821.486129761 0 70661821.486129761 7678329.1260223389 0 0 0 0 -17869327.424472809 40454396.476886749 0 40454396.476886749 2362302.7043838501 0 0 0 0 9887852.850457387 5894687.5116038211 0 5894687.5116038211 -6753419.7763663121 0 0 0 0 15772997.793713015 5888095.5276603326 0 5888095.5276603326 -3982818.6602044394 0 0 0 0 160264462.44580841 93390160.618423462 0 93390160.618423462 43169217.029709935 0 0 0 0 10421443.772136234 3269640.8350772113 0 3269640.8350772113 -1723153.9188888136 0 0 0 0 46844347.353275299 21891942.625179291 0 21891942.625179291 -180407579.45813036 0 0 0 0 211740485.92644501 474186101.89659119 0 474186101.89659119 446915642.36812425 0 0 0 0 479462127.08772278 1195890423.8929253 0 1195890423.8929253 2264865216.9712896 0 0 0 0 3762247.0882499926 1267921.4756941721 0 1267921.4756941721 -366360.02940026205 0 0 0 0 49467507.075737476 -142740166.19966269 0 -142740166.19966269 173684391.50296021 0 0 0 0 74627973.885673523 119394160.03834534 0 119394160.03834534 -10065273.224365234 0 0 0 0 2744474.648252964 -6163255.3209729195 0 -6163255.3209729195 89402084.442810059 0 0 0 0 237751238.04450607 26209842.029243469 0 26209842.029243469 29212159.172813416 0 0 0 0 791288107.28383636 -67441223.121311188 0 -67441223.121311188 -54663457.228191376 0 0 0 0 239338811.6041441 25917023.270852089 0 25917023.270852089 -46030422.487487793 0 0 0 0 26718515.565505981 -26285033.097206116 0 -26285033.097206116 20134452.972373962 0 0 0 0 18413478.870178223 33550153.375152588 0 33550153.375152588 69062434.735397339 0 0 0 0 33082020.149217606 7662348.2357912064 0 7662348.2357912064 1970737.6522369385 0 0 0 0 1424952.0676078796 -15266071.996860504 0 -15266071.996860504 21357456.090507507 0 0 0 0 -18259574.779197693 600313.05167007446 0 600313.05167007446 8665282.4297790527 0 0 0 0 11116815.201976776 35390057.232975006 0 35390057.232975006 2141290.7418189049 0 0 0 0 -17498552.81080246 31487503.857093811 0 31487503.857093811 56525034.904846191 0 0 0 0 -17884561.599239349 22998847.443595886 0 22998847.443595886 -13367276.651443481 0 0 0 0 -30572889.795993805 8174877.400188446 0 8174877.400188446 19959896.638366699 0 0 0 0 -18704675.005691528 -3226709.1135025024 0 -3226709.1135025024 -1153516.9493865967 0 0 0 0 1689824.7348410413 5316827.6770064123 0 5316827.6770064123 -929511.59474055376 0 0 0 0 -16685462.116184235 1111306.7784957886 0 1111306.7784957886 -6774013.4602355957 0 0 0 0 -8249822.504108429 -5134108.7735519409 0 -5134108.7735519409 -27037403.592857361 0 0 0 0 19675904.952087402 45245443.794677734 0 45245443.794677734 -12786234.562634468 0 0 0 0 -13624425.297424316 4514524.1128311157 0 4514524.1128311157 3506285.8159980774 0 0 0 0 -11653232.019721985 -16530041.013973236 0 -16530041.013973236 -6795573.3873748779 0 0 0 0 289607.48954772949 11127028.079105377 0 11127028.079105377 21265694.063682556 0 0 0 0 -2273554.6457530968 3754680.9841327742 0 3754680.9841327742 -588602.71477876604 0 0 0 0 -36551577.856689453 15474793.199249268 0 15474793.199249268 33177632.77155304 0 0 0 0 -8878469.576823812 989619.86027509719 0 989619.86027509719 2154384.9256370552 0 0 0 0 -15371391.275375366 -18376633.594046593 0 -18376633.594046593 21124994.182823181 0 0 0 0 23110760.419769287 -21422781.367416382 0 -21422781.367416382 -6297974.2886810303 0 0 0 0 -14435155.451721191 6942896.6467437744 0 6942896.6467437744 16435492.901832581 0 0 0 0 -2654156.9276999049 2999634.7383623887 0 2999634.7383623887 -330941.87567205913 0 0 0 0 -7299877.8670881502 4296113.3669530461 0 4296113.3669530461 -660558.80266860127 0 0 0 0 -811766.13903045654 9113476.9039173126 0 9113476.9039173126 11759880.510471344 0 0 0 0 1324248.9850463867 8093966.8923034668 0 8093966.8923034668 11703626.499801636 0 0 0 0 -588866.44084656984 -366122.39463083912 0 -366122.39463083912 464037.20575588569 0 0 0 0 18055188.34387207 20412350.934158325 0 20412350.934158325 69474264.5209198 0 0 0 0 -774283.6408697553 -227149.55312322453 0 -227149.55312322453 353517.69537537545 0 0 0 0 19665030.952384949 54292661.918077469 0 54292661.918077469 52507858.24156189 0 0 0 0 -19530853.792572021 -9849460.6627197266 0 -9849460.6627197266 14822967.24937439 0 0 0 0 13542849.521820068 29618569.464309692 0 29618569.464309692 55294244.988327026 0 0 0 0 53870164.001724243 23452477.790466309 0 23452477.790466309 6619569.9708099365 0 0 0 0 9349268.7647018433 -15742867.404144287 0 -15742867.404144287 -6761702.2041642666 0 0 0 0 43853249.15524292 10035074.533279419 0 10035074.533279419 53619521.013031006 0 0 0 0 26621621.375976562 33311847.750991821 0 33311847.750991821 25076382.794494629 0 0 0 0 -40322739.098922729 29693012.109870911 0 29693012.109870911 8729186.6039123535 0 0 0 0 7198385.4772644043 73612993.499694824 0 73612993.499694824 2607527.6473655701 0 0 0 0 27758731.929210663 72773508.268892288 0 72773508.268892288 1971869.8791809082 0 0 0 0 58723402.219825745 13780087.07522583 0 13780087.07522583 20772761.11289978 0 0 0 0 12315192.40341568 14596904.578292847 0 14596904.578292847 -15581885.005348206 0 0 0 0 -50619.653287120163 -52642.443909147754 0 -52642.443909147754 -84733.003013156354 0 0 0 0 -18132.137762542814 -36883.42226821743 0 -36883.42226821743 -22278.065838515759 0 0 0 0 17509990.499938965 25439333.370223999 0 25439333.370223999 -44510952.830551147 0 0 0 0 -41955825.670684814 -14684360.555755615 0 -14684360.555755615 16216503.588905334 0 0 0 0 -32493390.025550842 23332878.556850433 0 23332878.556850433 19193835.684616089 0 0 0 0 -25772129.01802063 -1495377.8784942627 0 -1495377.8784942627 12818739.103530884 0 0 0 0 -12666446.773334503 21283130.978141785 0 21283130.978141785 -43977499.62437439 0 0 0 0 573104.42825676128 5077908.2209372446 0 5077908.2209372446 -1529947.4924546499 0 0 0 0 -271211222.64588165 148689866.53631783 0 148689866.53631783 -4476724.1600646973 0 0 0 0 -76315527.123420715 156322085.98944092 0 156322085.98944092 -205656331.33148289 0 0 0 0 -78245006.326848984 691410180.74805832 0 691410180.74805832 -1014202149.0026474 0 0 0 0 -317980221.61254883 844060272.9653511 0 844060272.9653511 -1107802332.7225876 0 0 0 0 -190019876.51978302 596976326.16948605 0 596976326.16948605 -712855022.62435532 0 0 0 0 -37744040.065883636 417129425.59811211 0 417129425.59811211 -559880032.04257786 0 0 0 0 -126155206.54130554 38440945.566795349 0 38440945.566795349 -252899556.333601 0 0 0 0 779180.26820392907 5862100.5275846086 0 5862100.5275846086 -1075305.4531034324 0 0 0 0 3828821.7104949951 15678817.078338623 0 15678817.078338623 -6195053.6219406128 0 0 0 0 -21960507.570782661 17675314.576068878 0 17675314.576068878 12819470.350067139 0 0 0 0 42875604.394226074 18830216.85949707 0 18830216.85949707 12054682.61227417 0 0 0 0 -660219.73688089848 -418300.80617198255 0 -418300.80617198255 476311.53549602255 0 0 0 0 -13139039.907989502 1942674.9633331299 0 1942674.9633331299 759335.18899536133 0 0 0 0 -9630661.0197365917 1910324.6563696433 0 1910324.6563696433 2814161.4892366771 0 0 0 0 113535737.71688843 103520617.85689163 0 103520617.85689163 -1480365801.3736267 0 0 0 0 426367102.40440369 338332109.71217346 0 338332109.71217346 227935845.71363068 0 0 0 0 -237500.0391552113 550309.16987815499 0 550309.16987815499 185483.21112146042 0 0 0 0 86438866.582061768 93740930.300163269 0 93740930.300163269 121295650.36650085 0 0 0 0 170516914.2997818 36039690.892953873 0 36039690.892953873 -39578698.363327026 0 0 0 0 203099482.67002869 1312234.699256897 0 1312234.699256897 -15439687.497749329 0 0 0 0 49964753.266296387 -63037526.008834839 0 -63037526.008834839 -35482299.739044189 0 0 0 0 -14890037.169921875 69351720.906585693 0 69351720.906585693 55074333.884490967 0 0 0 0 23507010.250747681 13386882.887577057 0 13386882.887577057 32934313.271247864 0 0 0 0 -31790291.244567871 63966378.066410065 0 63966378.066410065 5653713.8771743774 0 0 0 0 31789590.052726746 37427932.371353149 0 37427932.371353149 -104947267.3061142 0 0 0 0 37017389.110980988 2818886.0800514221 0 2818886.0800514221 -55100714.825050354 0 0 0 0 1630811.5579924993 583812.59542576596 0 583812.59542576596 -650231.68951347889 0 0 0 0 203793940.90877533 -78548649.376422882 0 -78548649.376422882 -89989642.996894836 0 0 0 0 209664850.14020538 220809693.25502872 0 220809693.25502872 129415454.01182556 0 0 0 0 714999.64935661852 -278967.45883665234 0 -278967.45883665234 -236057.91386451316 0 0 0 0 52692783.740550995 155259373.69517517 0 155259373.69517517 240609433.2754097 0 0 0 0 120047747.51354218 421720152.25484467 0 421720152.25484467 -5912640.4342880249 0 0 0 0 71328501.632705688 491678821.52474976 0 491678821.52474976 2663344.2196822166 0 0 0 0 -717356355.38636208 842188935.30696678 0 842188935.30696678 -31109555.455200195 0 0 0 0 -339297809.78220367 253527362.58940697 0 253527362.58940697 50725247.100891113 0 0 0 0 352740825.7332077 10507600.350982666 0 10507600.350982666 -113692711.66035461 0 0 0 0 193234336.14650536 33620900.039142609 0 33620900.039142609 -112110104.47715759 0 0 0 0 -221616184.21963501 284284515.43721771 0 284284515.43721771 -31549417.36000061 0 0 0 0 -181419551.15834808 -15829889.362716675 0 -15829889.362716675 11424661.905509949 0 0 0 0 196663350.01614189 -115698642.34415627 0 -115698642.34415627 28817726.705154419 0 0 0 0 -528079143.24120331 157221947.5664711 0 157221947.5664711 282462881.48322105 0 0 0 0 -2314511.548297748 2471857.2311953716 0 2471857.2311953716 -498629.1221848242 0 0 0 0 -30696510.922836304 438130301.08866119 0 438130301.08866119 -2209439114.5624886 0 0 0 0 27269196.726226807 97595597.169151306 0 97595597.169151306 245420233.38817024 0 0 0 0 -738460029.80617332 1454829496.4902229 0 1454829496.4902229 -2042402171.113266 0 0 0 0 -1273828620.8410416 692804107.37607574 0 692804107.37607574 61402414.463374138 0 0 0 0 -1180207584.9154847 244119379.73300385 0 244119379.73300385 -1070321546.7931137 0 0 0 0 -706767736.25331879 617190313.89552689 0 617190313.89552689 -850733127.50588036 0 0 0 0 -316802795.92604065 992670775.97659683 0 992670775.97659683 -1994215478.5390625 0 0 0 0 -1154165484.7763963 1191624819.9846301 0 1191624819.9846301 -1094127056.8046494 0 0 0 0 -281072347.95738983 711246637.49217987 0 711246637.49217987 -853664528.77495098 0 0 0 0 -310118410.81735992 384814354.9618187 0 384814354.9618187 -795605489.55632782 0 0 0 0 -288699669.60687256 651203974.38640213 0 651203974.38640213 -1324683998.1847954 0 0 0 0 -570726268.96757507 369090191.65046692 0 369090191.65046692 -947795139.15231323 0 0 0 0 -650379496.57893944 1027154324.2675095 0 1027154324.2675095 -704304734.12773895 0 0 0 0 -278930783.34406281 646052028.50022888 0 646052028.50022888 -676001114.52542114 0 0 0 0 -467092616.56066132 899966945.26595974 0 899966945.26595974 -611208355.9548111 0 0 0 0 -521424658.38372993 886169221.876091 0 886169221.876091 -231878725.35614777 0 0 0 0 -420244320.72908783 889004006.70597076 0 889004006.70597076 -628981570.00276947 0 0 0 0 -304804174.0383873 765111383.46582031 0 765111383.46582031 -220611558.13514304 0 0 0 0 -560168047.28457832 946246002.31145954 0 946246002.31145954 -7687446.9358901978 0 0 0 0 -743895220.87451935 386227009.74329567 0 386227009.74329567 -228314771.21300507 0 0 0 0 -1546014076.7213097 745314738.87142229 0 745314738.87142229 -34325094.749969482 0 0 0 0 709814716.1234169 703351846.0148201 0 703351846.0148201 85863721.716720581 0 0 0 0 -92501.268677187152 983329.74205077812 0 983329.74205077812 111277.23531931639 0 0 0 0 -349489992.41529274 758211198.23771477 0 758211198.23771477 64750296.469772339 0 0 0 0 372352257.90916443 197998375.29097748 0 197998375.29097748 -43395904.001560211 0 0 0 0 542575682.09230042 208531419.54315567 0 208531419.54315567 -44985051.493408203 0 0 0 0 503171963.43441391 255212347.81209946 0 255212347.81209946 -99989363.209911346 0 0 0 0 639941291.30683517 756652300.38192749 0 756652300.38192749 53226179.998864174 0 0 0 0 1845226904.920845 365895216.93418884 0 365895216.93418884 -250559061.26661301 0 0 0 0 722259652.66744995 298234993.10065842 0 298234993.10065842 -111340094.77098846 0 0 0 0 839124366.29704666 -441254618.13273621 0 -441254618.13273621 -73571297.326667786 0 0 0 0 1413398671.4497681 -448539194.42470932 0 -448539194.42470932 423229156.67971039 0 0 0 0 578042525.9105835 921280769.1196804 0 921280769.1196804 1504195261.4181824 0 0 0 0 -458626107.81168365 554938525.23760605 0 554938525.23760605 414275878.97232962 0 0 0 0 -255007.81638992019 1699547.2912327088 0 1699547.2912327088 -306789.3897530511 0 0 0 0 -961614957.45703983 385200120.45851183 0 385200120.45851183 -226855095.63563538 0 0 0 0 295133600.65872097 185674263.42088318 0 185674263.42088318 -26181580.299537659 0 0 0 0 -106933269.80905914 -164809668.83899307 0 -164809668.83899307 -73408714.142459869 0 0 0 0 -82601569.837126732 -262266189.16100025 0 -262266189.16100025 117047591.04338074 0 0 0 0 -76382.190827675164 1481756.8089372851 0 1481756.8089372851 -2763837.2863252535 0 0 0 0 -673537121.2531395 -196907990.40048838 0 -196907990.40048838 250426715.93321991 0 0 0 0 -1024142044.9910865 36320751.365534306 0 36320751.365534306 141438026.27217102 0 0 0 0 -89843247.527122498 -486257324.3396759 0 -486257324.3396759 220534345.72899723 0 0 0 0 321544390.57588577 -159325532.55169868 0 -159325532.55169868 5541557.0301055908 0 0 0 0 247441916.80498505 -94326513.385360718 0 -94326513.385360718 451722277.41542053 0 0 0 0 462529432.30618286 371727296.43088531 0 371727296.43088531 307182659.21437836 0 0 0 0 1925243196.4742432 875262109.85075474 0 875262109.85075474 351310030.61730194 0 0 0 0 961416103.78704453 -120998042.07567406 0 -120998042.07567406 -185506370.40070343 0 0 0 0 234075576.76615143 93190215.34803009 0 93190215.34803009 -211935303.19169617 0 0 0 0 381284753.15217209 -279604620.99092865 0 -279604620.99092865 -252965560.57082367 0 0 0 0 208707598.00202179 -191158697.15887642 0 -191158697.15887642 -732030918.15546417 0 0 0 0 28535.228817805648 1483631.6316136532 0 1483631.6316136532 -246172.17834496312 0 0 0 0 133524959.00893402 201431010.76791763 0 201431010.76791763 -443845996.49906158 0 0 0 0 402423712.46953201 227135694.50112724 0 227135694.50112724 -414416897.34887695 0 0 0 0 -140932661.50272369 -35612972.453330994 0 -35612972.453330994 -288702069.64458847 0 0 0 0 181039137.90336609 -44166064.361343384 0 -44166064.361343384 -316525855.39467621 0 0 0 0 66052641.050273895 232870341.94669151 0 232870341.94669151 -389725298.32806396 0 0 0 0 -696003.58982330561 3398477.061240755 0 3398477.061240755 -189460.41444147751 0 0 0 0 -1124597.5756149292 40917543.303134918 0 40917543.303134918 60451494.99168396 0 0 0 0 -1067408.6805828065 1335115.2141528912 0 1335115.2141528912 2274369.7764437012 0 0 0 0 15502243.494369507 43885058.249759674 0 43885058.249759674 59329602.997894287 0 0 0 0 -24525453.61190033 37074037.604496002 0 37074037.604496002 127393363.06510925 0 0 0 0 893515.07233428955 35266759.177101135 0 35266759.177101135 53431497.427348137 0 0 0 0 18897817.295160294 -15232068.101540565 0 -15232068.101540565 64234098.267158508 0 0 0 0 -2540252.1576538086 47144659.191035271 0 47144659.191035271 -11620086.466842651 0 0 0 0 -10333834.961288452 8280064.7487449646 0 8280064.7487449646 26967445.376407623 0 0 0 0 -961363.62396240234 60609040.269989014 0 60609040.269989014 70330462.407394409 0 0 0 0 10126057.934986115 20517874.791965485 0 20517874.791965485 -430368044.49363327 0 0 0 0 -63130783.064254761 -134353745.65741348 0 -134353745.65741348 -78362246.0845294 0 0 0 0 874084.16903941892 1636667.8888493553 0 1636667.8888493553 -7473933.6364116892 0 0 0 0 -20111417.697505951 -117644472.05071831 0 -117644472.05071831 -171341638.98072052 0 0 0 0 -903052046.15184784 359937614.2907877 0 359937614.2907877 413470763.99411011 0 0 0 0 2962198.7389662722 3122175.9998791963 0 3122175.9998791963 -13162349.935594648 0 0 0 0 24648175.46157074 278560556.44486237 0 278560556.44486237 -1244515913.9035034 0 0 0 0 24796275.284141541 28656061.477939606 0 28656061.477939606 432494.9740524292 0 0 0 0 378386.76217436418 9848421.4310778864 0 9848421.4310778864 401707.6405428201 0 0 0 0 14226636.051578522 13938027.676261902 0 13938027.676261902 -18874484.179508209 0 0 0 0 22177012.808097839 51992725.532382965 0 51992725.532382965 17299660.963264465 0 0 0 0 34266932.89138031 -2228598.1935806274 0 -2228598.1935806274 -105831007.59456444 0 0 0 0 -120939307.50107765 65721393.258085251 0 65721393.258085251 145897990.10980225 0 0 0 0 -375390.71599122789 2789120.5723920688 0 2789120.5723920688 432406.96458280832 0 0 0 0 11031122.123737335 203299065.44554424 0 203299065.44554424 289065852.06230164 0 0 0 0 69814589.105480194 -9039576.4689483643 0 -9039576.4689483643 62432711.569213867 0 0 0 0 49760224.514419556 94394383.942886353 0 94394383.942886353 184357322.06574249 0 0 0 0 156905258.84923553 88538493.551914215 0 88538493.551914215 314479.94306945801 0 0 0 0 457226446.70083237 486489819.58542442 0 486489819.58542442 263854240.36117554 0 0 0 0 302109992.4264946 172982464.61592865 0 172982464.61592865 48879045.740447998 0 0 0 0 13934275.878326416 35430319.716567993 0 35430319.716567993 -214.23278045654297 0 0 0 0 -464095.21064376831 37024388.287378311 0 37024388.287378311 23938224.427612305 0 0 0 0 -1849219.9044475555 27975628.72936821 0 27975628.72936821 -22696071.139450073 0 0 0 0 63089727.726768494 93316602.74797821 0 93316602.74797821 71560111.947105408 0 0 0 0 28260308.56325531 36163049.318504333 0 36163049.318504333 -184528.03177452087 0 0 0 0 49261083.408534765 28504107.335619211 0 28504107.335619211 50441809.217048645 0 0 0 0 2194282.3917160034 31516697.547134399 0 31516697.547134399 62568126.747055054 0 0 0 0 12413341.931632996 5403661.2297401428 0 5403661.2297401428 7529545.2100067139 0 0 0 0 -6087328.2736587524 368371.72559356689 0 368371.72559356689 20521210.769499302 0 0 0 0 -6697894.5506572723 4828201.6939373016 0 4828201.6939373016 -3149795.9198608398 0 0 0 0 -4995256.1752433777 -9755748.7188796997 0 -9755748.7188796997 -14054061.710723877 0 0 0 0 -9470589.5655708313 -3843974.135175705 0 -3843974.135175705 -15700902.676689148 0 0 0 0 -10213106.435810089 -4006534.0871944427 0 -4006534.0871944427 14543021.528778076 0 0 0 0 9764904.9409561157 -22601406.586776733 0 -22601406.586776733 -33300193.500183105 0 0 0 0 -6396600.5210323334 -18234863.318040848 0 -18234863.318040848 18506848.463516235 0 0 0 0 555719.69075010344 10663292.395132273 0 10663292.395132273 500253.32105861604 0 0 0 0 -5289054.1286506653 9958023.182723999 0 9958023.182723999 12348736.985343933 0 0 0 0 9116782.1030502319 3093858.10105896 0 3093858.10105896 -59839852.143722534 0 0 0 0 1677330.9303537644 6432203.1824001204 0 6432203.1824001204 -3722202.3206037357 0 0 0 0 3734095.8310585022 6362848.1021156311 0 6362848.1021156311 -371382.18069553375 0 0 0 0 1448470.3857778125 4886258.6247587539 0 4886258.6247587539 -1595192.2091922071 0 0 0 0 2768760.7258911133 22341272.685562134 0 22341272.685562134 68869199.606904984 0 0 0 0 3216272.284526825 3386294.9596843719 0 3386294.9596843719 -4269609.7311248779 0 0 0 0 2255682.0819740295 3597922.6688690186 0 3597922.6688690186 -1415531.4410018921 0 0 0 0 3468945.0272331238 3799156.4473800659 0 3799156.4473800659 -2749092.5370941162 0 0 0 0 2904469.7314720154 5353745.5411424637 0 5353745.5411424637 892315.43090057373 0 0 0 0 -11612727.978469849 4962547.6267089844 0 4962547.6267089844 -9196683.3012733459 0 0 0 0 -12718554.564266205 -1140158.9653282166 0 -1140158.9653282166 -5887334.8554992676 0 0 0 0 -12477304.99079895 160910.78337860107 0 160910.78337860107 374754.88714599609 0 0 0 0 -10952287.034980774 2424859.253074646 0 2424859.253074646 -4147024.0809555054 0 0 0 0 3710817.7637754083 3604448.9008490415 0 3604448.9008490415 -4902278.5426519811 0 0 0 0 4412535.7584190369 4884431.1444997787 0 4884431.1444997787 -364220.35485839844 0 0 0 0 4868891.2612075806 6717196.7629890442 0 6717196.7629890442 232043.41654396057 0 0 0 0 841276.16466625407 4685562.0519231744 0 4685562.0519231744 -4093258.6000801735 0 0 0 0 -690519.94737748802 1046897.9923813678 0 1046897.9923813678 -1526260.377672866 0 0 0 0 1300281.6288133599 2970420.8064194601 0 2970420.8064194601 -260049.61964175105 0 0 0 0 -2358380.7296133041 3647598.1668653488 0 3647598.1668653488 21744.554046630859 0 0 0 0 1630892.3565063477 3777311.3401489258 0 3777311.3401489258 24708.778991699219 0 0 0 0 640216.43378829956 4601565.3531303406 0 4601565.3531303406 -1028596.1385574341 0 0 0 0 -525502.86586745083 543542.02030585334 0 543542.02030585334 -155404.07847972587 0 0 0 0 -1273972.8797683716 7706512.7776184082 0 7706512.7776184082 15213388.312919617 0 0 0 0 -11342215.322662354 16979799.433818817 0 16979799.433818817 4024.3961410522461 0 0 0 0 -4165243.6074943542 12623138.541027069 0 12623138.541027069 977053.25738525391 0 0 0 0 690003.72119903564 3184013.476436615 0 3184013.476436615 -351637.53031921387 0 0 0 0 -18665773.191825867 14165165.197280884 0 14165165.197280884 5114415.4276809692 0 0 0 0 -34303385.802001953 7998439.7890014648 0 7998439.7890014648 7909940.2307128906 0 0 0 0 -55195.375720080163 3052266.0516323633 0 3052266.0516323633 2696784.3523788452 0 0 0 0 2463383.6704717972 4291798.3423198722 0 4291798.3423198722 -145229.66937861592 0 0 0 0 -9452801.513130188 10312948.399719238 0 10312948.399719238 2861254.6143264771 0 0 0 0 -401062.29476927966 9875291.0640570037 0 9875291.0640570037 2049830.9952613022 0 0 0 0 -1408828.5039825439 14580876.940158844 0 14580876.940158844 -894766.24143218994 0 0 0 0 -7280948.7287693024 15877987.830181122 0 15877987.830181122 3029611.3786621094 0 0 0 0 -966856.59743659198 11931827.630355239 0 11931827.630355239 2962748.4910483547 0 0 0 0 -3346598.9358739853 16159699.560866833 0 16159699.560866833 10499535.059280396 0 0 0 0 3762533.7018737793 5191857.8460426331 0 5191857.8460426331 -366377.05709838867 0 0 0 0 3586999.2320364388 4530222.4718736354 0 4530222.4718736354 -6585000.7718499415 0 0 0 0 19595410.91078186 22116116.313537598 0 22116116.313537598 -10481361.37077713 0 0 0 0 -5299365.5759315491 24478928.136761189 0 24478928.136761189 178059.16927337646 0 0 0 0 2413083.7735214233 3540092.6868095398 0 3540092.6868095398 -2555304.6449604034 0 0 0 0 86951640.535873413 18469854.379444122 0 18469854.379444122 -48145826.483444214 0 0 0 0 3088888.5792416544 1546357.9338434078 0 1546357.9338434078 -6057626.6787282787 0 0 0 0 53896432.536743164 7239022.2965240479 0 7239022.2965240479 -973723.83538722992 0 0 0 0 78193983.244262695 35244151.479545593 0 35244151.479545593 -46607185.262420654 0 0 0 0 119065418.22491455 -25533336.928756714 0 -25533336.928756714 11874297.100524902 0 0 0 0 -31331312.210132599 19031371.89791584 0 19031371.89791584 10606176.636459351 0 0 0 0 -5842123.6023275033 6680406.620037186 0 6680406.620037186 4416828.2672596462 0 0 0 0 -7920083.1300201416 62886159.263202667 0 62886159.263202667 -34658599.534698486 0 0 0 0 429616066.28363037 837814887.7143364 0 837814887.7143364 1269401824.0950165 0 0 0 0 615447905.66140032 1145747445.1431389 0 1145747445.1431389 972270824.53629303 0 0 0 0 751466525.73506546 68883600.722038269 0 68883600.722038269 -2144246.9805679321 0 0 0 0 1272343804.5776711 589541269.97676277 0 589541269.97676277 684817507.24503326 0 0 0 0 381763479.94369507 701536656.21943283 0 701536656.21943283 720628497.91537476 0 0 0 0 272385746.93147278 283105066.95343781 0 283105066.95343781 300108856.46215057 0 0 0 0 606922094.52523994 1061856988.6836023 0 1061856988.6836023 924364361.64028168 0 0 0 0 707928594.12411499 1071130206.2535744 0 1071130206.2535744 152716117.37900543 0 0 0 0 543495943.72077942 875899399.24449158 0 875899399.24449158 891647415.97541809 0 0 0 0 770536926.75718689 913384156.50373077 0 913384156.50373077 885400572.34671497 0 0 0 0 -274301.472825367 1277307.1911118431 0 1277307.1911118431 -373749.21787479892 0 0 0 0 749974496.1768899 1088737634.9150016 0 1088737634.9150016 906845890.27641296 0 0 0 0 619502733.91216278 1307322598.3241653 0 1307322598.3241653 2008119655.2767715 0 0 0 0 1754587.7014068961 2229395.1914005093 0 2229395.1914005093 -664700.22142743506 0 0 0 0 -127507819.56005859 -140747105.33862305 0 -140747105.33862305 220415063.08808899 0 0 0 0 -3959992.1984836012 5631535.1090192441 0 5631535.1090192441 1598322.8151181079 0 0 0 0 -76836.81475129124 608137.54484636895 0 608137.54484636895 145659.36070785299 0 0 0 0 -168425675.74095154 263258649.36206818 0 263258649.36206818 1208525460.0116272 0 0 0 0 298711416.70637989 173198208.33362627 0 173198208.33362627 88681743.732421875 0 0 0 0 -11847.680743973702 72977.918123163283 0 72977.918123163283 -149337.01182445604 0 0 0 0 -1942430.2612677813 5195938.0584038757 0 5195938.0584038757 453718.92388165463 0 0 0 0 -218107.33580860496 3897194.6187177449 0 3897194.6187177449 -398020.13078067079 0 0 0 0 9726048.8966064453 -26395009.937438965 0 -26395009.937438965 81836539.723937988 0 0 0 0 160066632.49678993 297257791.97964001 0 297257791.97964001 -111772837.82243347 0 0 0 0 -10337924.04964447 -22625983.15517807 0 -22625983.15517807 88103090.530006409 0 0 0 0 -39310322.598091125 30654476.874145508 0 30654476.874145508 70296953.807445526 0 0 0 0 3311382.5987625122 37274266.285030365 0 37274266.285030365 63426755.256713867 0 0 0 0 205260225.35011673 410856592.92676163 0 410856592.92676163 -195559084.47281647 0 0 0 0 -172074589.67629242 205976698.08544922 0 205976698.08544922 -275215612.64015198 0 0 0 0 -4825287.4781188965 4202043.8536109924 0 4202043.8536109924 13661612.781017303 0 0 0 0 -114992878.85822678 -45479512.812238216 0 -45479512.812238216 8803460.2033004761 0 0 0 0 -392292945.03513336 72131534.369842529 0 72131534.369842529 -18487055.503087997 0 0 0 0 609366.93376643211 500350.76974215079 0 500350.76974215079 -950723.9077825509 0 0 0 0 871576050.7494812 726526820.15550995 0 726526820.15550995 518666163.25634766 0 0 0 0 986523450.76787949 1071859184.8330526 0 1071859184.8330526 377783493.76898956 0 0 0 0 -292563820.62589264 471200683.4180603 0 471200683.4180603 -103241732.38290405 0 0 0 0 690435193.86725616 606617263.61826706 0 606617263.61826706 -84656730.999969482 0 0 0 0 167493331.50821686 497459052.27490234 0 497459052.27490234 780899996.61353302 0 0 0 0 90447645.156394958 771213593.80657196 0 771213593.80657196 824930642.69278717 0 0 0 0 133152457.79944611 847685078.12713242 0 847685078.12713242 372452129.73387146 0 0 0 0 397688020.3806591 622790924.9265089 0 622790924.9265089 560720467.32530975 0 0 0 0 247201209.0094738 44981659.506729603 0 44981659.506729603 -176050.91240692139 0 0 0 0 5106634.1433367766 806953.25502702221 0 806953.25502702221 -3002120.329902716 0 0 0 0 117105896.16017151 164194504.74042892 0 164194504.74042892 -352248810.45927811 0 0 0 0 -120829602.76623917 198040079.10716438 0 198040079.10716438 -258407441.46984863 0 0 0 0 348957226.38057899 471994195.9816947 0 471994195.9816947 -14540634.111602783 0 0 0 0 -214870315.02759552 101015275.29339218 0 101015275.29339218 -231668550.73736191 0 0 0 0 1314642085.0978584 504189712.06032562 0 504189712.06032562 181958821.49865723 0 0 0 0 870738.43779189885 -460410.73664531857 0 -460410.73664531857 -59748.616444140673 0 0 0 0 -688518209.9044075 871955231.8728714 0 871955231.8728714 190605293.45401001 0 0 0 0 -92423929.250053406 154899886.71882629 0 154899886.71882629 -230623804.01974106 0 0 0 0 293938230.65011978 48968081.497202635 0 48968081.497202635 -271325056.10507202 0 0 0 0 202610780.71001434 99890293.47429657 0 99890293.47429657 -298786374.28293991 0 0 0 0 106270065.32839155 55089784.999818087 0 55089784.999818087 -310863861.95648956 0 0 0 0 191677636.16828156 -34993059.176654816 0 -34993059.176654816 -471445401.63008881 0 0 0 0 -14065191.850265503 -62970239.440979004 0 -62970239.440979004 -286171451.09567261 0 0 0 0 76666149.613857269 -82073108.290325165 0 -82073108.290325165 -730401283.05150604 0 0 0 0 -1872492788.8171654 826492886.61408806 0 826492886.61408806 -147965391.02114868 0 0 0 0 -60071250.604743958 -177557732.06515503 0 -177557732.06515503 -253719572.56986237 0 0 0 0 63488.762725884095 252359.69919580594 0 252359.69919580594 -2564400.01746618 0 0 0 0 -1331587010.4132562 -31970725.470931888 0 -31970725.470931888 -323220397.43122864 0 0 0 0 -1101549239.8387985 587880128.18155098 0 587880128.18155098 -941380514.452034 0 0 0 0 -1352724482.7624512 264476263.51169586 0 264476263.51169586 -36786931.644302368 0 0 0 0 -166458985.90705872 448369177.02769089 0 448369177.02769089 -804360586.03557634 0 0 0 0 -888506134.43037415 415207591.83834076 0 415207591.83834076 -37085074.464676045 0 0 0 0 -1165674013.8034286 -39303396.331897736 0 -39303396.331897736 90455974.51612854 0 0 0 0 -1422871619.6235199 165507748.50588417 0 165507748.50588417 -45878657.239555359 0 0 0 0 -1034508851.2015228 440677318.52257919 0 440677318.52257919 -316627092.2509079 0 0 0 0 -1613280855.8500748 180623053.15076303 0 180623053.15076303 281187928.71852875 0 0 0 0 -1576256639.4812698 283391799.87464333 0 283391799.87464333 -184398310.0358429 0 0 0 0 -93217662.021179199 -105704565.00813866 0 -105704565.00813866 33615805.42993927 0 0 0 0 -1035467256.5546188 345043429.25098801 0 345043429.25098801 747917945.6870079 0 0 0 0 268784594.66098022 456892391.49323273 0 456892391.49323273 326986196.62303925 0 0 0 0 75108306.347849846 583894431.23088551 0 583894431.23088551 252911840.43636322 0 0 0 0 243669358.54569244 87200131.662750244 0 87200131.662750244 -272466631.70227432 0 0 0 0 294472046.42063904 385023158.45744324 0 385023158.45744324 132929619.46346664 0 0 0 0 540961777.08854675 164671507.27397919 0 164671507.27397919 325141197.63347626 0 0 0 0 549464277.19139862 821452763.02304077 0 821452763.02304077 557351444.34726524 0 0 0 0 176096153.59297943 546833021.39056015 0 546833021.39056015 541565977.45426178 0 0 0 0 200196422.7562027 765355955.48371887 0 765355955.48371887 1847592225.3981171 0 0 0 0 1357202534.9113312 1164587042.6799698 0 1164587042.6799698 401201796.33577728 0 0 0 0 -310826882.39706421 57138596.665512085 0 57138596.665512085 1728922417.4647446 0 0 0 0 525218333.88609028 1267075513.8602936 0 1267075513.8602936 379207851.65598297 0 0 0 0 668818056.3924675 61067329.997518539 0 61067329.997518539 722414.71835517883 0 0 0 0 -4574092.8279915899 9706849.423447039 0 9706849.423447039 -1895164.5349486955 0 0 0 0 -358171.76985060424 3577903.7653075494 0 3577903.7653075494 1175327.8904409986 0 0 0 0 -1136595.3257470131 17404274.629748344 0 17404274.629748344 3794019.8721237183 0 0 0 0 7972735.818359375 15257711.090675354 0 15257711.090675354 19936.259880065918 0 0 0 0 6424112.5426101685 11136894.30620575 0 11136894.30620575 2055905.8308315277 0 0 0 0 -1438851.7863769531 16383834.926400185 0 16383834.926400185 -3291.6190414428711 0 0 0 0 -1619939811.3932343 2573853622.7007217 0 2573853622.7007217 737441755.89640808 0 0 0 0 22758028.842086792 2669466622.8553238 0 2669466622.8553238 -255603.72220611572 0 0 0 0 -2854794526.938561 1465654813.5569057 0 1465654813.5569057 948104792.58106995 0 0 0 0 -2867002102.6711197 68824444.636142731 0 68824444.636142731 506069966.834198 0 0 0 0 -2454075.6042269468 4097453.13182115 0 4097453.13182115 1132229.5769632235 0 0 0 0 -974361581.2218399 426149487.89326477 0 426149487.89326477 569566274.59778214 0 0 0 0 -1357025196.5559845 1667696893.7998123 0 1667696893.7998123 717950852.69311523 0 0 0 0 -137192387.66987991 474411040.6424427 0 474411040.6424427 299380632.64704895 0 0 0 0 -1414384913.3174186 814668189.30742168 0 814668189.30742168 355383345.53459167 0 0 0 0 -1780454238.7681541 1595029449.2665653 0 1595029449.2665653 755114537.0300293 0 0 0 0 -2618224278.3034821 1015799977.5412598 0 1015799977.5412598 854887622.82531738 0 0 0 0 -1238224745.1281052 1518174286.8813591 0 1518174286.8813591 491517428.35139847 0 0 0 0 -838017437.52178192 992599249.87393951 0 992599249.87393951 156552179.93343353 0 0 0 0 -1235097190.6981812 772810151.94422531 0 772810151.94422531 679608574.21821499 0 0 0 0 -1634468335.4661255 1419223269.4446487 0 1419223269.4446487 -242509470.13175964 0 0 0 0 -1534991756.4278564 475561995.06706238 0 475561995.06706238 53990502.972343445 0 0 0 0 -5111618363.519043 728876165.86108398 0 728876165.86108398 -45076579.995269775 0 0 0 0 -1475423199.6120758 650404919.13626099 0 650404919.13626099 -1578556730.0517426 0 0 0 0 -92686482.699302673 885690300.71512985 0 885690300.71512985 -1490048291.4577026 0 0 0 0 221860164.46286011 1885990601.6770172 0 1885990601.6770172 -1990173789.3145237 0 0 0 0 -308793483.04724121 1275515048.0255737 0 1275515048.0255737 -1087163908.4118347 0 0 0 0 -1074477.0151234046 816479.91085752565 0 816479.91085752565 440597.87524960563 0 0 0 0 596369826.32863617 203717335.54264832 0 203717335.54264832 156370864.60876465 0 0 0 0 211382458.41778564 1731449844.0681915 0 1731449844.0681915 -1975358087.3331871 0 0 0 0 -1582787577.855273 294778918.6636554 0 294778918.6636554 -119142313.95785522 0 0 0 0 -15234130.793823242 252451576.00751114 0 252451576.00751114 39858613.203104019 0 0 0 0 -943807.48376078904 7252737.1385831088 0 7252737.1385831088 -8527647.3364864588 0 0 0 0 -291636724.58908081 276303866.38784027 0 276303866.38784027 53887440.064908981 0 0 0 0 -143113451.74533081 -34392300.64730835 0 -34392300.64730835 573965561.42527771 0 0 0 0 -27044229.291412354 18832775.759429932 0 18832775.759429932 22029373.199653625 0 0 0 0 -3070264.3008893053 2162709.4882313274 0 2162709.4882313274 10192185.925485373 0 0 0 0 -364746.68460162636 2016236.8100285679 0 2016236.8100285679 433909.89820978045 0 0 0 0 -888540871.56970596 1049904737.9410324 0 1049904737.9410324 695288202.13973236 0 0 0 0 1850776481.0989838 386747306.29440308 0 386747306.29440308 -693913591.32144547 0 0 0 0 483192997.42896271 515954173.08224106 0 515954173.08224106 23779616.596084595 0 0 0 0 -88031819.895889282 13761806.785324097 0 13761806.785324097 21092031.986480713 0 0 0 0 6222580.9072875977 18332593.729091644 0 18332593.729091644 -5866416.2411346436 0 0 0 0 -11400980.957248688 52136625.555812359 0 52136625.555812359 -89505.952514648438 0 0 0 0 -279117.70435538562 3485433.4345696792 0 3485433.4345696792 756491.27229681611 0 0 0 0 -980204545.99948883 2754628841.1740799 0 2754628841.1740799 12430991.849334717 0 0 0 0 -1255344.7923083296 1463085.6116547771 0 1463085.6116547771 3349764.5223633945 0 0 0 0 2192560108.9767075 1812891835.5405235 0 1812891835.5405235 -567468231.94468689 0 0 0 0 -1557370777.9993401 1206365183.3435307 0 1206365183.3435307 -570201259.85634613 0 0 0 0 359104.96100616455 1474834939.5309258 0 1474834939.5309258 -950773302.66297913 0 0 0 0 -920877.43816413288 2731514.8151910603 0 2731514.8151910603 -1729654.8682943806 0 0 0 0 -948393779.25379181 1883691295.7204933 0 1883691295.7204933 604140.00904846191 0 0 0 0 64524444.047363281 33860126.463890076 0 33860126.463890076 -22537461.3358078 0 0 0 0 -8348842.2466287613 24962723.775662422 0 24962723.775662422 3819785.7072296143 0 0 0 0 26704746.886779785 50907368.908737183 0 50907368.908737183 73043.533043914882 0 0 0 0 5148784.6173725128 28114049.644269228 0 28114049.644269228 19130641.343238831 0 0 0 0 43875129.782913208 13532980.634212494 0 13532980.634212494 -11736504.639884949 0 0 0 0 -64648.28588104248 398079.12365722656 0 398079.12365722656 -899320.25032043457 0 0 0 0 -999344590.29033661 808896696.25136948 0 808896696.25136948 -1387531351.4943237 0 0 0 0 788627.81877595931 1960232.5388830155 0 1960232.5388830155 1803932.1473117396 0 0 0 0 4081880.2855758667 15617241.424415588 0 15617241.424415588 18267462.86208725 0 0 0 0 -1324284.370818004 7823499.0230275197 0 7823499.0230275197 -7882588.4367906973 0 0 0 0 -1931541.3504852415 3600214.1632253081 0 3600214.1632253081 7888042.5885303691 0 0 0 0 10452735.085800171 -19344513.175657272 0 -19344513.175657272 72718467.102432251 0 0 0 0 -311870029.85929871 4378520.5198783875 0 4378520.5198783875 96107926.159295559 0 0 0 0 -47613509.502351284 -34389525.849487782 0 -34389525.849487782 92185046.549568176 0 0 0 0 247960.8338394165 4001807.7675628662 0 4001807.7675628662 44979833.461830139 0 0 0 0 436019097.8822403 351595937.16696358 0 351595937.16696358 137022286.9181366 0 0 0 0 -21582304.223800659 153932309.54710388 0 153932309.54710388 267639416.95672607 0 0 0 0 268748067.17001343 145100407.55225372 0 145100407.55225372 110423798.20222092 0 0 0 0 -218643.05342499909 139867246.20218495 0 139867246.20218495 238634637.54031372 0 0 0 0 -120935774.8662262 -374973943.02625275 0 -374973943.02625275 -287463291.76171112 0 0 0 0 143061277.25398636 539619565.70395279 0 539619565.70395279 460094905.28785706 0 0 0 0 -1197282368.7731018 -330690125.88779449 0 -330690125.88779449 1489127391.8134766 0 0 0 0 -421175244.62217712 290096166.70227432 0 290096166.70227432 -279953313.14803004 0 0 0 0 27238.475295025855 1261614.2779131904 0 1261614.2779131904 1677763.3193847463 0 0 0 0 -91989249.742973328 940317261.37634659 0 940317261.37634659 1078943888.0204468 0 0 0 0 -325805967.41781616 317243543.54283905 0 317243543.54283905 -281244400.83020782 0 0 0 0 -442213.96474944986 540709.10058301315 0 540709.10058301315 2483750.8612807542 0 0 0 0 -47066189.019743919 139033471.83561778 0 139033471.83561778 -435080609.44607544 0 0 0 0 -509935.43006280437 419882.32046611235 0 419882.32046611235 1038758.9851145595 0 0 0 0 -358690170.535923 187797763.270257 0 187797763.270257 -496225219.40613556 0 0 0 0 -780142357.10812378 677482739.35925293 0 677482739.35925293 -216641711.32868576 0 0 0 0 -3078162564.2088509 1720008563.2167025 0 1720008563.2167025 -700149285.39199829 0 0 0 0 -2688769003.258606 -84052563.326644897 0 -84052563.326644897 -286141651.37241364 0 0 0 0 -1248138154.0372009 597618745.16114807 0 597618745.16114807 -204692252.52148324 0 0 0 0 -1277496383.2287903 768949372.68569183 0 768949372.68569183 -204251011.33702186 0 0 0 0 -1778506996.4353867 312837615.48777771 0 312837615.48777771 104197002.36447144 0 0 0 0 -1183396624.1642685 230630178.01454735 0 230630178.01454735 -263634197.72032928 0 0 0 0 -1356582227.3707275 308099208.15467834 0 308099208.15467834 44945671.243358612 0 0 0 0 -379897804.64162064 418262806.48668385 0 418262806.48668385 -326731355.27323914 0 0 0 0 -1059009389.9644089 406445571.20855904 0 406445571.20855904 -148518097.15481567 0 0 0 0 -851754410.12677002 520001074.70964432 0 520001074.70964432 -157923843.29026175 0 0 0 0 -795644739.36491394 342026704.17692947 0 342026704.17692947 -163745115.36386108 0 0 0 0 -570421282.55648804 355044374.79800797 0 355044374.79800797 -229411129.96587372 0 0 0 0 -880696761.96385574 441307912.65625525 0 441307912.65625525 -25845516.823860168 0 0 0 0 -896162603.72732544 515735604.42941666 0 515735604.42941666 -333307670.64768696 0 0 0 0 -1149978516.1805038 555962410.37376213 0 555962410.37376213 -130987657.99121094 0 0 0 0 -890539417.43393707 461101086.24797058 0 461101086.24797058 -224944612.19121552 0 0 0 0 -600819534.3028183 632998299.63790512 0 632998299.63790512 -164640403.92954254 0 0 0 0 -576384934.62850952 553462622.0623703 0 553462622.0623703 91588646.001823425 0 0 0 0 -440111973.61068726 646077008.84212112 0 646077008.84212112 122774208.76953125 0 0 0 0 -302221.28730773926 1057493196.9891148 0 1057493196.9891148 142061716.53155518 0 0 0 0 -441612281.65557861 642454686.67146683 0 642454686.67146683 821973406.68741608 0 0 0 0 568650.73156306148 981161.08276494592 0 981161.08276494592 369973.69727443904 0 0 0 0 -248628729.66256714 76380664.201675415 0 76380664.201675415 467482815.58039856 0 0 0 0 47848.085456848145 90019185.218955994 0 90019185.218955994 -562533821.68403435 0 0 0 0 -247530382.97579956 204176354.84287643 0 204176354.84287643 -126412726.11491394 0 0 0 0 -573541834.35920715 364663991.35335541 0 364663991.35335541 -26453478.81628418 0 0 0 0 -482240058.70468903 214696029.09360886 0 214696029.09360886 219721380.62846375 0 0 0 0 -5520238.354944637 12883018.235729419 0 12883018.235729419 -5848641.826874584 0 0 0 0 24391396.789331436 228675437.64796782 0 228675437.64796782 -149119839.67852783 0 0 0 0 166913279.46650696 52283539.473670959 0 52283539.473670959 -32496718.062438965 0 0 0 0 25363975.405506134 39021059.407619476 0 39021059.407619476 -4633584.3768348694 0 0 0 0 29147188.288900696 2161636.9361586571 0 2161636.9361586571 -37084773.989990234 0 0 0 0 -35469161.758845329 26664535.963317871 0 26664535.963317871 21641617.221644878 0 0 0 0 107604136.45913029 28117004.523391724 0 28117004.523391724 -43396667.75579834 0 0 0 0 47059761.31219101 62414230.766296387 0 62414230.766296387 18206432.533187866 0 0 0 0 126853174.05943298 61008687.563156128 0 61008687.563156128 -6065472.5022506714 0 0 0 0 -46103479.288002014 38357116.268302917 0 38357116.268302917 55249293.17004776 0 0 0 0 10628556.394439697 -96660731.875808716 0 -96660731.875808716 -46723859.465888977 0 0 0 0 2399819.2670027912 2004942.2481043953 0 2004942.2481043953 771446.00551779568 0 0 0 0 112742542.96072578 82286156.622819901 0 82286156.622819901 3583627.6251144409 0 0 0 0 87279196.32226181 -13629481.054936886 0 -13629481.054936886 -94625306.085128784 0 0 0 0 -143367591.55355835 131694341.35604286 0 131694341.35604286 94063176.133224487 0 0 0 0 27457.392446868122 656236.49919966795 0 656236.49919966795 780667.96446342766 0 0 0 0 -50674759.08498764 43693307.326278687 0 43693307.326278687 19877558.893066406 0 0 0 0 133586493.11705399 -17658797.411735535 0 -17658797.411735535 30121407.973266602 0 0 0 0 42265053.669410706 -12236067.401542664 0 -12236067.401542664 -15815177.831939697 0 0 0 0 122724670.39364624 16884668.798629761 0 16884668.798629761 -58083862.305648804 0 0 0 0 86972595.760406494 -41387220.474945068 0 -41387220.474945068 -111641589.10481262 0 0 0 0 70557275.274490356 63371474.713424683 0 63371474.713424683 -87362485.639636993 0 0 0 0 67015200.900085449 55471638.084453583 0 55471638.084453583 57712009.22442627 0 0 0 0 63893113.230316162 43729414.756408691 0 43729414.756408691 89748574.13104248 0 0 0 0 259304553.00152206 -3323252.9417953491 0 -3323252.9417953491 -153590869.4447403 0 0 0 0 279668769.13395691 175017727.00463486 0 175017727.00463486 -53115644.827224731 0 0 0 0 -33063595.617667198 -155266664.49020195 0 -155266664.49020195 129253945.79452515 0 0 0 0 -5310963.1570101585 1378379.3248431403 0 1378379.3248431403 1794091.7898962721 0 0 0 0 -4939071.7855747174 11627310.026473682 0 11627310.026473682 -3850732.2910731733 0 0 0 0 -48369840.325846553 -141880313.19033569 0 -141880313.19033569 -151015578.62248993 0 0 0 0 9445534.3775253296 90652178.016492844 0 90652178.016492844 -195415232.68785858 0 0 0 0 60242672.498966217 -26143923.076007843 0 -26143923.076007843 64109918.85294342 0 0 0 0 -100867611.54883575 139334216.15757751 0 139334216.15757751 -30491018.166261673 0 0 0 0 321587008.22026825 196125292.1516571 0 196125292.1516571 -1470570.3913345337 0 0 0 0 -14675684.921626987 14051224.513920914 0 14051224.513920914 2351334.6047288701 0 0 0 0 31694108.308909416 30892366.395973206 0 30892366.395973206 17190585.750259399 0 0 0 0 33552266.046975851 24151211.896757126 0 24151211.896757126 -701440.30773162842 0 0 0 0 32439445.772656441 26071228.808486938 0 26071228.808486938 6972856.8137969971 0 0 0 0 5890280.6498820009 4652089.9637188911 0 4652089.9637188911 -9326862.1129196621 0 0 0 0 36250696.376746655 28587524.725205421 0 28587524.725205421 -1413021.6726531982 0 0 0 0 37091678.970627785 30593821.113735199 0 30593821.113735199 1331044.4616546631 0 0 0 0 28458159.440778732 28067608.774715424 0 28067608.774715424 1838263.0476226807 0 0 0 0 16024493.17537117 55652295.998374939 0 55652295.998374939 41563793.577537537 0 0 0 0 18072256.348255157 17754566.878787994 0 17754566.878787994 -6797383.7788543701 0 0 0 0 -63438002.324092865 -11618448.683166504 0 -11618448.683166504 24456863.236450195 0 0 0 0 507393371.59641743 5771637.4126968384 0 5771637.4126968384 54920049.451057434 0 0 0 0 125246594.48487449 262108205.23552322 0 262108205.23552322 1410931.9680175781 0 0 0 0 -479465882.78528118 116383845.5615387 0 116383845.5615387 17274514.814472198 0 0 0 0 -46483794.510471344 252301781.09831238 0 252301781.09831238 -577655438.91882324 0 0 0 0 -99837.784940559417 102420.84394019283 0 102420.84394019283 -237936.58729151636 0 0 0 0 233529444.6436677 171296166.97592926 0 171296166.97592926 -42336818.972015381 0 0 0 0 208472442.78990555 229841846.72193146 0 229841846.72193146 -151450762.89117432 0 0 0 0 75875365.30960083 139239370.25376892 0 139239370.25376892 203557063.97245026 0 0 0 0 -99209046.490088463 235101699.27522278 0 235101699.27522278 53472404.440414429 0 0 0 0 126618279.15845823 57137665.349702835 0 57137665.349702835 87687771.080612183 0 0 0 0 -11866048.269737244 -21175978.533996582 0 -21175978.533996582 100903493.69360352 0 0 0 0 -47606508.95975256 167498.45941829681 0 167498.45941829681 106114230.31713867 0 0 0 0 -234816.88082439627 -1078001.8179006712 0 -1078001.8179006712 -47889.081599839032 0 0 0 0 4115601.0600613472 4478807.6320400909 0 4478807.6320400909 -8800344.8154280894 0 0 0 0 9914141.5980463028 27246232.435295105 0 27246232.435295105 12713280.772476196 0 0 0 0 -1068812.664911838 3642539.4221081985 0 3642539.4221081985 6587939.1981121972 0 0 0 0 440741143.43836164 121181366.28533936 0 121181366.28533936 -67465508.143371582 0 0 0 0 271145759.18538857 290479422.37065125 0 290479422.37065125 -91143674.240119934 0 0 0 0 -47078972.776579857 1130412.164264679 0 1130412.164264679 -36745282.966262817 0 0 0 0 118610727.54609698 21585355.385528564 0 21585355.385528564 -2088056.9389953613 0 0 0 0 -618826.85532001639 1028360.6136179883 0 1028360.6136179883 -594764.17455043644 0 0 0 0 -449829642.34283543 -107122837.90319061 0 -107122837.90319061 -8999407.5443458557 0 0 0 0 59787385.120251894 233071925.73585415 0 233071925.73585415 -75196291.940979004 0 0 0 0 -110343120.78507805 -70728173.144035339 0 -70728173.144035339 -56748284.181484222 0 0 0 0 -225796757.77285743 3753250.2903442383 0 3753250.2903442383 66933490.115631104 0 0 0 0 -78040784.102216721 -14638562.401004791 0 -14638562.401004791 1536123.4720535278 0 0 0 0 -1529514.5481988254 3087767.282414943 0 3087767.282414943 -1545742.3591694087 0 0 0 0 -69442912.74744606 19742388.451096535 0 19742388.451096535 -16927142.462493896 0 0 0 0 -24676534.883315802 102278623.23123741 0 102278623.23123741 74978477.155410767 0 0 0 0 -39377252.193630695 121518444.87707901 0 121518444.87707901 50534075.267913818 0 0 0 0 8126895.9450206757 134940573.41840363 0 134940573.41840363 2761935.0838775635 0 0 0 0 -11457366.257459164 95838050.333106995 0 95838050.333106995 -6941814.8846359253 0 0 0 0 -34920650.233416557 147925906.02477264 0 147925906.02477264 39369106.151138306 0 0 0 0 50580771.079926014 62332490.754676819 0 62332490.754676819 -1984605.0563774109 0 0 0 0 59997200.712855339 27861357.177719116 0 27861357.177719116 -29159231.447891235 0 0 0 0 67814651.753443241 8939374.8349838257 0 8939374.8349838257 433887.48432159424 0 0 0 0 229464978.67862892 133728474.00622559 0 133728474.00622559 213409104.44036865 0 0 0 0 302607.72910611937 88019.923544764519 0 88019.923544764519 -149685.5021324493 0 0 0 0 90724848.631254196 139527837.60401917 0 139527837.60401917 35695886.523162842 0 0 0 0 163316615.31748915 33805554.970428467 0 33805554.970428467 85919172.203491211 0 0 0 0 -19551871.86830616 155730575.9240799 0 155730575.9240799 82318727.691818237 0 0 0 0 38381858.296096802 105344913.78930664 0 105344913.78930664 81816078.230413437 0 0 0 0 38000213.996771812 118198381.5607605 0 118198381.5607605 58749664.212158203 0 0 0 0 44966859.012154579 113841826.3589859 0 113841826.3589859 46622898.282287598 0 0 0 0 59893392.500601292 105014707.23792648 0 105014707.23792648 7660417.2776031494 0 0 0 0 40198096.81371963 130933612.28201103 0 130933612.28201103 33929512.842071533 0 0 0 0 -33912135.096410751 100028360.85355377 0 100028360.85355377 26275457.436195374 0 0 0 0 31342967.55572319 75740182.22870636 0 75740182.22870636 -6512433.9488983154 0 0 0 0 1983602.2076139923 2996751.640378634 0 2996751.640378634 -3135332.9815671295 0 0 0 0 -75850513.403599501 -26663065.34337616 0 -26663065.34337616 43557657.769889832 0 0 0 0 57536765.757983208 -118393506.7722702 0 -118393506.7722702 62942010.310623169 0 0 0 0 161072458.47664356 119094830.82402802 0 119094830.82402802 -51725039.065048218 0 0 0 0 293643997.3973074 -122222821.65704727 0 -122222821.65704727 -3981742.4519805908 0 0 0 0 -104385960.93586111 -15569920.262859344 0 -15569920.262859344 5747263.7006225586 0 0 0 0 90590436.427594781 -18176916.963476181 0 -18176916.963476181 -36430201.05065918 0 0 0 0 -335813775.11227798 109157419.47574234 0 109157419.47574234 34408346.517669678 0 0 0 0 572616.70717874961 730739.35185665707 0 730739.35185665707 -1012154.5125045106 0 0 0 0 4492429.300034523 38917989.590084076 0 38917989.590084076 -78011662.766448975 0 0 0 0 -153056298.01499081 22503979.860031128 0 22503979.860031128 -9954928.7862496376 0 0 0 0 -111214964.86074507 182128225.95499611 0 182128225.95499611 15401749.167144775 0 0 0 0 -77118783.545825005 -257614988.55514526 0 -257614988.55514526 303005385.2820549 0 0 0 0 -79922645.907291889 211003108.71102905 0 211003108.71102905 -303413271.49407959 0 0 0 0 187565502.43553162 -219935917.38763428 0 -219935917.38763428 -13499658.2447052 0 0 0 0 -196387685.00766563 -265041158.70262146 0 -265041158.70262146 -9542258.3285064697 0 0 0 0 -155143773.94324303 240730062.69168091 0 240730062.69168091 180897756.50053406 0 0 0 0 -478103644.47905588 222257002.69104004 0 222257002.69104004 186575785.24661255 0 0 0 0 49856212.824749947 209944720.7053833 0 209944720.7053833 -297014074.58288574 0 0 0 0 86855624.446725845 106067166.45475769 0 106067166.45475769 -9047509.9170532227 0 0 0 0 106898871.76978493 79821732.871261597 0 79821732.871261597 14046074.615188599 0 0 0 0 144767532.24909496 86145299.969543457 0 86145299.969543457 -160218342.15888977 0 0 0 0 90809909.706494331 -21517903.447868347 0 -21517903.447868347 -210200824.50440979 0 0 0 0 104172367.62207651 120007968.07683182 0 120007968.07683182 166412228.26406097 0 0 0 0 128846141.31618595 75243212.861717224 0 75243212.861717224 -24168541.148399353 0 0 0 0 118981765.31607819 44287927.591247559 0 44287927.591247559 94282153.155677795 0 0 0 0 -13125107.437447548 56225664.088384628 0 56225664.088384628 145356423.10539246 0 0 0 0 36474664.403605938 -21320747.210876465 0 -21320747.210876465 310431900.0407486 0 0 0 0 84375456.489889145 -14850302.801864624 0 -14850302.801864624 -66561091.052814484 0 0 0 0 479438.71085488051 65618.116463247687 0 65618.116463247687 -1065054.9808564223 0 0 0 0 137447054.90829611 34461207.6587677 0 34461207.6587677 -57110670.059890747 0 0 0 0 49476656.97842133 26640275.571816225 0 26640275.571816225 -9655460.1410980225 0 0 0 0 49478866.101997375 2774810.7465515137 0 2774810.7465515137 -19124940.61605072 0 0 0 0 789255.61636444088 1294171.6606356539 0 1294171.6606356539 -2921256.6132304352 0 0 0 0 -16641251.65610981 -19455571.153495789 0 -19455571.153495789 -21824507.565643311 0 0 0 0 -24643377.621138304 37693729.151580811 0 37693729.151580811 -22519887.158050537 0 0 0 0 20634617.669200897 17233476.974311829 0 17233476.974311829 -14461380.11680603 0 0 0 0 17990168.530025482 18745208.543029785 0 18745208.543029785 -13306594.366218567 0 0 0 0 18739881.678300858 16538202.63792038 0 16538202.63792038 -11790871.568359375 0 0 0 0 19472409.808181524 9371232.0445137024 0 9371232.0445137024 -1906389.5609130859 0 0 0 0 17842176.866261065 16932964.806394577 0 16932964.806394577 -4539300.7461395264 0 0 0 0 6741508.0665297508 15191198.295406342 0 15191198.295406342 -4563980.9943771362 0 0 0 0 14067257.351167202 1018684.8235473633 0 1018684.8235473633 -9668283.8406829834 0 0 0 0 33776292.323723793 16575804.582141876 0 16575804.582141876 -3002159.9053344727 0 0 0 0 33520331.795857906 19311145.902935028 0 19311145.902935028 -12533771.962463379 0 0 0 0 -104538107.33287907 34135733.736270905 0 34135733.736270905 321992234.76475525 0 0 0 0 6475392.7942750454 12533475.907466888 0 12533475.907466888 -30845515.435127258 0 0 0 0 287239.84086203604 4746073.7005209997 0 4746073.7005209997 -4776355.4610677827 0 0 0 0 2066734.5529251099 3541884.1042480469 0 3541884.1042480469 -1049955.5340499878 0 0 0 0 3407971.699772506 6922075.3503471985 0 6922075.3503471985 -9542208.7617758121 0 0 0 0 6846734.5895501813 4374286.0749236401 0 4374286.0749236401 -1632398.7949749976 0 0 0 0 1439942.5562496185 2053416.4918670654 0 2053416.4918670654 -514097.87963867188 0 0 0 0 -996272.07151152939 7076509.7570806816 0 7076509.7570806816 -7543984.1219736468 0 0 0 0 3387872.7253224086 7702732.4359905962 0 7702732.4359905962 -4462245.5908395015 0 0 0 0 80581829.08457768 89918939.009168625 0 89918939.009168625 61335988.126678467 0 0 0 0 80033816.522391319 103217494.06173706 0 103217494.06173706 37442939.68182373 0 0 0 0 85411223.517738342 38830203.967254639 0 38830203.967254639 -92432598.763305664 0 0 0 0 -54314856.35267067 12592378.723724365 0 12592378.723724365 -11158884.689422607 0 0 0 0 18482615.240320683 9657756.8765106201 0 9657756.8765106201 -16899712.297290802 0 0 0 0 -896524.92151906458 2414241.4406906553 0 2414241.4406906553 -1343714.5171457827 0 0 0 0 22838715.92713213 15407823.576828003 0 15407823.576828003 -13661053.124145508 0 0 0 0 22544382.200136185 13265283.495346069 0 13265283.495346069 -13721209.414840698 0 0 0 0 19558514.725253105 12995017.177780151 0 12995017.177780151 -7407238.3733062744 0 0 0 0 19117587.537617683 11233196.461181641 0 11233196.461181641 -14055973.977064133 0 0 0 0 12848400.435929298 13293852.373664856 0 13293852.373664856 6814976.4937553406 0 0 0 0 12148833.979889274 8296796.8887062073 0 8296796.8887062073 -5375646.9803161621 0 0 0 0 13398923.705626965 5358229.4538955688 0 5358229.4538955688 -13330533.247772217 0 0 0 0 3190044.960275081 1669122.2875782549 0 1669122.2875782549 -3915752.9323312901 0 0 0 0 30289813.919314861 -9267096.2261619568 0 -9267096.2261619568 -26330323.641376495 0 0 0 0 10412578.372816086 10840716.155136108 0 10840716.155136108 -1856788.6695108414 0 0 0 0 3684088.3852652758 5971185.6960854279 0 5971185.6960854279 -5884039.9803694673 0 0 0 0 19489422.071739435 13101664.648803711 0 13101664.648803711 -3022000.0736083984 0 0 0 0 12046722.707638741 11457132.918937683 0 11457132.918937683 -4890984.6474075317 0 0 0 0 3230461.1186704524 8089519.3014567737 0 8089519.3014567737 -7190675.4653602038 0 0 0 0 -2156165.6513214111 6868652.5831298828 0 6868652.5831298828 -10212519.114677429 0 0 0 0 7202707.4282255173 11673508.178886414 0 11673508.178886414 -12319.876231193542 0 0 0 0 4110615.1612215303 8182821.4502316499 0 8182821.4502316499 -2092467.0610341318 0 0 0 0 2302185.7439174652 6077292.8425941467 0 6077292.8425941467 -3549282.3383789062 0 0 0 0 2220123.1281890869 6281003.985496521 0 6281003.985496521 -3666340.5888824463 0 0 0 0 11052706.276774563 9067291.5324418098 0 9067291.5324418098 1858968.7755484395 0 0 0 0 6221479.6248226669 4505097.215312412 0 4505097.215312412 -6989710.583565928 0 0 0 0 -1636500.9784616083 8024777.8937320895 0 8024777.8937320895 -4217526.5499505848 0 0 0 0 -3697139.5853683464 7858854.6779719219 0 7858854.6779719219 -4734202.9473797791 0 0 0 0 -3702140.462310791 9840143.4352111816 0 9840143.4352111816 -9674483.5856399536 0 0 0 0 -3619659.7639503479 9964145.306678772 0 9964145.306678772 -9671715.7365722656 0 0 0 0 5357740.1312615471 3810092.8176338319 0 3810092.8176338319 -7210206.7351819016 0 0 0 0 2308756.1117251338 3564108.5628996231 0 3564108.5628996231 -3123417.5679523461 0 0 0 0 -3511417.2312755585 5310155.8705291748 0 5310155.8705291748 -4352245.354019165 0 0 0 0 28644479.034408569 4745284.6198730469 0 4745284.6198730469 -10521124.781433105 0 0 0 0 8792764.6557537355 7979111.6005142089 0 7979111.6005142089 -4403235.9632229693 0 0 0 0 -3945051.1808929443 8776373.264251709 0 8776373.264251709 -4302362.2454299927 0 0 0 0 32231053.445465088 6127273.7656021118 0 6127273.7656021118 -10511391.305007935 0 0 0 0 -622422.20713147521 6237034.4314500242 0 6237034.4314500242 -7540115.9651800506 0 0 0 0 -2045588.1090164185 6736991.9638214111 0 6736991.9638214111 -10244933.722789764 0 0 0 0 4197487.3042831421 5168525.8198318481 0 5168525.8198318481 -4689271.0306167603 0 0 0 0 3063037.2882232666 5100209.1669502258 0 5100209.1669502258 -4169085.4125595093 0 0 0 0 5600592.9385604858 2519160.9851608276 0 2519160.9851608276 -533422.587059021 0 0 0 0 5809328.2871595975 4749184.8175507281 0 4749184.8175507281 -1226305.9139695317 0 0 0 0 4869125.8775334163 8099068.2525383011 0 8099068.2525383011 -4944632.3736359552 0 0 0 0 9377539.4482713379 4106026.6077130102 0 4106026.6077130102 -2665466.4979930818 0 0 0 0 5873686.5419575619 6169313.4119751481 0 6169313.4119751481 -7215550.6958362386 0 0 0 0 112698831.88563967 64798810.097976685 0 64798810.097976685 37160280.352386475 0 0 0 0 136380595.70867157 85529401.290061951 0 85529401.290061951 -32897857.665222168 0 0 0 0 157416648.30616856 37466202.423713684 0 37466202.423713684 19575033.164993286 0 0 0 0 6408440.5614962364 -1044311.4365512403 0 -1044311.4365512403 -1350426.8634805903 0 0 0 0 5081710.4903831482 -619853.36109161377 0 -619853.36109161377 -1734907.5315856934 0 0 0 0 -3908245.9007886439 4277661.6496993117 0 4277661.6496993117 -2865315.4862230942 0 0 0 0 5999719.2733459473 -405449.95655822754 0 -405449.95655822754 -1906679.9677734375 0 0 0 0 -3103257.6997173838 12886435.47461142 0 12886435.47461142 -5734036.0947683826 0 0 0 0 11307802.051761627 3426895.6000518799 0 3426895.6000518799 -1516731.4020690918 0 0 0 0 15585427.533777617 5597863.6592424763 0 5597863.6592424763 -4397716.9562509581 0 0 0 0 3657716.980819568 7802531.5820882395 0 7802531.5820882395 -4370657.2526132949 0 0 0 0 -3629383.7518539429 5561886.2142791748 0 5561886.2142791748 -3596626.5061035156 0 0 0 0 20884958.603889465 23050970.467411041 0 23050970.467411041 -96627.979049682617 0 0 0 0 25847112.889732361 9005908.0852794647 0 9005908.0852794647 -10002940.538604736 0 0 0 0 37033518.1199646 14411457.160018921 0 14411457.160018921 -7392648.9494781494 0 0 0 0 48182879.79850769 16959155.266788483 0 16959155.266788483 -11129827.285293579 0 0 0 0 34602972.508956909 29538220.569595337 0 29538220.569595337 1385992.4684581757 0 0 0 0 32138990.554504395 -867795.41819572449 0 -867795.41819572449 482254.95702362061 0 0 0 0 12171360.763997603 3659762.033147159 0 3659762.033147159 -4205581.0546333976 0 0 0 0 54908042.443885803 30783043.464126587 0 30783043.464126587 -5136829.6312179565 0 0 0 0 96108206.027786255 5514902.233997345 0 5514902.233997345 -43568930.152168274 0 0 0 0 -4661961.6582995951 14804265.329210736 0 14804265.329210736 -7226407.2390681058 0 0 0 0 -2068365.2790808678 26511572.898021698 0 26511572.898021698 -5904826.415435791 0 0 0 0 -1708889.6639579558 1423738.3827275187 0 1423738.3827275187 -746061.99548203498 0 0 0 0 225011654.80153227 -35379848.821426392 0 -35379848.821426392 -72698896.253997803 0 0 0 0 174034295.14181519 21290607.942001343 0 21290607.942001343 -34162153.210548401 0 0 0 0 1644901.4419056177 4226892.4553955831 0 4226892.4553955831 -6859470.5872923434 0 0 0 0 -6642129.646729351 1019646.9154726565 0 1019646.9154726565 3717587.6740423739 0 0 0 0 3094330.5494365692 -190741.33738708496 0 -190741.33738708496 -741948.34155273438 0 0 0 0 29705338.465053558 8533570.7811737061 0 8533570.7811737061 -3403775.5603103638 0 0 0 0 -30559252.771297455 -17595560.528032303 0 -17595560.528032303 -3984762.2059288025 0 0 0 0 27056501.252905846 -5836313.1357216835 0 -5836313.1357216835 -40869848.716705322 0 0 0 0 33433735.271499634 1994771.1175308228 0 1994771.1175308228 6659910.9216024876 0 0 0 0 54599219.838924408 1635666.3779258728 0 1635666.3779258728 -3222113.8402099609 0 0 0 0 43594456.890335083 17226491.466804504 0 17226491.466804504 -7995082.4929428101 0 0 0 0 65622041.597595215 13889521.228675842 0 13889521.228675842 -10528772.197235107 0 0 0 0 33441504.105148315 5154255.1420059204 0 5154255.1420059204 -3782628.8712692261 0 0 0 0 35060512.003433228 3216830.8860626221 0 3216830.8860626221 -15505544.833729267 0 0 0 0 48460596.878288269 9144241.8815994263 0 9144241.8815994263 -15689713.866882324 0 0 0 0 42269994.274589539 7353542.5157775879 0 7353542.5157775879 -16444750.959838867 0 0 0 0 33629695.26713562 5380938.75730896 0 5380938.75730896 -14772900.571266174 0 0 0 0 31263545.749722481 -4083673.7696561813 0 -4083673.7696561813 -23712718.930908203 0 0 0 0 32466437.569122314 4592491.4171905518 0 4592491.4171905518 -15512027.908889771 0 0 0 0 33935739.581253052 1610338.2484130859 0 1610338.2484130859 -19504040.330657959 0 0 0 0 12098018.757354736 -5648028.7222442627 0 -5648028.7222442627 -15338430.706634521 0 0 0 0 2465305.8267328087 1848564.7173248185 0 1848564.7173248185 1058660.7151693776 0 0 0 0 -2405514.5260009766 -10662951.571792603 0 -10662951.571792603 -12078962.239730835 0 0 0 0 45370045.526145935 113010393.30649185 0 113010393.30649185 61350609.365253448 0 0 0 0 3431255.8064365387 -27727887.693003654 0 -27727887.693003654 -20293956.476669312 0 0 0 0 7746430.6509017944 1693235.9305305481 0 1693235.9305305481 -10506574.794586182 0 0 0 0 34705978.856750488 3167102.4387607574 0 3167102.4387607574 -21435242.405029297 0 0 0 0 18257441.38306427 -10945614.72567749 0 -10945614.72567749 -24368333.606796265 0 0 0 0 52887556.422134399 23946943.241462708 0 23946943.241462708 -605417.18559265137 0 0 0 0 -18934158.475236893 -149730178.35913849 0 -149730178.35913849 107272747.12857819 0 0 0 0 43120604.490234375 45338203.458091736 0 45338203.458091736 -45543155.828056335 0 0 0 0 15143668.187194824 3279981.4714508057 0 3279981.4714508057 -11923604.696624756 0 0 0 0 178862519.26506805 56542747.60341835 0 56542747.60341835 -292881200.14144897 0 0 0 0 1827394.6273345947 34571966.920654297 0 34571966.920654297 -18468716.483932495 0 0 0 0 28680683.545005798 46500681.125823975 0 46500681.125823975 -44882896.959472656 0 0 0 0 22763076.345024109 21556305.923927307 0 21556305.923927307 -11155625.751373291 0 0 0 0 56263378.573699951 34383557.687026978 0 34383557.687026978 -39561732.695854187 0 0 0 0 16926126.179214478 34381275.861629486 0 34381275.861629486 -25079059.56640625 0 0 0 0 111213517.28383636 81845642.742225647 0 81845642.742225647 -20322181.476409912 0 0 0 0 9697307.3946616761 2902524.2422911711 0 2902524.2422911711 -1083550.9145645574 0 0 0 0 23618240.516464233 -326151.17352294922 0 -326151.17352294922 -9295692.9752807617 0 0 0 0 32111169.942890644 4010272.91604352 0 4010272.91604352 -15921906.009277344 0 0 0 0 29595313.866363525 2766247.4649429321 0 2766247.4649429321 -12039051.900787354 0 0 0 0 21863194.694015503 2335124.7937927246 0 2335124.7937927246 -11799706.31171608 0 0 0 0 25218177.598022461 -737012.04730224609 0 -737012.04730224609 -12691454.501045227 0 0 0 0 25211821.141143799 -1066370.9903335571 0 -1066370.9903335571 -15934382.637832642 0 0 0 0 29415436.154480934 1234086.499341011 0 1234086.499341011 -14679478.508499146 0 0 0 0 24811448.503829956 -2567599.2509307861 0 -2567599.2509307861 -15744217.329864502 0 0 0 0 28912846.551519394 3490494.9615783691 0 3490494.9615783691 -7072670.5484313965 0 0 0 0 23862662.04234314 -1408402.6338653564 0 -1408402.6338653564 -5170071.2641983032 0 0 0 0 28413758.380279541 2224481.0888595581 0 2224481.0888595581 -9986915.2835235596 0 0 0 0 28895814.105209351 1950055.3426437378 0 1950055.3426437378 -12352556.856170654 0 0 0 0 24069844.683761597 85362.69637298584 0 85362.69637298584 5599794.4756622314 0 0 0 0 -3631535.7046661377 8758003.6487731934 0 8758003.6487731934 -12528304.449371338 0 0 0 0 7925327.1017739587 7834838.1319513693 0 7834838.1319513693 -6790506.769394543 0 0 0 0 -982021.8423477076 6164969.1554920152 0 6164969.1554920152 -5327537.033663895 0 0 0 0 1892357.4738311768 4785084.4134216309 0 4785084.4134216309 -3259375.4884109497 0 0 0 0 55666433.999328613 36626562.914260864 0 36626562.914260864 71992974.433319092 0 0 0 0 47333221.302810669 48722645.743812561 0 48722645.743812561 55012105.439605713 0 0 0 0 80296804.81640625 7316528.7709655762 0 7316528.7709655762 84940795.87512207 0 0 0 0 -535126.41162146255 2135582.1623951755 0 2135582.1623951755 419821.10771570308 0 0 0 0 55144872.549560547 46313101.801490784 0 46313101.801490784 25793232.133850098 0 0 0 0 10168428.925036456 5435170.3455615118 0 5435170.3455615118 -8134772.1186970677 0 0 0 0 4053380.9584655762 2643745.3343658447 0 2643745.3343658447 -2209816.7841110229 0 0 0 0 5320907.475938797 3221748.6878433228 0 3221748.6878433228 -2409861.0115966797 0 0 0 0 66995282.405151367 10265461.308898926 0 10265461.308898926 -569676.09843444824 0 0 0 0 12296048.444232825 8751888.8667012118 0 8751888.8667012118 1425391.3075759597 0 0 0 0 2751375.9997909851 4951696.8438086659 0 4951696.8438086659 -4294013.5731187314 0 0 0 0 6649637.6077728271 17819644.271743774 0 17819644.271743774 -2375423.0942382812 0 0 0 0 3302715.0013357792 568005.12239891849 0 568005.12239891849 -435155.38346507773 0 0 0 0 22591822.384918213 6265638.838470459 0 6265638.838470459 2617238.877243042 0 0 0 0 13929254.806030273 12185041.639312744 0 12185041.639312744 3538499.9448242188 0 0 0 0 13486776.544403076 13231668.005279541 0 13231668.005279541 3077400.4322509766 0 0 0 0 60865221.486618042 3474541.9427566528 0 3474541.9427566528 -13594338.538993835 0 0 0 0 30661185.069694519 21532689.413726807 0 21532689.413726807 -23402870.643753052 0 0 0 0 24117451.429115295 10255215.289810181 0 10255215.289810181 -3481481.142578125 0 0 0 0 8771238.6131887436 13767188.163798571 0 13767188.163798571 5318615.8313598633 0 0 0 0 9924425.5014648438 11849228.559356689 0 11849228.559356689 8135116.1768798828 0 0 0 0 17749364.98046875 16881409.502655029 0 16881409.502655029 -10375154.183452606 0 0 0 0 8670920.6640386581 17657550.183668137 0 17657550.183668137 -69350.599975585938 0 0 0 0 13407253.758850098 13575717.564971924 0 13575717.564971924 3187273.4453735352 0 0 0 0 9332713.4788208008 13589418.092285156 0 13589418.092285156 5324647.217956543 0 0 0 0 9652999.6395874023 12047793.404296875 0 12047793.404296875 8029388.9702148438 0 0 0 0 10376827.27645874 10360162.74786377 0 10360162.74786377 9509314.3411254883 0 0 0 0 10421691.24395752 10678753.110626221 0 10678753.110626221 6464604.3098144531 0 0 0 0 12612384.265014648 11289514.634902954 0 11289514.634902954 6316861.9052734375 0 0 0 0 10056074.556842804 4789657.4525871277 0 4789657.4525871277 286258.55548095703 0 0 0 0 10876369.603302002 9081473.3874206543 0 9081473.3874206543 6994466.3646316528 0 0 0 0 10736077.105773926 8939090.5306091309 0 8939090.5306091309 8098463.7784423828 0 0 0 0 9895519.761185756 8225221.6219403408 0 8225221.6219403408 -4431184.5994861489 0 0 0 0 9694424.8401947021 9809307.8390808105 0 9809307.8390808105 11618654.801925659 0 0 0 0 -1372367.4070601314 3026449.8220008314 0 3026449.8220008314 1460704.9717386896 0 0 0 0 55177661.915603638 40196705.256614685 0 40196705.256614685 21365502.347244263 0 0 0 0 44519581.408599854 -8320172.4131164551 0 -8320172.4131164551 9012303.5344924927 0 0 0 0 16426242.387207031 6573645.463180542 0 6573645.463180542 2626907.7369384766 0 0 0 0 85618342.618444443 24245945.412143707 0 24245945.412143707 -36501638.01651001 0 0 0 0 1613458.9261385873 1454399.1125194021 0 1454399.1125194021 764643.66064938903 0 0 0 0 -53715472.066413879 -22574886.31278801 0 -22574886.31278801 -5631571.5367717743 0 0 0 0 50566261.816004753 24357589.407154083 0 24357589.407154083 21469076.989044189 0 0 0 0 62353274.255972505 38928156.982614994 0 38928156.982614994 -45730519.366287231 0 0 0 0 40421710.662322998 50357617.915679932 0 50357617.915679932 -47243269.478111267 0 0 0 0 46110318.40574646 49176071.198860168 0 49176071.198860168 -48734351.682823181 0 0 0 0 -79681683.572891235 16006636.201091766 0 16006636.201091766 10341476.35018158 0 0 0 0 -114108901.89541626 63977515.394100189 0 63977515.394100189 -43254674.218209267 0 0 0 0 -9348443.1897621155 81492159.75289917 0 81492159.75289917 -40792467.71660614 0 0 0 0 -63806329.611905336 115194827.48451591 0 115194827.48451591 101152741.46199799 0 0 0 0 -37567220.646110535 21474023.157943726 0 21474023.157943726 100993673.69452667 0 0 0 0 -17037657.498550415 128253862.91139221 0 128253862.91139221 -35971720.071689606 0 0 0 0 -125366765.4559412 158768066.50805092 0 158768066.50805092 -10477900.53704071 0 0 0 0 -169662142.41971588 212318670.73202896 0 212318670.73202896 -61811684.443351746 0 0 0 0 -120468846.93160343 72826912.394408226 0 72826912.394408226 -13382230.29372406 0 0 0 0 -193445448.04613876 196493728.8638382 0 196493728.8638382 -69826341.451019287 0 0 0 0 -310209433.35054398 308296827.0450325 0 308296827.0450325 -122409477.69769287 0 0 0 0 -362124774.27929401 291039288.37010288 0 291039288.37010288 -109212114.44064331 0 0 0 0 -321739991.07315826 145320233.97496033 0 145320233.97496033 -18334823.091079712 0 0 0 0 -201538536.36871338 143449985.03321266 0 143449985.03321266 -100269483.56096649 0 0 0 0 -227518209.18005371 143192184.08469772 0 143192184.08469772 25151912.688901901 0 0 0 0 260528.50528265163 657532.5363652138 0 657532.5363652138 674045.43183230609 0 0 0 0 -29747816.866398156 38292516.610638827 0 38292516.610638827 -145598619.36083984 0 0 0 0 47228741.410161436 30131149.623528808 0 30131149.623528808 -6602675.2920913696 0 0 0 0 -143580951.70089722 18194371.539112091 0 18194371.539112091 60567496.709877014 0 0 0 0 -198105496.13938904 152823388.04083633 0 152823388.04083633 -52564417.944831848 0 0 0 0 -296218448.81454659 551575376.00416946 0 551575376.00416946 -481786019.34823608 0 0 0 0 -316603264.25721741 609326666.93830109 0 609326666.93830109 -644413816.52020264 0 0 0 0 -215983252.79658508 449909115.87866974 0 449909115.87866974 -655062157.01337433 0 0 0 0 -242385696.88467407 427338689.19512939 0 427338689.19512939 -505862026.84939194 0 0 0 0 -295893661.76865387 490789208.73791885 0 490789208.73791885 -574051895.37494278 0 0 0 0 -359477295.24581146 428484112.2001152 0 428484112.2001152 -426633882.784729 0 0 0 0 -429630587.11779022 574306408.62499237 0 574306408.62499237 -470949615.62714386 0 0 0 0 -421394629.36555672 610791613.17757654 0 610791613.17757654 -313844967.53381348 0 0 0 0 -551393539.49161148 522356935.29910469 0 522356935.29910469 -360229433.24721909 0 0 0 0 139276325.57383347 11969300.481975555 0 11969300.481975555 -198992403.07199812 0 0 0 0 650412.74215271696 432265.08414978907 0 432265.08414978907 -481472.29086716846 0 0 0 0 -34334578.853908539 104833371.81760597 0 104833371.81760597 -183798405.5170517 0 0 0 0 186568195.74697495 231916071.05764389 0 231916071.05764389 -126139748.41305351 0 0 0 0 -76191012.056398392 311799172.28826571 0 311799172.28826571 -87324734.753379822 0 0 0 0 -203531227.73635292 363176980.5545578 0 363176980.5545578 -160293693.21282196 0 0 0 0 -276357825.83105659 330824084.69438648 0 330824084.69438648 -69552815.999862671 0 0 0 0 -488523659.91232681 527316404.76840591 0 527316404.76840591 -201786452.4866724 0 0 0 0 -497218973.87984848 530118113.54157066 0 530118113.54157066 -180217883.49436188 0 0 0 0 -359301339.76371384 624736021.76594162 0 624736021.76594162 -332264712.99498558 0 0 0 0 -469832416.44097137 613895438.05278206 0 613895438.05278206 -193336634.74741364 0 0 0 0 -527126057.4048233 714540653.81377029 0 714540653.81377029 -364116121.01960754 0 0 0 0 -619204418.65805435 677979383.6685524 0 677979383.6685524 -186703475.22684932 0 0 0 0 -679802182.83852005 759956073.29788971 0 759956073.29788971 -206971992.66601849 0 0 0 0 -474689302.39529037 806398129.3273201 0 806398129.3273201 -207984731.82163239 0 0 0 0 -733042844.29198837 632042747.03314972 0 632042747.03314972 -332292975.81645966 0 0 0 0 -694586441.34057999 710470128.25436783 0 710470128.25436783 -236431395.11047745 0 0 0 0 -604906122.81545067 674473501.65504932 0 674473501.65504932 -225828576.20243073 0 0 0 0 -615921674.90490532 668423912.41775894 0 668423912.41775894 -330047273.33154297 0 0 0 0 -737248053.4357605 628265609.55491638 0 628265609.55491638 -193868309.63554478 0 0 0 0 -579605158.91916656 425344591.48244953 0 425344591.48244953 -160658488.8463974 0 0 0 0 -846385635.31565857 584815043.25594711 0 584815043.25594711 -229658188.33912468 0 0 0 0 -1049650990.6207156 473509715.55791116 0 473509715.55791116 -283452435.92678833 0 0 0 0 -541693888.83317184 915209599.95476913 0 915209599.95476913 -777805727.92370224 0 0 0 0 -1000164904.5267267 937757563.48980308 0 937757563.48980308 -421396795.14103699 0 0 0 0 -639879992.65988541 724899932.31576157 0 724899932.31576157 -315605990.70968437 0 0 0 0 -626919920.04223061 692872666.00008774 0 692872666.00008774 -499157378.56800842 0 0 0 0 -71937244.947908401 538487978.90031815 0 538487978.90031815 -556740795.77121735 0 0 0 0 -646624019.74090576 184477758.01445389 0 184477758.01445389 -230411939.84631634 0 0 0 0 -144003453.65307617 162661279.77741432 0 162661279.77741432 -137947381.69591904 0 0 0 0 -399109487.86720657 203401714.33511162 0 203401714.33511162 -88138343.562591553 0 0 0 0 -315324728.46235657 67979650.73897171 0 67979650.73897171 -445678.62433624268 0 0 0 0 -393449242.23987007 197153091.58877182 0 197153091.58877182 -118449097.25345612 0 0 0 0 -596750403.14398193 421982357.02822113 0 421982357.02822113 -149841420.81445503 0 0 0 0 -627247798.70146942 329919341.79467392 0 329919341.79467392 -99312847.715265274 0 0 0 0 -869401292.42107773 574907099.28440857 0 574907099.28440857 -299204444.25597763 0 0 0 0 -650103269.16791534 287581488.13310242 0 287581488.13310242 -171926649.24655151 0 0 0 0 -799784368.9809494 548369053.90649605 0 548369053.90649605 -654650301.95437622 0 0 0 0 -972327576.40751266 569910413.69921494 0 569910413.69921494 -187548697.67241669 0 0 0 0 -715322338.24807549 311960336.411129 0 311960336.411129 -15757522.724533081 0 0 0 0 -700312495.56820679 220036528.56293488 0 220036528.56293488 47709708.049617767 0 0 0 0 -492197205.67586565 95608738.506531954 0 95608738.506531954 -6883694.3933868408 0 0 0 0 -467101866.91230774 308817106.31601334 0 308817106.31601334 -234630365.09403992 0 0 0 0 -304158300.07657242 23784386.288532257 0 23784386.288532257 21728335.002502441 0 0 0 0 -335352214.0593338 126611906.88615417 0 126611906.88615417 -71144132.733982086 0 0 0 0 -394987729.97383499 172388297.93666458 0 172388297.93666458 32886371.578918457 0 0 0 0 -383726921.63111877 -14904345.662483215 0 -14904345.662483215 52592295.593696594 0 0 0 0 -305776571.41611099 208084897.40078449 0 208084897.40078449 87023699.966094971 0 0 0 0 -275630490.96011353 -24678169.984462738 0 -24678169.984462738 -88659883.613357544 0 0 0 0 -874617652.00080872 -126540433.19602585 0 -126540433.19602585 75503595.272426605 0 0 0 0 -736541934.67520905 202303820.7636013 0 202303820.7636013 144218268.16384125 0 0 0 0 -1416787057.569643 415545533.26847267 0 415545533.26847267 103082186.06934357 0 0 0 0 -1242443200.4318352 674071502.62839127 0 674071502.62839127 130565705.41490173 0 0 0 0 -1310248034.4744678 1003778207.2879233 0 1003778207.2879233 90358436.050521851 0 0 0 0 -2151963797.593338 728366698.96605682 0 728366698.96605682 262921427.92818356 0 0 0 0 -1259974713.428896 614740476.77271271 0 614740476.77271271 242103593.95491791 0 0 0 0 -2770618668.4190216 1187872790.566391 0 1187872790.566391 -64628799.556381226 0 0 0 0 -1141798827.8964901 1016402697.038063 0 1016402697.038063 -689820372.94586945 0 0 0 0 -1310021912.5493851 -96576771.882492065 0 -96576771.882492065 -1372647693.860198 0 0 0 0 -1814689095.2047119 1464743262.1040688 0 1464743262.1040688 -985143969.69657135 0 0 0 0 -1504580790.6127892 1585046698.0917206 0 1585046698.0917206 -1039455369.8717339 0 0 0 0 98393487.780727386 107296147.01715851 0 107296147.01715851 -1126692550.7197206 0 0 0 0 -237189720.29978561 1454771.6352043152 0 1454771.6352043152 27543443.411209106 0 0 0 0 -2454480289.025516 -573235256.53018284 0 -573235256.53018284 77614421.889854431 0 0 0 0 -2714680.1404452641 3333678.7593754753 0 3333678.7593754753 -2336382.8845156543 0 0 0 0 -388816385.07650757 336517616.45496368 0 336517616.45496368 -222283534.55278397 0 0 0 0 -324486303.1043129 127405598.65588379 0 127405598.65588379 -220355320.18559647 0 0 0 0 -299090093.04641724 10684555.263971329 0 10684555.263971329 205224988.7540741 0 0 0 0 -2611184.6342243962 3299245.4416319132 0 3299245.4416319132 -1753385.5732754543 0 0 0 0 388350667.3370018 656078184.7882843 0 656078184.7882843 207724986.21080834 0 0 0 0 -356523230.29983902 62606778.573661804 0 62606778.573661804 541071299.18320465 0 0 0 0 -1578398.0220168792 1798971.3799159508 0 1798971.3799159508 -807415.20660385489 0 0 0 0 -1487279751.3557053 885397060.1789856 0 885397060.1789856 299155479.21871948 0 0 0 0 713216132.74758148 495029584.61052704 0 495029584.61052704 -769814630.28293335 0 0 0 0 -1238486165.8015404 1317252790.6454964 0 1317252790.6454964 -452009218.02477455 0 0 0 0 -912106359.40768814 923575260.63573837 0 923575260.63573837 -89164630.786991119 0 0 0 0 -1082272437.0547719 783034039.70984268 0 783034039.70984268 119745319.57145691 0 0 0 0 -871650897.49110794 273734589.05741882 0 273734589.05741882 -160323452.87400818 0 0 0 0 -37344409.041912079 312394990.67898178 0 312394990.67898178 -578187268.83181 0 0 0 0 -31793007.646030426 536976410.55012131 0 536976410.55012131 -201015401.72851562 0 0 0 0 642938589.2097826 861539728.51763916 0 861539728.51763916 -34014201.821998596 0 0 0 0 581801572.01502609 78363170.098552704 0 78363170.098552704 96935653.328172684 0 0 0 0 -367417041.64579773 315888300.42292404 0 315888300.42292404 278279562.51164246 0 0 0 0 -1361856.7063428778 1607886.7603629157 0 1607886.7603629157 -658032.6608838737 0 0 0 0 759921592.41595078 363479834.41243744 0 363479834.41243744 -630124591.82237244 0 0 0 0 -142803063.58417702 -83992641.213354111 0 -83992641.213354111 224088652.55732727 0 0 0 0 -738398168.41658783 202542651.77156067 0 202542651.77156067 437719186.62255859 0 0 0 0 998426256.79590988 416749261.50382614 0 416749261.50382614 160626274.1725626 0 0 0 0 276750.4745304361 1474762.0524274409 0 1474762.0524274409 -869670.84698449448 0 0 0 0 1208138898.733223 530597585.46781158 0 530597585.46781158 -697561239.13257599 0 0 0 0 -561500397.15548515 908222351.61079025 0 908222351.61079025 -74207378.270828247 0 0 0 0 895487588.73244476 -79383340.324584961 0 -79383340.324584961 537369546.93570709 0 0 0 0 664753096.5273695 928286995.37493467 0 928286995.37493467 105699485.97100067 0 0 0 0 609626194.11574554 532904147.95568085 0 532904147.95568085 -282282900.26815033 0 0 0 0 546564905.85507202 82557688.35987854 0 82557688.35987854 204834741.1033268 0 0 0 0 -106243084.01694107 106523031.05186081 0 106523031.05186081 -122853501.22973061 0 0 0 0 -244643733.14849472 412303813.98169327 0 412303813.98169327 14310563.29001236 0 0 0 0 386714871.69484138 290763693.87798691 0 290763693.87798691 -286541885.0813446 0 0 0 0 -539799093.46308517 98995520.396957397 0 98995520.396957397 -238363345.73719788 0 0 0 0 -682181895.40274811 309483613.94991493 0 309483613.94991493 87581349.196289062 0 0 0 0 -475359079.01496124 -1943479.7247009277 0 -1943479.7247009277 -1732899.8074874878 0 0 0 0 -121005837.21856308 338323638.40635681 0 338323638.40635681 232536.16800689697 0 0 0 0 428517430.17230988 59464814.477924347 0 59464814.477924347 -84833091.871927261 0 0 0 0 166483645.64443016 468054608.57462883 0 468054608.57462883 97282603.212226868 0 0 0 0 790241302.76927948 221685721.44524765 0 221685721.44524765 -266646.94765760342 0 0 0 0 451507724.83463597 240570685.37543225 0 240570685.37543225 291568543.61319733 0 0 0 0 965580693.98053741 487276784.62049866 0 487276784.62049866 11945205.308547974 0 0 0 0 -1630952827.5892162 455340739.86190414 0 455340739.86190414 -17229977.66506958 0 0 0 0 -1277974362.6665382 612703544.50790405 0 612703544.50790405 -47698293.360757351 0 0 0 0 -1813607248.7166748 580118790.08726501 0 580118790.08726501 -49459299.191706181 0 0 0 0 -758092365.77476883 833615713.27952957 0 833615713.27952957 -302335925.15756226 0 0 0 0 -1389266338.5459881 1065192857.7662773 0 1065192857.7662773 -367251350.14585876 0 0 0 0 -270402689.33686447 806696390.52519226 0 806696390.52519226 -691391587.9282074 0 0 0 0 -2856372727.6672993 412310778.43207932 0 412310778.43207932 -7465292.1882629395 0 0 0 0 -991127947.53143692 499828171.86633682 0 499828171.86633682 -258000918.22009277 0 0 0 0 -695048955.08694077 353057632.63314819 0 353057632.63314819 -385152285.23304749 0 0 0 0 -1164573204.6779842 82889156.649513245 0 82889156.649513245 -59280244.305171967 0 0 0 0 -1771495511.479435 412825793.94272995 0 412825793.94272995 20842016.788574219 0 0 0 0 -668450.7911387987 -463261.31363703124 0 -463261.31363703124 162433.41547282785 0 0 0 0 -1554815349.32024 330979523.36409378 0 330979523.36409378 -18662014.181472778 0 0 0 0 -711675443.68455029 214428039.08364201 0 214428039.08364201 -67799580.505897522 0 0 0 0 -1508484685.2297249 71777878.852890015 0 71777878.852890015 89782566.815711975 0 0 0 0 -816123125.64543343 337069974.43647003 0 337069974.43647003 -246659.62777709961 0 0 0 0 -1330150.8337420933 -926097.99868061766 0 -926097.99868061766 182509.73130816221 0 0 0 0 -877221464.63321292 375438710.48576844 0 375438710.48576844 -25071933.410850525 0 0 0 0 -1163825586.5185719 510303985.43091965 0 510303985.43091965 354071.33134469402 0 0 0 0 -1314096302.8661289 628071005.92126846 0 628071005.92126846 3869079.2965621948 0 0 0 0 -961820325.89325333 513703452.63741302 0 513703452.63741302 -122445.70956420898 0 0 0 0 -1127381010.090045 615717376.66241932 0 615717376.66241932 4657693.3326797485 0 0 0 0 -891186604.59133816 620151152.92563438 0 620151152.92563438 -102951284.29905701 0 0 0 0 -630681679.89241886 457796844.44914246 0 457796844.44914246 -132407651.7692337 0 0 0 0 -708108095.91144753 459891193.22491074 0 459891193.22491074 -46543.701293945312 0 0 0 0 -579723215.63166809 402298116.60718536 0 402298116.60718536 -102376494.85207367 0 0 0 0 -580068226.49657249 537248903.94399643 0 537248903.94399643 -200242048.04856491 0 0 0 0 376054.18527932302 -1231297.3429289958 0 -1231297.3429289958 -732913.38790016621 0 0 0 0 -604379449.40678215 390090188.04460526 0 390090188.04460526 -164938.31407782386 0 0 0 0 -760217975.31256962 276371813.73060226 0 276371813.73060226 -55387008.674003601 0 0 0 0 453037.02888838353 -926495.12099709245 0 -926495.12099709245 -1105227.869305484 0 0 0 0 -168606109.73867321 148437226.96909714 0 148437226.96909714 -97549135.236381531 0 0 0 0 -350353169.68232155 102558722.57771683 0 102558722.57771683 9583628.1323375702 0 0 0 0 -86419347.55610466 -32436531.035709381 0 -32436531.035709381 -30691242.600429535 0 0 0 0 -334116189.5642395 507820713.7065239 0 507820713.7065239 -482002565.28862 0 0 0 0 -720641308.74247575 614401752.25897169 0 614401752.25897169 -239255126.84194946 0 0 0 0 -363109362.09069443 308291741.75181198 0 308291741.75181198 -153663648.43227386 0 0 0 0 -364192200.77248484 378002581.70338297 0 378002581.70338297 -266886473.53372192 0 0 0 0 -77985747.681079865 142241175.12604523 0 142241175.12604523 -221434889.3346405 0 0 0 0 -289466679.64528358 318839784.4701426 0 318839784.4701426 -263664275.01997375 0 0 0 0 -253828845.7027626 340526910.86529922 0 340526910.86529922 -256930898.73939514 0 0 0 0 92057230.812210083 184015204.7179184 0 184015204.7179184 -249678275.41750336 0 0 0 0 245062018.74564266 30674898.466976166 0 30674898.466976166 -101832394.82449341 0 0 0 0 111488.46448566066 -241149.53076551668 0 -241149.53076551668 477295.2162162587 0 0 0 0 16971822.722301483 153171753.46451569 0 153171753.46451569 80860476.181716919 0 0 0 0 40360023.53729248 199138662.66342163 0 199138662.66342163 10350753.237045288 0 0 0 0 -103734740.50710201 29057453.882699966 0 29057453.882699966 43446035.890350342 0 0 0 0 9503902.7368164062 35137767.088668823 0 35137767.088668823 20989369.147590637 0 0 0 0 -19689436.146507263 69056678.922679901 0 69056678.922679901 61161849.438659668 0 0 0 0 -182224444.8070755 98097215.623226166 0 98097215.623226166 -77901112.655822754 0 0 0 0 -42635301.371112823 -10299293.389518738 0 -10299293.389518738 -50919267.642671585 0 0 0 0 -4759737.4945697784 6840733.2817077637 0 6840733.2817077637 -48944013.417236328 0 0 0 0 484998.97921080631 -684562.37131954101 0 -684562.37131954101 -789108.01298123598 0 0 0 0 -47335408.520714283 -33771309.174518585 0 -33771309.174518585 -736444.2151184082 0 0 0 0 -70319656.49259758 -3574455.6652374268 0 -3574455.6652374268 25335006.434799194 0 0 0 0 -17958598.303798676 5048087.931060791 0 5048087.931060791 30565858.144042969 0 0 0 0 -16869612.811216354 8006619.2410964966 0 8006619.2410964966 20664996.148580551 0 0 0 0 -37292442.715379715 -20096343.28698349 0 -20096343.28698349 14574523.330482483 0 0 0 0 -35002750.596659184 -20898952.160203934 0 -20898952.160203934 13741940.580490112 0 0 0 0 -5400307.5935235023 19026970.701889038 0 19026970.701889038 4802850.6468353271 0 0 0 0 42660193.162155151 45488298.042320251 0 45488298.042320251 36225445.620849609 0 0 0 0 -2850998.921995163 9638540.2193832397 0 9638540.2193832397 34383565.812469482 0 0 0 0 33626094.231559753 67255912.798912048 0 67255912.798912048 54322268.446685791 0 0 0 0 9085979.6173500754 5501729.7376553714 0 5501729.7376553714 -9950562.7205212861 0 0 0 0 36388635.838846207 31723751.052597046 0 31723751.052597046 16072296.407836914 0 0 0 0 -9953971.5114356037 7004119.1112388223 0 7004119.1112388223 8436648.5840079039 0 0 0 0 259831848.50806427 194795600.34152985 0 194795600.34152985 18109770.500384331 0 0 0 0 -19651510.684238434 17775840.251701355 0 17775840.251701355 61043599.719734192 0 0 0 0 -131731929.29232788 -36329390.027706146 0 -36329390.027706146 85621021.110435486 0 0 0 0 -8550744.3823076747 9407974.9931313656 0 9407974.9931313656 -470355.97236327827 0 0 0 0 14932825.78225708 12304923.351501465 0 12304923.351501465 6612280.0212402344 0 0 0 0 132952755.55226898 150972168.52223969 0 150972168.52223969 33212296.973297119 0 0 0 0 -82406402.156585693 -23544029.770751953 0 -23544029.770751953 11978281.788452148 0 0 0 0 -1971255.5434267642 2070465.9812746765 0 2070465.9812746765 3722035.9041098654 0 0 0 0 106744.27886962891 60373924.038070679 0 60373924.038070679 81158664.422561646 0 0 0 0 -5470303.2189884689 9750953.8198753726 0 9750953.8198753726 -6658192.1656973548 0 0 0 0 -139655594.28435898 61370140.520637512 0 61370140.520637512 190896188.87644958 0 0 0 0 6300861.1451849425 7187589.3013242595 0 7187589.3013242595 -7843859.4240609854 0 0 0 0 -2229143.7906184373 2263635.7453415468 0 2263635.7453415468 2407949.6331695467 0 0 0 0 44465146.231582642 34626581.913146973 0 34626581.913146973 55958884.786071777 0 0 0 0 122273966.45608187 87090953.670235634 0 87090953.670235634 38915108.74432373 0 0 0 0 -3408143.6005020142 66413264.227996826 0 66413264.227996826 61766886.710350037 0 0 0 0 -399553378.88952732 263425381.51699066 0 263425381.51699066 29129953.666000366 0 0 0 0 -102838752.95382214 214347385.94610596 0 214347385.94610596 -183988026.33449554 0 0 0 0 -832004.00118571683 -29826.818734776229 0 -29826.818734776229 441259.83584763855 0 0 0 0 -307193607.088202 83704660.777244568 0 83704660.777244568 6080060.5456695557 0 0 0 0 -143204901.04090774 47640123.067810059 0 47640123.067810059 -43222929.686134338 0 0 0 0 -117788494.03537881 116298699.0688324 0 116298699.0688324 -5476289.1401672363 0 0 0 0 -37821549.388863325 100896206.46627808 0 100896206.46627808 -38678196.486480713 0 0 0 0 -75230337.434976101 114555045.82089233 0 114555045.82089233 -10824169.000900269 0 0 0 0 -429638032.03419304 216385005.64487457 0 216385005.64487457 230786022.40188599 0 0 0 0 -307731576.27064496 161355396.61520642 0 161355396.61520642 107138240.89245605 0 0 0 0 -248000660.08045769 390821372.87431335 0 390821372.87431335 -120612159.31080627 0 0 0 0 -177033451.76264763 315824156.76278687 0 315824156.76278687 -57326971.463188171 0 0 0 0 -369617011.60627472 -83677055.048851013 0 -83677055.048851013 -11063365.425231934 0 0 0 0 -1447060352.2126312 642413869.73895264 0 642413869.73895264 289516030.70780945 0 0 0 0 159149752.54973793 151689388.89025879 0 151689388.89025879 -245210613.06030273 0 0 0 0 71693488.238182068 10909059.222259521 0 10909059.222259521 -347164844.4030304 0 0 0 0 -51717797.196147919 -139687343.57800293 0 -139687343.57800293 -327213331.94661713 0 0 0 0 -21052517.408884048 -31919864.339431763 0 -31919864.339431763 -163892973.30361938 0 0 0 0 171185022.25724983 111035500.92407227 0 111035500.92407227 -263281143.79588318 0 0 0 0 166845967.06043148 100454601.88274384 0 100454601.88274384 -125100203.99221802 0 0 0 0 388602664.30675936 30338608.981163025 0 30338608.981163025 -97440550.758331299 0 0 0 0 300170143.10536861 143672071.0206604 0 143672071.0206604 -170170726.69161987 0 0 0 0 113587563.49467754 26424118.845413208 0 26424118.845413208 -77811179.527099609 0 0 0 0 348661271.3049736 88733008.314376831 0 88733008.314376831 -120019716.62255859 0 0 0 0 -252118179.81807709 87511285.104171753 0 87511285.104171753 47954337.852325439 0 0 0 0 110231034.26645803 1079928.306230545 0 1079928.306230545 -201341149.9175415 0 0 0 0 -930314.45606099023 -2392856.9915169957 0 -2392856.9915169957 -77401.250755310059 0 0 0 0 717643901.52898693 138964163.5756073 0 138964163.5756073 -154371676.93894958 0 0 0 0 -47122053.504263878 6555641.0956039429 0 6555641.0956039429 26229986.76517868 0 0 0 0 72216.456726933364 1627780.2833283274 0 1627780.2833283274 2923884.020997934 0 0 0 0 584218494.89839268 213337007.209095 0 213337007.209095 -82888207.972229004 0 0 0 0 353810682.02681065 123663540.12088013 0 123663540.12088013 78413323.89251709 0 0 0 0 821801366.15630531 19084564.18995285 0 19084564.18995285 -70205328.592529297 0 0 0 0 -845731.26677985943 -1010032.8602088604 0 -1010032.8602088604 586936.0582652092 0 0 0 0 139081584.13694382 41553125.126411438 0 41553125.126411438 9724093.9174804688 0 0 0 0 426761.39611803542 -356784.99005166581 0 -356784.99005166581 -47758.174593523145 0 0 0 0 488003840.1470623 -64543852.362159729 0 -64543852.362159729 62657399.678741455 0 0 0 0 489933085.63026524 103662559.10829163 0 103662559.10829163 44483680.358352661 0 0 0 0 32472741.673962593 138170157.2519989 0 138170157.2519989 -47323811.146881104 0 0 0 0 283676892.40820694 112837615.86273193 0 112837615.86273193 -9666021.6866645813 0 0 0 0 96858797.665467262 -21332818.291584015 0 -21332818.291584015 -7334537.4711303711 0 0 0 0 346553386.42293358 -53464034.591163635 0 -53464034.591163635 33824713.448711395 0 0 0 0 -40024897.168375015 26393760.241279602 0 26393760.241279602 43992223.972557068 0 0 0 0 151626860.77242947 133761199.38128662 0 133761199.38128662 -25351548.993286133 0 0 0 0 219617670.48770905 -49183077.954032898 0 -49183077.954032898 191068.63095855713 0 0 0 0 324071762.3652401 99374115.021205902 0 99374115.021205902 43372693.251358032 0 0 0 0 6007505.5213084221 112584424.44565582 0 112584424.44565582 1047084.7364044189 0 0 0 0 837670799.22337914 67593866.469337463 0 67593866.469337463 -65794981.063781738 0 0 0 0 -189067.71295661072 -455803.79303509311 0 -455803.79303509311 119314.04883018881 0 0 0 0 240649584.86370373 -142935047.72484589 0 -142935047.72484589 15907720.466552734 0 0 0 0 530050496.82460403 -56625518.946914673 0 -56625518.946914673 49182120.993085146 0 0 0 0 483192788.64284897 -19787500.202644348 0 -19787500.202644348 -16538098.272407532 0 0 0 0 500347644.63919401 54561017.781951904 0 54561017.781951904 -21982677.794036865 0 0 0 0 404936010.83204079 219765544.61155701 0 219765544.61155701 30795932.075622559 0 0 0 0 421743750.2224865 27867065.379249573 0 27867065.379249573 79134107.813099861 0 0 0 0 487424713.46542931 153055859.44491577 0 153055859.44491577 95029764.181793213 0 0 0 0 425908784.54470634 34003327.847236633 0 34003327.847236633 -27657086.946624756 0 0 0 0 97568768.274773121 -51424464.826225281 0 -51424464.826225281 17592836.434799194 0 0 0 0 244438908.58633447 38708503.084669113 0 38708503.084669113 -37173743.402618408 0 0 0 0 263445614.23096085 -12769193.595222473 0 -12769193.595222473 68586283.532402039 0 0 0 0 105616028.44359732 -26213698.612594604 0 -26213698.612594604 37040988.779727936 0 0 0 0 105760886.69019699 -24639718.85533905 0 -24639718.85533905 -36766596.193588257 0 0 0 0 -190876965.54246807 115649877.07105255 0 115649877.07105255 -9685268.4991149902 0 0 0 0 -91747948.234701633 38570388.242637634 0 38570388.242637634 -42039687.316253662 0 0 0 0 -67765945.539484024 78746187.283370972 0 78746187.283370972 1585674.5530281067 0 0 0 0 -339509677.8020311 100307370.75446796 0 100307370.75446796 35237729.019165039 0 0 0 0 -118848011.26138353 -31806235.073852539 0 -31806235.073852539 -80044755.03730011 0 0 0 0 -217522088.33839226 114402457.50788879 0 114402457.50788879 -44085413.636650085 0 0 0 0 -1397035.3312155823 -257762.77838487364 0 -257762.77838487364 1042082.5349886715 0 0 0 0 -536357605.31035614 151386761.49039459 0 151386761.49039459 88607277.872207642 0 0 0 0 -334748613.05111432 228330897.81996584 0 228330897.81996584 -39783234.460540771 0 0 0 0 -455155677.30990171 53471993.612533569 0 53471993.612533569 -400537854.89813232 0 0 0 0 -165267045.75160909 23143668.581832886 0 23143668.581832886 -73509765.549350739 0 0 0 0 -169288175.43680954 123823487.83604431 0 123823487.83604431 -159184907.42824554 0 0 0 0 -171418648.94490767 -5707517.5412979126 0 -5707517.5412979126 -10614547.426811337 0 0 0 0 -273425944.33209282 144989566.77653503 0 144989566.77653503 -7793438.5513916016 0 0 0 0 -83981234.518364429 67450639.715888977 0 67450639.715888977 2629233.1562347412 0 0 0 0 60570928.942784786 -37175341.140724182 0 -37175341.140724182 -19436386.979949951 0 0 0 0 -109515578.01233137 67727021.175394058 0 67727021.175394058 30741786.57283783 0 0 0 0 -118795491.66454771 38370782.698404312 0 38370782.698404312 -62117744.544296265 0 0 0 0 295430417.2942667 2144862.8882293701 0 2144862.8882293701 14902266.190384388 0 0 0 0 404745006.27092648 66789787.673034668 0 66789787.673034668 19085162.478500366 0 0 0 0 300231261.06171417 -31988243.220718384 0 -31988243.220718384 1755345.4964065552 0 0 0 0 297524223.98914909 -41643964.119445801 0 -41643964.119445801 -30971304.166464806 0 0 0 0 269672911.13686752 22367039.524898529 0 22367039.524898529 -36119259.482910156 0 0 0 0 100774551.02730989 39303064.667747498 0 39303064.667747498 22475041.790596008 0 0 0 0 474626280.33628774 54815935.105015755 0 54815935.105015755 -45092246.790283203 0 0 0 0 265669408.29409027 54914148.400455475 0 54914148.400455475 16408454.066810608 0 0 0 0 241865940.23661482 -5283369.9183578491 0 -5283369.9183578491 -23725428.859291077 0 0 0 0 222245250.6670801 54338561.126654387 0 54338561.126654387 -155430.78371429443 0 0 0 0 403344660.49501121 10763115.736034393 0 10763115.736034393 -25739792.783622742 0 0 0 0 222255837.43787098 54261137.771511078 0 54261137.771511078 160583.50363922119 0 0 0 0 37006491.588729382 11597545.936973572 0 11597545.936973572 45047215.690292358 0 0 0 0 24977542.223703146 -20904599.024982452 0 -20904599.024982452 -16003662.779220581 0 0 0 0 -93566571.545076668 71253044.508518219 0 71253044.508518219 132313.72338104248 0 0 0 0 -124664616.99641216 30024437.536458969 0 30024437.536458969 -18476600.601448059 0 0 0 0 -1911493.2466928458 -856133.29340570047 0 -856133.29340570047 1662467.4273786172 0 0 0 0 -168203534.29347587 62149343.200620651 0 62149343.200620651 -75105.928314208984 0 0 0 0 26985347.790250301 91896363.617462158 0 91896363.617462158 -62529157.724334717 0 0 0 0 -52313127.467957497 158399672.38280106 0 158399672.38280106 -76847.070298458493 0 0 0 0 -164552296.27353859 141219181.18087006 0 141219181.18087006 -30590.941452026367 0 0 0 0 -112277025.02389622 97516341.38010025 0 97516341.38010025 -31547398.747268677 0 0 0 0 -70883260.653966904 116283113.59320831 0 116283113.59320831 -30737465.218467712 0 0 0 0 -121941439.1745739 82156690.378364563 0 82156690.378364563 -26917592.039154053 0 0 0 0 -66522026.499065399 76649775.176998138 0 76649775.176998138 -61472116.38602066 0 0 0 0 -45628069.859291077 104379444.59886551 0 104379444.59886551 -57183797.653060913 0 0 0 0 -38525224.908826828 60326322.125572205 0 60326322.125572205 -45675959.177024841 0 0 0 0 -49500074.736869812 95735275.79712677 0 95735275.79712677 -65452792.894393921 0 0 0 0 -8826394.6998786926 59660373.310844421 0 59660373.310844421 -36907867.184059143 0 0 0 0 -51017167.128463626 63264456.622309446 0 63264456.622309446 -26663943.340164185 0 0 0 0 -46103735.875570297 67312807.882801056 0 67312807.882801056 -17163576.625793457 0 0 0 0 20082335.332339287 27590515.472412109 0 27590515.472412109 -18826603.40742445 0 0 0 0 -75580396.582714796 105442091.90164185 0 105442091.90164185 -53733134.999603271 0 0 0 0 -14165765.182917595 43740948.127563477 0 43740948.127563477 -72246415.509349823 0 0 0 0 -82126575.204340756 90525621.179050446 0 90525621.179050446 -87523065.343711853 0 0 0 0 -1816772.9525011 -590843.49973327108 0 -590843.49973327108 1459237.7211150229 0 0 0 0 -218238427.39427781 102215307.33123016 0 102215307.33123016 -55242141.859832764 0 0 0 0 -249629760.8423605 187554492.48732376 0 187554492.48732376 -96189445.487960815 0 0 0 0 -212698196.27544457 108868778.35083771 0 108868778.35083771 -5503075.2140426636 0 0 0 0 -1878104.226063645 -693447.58184542134 0 -693447.58184542134 1761952.7455758601 0 0 0 0 -146883194.45170766 122464183.75063324 0 122464183.75063324 -54612522.660720825 0 0 0 0 8987229.8016414642 26032754.224201202 0 26032754.224201202 15139425.994529724 0 0 0 0 -27146503.68435955 -10732808.018697739 0 -10732808.018697739 19411081.175804138 0 0 0 0 4468380.9235851858 494562.92101487517 0 494562.92101487517 -906418.73574399948 0 0 0 0 948929.73723086691 -1814011.7338075396 0 -1814011.7338075396 171108.9866264984 0 0 0 0 -60994960.178939879 8185060.1818771362 0 8185060.1818771362 21105707.841674805 0 0 0 0 119918025.25621605 99781873.312171936 0 99781873.312171936 -400476.87603158224 0 0 0 0 8377037.777299881 -13101824.192520142 0 -13101824.192520142 1848463.9758071899 0 0 0 0 6688970.1378517151 33544579.51374054 0 33544579.51374054 6019073.2390670776 0 0 0 0 10778816.577291489 28920654.123020172 0 28920654.123020172 -216.98305511474609 0 0 0 0 1931543.4890725701 -1167555.1070802715 0 -1167555.1070802715 -1019648.8466115817 0 0 0 0 71458562.071163177 20763734.700721741 0 20763734.700721741 -20249954.407859802 0 0 0 0 -288692846.78173161 39726515.722517014 0 39726515.722517014 15920691.250793457 0 0 0 0 -88281322.985116005 8736771.4645042419 0 8736771.4645042419 -4978757.3978157043 0 0 0 0 -68338389.063484192 10320785.553226471 0 10320785.553226471 -24732347.327644348 0 0 0 0 -33000957.198456526 -736096.20147705078 0 -736096.20147705078 -25159450.680778503 0 0 0 0 18146461.4490242 49802231.554973602 0 49802231.554973602 -4440889.3925056458 0 0 0 0 184998.06437492371 19690896.364097595 0 19690896.364097595 7596592.3373270035 0 0 0 0 3285625.5608417559 1027498.0874825269 0 1027498.0874825269 -278780.58681343496 0 0 0 0 2385552.9194543632 -629476.77966053225 0 -629476.77966053225 -989311.3974749893 0 0 0 0 50526307.562005043 26481366.43586731 0 26481366.43586731 -13630708.119598389 0 0 0 0 16871560.445146561 -16789173.62767601 0 -16789173.62767601 -2900743.914932251 0 0 0 0 49607942.843524933 13418387.460322499 0 13418387.460322499 -664834.85329437256 0 0 0 0 1479262.6435462525 -1299324.0816029585 0 -1299324.0816029585 247044.99010376632 0 0 0 0 -37751848.621423721 12346955.603187561 0 12346955.603187561 19145247.831764221 0 0 0 0 2860262.6987045924 752075.18983404664 0 752075.18983404664 177718.32936728001 0 0 0 0 14243492.195169449 10325295.407276154 0 10325295.407276154 -5654299.7728424072 0 0 0 0 4635834.3051013947 8524255.019947052 0 8524255.019947052 689779.61222076416 0 0 0 0 7411309.6620655507 6196517.2919097841 0 6196517.2919097841 4785461.4067764282 0 0 0 0 7402497.0922584534 7144420.6559371948 0 7144420.6559371948 6753937.8393859863 0 0 0 0 5840181.3655123711 5000770.4026861191 0 5000770.4026861191 4411863.3434371948 0 0 0 0 6373749.2054781914 7089732.5141220093 0 7089732.5141220093 5944878.4956054688 0 0 0 0 5722562.8745550886 6888880.6978296228 0 6888880.6978296228 3851608.9776876941 0 0 0 0 76230.416321890429 3988828.7326478399 0 3988828.7326478399 3925087.1507738307 0 0 0 0 94161.874158382416 160731.00726222992 0 160731.00726222992 382540.2600402832 0 0 0 0 9885062.5050735474 7066685.4196357727 0 7066685.4196357727 5376680.0652732849 0 0 0 0 1002577.1065555231 3479986.0864480864 0 3479986.0864480864 3488586.5693242326 0 0 0 0 1810319.7339583216 1975600.5579076894 0 1975600.5579076894 3017066.6581730843 0 0 0 0 -63860661.340705872 19251204.656410217 0 19251204.656410217 5995569.8046417236 0 0 0 0 -51894503.50661087 11910707.631324768 0 11910707.631324768 5978898.8642578125 0 0 0 0 17032198.010806084 24226271.594585419 0 24226271.594585419 -15140073.845733643 0 0 0 0 5252886.9469795227 27834371.855102539 0 27834371.855102539 -15647921.474330902 0 0 0 0 -3454306.9509449005 52411768.877666473 0 52411768.877666473 -20940256.26473999 0 0 0 0 -17259587.865692139 59892975.37109375 0 59892975.37109375 -23669472.840896606 0 0 0 0 -74848941.385654449 100923186.16833496 0 100923186.16833496 -29985627.533691406 0 0 0 0 -139179057.22869873 107319123.34646606 0 107319123.34646606 -41940203.146476746 0 0 0 0 -65692425.994585514 -85525296.354822159 0 -85525296.354822159 98620890.528152466 0 0 0 0 18529557.057935715 7964831.0526275635 0 7964831.0526275635 -2527285.9820251465 0 0 0 0 -314707.9385390617 223153.04951490834 0 223153.04951490834 344573.74564301595 0 0 0 0 -176060521.68578339 -72667433.776306152 0 -72667433.776306152 53880776.281494141 0 0 0 0 84424190.090740681 43341581.751174927 0 43341581.751174927 -67112017.017791748 0 0 0 0 34697630.076393127 79488126.884292603 0 79488126.884292603 -67798788.785858154 0 0 0 0 59539673.140846252 -22516682.255004883 0 -22516682.255004883 -8894053.0616912842 0 0 0 0 28475184.217075348 -18033630.67779541 0 -18033630.67779541 13781290.800109863 0 0 0 0 -34621228.099211693 9366426.5959129333 0 9366426.5959129333 105406539.32785797 0 0 0 0 140830.41104666889 943263.40173747018 0 943263.40173747018 115660.0514849294 0 0 0 0 91484802.869213581 1720040.3207426071 0 1720040.3207426071 -43347224.070068359 0 0 0 0 25680855.251426697 1733410.7858123779 0 1733410.7858123779 -17866869.556900024 0 0 0 0 33277284.470218658 8449474.5511207581 0 8449474.5511207581 -15385564.341400146 0 0 0 0 27609995.031978607 28012308.482040405 0 28012308.482040405 -33736540.563217163 0 0 0 0 19342237.348617554 13612960.192428589 0 13612960.192428589 -17174783.46207428 0 0 0 0 21535738.740430832 4884335.1935920715 0 4884335.1935920715 -10907148.911407471 0 0 0 0 20101597.607221127 9053474.3959236145 0 9053474.3959236145 -2116059.4610900879 0 0 0 0 15328672.269765854 14417047.337587357 0 14417047.337587357 -3527436.7393798828 0 0 0 0 14830297.89950338 20430030.287032723 0 20430030.287032723 -11843973.787353516 0 0 0 0 15162384.437286377 15085686.551109314 0 15085686.551109314 -3452886.8462982178 0 0 0 0 14866749.767560959 16065282.356712341 0 16065282.356712341 -4941368.4905700684 0 0 0 0 10327169.855587006 9160730.8941040039 0 9160730.8941040039 8779163.3079223633 0 0 0 0 3521719.454662323 10292847.069168091 0 10292847.069168091 15972569.91583252 0 0 0 0 -40933849.413835883 8273484.3994350433 0 8273484.3994350433 10501738.597839355 0 0 0 0 -20792983.857841834 14762011.332416773 0 14762011.332416773 10791545.594085693 0 0 0 0 -9803589.1862411499 2045534.8521118164 0 2045534.8521118164 4906224.188079834 0 0 0 0 -22140036.749574989 -7668486.0776844025 0 -7668486.0776844025 -875003.50096130371 0 0 0 0 1408886.3909219848 1151345.0774476901 0 1151345.0774476901 26902.260988414288 0 0 0 0 -31395010.133071899 -12106679.881322861 0 -12106679.881322861 186493.98208618164 0 0 0 0 187328306.99373055 15835599.664337158 0 15835599.664337158 54458809.781517029 0 0 0 0 2138229.6721248627 15991787.99067688 0 15991787.99067688 10181400.522460938 0 0 0 0 -1594333.2130889893 16043931.277542114 0 16043931.277542114 18256381.350082397 0 0 0 0 468459.45907053305 4889098.7903232463 0 4889098.7903232463 1363495.0523790419 0 0 0 0 3770331.3224449158 19471975.079208374 0 19471975.079208374 15082325.853927612 0 0 0 0 25090537.026260376 70566412.225891113 0 70566412.225891113 87500615.495300293 0 0 0 0 4692626.3049370209 3764948.0709442869 0 3764948.0709442869 -80759.948799122125 0 0 0 0 11446178.410652161 16303051.216293335 0 16303051.216293335 9436666.7792510986 0 0 0 0 6712096.6637802124 7311907.9478263855 0 7311907.9478263855 4532955.3896484375 0 0 0 0 1212129.0268936157 15880549.681869507 0 15880549.681869507 12578577.428848267 0 0 0 0 -6346654.3072891235 9672777.6797180176 0 9672777.6797180176 9785346.7221574783 0 0 0 0 -2277573.1029109955 16221357.461845398 0 16221357.461845398 9935386.5545806885 0 0 0 0 -1553691.4384231567 18320078.650840759 0 18320078.650840759 2035987.6955566406 0 0 0 0 6395841.8309764862 14245567.539352417 0 14245567.539352417 2724286.4698181152 0 0 0 0 -11174141.558456421 26298384.957771301 0 26298384.957771301 -2335015.3036499023 0 0 0 0 -6531788.791261673 11408386.828910828 0 11408386.828910828 5928767.720993042 0 0 0 0 -13045551.997993469 8819104.6722564697 0 8819104.6722564697 4921957.443157196 0 0 0 0 875237.92786407471 642946.86088562012 0 642946.86088562012 2257205.0683898926 0 0 0 0 1844080.5927528143 3899842.6040190198 0 3899842.6040190198 3966156.5400829315 0 0 0 0 -13624181.675289154 6350858.9213790894 0 6350858.9213790894 9264429.2975921631 0 0 0 0 -1760530.2125124459 1202584.1795743504 0 1202584.1795743504 4151389.96882689 0 0 0 0 12133378.013034821 8405323.725522995 0 8405323.725522995 5811991.3631896973 0 0 0 0 -1037206.6871686368 3159665.9902679734 0 3159665.9902679734 5134465.1333996281 0 0 0 0 2003101.7739639282 1356481.9911880493 0 1356481.9911880493 841529.67308807373 0 0 0 0 9198145.8518695831 10916708.230377197 0 10916708.230377197 9719198.064666748 0 0 0 0 18585695.811534882 -257185.84046936035 0 -257185.84046936035 7164995.5513916016 0 0 0 0 9199568.4621601105 8539997.0112495422 0 8539997.0112495422 5199323.8734893799 0 0 0 0 13354328.38709259 7749610.9738273621 0 7749610.9738273621 7910713.4350585938 0 0 0 0 8868343.8831176758 8434232.892539978 0 8434232.892539978 8114588.1416168213 0 0 0 0 9323356.0634422302 8959079.1837768555 0 8959079.1837768555 6646915.5605239868 0 0 0 0 7782884.093421936 5982394.2690134048 0 5982394.2690134048 5601218.7227630615 0 0 0 0 -14988140.984249949 30767556.36239624 0 30767556.36239624 108312332.25800323 0 0 0 0 16676447.175092638 16453354.316062927 0 16453354.316062927 46229120.27192688 0 0 0 0 12259031.054462433 19247908.259742737 0 19247908.259742737 4729585.6557121277 0 0 0 0 4089809.6182994246 43548694.026229858 0 43548694.026229858 23408373.585876465 0 0 0 0 7944492.470184356 13977765.128416061 0 13977765.128416061 15847573.303283691 0 0 0 0 -20426969.798918486 38230065.73903656 0 38230065.73903656 -4575699.9930725098 0 0 0 0 -168026280.07237363 -55127951.995796204 0 -55127951.995796204 157545555.25753784 0 0 0 0 -120304311.64830613 -41229906.779151917 0 -41229906.779151917 16026268.176412582 0 0 0 0 39944597.869696379 -7549865.1458129883 0 -7549865.1458129883 18202703.258846283 0 0 0 0 14071812.304802418 62481721.658706665 0 62481721.658706665 54881767.079216003 0 0 0 0 -171000453.4531939 123394593.7542696 0 123394593.7542696 -80682996.729507446 0 0 0 0 -748624.87624678912 767089.9521853812 0 767089.9521853812 191486.76860236656 0 0 0 0 -148947600.48919529 737149302.78431702 0 737149302.78431702 -614685541.03363037 0 0 0 0 -170238625.91418004 120325383.00714111 0 120325383.00714111 -177897725.72717667 0 0 0 0 -2107074.8710972974 2044893.2067912593 0 2044893.2067912593 581639.50041523576 0 0 0 0 -26971792.97700119 66326362.42086792 0 66326362.42086792 -152142152.35310364 0 0 0 0 -43355493.691133499 97525560.548942566 0 97525560.548942566 -114898658.76584625 0 0 0 0 49182262.041977882 59682652.05065918 0 59682652.05065918 -84698182.666389465 0 0 0 0 39177.232584154699 19483.717752054334 0 19483.717752054334 29230.886831555516 0 0 0 0 -61116167.799539804 55095571.592357635 0 55095571.592357635 -34546779.769989014 0 0 0 0 -38105063.702490807 13639427.890375137 0 13639427.890375137 29715489.336341858 0 0 0 0 658523.60379411699 2149487.7807915658 0 2149487.7807915658 86417.850292677991 0 0 0 0 -34432448.399106979 62253986.662353516 0 62253986.662353516 -3048773.1487503052 0 0 0 0 -1915238.6547851562 -2247507.2352256775 0 -2247507.2352256775 5601146.3855819702 0 0 0 0 20556872.868190765 3852412.5368041992 0 3852412.5368041992 897837.40251159668 0 0 0 0 1176545.459569931 5340350.3934631348 0 5340350.3934631348 -1597242.5501394272 0 0 0 0 -1642691.6535616813 2190072.8438496925 0 2190072.8438496925 -352413.59389678016 0 0 0 0 9819386.0961914659 31427733.297828674 0 31427733.297828674 29357679.71522522 0 0 0 0 7813059.2743479013 24022466.455368042 0 24022466.455368042 32936349.39528656 0 0 0 0 23969580.879948616 2647895.9608154297 0 2647895.9608154297 8614440.2191848755 0 0 0 0 18166624.462348938 9510757.8260269165 0 9510757.8260269165 2390614.1689682007 0 0 0 0 17509168.91135788 11837129.48399353 0 11837129.48399353 -941076.97715759277 0 0 0 0 -86748187.471956253 52942586.166435242 0 52942586.166435242 50180643.674381256 0 0 0 0 28011858.587068558 25541440.31816864 0 25541440.31816864 6426814.7525024414 0 0 0 0 -1134055.3957750504 3090108.3674193919 0 3090108.3674193919 92545.96537995711 0 0 0 0 18627728.298297644 16032987.347167969 0 16032987.347167969 599827.77243041992 0 0 0 0 -8786354.9383859634 21085929.773468018 0 21085929.773468018 6213245.5536327362 0 0 0 0 -5100392.0894751549 13396221.544036865 0 13396221.544036865 8642107.4254150391 0 0 0 0 -4859824.6583256721 11349047.787239075 0 11349047.787239075 9209404.7422943115 0 0 0 0 16117045.952897787 4036067.0887908936 0 4036067.0887908936 -1491512.8504333496 0 0 0 0 11344489.559808016 -231382.20265960693 0 -231382.20265960693 7785612.8098449707 0 0 0 0 12539814.864795566 3492729.2939376831 0 3492729.2939376831 525954.18333816528 0 0 0 0 -2965481.2396789491 -73752.554168701172 0 -73752.554168701172 28255.589752197266 0 0 0 0 17574056.564718351 3487332.5328783989 0 3487332.5328783989 -18789987.357711792 0 0 0 0 -3114365.5469995141 27078384.845252991 0 27078384.845252991 1015847.0462875366 0 0 0 0 -2993103.4034752194 4638668.960217759 0 4638668.960217759 -30736507.381668091 0 0 0 0 -87133103.661163807 15033464.728218079 0 15033464.728218079 -12937999.229034424 0 0 0 0 -99600701.803768158 69508366.73474884 0 69508366.73474884 -41962314.079696655 0 0 0 0 -60119192.694043875 38498283.673957825 0 38498283.673957825 -13833588.47183609 0 0 0 0 13613785.316058397 1525095.3876724243 0 1525095.3876724243 -3429872.8905601501 0 0 0 0 -1277367.7392114401 -634866.47053718567 0 -634866.47053718567 -29252528.091110229 0 0 0 0 -71785854.565649509 26244027.070262909 0 26244027.070262909 -26637054.621582031 0 0 0 0 -978360.45070433617 3653243.3436584473 0 3653243.3436584473 93585271.045219421 0 0 0 0 8250599.6695623994 24743697.019145966 0 24743697.019145966 30777434.525627136 0 0 0 0 2744076.685693562 13730892.92665863 0 13730892.92665863 51538761.632194519 0 0 0 0 179074.1249358058 -7666051.7742843628 0 -7666051.7742843628 23754392.95085144 0 0 0 0 20097808.965087563 31544577.211921692 0 31544577.211921692 40664018.840072632 0 0 0 0 23818158.627762787 27732704.002616882 0 27732704.002616882 41028096.653671265 0 0 0 0 48839027.392578483 78818711.363422394 0 78818711.363422394 96256369.628751278 0 0 0 0 27492053.43598824 45549527.253147125 0 45549527.253147125 47548123.794929504 0 0 0 0 28636693.586845741 37157857.525909901 0 37157857.525909901 28125594.218475342 0 0 0 0 8341550.6772727966 23289798.035148621 0 23289798.035148621 41519164.831851959 0 0 0 0 -30311359.768939018 -13039908.156520844 0 -13039908.156520844 707135.92031860352 0 0 0 0 -21543937.442212105 -55985864.362213135 0 -55985864.362213135 -35998294.515930176 0 0 0 0 -1823302.7870289674 5501718.3526161462 0 5501718.3526161462 -1940183.6628493294 0 0 0 0 9479333.9449496269 25299276.182762146 0 25299276.182762146 19402678.752651453 0 0 0 0 8985567.6764953136 26690123.740539551 0 26690123.740539551 21214171.254981995 0 0 0 0 17198163.918828011 26373424.825839996 0 26373424.825839996 21507904.495025635 0 0 0 0 15561161.559456587 29915192.88004303 0 29915192.88004303 22291943.646476746 0 0 0 0 2995868.4935600758 19088803.474411011 0 19088803.474411011 28742808.309732437 0 0 0 0 5024707.662314415 27256956.490272522 0 27256956.490272522 31853669.762130737 0 0 0 0 6360817.0950850844 23100078.098164558 0 23100078.098164558 22469731.397460938 0 0 0 0 -1497184.5947575569 17908085.658988953 0 17908085.658988953 24555650.13861084 0 0 0 0 3511466.6345369816 17989192.538402557 0 17989192.538402557 20788651.660324097 0 0 0 0 791003.50501203537 10618138.305000305 0 10618138.305000305 17313952.489456177 0 0 0 0 2112242.7259449959 13569142.60660553 0 13569142.60660553 18148570.406295776 0 0 0 0 -4562276.9592952728 13141313.5103302 0 13141313.5103302 23182248.216117859 0 0 0 0 1417276.1567840576 9880803.1411895752 0 9880803.1411895752 31941237.007374763 0 0 0 0 8827855.1884506941 23710254.381340027 0 23710254.381340027 30119751.985336304 0 0 0 0 6738155.1557393074 8390161.0964279175 0 8390161.0964279175 15425481.111274719 0 0 0 0 4650850.4162451327 5231127.9214792252 0 5231127.9214792252 19468013.345977783 0 0 0 0 5874950.9765348434 7181042.2106437683 0 7181042.2106437683 16095558.540008545 0 0 0 0 -5555887.1218194962 11854886.08694458 0 11854886.08694458 17832802.395019531 0 0 0 0 2819788.1881115437 12027989.355857849 0 12027989.355857849 8840348.8493347168 0 0 0 0 -16639643.991034508 10215036.936447144 0 10215036.936447144 13126612.607681274 0 0 0 0 -5009388.7098113298 9373503.0991897583 0 9373503.0991897583 12212642.082382202 0 0 0 0 -10264930.884827137 9242397.0521316528 0 9242397.0521316528 16740410.35848999 0 0 0 0 -8183282.932299614 5427042.5045471191 0 5427042.5045471191 9703264.2252960205 0 0 0 0 -11693795.27790451 3204056.9034347534 0 3204056.9034347534 10923961.151824951 0 0 0 0 -13691095.160335064 803851.9585647583 0 803851.9585647583 8141670.4534606934 0 0 0 0 -9011716.2212986946 3403729.4410400391 0 3403729.4410400391 7209752.8721618652 0 0 0 0 -10709288.833453655 7340266.5408744812 0 7340266.5408744812 10437586.382930756 0 0 0 0 -8576484.7171720266 2265422.9109697342 0 2265422.9109697342 3752368.8310394287 0 0 0 0 -6317184.3933181763 4317523.7297973633 0 4317523.7297973633 5606388.8685913086 0 0 0 0 -9795866.0451879501 5585985.750164032 0 5585985.750164032 13803587.782852173 0 0 0 0 -7420079.8977513313 9507604.1394805908 0 9507604.1394805908 14276378.852050781 0 0 0 0 -8150034.5658149719 9796117.1273422241 0 9796117.1273422241 18103256.555713654 0 0 0 0 -3309045.6168656349 12266057.3934021 0 12266057.3934021 16305391.412322998 0 0 0 0 5107211.4231338501 16360774.353302002 0 16360774.353302002 20126584.330314636 0 0 0 0 7900731.5823287964 6016307.0427970886 0 6016307.0427970886 15164811.256317139 0 0 0 0 14151607.392187119 15045117.807666779 0 15045117.807666779 5653652.756942749 0 0 0 0 3548996.1155862808 2707724.7259559631 0 2707724.7259559631 839664.94116210938 0 0 0 0 38359.151156372856 2270170.7488577738 0 2270170.7488577738 3152511.5087352991 0 0 0 0 12089821.240128983 4899494.4218851402 0 4899494.4218851402 1008792.731493026 0 0 0 0 9657022.3807189129 11524550.95949968 0 11524550.95949968 1817291.0611694083 0 0 0 0 42038624.733020782 32324666.3816185 0 32324666.3816185 -3729689.9766235352 0 0 0 0 22270172.135451317 2654500.7222957611 0 2654500.7222957611 -21307976.856567383 0 0 0 0 1510581.4544937974 9069009.5444847215 0 9069009.5444847215 8903007.764869146 0 0 0 0 23762983.920547485 -21650035.732746124 0 -21650035.732746124 -53400860.011611938 0 0 0 0 29243072.295700073 17749116.759628296 0 17749116.759628296 17511973.033966064 0 0 0 0 20444100.729759216 31685734.409957886 0 31685734.409957886 7986776.2738189697 0 0 0 0 2050042.9868848789 1528655.9862309918 0 1528655.9862309918 1053892.312549144 0 0 0 0 15178245.378915787 16887473.432455063 0 16887473.432455063 15705985.208572388 0 0 0 0 1455054.7902908567 934033.17229029164 0 934033.17229029164 343289.04588893801 0 0 0 0 6517559.2481536865 -17702193.80279541 0 -17702193.80279541 -10807212.766975403 0 0 0 0 31478473.099010468 28610866.227626801 0 28610866.227626801 -33750715.092483521 0 0 0 0 32737150.220212698 14152711.84481144 0 14152711.84481144 9910686.5114059448 0 0 0 0 27309150.026817322 52607729.953453064 0 52607729.953453064 58657524.83782196 0 0 0 0 11873484.288115621 898596.68657284975 0 898596.68657284975 2696044.109954834 0 0 0 0 258275.23703747615 522941.35618559271 0 522941.35618559271 576529.45272072032 0 0 0 0 22137291.89591217 37229199.72933197 0 37229199.72933197 22766559.077232361 0 0 0 0 12313043.816144109 27024892.422546923 0 27024892.422546923 30093114.61730957 0 0 0 0 24909859.186973572 30469493.58140564 0 30469493.58140564 17596274.260955811 0 0 0 0 8543100.3600158691 27520142.330101013 0 27520142.330101013 23872444.746742249 0 0 0 0 74848667.642883301 36385801.689254761 0 36385801.689254761 4907827.9648742676 0 0 0 0 66444543.43392849 -29881191.025910378 0 -29881191.025910378 -20503556.684326172 0 0 0 0 -1378789.2379150391 -21871077.099266052 0 -21871077.099266052 18880715.394683838 0 0 0 0 1084635.1398194791 9517703.7610299643 0 9517703.7610299643 11216344.606309518 0 0 0 0 -30422761.467876434 15886929.449018478 0 15886929.449018478 32172806.030380249 0 0 0 0 -6322664.9257011414 38161358.500705719 0 38161358.500705719 6533690.9368133545 0 0 0 0 2933321.1280250549 25050529.301059723 0 25050529.301059723 21463016.847930908 0 0 0 0 30250537.400382996 37569772.181213379 0 37569772.181213379 18034620.150543213 0 0 0 0 18130931.090854645 38547428.054954529 0 38547428.054954529 24122910.137771606 0 0 0 0 14654663.139923096 11824024.693885803 0 11824024.693885803 18378288.090913773 0 0 0 0 -707962.09813785553 19085745.064941406 0 19085745.064941406 21670731.859092712 0 0 0 0 -1153301.8257484436 15304276.711357117 0 15304276.711357117 15148640.830368042 0 0 0 0 -2218562.3857114315 13531877.057907104 0 13531877.057907104 11494270.736165047 0 0 0 0 -5763123.7896237373 15719842.148365021 0 15719842.148365021 19086565.692756653 0 0 0 0 667870.46859169006 18684454.167259216 0 18684454.167259216 19557336.701301575 0 0 0 0 7011236.1112877131 17064092.85977459 0 17064092.85977459 15985327.411262512 0 0 0 0 9997988.0876751542 25473824.021203041 0 25473824.021203041 19328588.607528687 0 0 0 0 9089863.7265439034 21614276.863365173 0 21614276.863365173 22443190.191120148 0 0 0 0 7937714.3237962257 13140525.835760728 0 13140525.835760728 572646.86439132504 0 0 0 0 66721780.494140625 -14695041.880699158 0 -14695041.880699158 -20053696.457519531 0 0 0 0 -1175650.1651344299 23234653.34595871 0 23234653.34595871 32640797.396705627 0 0 0 0 43335477.15669632 13498930.478040695 0 13498930.478040695 -19018174.000865936 0 0 0 0 475300.35894776136 2975121.1789958999 0 2975121.1789958999 1086070.410810655 0 0 0 0 4870898.3661231995 -10379148.062973022 0 -10379148.062973022 15436825.06690979 0 0 0 0 1309388.3840236792 13424472.325580262 0 13424472.325580262 13109694.786327623 0 0 0 0 14300096.323754311 15530573.42530632 0 15530573.42530632 -15723439.448547363 0 0 0 0 -21400779.453589201 13232481.825244665 0 13232481.825244665 13284522.405303955 0 0 0 0 7873088.7940483093 9215290.1512718201 0 9215290.1512718201 -5967594.5051193237 0 0 0 0 10717514.035936832 28354926.929514408 0 28354926.929514408 10006771.575164795 0 0 0 0 962806.87631225586 10547176.333450317 0 10547176.333450317 8264527.1648125648 0 0 0 0 4240291.4968662262 16120644.771584988 0 16120644.771584988 5499557.6822891235 0 0 0 0 6739166.227555275 16471751.174959183 0 16471751.174959183 3338281.789276123 0 0 0 0 11674518.416156769 15698127.493526459 0 15698127.493526459 8710136.2557830811 0 0 0 0 3596659.0199428387 11748452.36219459 0 11748452.36219459 6791612.381702397 0 0 0 0 3448234.7084083557 14301574.254543304 0 14301574.254543304 6875139.79489851 0 0 0 0 5899356.371658802 11676390.881915092 0 11676390.881915092 6340269.9472770691 0 0 0 0 -33515010.585277557 21747403.917345047 0 21747403.917345047 26852668.052719116 0 0 0 0 -13821793.180743694 115641.71122121811 0 115641.71122121811 33257941.801383972 0 0 0 0 -788484.04915618896 11979356.616962433 0 11979356.616962433 17055131.137496948 0 0 0 0 46356224.667182922 -1815471.2995605469 0 -1815471.2995605469 -2767615.7309303284 0 0 0 0 87298228.806816101 -5490042.5987472534 0 -5490042.5987472534 -7670073.481426239 0 0 0 0 -170251.89369680092 260412.86537683662 0 260412.86537683662 -19816.253013186157 0 0 0 0 -22051752.762981415 -4014224.0982437134 0 -4014224.0982437134 63429950.041290283 0 0 0 0 -222924.34648294281 248527.89161162637 0 248527.89161162637 -108640.68627293408 0 0 0 0 6962773.5110855103 -16101364.106781006 0 -16101364.106781006 29300408.959533691 0 0 0 0 2665583.2134648729 10990690.525049698 0 10990690.525049698 4461638.552491188 0 0 0 0 -36612829.852077484 27456509.253246307 0 27456509.253246307 25131061.395370483 0 0 0 0 14327110.15430069 50684465.504234314 0 50684465.504234314 9509500.860824585 0 0 0 0 30564422.626853943 31358739.49559021 0 31358739.49559021 -4851589.4038434029 0 0 0 0 79565200.952419281 21103612.486276627 0 21103612.486276627 -4369796.412109375 0 0 0 0 26063803.398363113 17999699.770721436 0 17999699.770721436 -14484210.40045166 0 0 0 0 6489666.8160991669 5481354.5072650909 0 5481354.5072650909 -3240606.509803772 0 0 0 0 -11415244.977474689 7121696.8862304688 0 7121696.8862304688 2025551.50157547 0 0 0 0 25748544.234970093 18439070.485565186 0 18439070.485565186 2763756.4750823975 0 0 0 0 8760835.1113155633 5851911.8117437847 0 5851911.8117437847 25077.085720710456 0 0 0 0 32554735.622585297 7245806.028968811 0 7245806.028968811 -8014082.4639282227 0 0 0 0 -1375644.6206665039 1335033.580078125 0 1335033.580078125 855127.20059204102 0 0 0 0 2241076.1085917447 1912508.6612675716 0 1912508.6612675716 -1153102.7284782007 0 0 0 0 -3925734.1633336786 383294.91188441031 0 383294.91188441031 1625394.9553799033 0 0 0 0 6576716.265036663 8699941.9055492207 0 8699941.9055492207 4916743.1417060755 0 0 0 0 -9349546.8134555817 21660460.451335907 0 21660460.451335907 12355509.188899994 0 0 0 0 -1353521.6562297456 9192416.6733668745 0 9192416.6733668745 6599268.4453311786 0 0 0 0 -14529749.332090378 18284341.633049011 0 18284341.633049011 11822548.354056358 0 0 0 0 -4798343.980376157 9704350.0764580239 0 9704350.0764580239 7888683.1554192714 0 0 0 0 -13478004.255737782 21779614.045576096 0 21779614.045576096 23368567.557090759 0 0 0 0 -37218516.593852997 11208488.476333618 0 11208488.476333618 18780856.010360718 0 0 0 0 -6681488.3140354156 27435840.100875854 0 27435840.100875854 12940763.303642273 0 0 0 0 -8468177.7828979492 21669338.502609253 0 21669338.502609253 5920236.1031723022 0 0 0 0 17315693.628062248 41372653.420066833 0 41372653.420066833 -1752038.0783996582 0 0 0 0 -7467914.9317380786 43003455.689546347 0 43003455.689546347 14746346.946746826 0 0 0 0 46888643.92156601 33331443.364650726 0 33331443.364650726 -12177598.300712585 0 0 0 0 27614612.465090752 54254159.89225769 0 54254159.89225769 5940449.7724781036 0 0 0 0 12102214.171807289 57438097.902141571 0 57438097.902141571 5418678.5562477112 0 0 0 0 88849298.541725874 125484002.55085087 0 125484002.55085087 64911529.847854614 0 0 0 0 11711501.462891579 59275066.843509674 0 59275066.843509674 26590045.815509796 0 0 0 0 -37847278.895183563 53341287.965682983 0 53341287.965682983 66435973.402511597 0 0 0 0 -90653069.969591141 18683316.076087952 0 18683316.076087952 57990212.597946167 0 0 0 0 -14518730.346335411 35851949.998920441 0 35851949.998920441 4666626.8395080566 0 0 0 0 -12257274.388551712 6161196.3745803833 0 6161196.3745803833 166083877.72756958 0 0 0 0 176399278.32007456 446916.63132667542 0 446916.63132667542 12741475.705215454 0 0 0 0 8008588.3170166016 29547511.239273071 0 29547511.239273071 23868585.44670105 0 0 0 0 33231460.638303757 -14565288.635932922 0 -14565288.635932922 -38900860.864619732 0 0 0 0 -69015036.921312332 -36374342.518817902 0 -36374342.518817902 50217005.164001465 0 0 0 0 14988940.249504089 28842560.55178833 0 28842560.55178833 20741153.625078201 0 0 0 0 -84320869.999835968 -6478408.8421897888 0 -6478408.8421897888 -859688.95489501953 0 0 0 0 -1765785.0511913644 9294229.7271915935 0 9294229.7271915935 -556568.26141735911 0 0 0 0 14979671.318591952 28510384.028610229 0 28510384.028610229 18684433.703201294 0 0 0 0 12968335.888034821 22778143.16934967 0 22778143.16934967 433233.21028137207 0 0 0 0 8045350.8434425928 11059898.829725228 0 11059898.829725228 -2799087.8730106223 0 0 0 0 -7672903.4360906482 7863921.5039130896 0 7863921.5039130896 9862738.7891866043 0 0 0 0 11681190.206424236 25362421.807315826 0 25362421.807315826 15732655.455947876 0 0 0 0 -31562198.876771927 2544109.8762207031 0 2544109.8762207031 23802176.700386047 0 0 0 0 -63069971.027774811 -33261637.879177094 0 -33261637.879177094 -15864508.893035889 0 0 0 0 1143120.7998154555 2731929.9967280962 0 2731929.9967280962 -366497.97787555307 0 0 0 0 -4034147.2366409302 -4043762.0518836975 0 -4043762.0518836975 -38082110.903427124 0 0 0 0 18880276.93863678 701955.35760879517 0 701955.35760879517 -48514678.383422852 0 0 0 0 23308984.862960815 -10251100.091438293 0 -10251100.091438293 -45255954.648590088 0 0 0 0 -1098074.0237960815 -44465.452301025391 0 -44465.452301025391 -44716777.228645325 0 0 0 0 -1601017.0113143921 -804836.96014022827 0 -804836.96014022827 -43416972.662788391 0 0 0 0 -3736875.2254714966 187409.39064407349 0 187409.39064407349 -43436769.519271851 0 0 0 0 31787303.99621582 6865458.007194519 0 6865458.007194519 33108307.151260376 0 0 0 0 882653.21977572516 868788.74183503911 0 868788.74183503911 300216.29009473743 0 0 0 0 12755763.901824951 3492963.2582855225 0 3492963.2582855225 58892686.231172562 0 0 0 0 321089.17381929979 375493.71243851632 0 375493.71243851632 76025.487821162678 0 0 0 0 -13146521.774513245 19789838.958778381 0 19789838.958778381 -16507458.238227844 0 0 0 0 -14037768.384506226 88415940.115402222 0 88415940.115402222 160953365.45729065 0 0 0 0 40473869.542263031 53569799.013092041 0 53569799.013092041 121816205.23742676 0 0 0 0 71913743.516212463 83348221.053512573 0 83348221.053512573 87970843.256759644 0 0 0 0 46570.263488605618 289716.65810814872 0 289716.65810814872 278202.55511258915 0 0 0 0 46102996.895111084 -39688196.347457886 0 -39688196.347457886 1799934.7627182007 0 0 0 0 70062367.476882935 110148776.85542297 0 110148776.85542297 73941187.138786316 0 0 0 0 6537008.4569257684 6069660.2113739327 0 6069660.2113739327 -557630.01322251186 0 0 0 0 -8802936.0598640442 30722766.208073616 0 30722766.208073616 75803325.027877808 0 0 0 0 82883884.750862122 68111237.877792358 0 68111237.877792358 7939268.3171234131 0 0 0 0 -5864284.3982772827 19119728.908561707 0 19119728.908561707 -6164327.0718669891 0 0 0 0 61421547.438323975 -4920508.6308059692 0 -4920508.6308059692 -52446099.210708618 0 0 0 0 48686441.349517822 -12312972.570478439 0 -12312972.570478439 -58259812.321334839 0 0 0 0 4925861.1581764221 -3100505.3694543839 0 -3100505.3694543839 -24289915.973285675 0 0 0 0 18281775.131950378 30135920.514226913 0 30135920.514226913 -17328068.664188385 0 0 0 0 11665028.89382185 10097686.336604891 0 10097686.336604891 -2127634.2474767622 0 0 0 0 6486550.8689727783 -7048176.0730628967 0 -7048176.0730628967 -16577024.413322449 0 0 0 0 9228569.5174179077 9365733.2305030823 0 9365733.2305030823 -14554200.0052948 0 0 0 0 11139145.486019574 7861365.3422232382 0 7861365.3422232382 -2031602.6248580217 0 0 0 0 -14637272.168769836 -19712668.719474792 0 -19712668.719474792 -44944577.048587799 0 0 0 0 25834769.223953247 111505575.4613018 0 111505575.4613018 27296772.956390381 0 0 0 0 -66115500.741950989 34570062.385866165 0 34570062.385866165 19615580.849433899 0 0 0 0 11053789.6292836 7824379.0897630714 0 7824379.0897630714 -1817367.3573836256 0 0 0 0 35087442.276809692 57013309.643955231 0 57013309.643955231 8161324.2805070877 0 0 0 0 38718080.907745361 53999007.611654282 0 53999007.611654282 -14087157.302513123 0 0 0 0 137651525.00802612 36470685.3060112 0 36470685.3060112 -32648000.23135376 0 0 0 0 80874272.122528076 74202775.181575775 0 74202775.181575775 -24714286.681114197 0 0 0 0 88698923.992250443 25852249.302134514 0 25852249.302134514 -27838090.399627686 0 0 0 0 102651935.60667419 -4593566.9820098877 0 -4593566.9820098877 -18180451.998669624 0 0 0 0 134791089.93930054 74698829.623935699 0 74698829.623935699 -26059719.070487976 0 0 0 0 29462122.605659485 -13717547.438631058 0 -13717547.438631058 33924791.833007812 0 0 0 0 27596974.061184883 10030411.330147982 0 10030411.330147982 16621574.746170044 0 0 0 0 -1033754.8238769211 853142.36101030558 0 853142.36101030558 1049941.3407057263 0 0 0 0 -56906729.809509277 122718311.10546112 0 122718311.10546112 -32715667.047288895 0 0 0 0 -53890661.53660202 -89111102.995664597 0 -89111102.995664597 190748516.20926666 0 0 0 0 -13273433.370895386 12449215.688259125 0 12449215.688259125 63928589.971523285 0 0 0 0 -200847924.98193359 89373863.323440552 0 89373863.323440552 219317881.69241524 0 0 0 0 284959456.70935059 -153136466.90964508 0 -153136466.90964508 -116423733.84071732 0 0 0 0 -2125754.6316871643 14180091.880329132 0 14180091.880329132 6528991.2656402588 0 0 0 0 3157186.6758212186 9391050.8502724078 0 9391050.8502724078 1710355.1620292291 0 0 0 0 2560650.1598129272 7553653.8412361145 0 7553653.8412361145 1884926.1919746399 0 0 0 0 -59071425.362518311 21718500.694664001 0 21718500.694664001 41598475.855758667 0 0 0 0 5782231.4212001441 12133119.920766722 0 12133119.920766722 7751983.9090510309 0 0 0 0 -11800120.695922852 36409300.981613159 0 36409300.981613159 22175743.714613438 0 0 0 0 -54519103.063446045 26600945.914049149 0 26600945.914049149 39597328.645050049 0 0 0 0 -10872986.956687927 28263867.327085495 0 28263867.327085495 -12727140.320838928 0 0 0 0 1608322.5966320038 9227539.3623867035 0 9227539.3623867035 1508406.6017150879 0 0 0 0 -8113054.2012653779 4742275.2616361845 0 4742275.2616361845 16016255.350453787 0 0 0 0 -3010158.3748855591 1776526.6311264038 0 1776526.6311264038 19057484.512611389 0 0 0 0 -29172238.32182312 34179242.135162354 0 34179242.135162354 36981213.4907341 0 0 0 0 -45954097.606018066 13306352.131900787 0 13306352.131900787 23572682.185768127 0 0 0 0 -14394136.48223877 6324862.1426200867 0 6324862.1426200867 46419231.127609253 0 0 0 0 -21077555.373413086 28890485.015426636 0 28890485.015426636 31536337.385894775 0 0 0 0 -26462994.176704407 39426455.507308006 0 39426455.507308006 14365375.179512024 0 0 0 0 2957436.3277967758 11181089.931103982 0 11181089.931103982 6627072.2922899313 0 0 0 0 3716870.0610211231 14809676.714807287 0 14809676.714807287 9958576.2281623706 0 0 0 0 2361715.4998938683 8776214.806418227 0 8776214.806418227 3749326.6803951785 0 0 0 0 4509610.1639213562 13037007.15990448 0 13037007.15990448 15094741.297065735 0 0 0 0 24291173.762496948 27578789.858976364 0 27578789.858976364 -27766649.923934937 0 0 0 0 -3031165.680683136 2353205.7952804565 0 2353205.7952804565 12445980.008453369 0 0 0 0 1331206.8044240931 2285066.5895577297 0 2285066.5895577297 -755428.69571290165 0 0 0 0 -49987307.736206055 43606024.466094971 0 43606024.466094971 -14131990.342430115 0 0 0 0 205346.14120836183 640385.84148444608 0 640385.84148444608 448877.59186218213 0 0 0 0 -30301089.209144592 -14421801.918375969 0 -14421801.918375969 -34969158.434799194 0 0 0 0 2338530.7991506197 4407245.6461578831 0 4407245.6461578831 1163628.4184742635 0 0 0 0 -85706814.178710938 32750913.6847229 0 32750913.6847229 -14306730.891738892 0 0 0 0 696068.94032287598 9765357.0413208008 0 9765357.0413208008 10241990.3211689 0 0 0 0 54370711.241043091 -38244376.076896667 0 -38244376.076896667 -35793354.807922363 0 0 0 0 3929146.2552211285 9448437.52178514 0 9448437.52178514 7576376.7261657715 0 0 0 0 -10167097.04510498 67292562.80928421 0 67292562.80928421 -34270985.163085938 0 0 0 0 -2524823.8158919215 7414504.5458396673 0 7414504.5458396673 8537980.7059936523 0 0 0 0 1855966.1010523885 5527266.9470250867 0 5527266.9470250867 4749677.622675173 0 0 0 0 1303120.6607208252 -1413370.2959823608 0 -1413370.2959823608 -44385771.037910461 0 0 0 0 4693449.3241004944 4681557.1006011963 0 4681557.1006011963 -36037730.925704956 0 0 0 0 4630636.0069198608 39778532.761567116 0 39778532.761567116 -71465017.735626221 0 0 0 0 10490739.272695124 8750118.6696292199 0 8750118.6696292199 -825958.31548847817 0 0 0 0 25207626.792831421 -8271961.7248306274 0 -8271961.7248306274 -39049096.48966217 0 0 0 0 39948522.735473633 4110224.2884750366 0 4110224.2884750366 -42509061.060409546 0 0 0 0 12118267.770767212 -745677.29875946045 0 -745677.29875946045 -43286807.424819946 0 0 0 0 1430508.5489892177 1635715.1369632222 0 1635715.1369632222 673925.2772523663 0 0 0 0 -12356868.252456665 8258260.5022888184 0 8258260.5022888184 31282445.703941345 0 0 0 0 14514141.569847107 6368455.2082901001 0 6368455.2082901001 -36275386.001754761 0 0 0 0 3720281.9427032471 4732088.9058532715 0 4732088.9058532715 17875680.781906128 0 0 0 0 -8386970.6076984406 6687018.9508991241 0 6687018.9508991241 30099392.769226074 0 0 0 0 -13661829.626113892 12302995.442474365 0 12302995.442474365 26788254.756729126 0 0 0 0 -10221699.841186523 4820769.4770126343 0 4820769.4770126343 52872822.057518005 0 0 0 0 3555609.5214920044 22882006.651201248 0 22882006.651201248 -30100791.355587006 0 0 0 0 -20244839.113286495 39770609.262937069 0 39770609.262937069 26475575.996688843 0 0 0 0 2032713.495475769 10034044.854095459 0 10034044.854095459 6464942.341021657 0 0 0 0 -3459111.365814209 14521824.237400055 0 14521824.237400055 6528327.9116668701 0 0 0 0 -6583492.5148887634 30494838.99492836 0 30494838.99492836 17693219.01322937 0 0 0 0 4119023.0849304199 15667342.805236816 0 15667342.805236816 27053468.941059113 0 0 0 0 273703.87793527544 1106033.3913637474 0 1106033.3913637474 708067.15311927814 0 0 0 0 -19210048.208503723 18168334.626296997 0 18168334.626296997 21276811.892402649 0 0 0 0 7137578.9930801392 8762316.5062637329 0 8762316.5062637329 4172881.5667076111 0 0 0 0 -12976650.358356476 -9548668.7606964111 0 -9548668.7606964111 16839103.852288246 0 0 0 0 -2462415.9502262678 -154435.93173693679 0 -154435.93173693679 2037743.8630080856 0 0 0 0 2273028.6867933273 11679534.464385033 0 11679534.464385033 5638915.1414794922 0 0 0 0 2446116.7855758667 8937243.6834793091 0 8937243.6834793091 4664989.6563339233 0 0 0 0 2457017.8578872681 9947522.8145828247 0 9947522.8145828247 7950677.6583557129 0 0 0 0 -5525708.979888916 5682550.7588348389 0 5682550.7588348389 15668206.279495239 0 0 0 0 4866278.6920547485 10615819.882701874 0 10615819.882701874 2895041.6753883362 0 0 0 0 1273239.2926936783 4484230.3971293829 0 4484230.3971293829 2252362.4531822298 0 0 0 0 1579250.8248720914 5386011.1091463678 0 5386011.1091463678 5869887.5455154032 0 0 0 0 -16496132.495298266 3937334.265422821 0 3937334.265422821 5167922.2979736328 0 0 0 0 19214704.574432373 3837934.1530303955 0 3837934.1530303955 -48843606.795928955 0 0 0 0 1099876.9025200419 2529168.200551495 0 2529168.200551495 1510441.8059882689 0 0 0 0 -1843706.8076956272 2237054.9902999401 0 2237054.9902999401 474258.66162109375 0 0 0 0 -1055414.4557164405 4096016.4016074315 0 4096016.4016074315 3873322.5426655188 0 0 0 0 3956887.1690151887 3191694.8710214272 0 3191694.8710214272 3374698.39668677 0 0 0 0 -2388165.3339990415 6198315.8335076161 0 6198315.8335076161 5977823.1846366413 0 0 0 0 -6163643.1831359863 14990958.971763611 0 14990958.971763611 -33982801.149917603 0 0 0 0 -3396240.8712692261 13673903.28899765 0 13673903.28899765 9935946.9576263428 0 0 0 0 3365417.6849212646 30153045.641807556 0 30153045.641807556 11593000.381118774 0 0 0 0 761960.05541107256 1033225.8482675962 0 1033225.8482675962 -104905.53856030107 0 0 0 0 85667467.221099854 -29414759.407821655 0 -29414759.407821655 -104062074.53240967 0 0 0 0 -97829941.047172546 154418310.32410431 0 154418310.32410431 138115337.82086182 0 0 0 0 -6967268.9516448975 2822345.0058746338 0 2822345.0058746338 -22342705.334609985 0 0 0 0 -15278685.317363739 4491494.6612663269 0 4491494.6612663269 2651218.393081665 0 0 0 0 -10666769.81817627 21406589.322280884 0 21406589.322280884 -1106066.1729888916 0 0 0 0 4844491.3904583603 7254459.9050834114 0 7254459.9050834114 5323352.9047096372 0 0 0 0 -1735730.2208551913 20899396.760909945 0 20899396.760909945 -7329128.8721847534 0 0 0 0 -1972115.9531478882 13102401.945831299 0 13102401.945831299 -956111.71329605579 0 0 0 0 6125730.6124725342 10188486.1602211 0 10188486.1602211 7041673.024307251 0 0 0 0 -2234181.3629455566 8522059.4675979614 0 8522059.4675979614 9584944.1830101013 0 0 0 0 7184449.5334663391 15379272.549736023 0 15379272.549736023 3125552.2053070068 0 0 0 0 -1772948.5973148346 8021331.1919441223 0 8021331.1919441223 18404982.959648132 0 0 0 0 32551670.487819672 32316079.613546371 0 32316079.613546371 15442378.984085083 0 0 0 0 14390905.278560638 10956603.432025909 0 10956603.432025909 2561247.225605011 0 0 0 0 9616558.7750701904 19398931.341785431 0 19398931.341785431 2906553.4641976357 0 0 0 0 1056348.7560348511 6623332.8287506104 0 6623332.8287506104 8086145.0350189209 0 0 0 0 34294821.502716064 7713329.0853462219 0 7713329.0853462219 -10600615.997055054 0 0 0 0 25606178.768173218 20086348.2784729 0 20086348.2784729 16880737.923706055 0 0 0 0 113989.46442692354 -4252.7340949438512 0 -4252.7340949438512 -76615.689285844564 0 0 0 0 -21172735.713516235 -12846875.750583649 0 -12846875.750583649 -7272924.426574707 0 0 0 0 -12856884.854476929 -20926041.094512939 0 -20926041.094512939 -18708418.278261662 0 0 0 0 17504921.721656799 -7234946.270362854 0 -7234946.270362854 -14403421.330589294 0 0 0 0 5508136.1155929565 2800305.6151657104 0 2800305.6151657104 19586958.39679718 0 0 0 0 -603087.96616363525 -7016183.9373016357 0 -7016183.9373016357 8613631.0544815063 0 0 0 0 22390473.205703735 -841841.03485107422 0 -841841.03485107422 1342048.2362937927 0 0 0 0 3951482.2458295096 1851237.4646453373 0 1851237.4646453373 -5611114.2411527708 0 0 0 0 23546200.348106384 2599078.1489830017 0 2599078.1489830017 -2362436.9004974365 0 0 0 0 67824734.608375549 57889401.251102448 0 57889401.251102448 -6743911.0678329468 0 0 0 0 3860516.0385467578 2037923.0942346565 0 2037923.0942346565 -4693192.4333087131 0 0 0 0 22494255.573711395 24179160.476657867 0 24179160.476657867 -14717394.141962022 0 0 0 0 22631545.694720268 27804854.203201294 0 27804854.203201294 21267054.063591003 0 0 0 0 105674.75806316361 -10579.464307125658 0 -10579.464307125658 -335906.91960620321 0 0 0 0 65761176.755254745 63648337.553434372 0 63648337.553434372 65967277.480270386 0 0 0 0 84744913.004013062 51845222.218013763 0 51845222.218013763 55486185.051764488 0 0 0 0 72819807.275024414 4064021.0886154175 0 4064021.0886154175 -4503112.9051055908 0 0 0 0 52134940.092697144 894011.62659072876 0 894011.62659072876 26997865.170898438 0 0 0 0 -16666986.030176401 -6763745.5909464359 0 -6763745.5909464359 40417029.532615662 0 0 0 0 4423886.339809224 4113142.6909432746 0 4113142.6909432746 3452472.847436294 0 0 0 0 19626591.793533325 -14845592.821468353 0 -14845592.821468353 -34006697.165916443 0 0 0 0 23134107.479652405 26605207.571434021 0 26605207.571434021 20723679.606060028 0 0 0 0 4505713.3893820606 3854986.9598466977 0 3854986.9598466977 -1479171.8289315365 0 0 0 0 16528179.037704468 7577203.2279815674 0 7577203.2279815674 12795897.417217255 0 0 0 0 1310836.0735781752 1168505.8596509434 0 1168505.8596509434 909198.56504023448 0 0 0 0 -9773200.8622703552 -29437226.557739258 0 -29437226.557739258 -30861440.15851593 0 0 0 0 195377.98266658932 -8483.5427730306983 0 -8483.5427730306983 -121528.13702184707 0 0 0 0 -5724403.2667713165 -24416046.451119423 0 -24416046.451119423 -33416210.164810181 0 0 0 0 130462464.49973297 37510537.819755554 0 37510537.819755554 -22220169.320045471 0 0 0 0 142134750.35600281 27646670.414176941 0 27646670.414176941 -20142562.315490723 0 0 0 0 -21379907.542457581 -4802342.7885475159 0 -4802342.7885475159 35501220.119873047 0 0 0 0 118939507.73232269 33530975.343406677 0 33530975.343406677 513491.76986312866 0 0 0 0 111612440.41847038 26479619.306819916 0 26479619.306819916 115166289.26242065 0 0 0 0 268244.84040462971 -22307.961103275418 0 -22307.961103275418 -160652.04053303972 0 0 0 0 1837844.798538208 -41286017.861228943 0 -41286017.861228943 -13814332.142532349 0 0 0 0 7795676.7424459457 14872711.910769463 0 14872711.910769463 -40342923.049987793 0 0 0 0 8481915.6873054504 -9162538.1944885254 0 -9162538.1944885254 -8907193.6564102173 0 0 0 0 -4820878.7945404053 6662364.1125793457 0 6662364.1125793457 -19417379.897916317 0 0 0 0 -117644.38403982297 173091.47807046399 0 173091.47807046399 -17136.351685915142 0 0 0 0 217343805.38010406 54496243.182907104 0 54496243.182907104 137792926.69792175 0 0 0 0 131130905.82894135 140146903.45335388 0 140146903.45335388 316653522.09988403 0 0 0 0 621621901.38710785 254183621.6711998 0 254183621.6711998 125216800.87989044 0 0 0 0 1392197667.070961 416944835.31455231 0 416944835.31455231 -273080443.76224136 0 0 0 0 820924197.12706184 1049325000.1524868 0 1049325000.1524868 628461274.77703857 0 0 0 0 256490752.46833038 129004251.93144226 0 129004251.93144226 165613630.29721451 0 0 0 0 11488876.551170349 12746737.613807678 0 12746737.613807678 -126281869.25571251 0 0 0 0 139497575.23765945 90127161.071817398 0 90127161.071817398 -99866514.287612915 0 0 0 0 190900940.09669495 215648325.85638428 0 215648325.85638428 79379143.859664917 0 0 0 0 61389330.049476624 66158507.888687134 0 66158507.888687134 212463909.65979767 0 0 0 0 -139216.43943789601 668629.44588806853 0 668629.44588806853 -280910.56296481192 0 0 0 0 -10173809.473640442 -5484320.0238342285 0 -5484320.0238342285 -6775593.4665446281 0 0 0 0 -287039042.04480743 144020507.7882843 0 144020507.7882843 227457092.89144897 0 0 0 0 61062678.080725431 58558106.503682375 0 58558106.503682375 40217898.28477478 0 0 0 0 180987861.00152588 -191255599.09379578 0 -191255599.09379578 -48664568.10748291 0 0 0 0 7582803.6522521973 -1223418.1534347534 0 -1223418.1534347534 -12191358.012102604 0 0 0 0 992154.90856548771 1505798.0356510021 0 1505798.0356510021 -1156562.0528427884 0 0 0 0 4999985.1535339355 3164827.0237426758 0 3164827.0237426758 -6256217.8294067383 0 0 0 0 17994110.518127441 4314178.311164856 0 4314178.311164856 -11857236.366348267 0 0 0 0 17124164.137737274 9453207.000421524 0 9453207.000421524 -5023492.6247253418 0 0 0 0 3595571.2370834351 -11937940.255508423 0 -11937940.255508423 -18020637.14449358 0 0 0 0 18323931.699718475 5541743.925693512 0 5541743.925693512 -10461496.287109375 0 0 0 0 61836304.923957825 109827839.05762482 0 109827839.05762482 112925756.24821472 0 0 0 0 42669947.552062988 31904580.839752197 0 31904580.839752197 32890357.162351966 0 0 0 0 142353726.35760498 109963933.69726562 0 109963933.69726562 32794132.50604248 0 0 0 0 239289069.89356995 -13179688.489379883 0 -13179688.489379883 -52871537.531341553 0 0 0 0 -4348838.3019714355 11983347.886276245 0 11983347.886276245 27999810.834655762 0 0 0 0 49214685.730918884 18559185.650032043 0 18559185.650032043 -23707431.664093018 0 0 0 0 24392443.90335083 39307607.240829468 0 39307607.240829468 -39057408.532363892 0 0 0 0 40830862.570598602 40165338.610652924 0 40165338.610652924 20469682.735076904 0 0 0 0 52746577.195465088 41842202.374549866 0 41842202.374549866 208709.22436523438 0 0 0 0 56536122.33303833 31342980.417907715 0 31342980.417907715 12244171.369140625 0 0 0 0 709367.62292967085 505093.91807353124 0 505093.91807353124 -379350.84290053695 0 0 0 0 -104217601.24004745 62065695.669841766 0 62065695.669841766 -17263109.408370972 0 0 0 0 -82876389.574897766 -115563934.4415741 0 -115563934.4415741 48673698.125114441 0 0 0 0 -7029448.4117736816 170052529.6993103 0 170052529.6993103 44311279.728161335 0 0 0 0 -18057492.368080139 36073650.581439972 0 36073650.581439972 5466740.9432373047 0 0 0 0 13019365.857971191 7580172.850353241 0 7580172.850353241 -3739888.652633667 0 0 0 0 2330874.4999129586 1892959.8836670108 0 1892959.8836670108 -1085416.3200443536 0 0 0 0 11208780.852093697 8340262.0991621017 0 8340262.0991621017 -1181702.274307251 0 0 0 0 1883281.8185039572 1844531.1724700406 0 1844531.1724700406 -1024023.7485848069 0 0 0 0 -6300747.1972885132 -12993950.765258789 0 -12993950.765258789 -11688421.138496399 0 0 0 0 29899639.241566777 12660777.366292119 0 12660777.366292119 -10807886.36088562 0 0 0 0 42951593.802589417 8378254.2178344727 0 8378254.2178344727 -13751999.144866943 0 0 0 0 29174686.936805725 -12324341.720222473 0 -12324341.720222473 -45853601.828649521 0 0 0 0 24504564.421257019 -150545.21616363525 0 -150545.21616363525 -15586324.538391113 0 0 0 0 6436319.4797309712 625636.65918562189 0 625636.65918562189 -3222038.151916407 0 0 0 0 18997219.234718323 2185979.5872154236 0 2185979.5872154236 -6124628.0672364235 0 0 0 0 12598506.610076904 3398616.8637199402 0 3398616.8637199402 -5979383.2180023193 0 0 0 0 28961151.900180817 -2057990.3880882263 0 -2057990.3880882263 -28188482.602647781 0 0 0 0 12379840.923126221 44839839.429115295 0 44839839.429115295 5446722.6962051392 0 0 0 0 1710671034.092598 1636938461.1748199 0 1636938461.1748199 1023038708.194824 0 0 0 0 2389376.9188763238 -511762.82279955596 0 -511762.82279955596 510629.13591551036 0 0 0 0 2050484824.8049288 978121096.24361897 0 978121096.24361897 414772505.89112854 0 0 0 0 1237519333.5986176 659461102.27787781 0 659461102.27787781 517433420.75078583 0 0 0 0 47211376.73059082 -81698253.458572388 0 -81698253.458572388 -26816581.495773315 0 0 0 0 -14404798.706035614 -2513759.9984588623 0 -2513759.9984588623 20623620.941574097 0 0 0 0 145413718.62294769 -48247749.278320312 0 -48247749.278320312 -30697887.928039551 0 0 0 0 201271.19770575687 603688.38611534238 0 603688.38611534238 18114.365113247186 0 0 0 0 126569141.24832153 49712331.195915222 0 49712331.195915222 33295041.333709717 0 0 0 0 4852224.0355529785 6890513.5020484924 0 6890513.5020484924 3339929.5550384521 0 0 0 0 4855516.0711784363 7144442.6344718933 0 7144442.6344718933 6011929.0616989136 0 0 0 0 571461.18534660339 10548690.982629776 0 10548690.982629776 4450331.1976013184 0 0 0 0 3490395.1837387085 6435431.9858856201 0 6435431.9858856201 7840688.4296340942 0 0 0 0 -3248661.4344825745 9549162.8990821838 0 9549162.8990821838 5399129.8350143433 0 0 0 0 547481.36578369141 7977686.8205566406 0 7977686.8205566406 6224789.6475639343 0 0 0 0 -1600690.4477310181 10780751.279270172 0 10780751.279270172 4915636.3527832031 0 0 0 0 -4736938.4643478394 11271555.778266907 0 11271555.778266907 4855696.9206047058 0 0 0 0 -1004054.8608169556 8180892.7369880676 0 8180892.7369880676 4005256.6422309875 0 0 0 0 1668957.9164263159 4752025.0446519628 0 4752025.0446519628 1508416.9730984271 0 0 0 0 -4626440.0401077271 9167582.0893173218 0 9167582.0893173218 6924416.8482284546 0 0 0 0 1403452.6135341078 1171455.3311113268 0 1171455.3311113268 -723900.41804596037 0 0 0 0 -1903772.4557189941 9779657.1600456238 0 9779657.1600456238 2448461.3787307739 0 0 0 0 5480725.2754860558 8721628.0169320758 0 8721628.0169320758 4474169.2199559361 0 0 0 0 -4955369.0529770851 13649439.377560616 0 13649439.377560616 2729673.9115219116 0 0 0 0 639795.78691101074 3010198.2324714661 0 3010198.2324714661 -324454.10304260254 0 0 0 0 4397686.3819977697 3238169.2132671587 0 3238169.2132671587 -4939189.5436070561 0 0 0 0 -302510.92691040039 2649166.9009857178 0 2649166.9009857178 -2699028.1632900238 0 0 0 0 67100.221969604492 1235974.0738525391 0 1235974.0738525391 -3764618.0623321533 0 0 0 0 1423171.6834411621 4492183.8926544189 0 4492183.8926544189 -2408905.9409179688 0 0 0 0 5094985.0955505371 3108265.3556137085 0 3108265.3556137085 -7303357.7574005127 0 0 0 0 3124322.7421150208 2164241.692565918 0 2164241.692565918 -534890.76989746094 0 0 0 0 27040109.942199707 31114171.111999512 0 31114171.111999512 79325584.62877655 0 0 0 0 27040109.942199707 31114171.111877441 0 31114171.111877441 79325584.628742218 0 0 0 0 27040109.942199707 31114171.111907959 0 31114171.111907959 79325584.628631592 0 0 0 0 1278398.5424000658 2270152.4711825456 0 2270152.4711825456 -1564001.0241316892 0 0 0 0 27845920.590774536 26250608.10483551 0 26250608.10483551 16779256.063934326 0 0 0 0 585809.39061865956 3349207.394204516 0 3349207.394204516 23050.137148052454 0 0 0 0 48428114.405670166 32124427.296798706 0 32124427.296798706 9647669.9047012329 0 0 0 0 28859904.540924072 20776021.024234772 0 20776021.024234772 41725124.174102783 0 0 0 0 48093218.237827301 49000609.224514008 0 49000609.224514008 47359754.197418213 0 0 0 0 29541754.727877617 15139780.393012047 0 15139780.393012047 -802114.4695892334 0 0 0 0 32048406.418731689 18304490.808681488 0 18304490.808681488 -4551619.8618011475 0 0 0 0 38157380.061401367 28875886.700485229 0 28875886.700485229 10665982.689985275 0 0 0 0 21054302.395578384 11218637.11918354 0 11218637.11918354 315344.48271179199 0 0 0 0 17284863.463005066 7153793.6209335327 0 7153793.6209335327 -3441576.5229549408 0 0 0 0 18494017.229019165 14530104.198665619 0 14530104.198665619 7374030.0005168915 0 0 0 0 6933490.8776130676 13328143.919269562 0 13328143.919269562 1816896.3658027649 0 0 0 0 719088.23379543051 5676269.8165462948 0 5676269.8165462948 1999809.0487534925 0 0 0 0 19863764.378980637 18920831.583271027 0 18920831.583271027 5410152.5124588013 0 0 0 0 22509364.64932251 25540603.205688477 0 25540603.205688477 16721947.535932541 0 0 0 0 6331679.40974617 5949451.3443984985 0 5949451.3443984985 4619985.0860290527 0 0 0 0 8634115.0365600586 8156804.4933319092 0 8156804.4933319092 2111209.8776397705 0 0 0 0 4996908.8801269531 10845473.300750732 0 10845473.300750732 406841.30494689941 0 0 0 0 3188960.6854705811 8015484.9535427094 0 8015484.9535427094 4047441.0872192383 0 0 0 0 5277605.2106666565 5712519.3564529419 0 5712519.3564529419 4489687.9052448273 0 0 0 0 5283352.8357505798 5551573.5860366821 0 5551573.5860366821 4574540.6292762756 0 0 0 0 5272354.6088867188 5760767.3957633972 0 5760767.3957633972 5438906.149520874 0 0 0 0 -13464571.80264473 7258221.1228408813 0 7258221.1228408813 10967996.244720459 0 0 0 0 6020812.7053109184 2132779.4393294211 0 2132779.4393294211 -35289.360291726887 0 0 0 0 12048693.779603958 6275920.3513531685 0 6275920.3513531685 -4949814.6691131592 0 0 0 0 5570396.0041160583 5991875.4331817627 0 5991875.4331817627 3462447.3296318054 0 0 0 0 2966132.7396533489 15396894.143499851 0 15396894.143499851 2481755.916847229 0 0 0 0 4224748.3389477804 5709891.6772568971 0 5709891.6772568971 3929981.6016597748 0 0 0 0 17607914.904815674 12214015.790706635 0 12214015.790706635 2825840.2472915649 0 0 0 0 2907915.6322614439 5692424.7833149061 0 5692424.7833149061 2751253.5370737761 0 0 0 0 9507951.6854561772 8011681.8507156447 0 8011681.8507156447 2100429.8930151612 0 0 0 0 12444617.905849457 9827484.7629013062 0 9827484.7629013062 1303615.5880622864 0 0 0 0 16952144.529777527 11227367.384147644 0 11227367.384147644 3557018.9703483582 0 0 0 0 15664839.766469955 6609747.18627882 0 6609747.18627882 -936426.09141540527 0 0 0 0 8480612.9634531401 1462312.9059638791 0 1462312.9059638791 -2227619.2427286543 0 0 0 0 15870709.897930145 920887.21704101562 0 920887.21704101562 -5026344.0469169617 0 0 0 0 7017445.4958877563 1857756.5063838959 0 1857756.5063838959 -867523.40512084961 0 0 0 0 6278550.0343780518 2932533.1191101074 0 2932533.1191101074 -507830.68850708008 0 0 0 0 6972625.4238151144 1205746.0494370684 0 1205746.0494370684 -1433585.0217444971 0 0 0 0 577924.35683013871 -502939.51355752721 0 -502939.51355752721 -618407.77646423131 0 0 0 0 -14915540.302125931 40321129.487295151 0 40321129.487295151 146680204.36935425 0 0 0 0 66529842.37197113 42151224.123039246 0 42151224.123039246 -197054263.21766663 0 0 0 0 233202849.87394714 45520632.334350586 0 45520632.334350586 89996579.88885498 0 0 0 0 467624839.93115997 193561171.69377136 0 193561171.69377136 337457.59150695801 0 0 0 0 61045061.711713791 93609426.328811646 0 93609426.328811646 276677971.63076782 0 0 0 0 63352030.156860352 337109043.16077232 0 337109043.16077232 570522780.40353394 0 0 0 0 83983661.755662918 137031015.52587509 0 137031015.52587509 46924517.270294189 0 0 0 0 54373485.530382156 -92761009.269019127 0 -92761009.269019127 32646881.297485352 0 0 0 0 15136442.824321747 12523264.511600494 0 12523264.511600494 3679383.1519355774 0 0 0 0 28964545.977432251 5109182.6499786377 0 5109182.6499786377 -25070301.78427124 0 0 0 0 4790112.9201030955 2326011.9011947326 0 2326011.9011947326 -1417071.9414637648 0 0 0 0 2665948.035161227 925942.53045444936 0 925942.53045444936 -807721.50296402723 0 0 0 0 4183419.5685997009 14407593.578079224 0 14407593.578079224 -802971.31639099121 0 0 0 0 -7039087.6980857849 -2822212.087020874 0 -2822212.087020874 26220813.700881958 0 0 0 0 25364959.311145782 17291274.932296753 0 17291274.932296753 -5128005.7237014771 0 0 0 0 28146281.627651215 33344445.475227356 0 33344445.475227356 21327280.795951843 0 0 0 0 -6436411.6779212952 21901264.016082764 0 21901264.016082764 133052.91416168213 0 0 0 0 3376922.3192923609 1513273.7132001258 0 1513273.7132001258 -1212569.3654012606 0 0 0 0 38174724.639476776 -1576752.7098236084 0 -1576752.7098236084 47729.813278024696 0 0 0 0 12968906.808956146 2074877.5385055542 0 2074877.5385055542 4932300.0995025635 0 0 0 0 30519552.710235596 3463501.2984056473 0 3463501.2984056473 -4856559.6309661865 0 0 0 0 1252717271.138648 764355464.50804591 0 764355464.50804591 216313012.97625732 0 0 0 0 1258938674.1039505 702237958.75978088 0 702237958.75978088 184973411.45170593 0 0 0 0 1247400765.8238811 815176664.79720974 0 815176664.79720974 333895279.72615814 0 0 0 0 1650209094.5157433 838076486.95663071 0 838076486.95663071 279135847.6030426 0 0 0 0 1323319137.7093344 592084493.60477638 0 592084493.60477638 119557974.56538391 0 0 0 0 1120937181.4866905 999885710.89844131 0 999885710.89844131 1051281310.3566489 0 0 0 0 972668333.92371655 673218837.39480495 0 673218837.39480495 413819477.71186829 0 0 0 0 7900080.8125727735 -1662913.6665033698 0 -1662913.6665033698 258940.92567227781 0 0 0 0 6732815.8271636963 4207231.1231880188 0 4207231.1231880188 1217975.1958999634 0 0 0 0 3794544.6383768031 4620023.2252849862 0 4620023.2252849862 -776526.82768508792 0 0 0 0 7925475.8682443872 2404700.4034198225 0 2404700.4034198225 -2346710.9155257791 0 0 0 0 2990472.7217716458 309269.44267744385 0 309269.44267744385 2399530.894551605 0 0 0 0 12031201.657524109 12742452.574478149 0 12742452.574478149 -32046257.12411499 0 0 0 0 828784392.85967541 455842643.88893604 0 455842643.88893604 237755781.67010498 0 0 0 0 1125891244.740181 723739666.98001862 0 723739666.98001862 413063686.42653358 0 0 0 0 1263763705.4802017 702092772.18516541 0 702092772.18516541 202601716.16291142 0 0 0 0 1267129776.8512802 732264771.88576508 0 732264771.88576508 331034969.96871948 0 0 0 0 1313176778.6332626 556638782.24655914 0 556638782.24655914 263800874.70080566 0 0 0 0 1840968419.122612 831989111.86300659 0 831989111.86300659 249301299.20821381 0 0 0 0 -117618880.03511429 36129590.84211731 0 36129590.84211731 213398192.80297852 0 0 0 0 1109518.9033333156 -177837.93970262073 0 -177837.93970262073 727599.20581868291 0 0 0 0 54855496.474413872 84716622.866364479 0 84716622.866364479 -68345718.944412231 0 0 0 0 1461025706.8978348 566442653.56315613 0 566442653.56315613 181259534.98222733 0 0 0 0 1355686961.6289825 765451712.79297638 0 765451712.79297638 550298356.1180191 0 0 0 0 1154997490.2816391 605082342.08560181 0 605082342.08560181 169774249.89226913 0 0 0 0 1149270992.5616763 392342864.0251478 0 392342864.0251478 370712331.67849731 0 0 0 0 1384569255.7189445 488315479.63786697 0 488315479.63786697 185941.51811218262 0 0 0 0 1270589122.6556129 597069246.29148865 0 597069246.29148865 226798420.15289307 0 0 0 0 1186803579.0288448 693632330.11619568 0 693632330.11619568 -219680.3537979126 0 0 0 0 1267441351.5953569 581842820.14813614 0 581842820.14813614 153170916.73279572 0 0 0 0 1143157139.1601181 694266114.4186058 0 694266114.4186058 203197519.22847366 0 0 0 0 1240375835.7214584 735879429.83064651 0 735879429.83064651 153797152.61256409 0 0 0 0 1194151147.5475407 651019598.98517799 0 651019598.98517799 90748100.535476685 0 0 0 0 1005453113.7791252 579118232.2690506 0 579118232.2690506 135430584.83177185 0 0 0 0 847694429.55496597 767427700.34459686 0 767427700.34459686 1264188.0060950776 0 0 0 0 479548972.8512764 519107213.45705795 0 519107213.45705795 289727070.50315094 0 0 0 0 637499224.9337616 473324094.45554352 0 473324094.45554352 281703721.20661736 0 0 0 0 945652058.30543518 616860559.03659821 0 616860559.03659821 195843019.42954254 0 0 0 0 956880850.1395874 434523623.08143234 0 434523623.08143234 114270420.55462646 0 0 0 0 809391319.64453793 508451686.6508646 0 508451686.6508646 210486815.45343018 0 0 0 0 1150828313.4202003 773492403.59479141 0 773492403.59479141 373414261.66840744 0 0 0 0 1134122650.7957687 606007920.55910873 0 606007920.55910873 12252366.936351776 0 0 0 0 125739966.29566956 488478663.90927887 0 488478663.90927887 -101178914.13873863 0 0 0 0 -249831610.52570957 136882210.99095801 0 136882210.99095801 -423619375.34675598 0 0 0 0 772577113.86918449 338464012.20517445 0 338464012.20517445 -135811720.22871399 0 0 0 0 797269363.72806168 630340530.37767792 0 630340530.37767792 8810737.7523860931 0 0 0 0 595387771.72542667 316146501.21061897 0 316146501.21061897 177132402.24249268 0 0 0 0 444525399.75353241 301133899.6739769 0 301133899.6739769 183144382.14570618 0 0 0 0 444734012.94038486 255123763.19580173 0 255123763.19580173 -175163913.45800781 0 0 0 0 129499094.9969635 82617743.347270966 0 82617743.347270966 251714460.56758499 0 0 0 0 920881.75700513273 1628592.9489578195 0 1628592.9489578195 -1422905.3439192399 0 0 0 0 230868446.78542328 199953225.3362999 0 199953225.3362999 286586.12766265869 0 0 0 0 290971257.57281244 314792345.3886869 0 314792345.3886869 392883154.14761353 0 0 0 0 291913940.80874634 299983625.04165649 0 299983625.04165649 344390354.14056396 0 0 0 0 469748199.63076973 508431177.92228603 0 508431177.92228603 542703197.28839111 0 0 0 0 1676551.9421429597 1384370.4646708593 0 1384370.4646708593 -1197904.7293065414 0 0 0 0 229577805.0398674 347451721.7093792 0 347451721.7093792 345608025.18053436 0 0 0 0 -145439957.59309387 503514426.05614662 0 503514426.05614662 265576.15406036377 0 0 0 0 375237584.08478546 139856854.24621201 0 139856854.24621201 240504826.12889099 0 0 0 0 -172008608.30651855 413581023.24636841 0 413581023.24636841 -214100187.7578392 0 0 0 0 -328681253.20933533 597486094.41150856 0 597486094.41150856 102576745.05187988 0 0 0 0 -188405394.35535431 609855509.85746002 0 609855509.85746002 -239611299.15664673 0 0 0 0 -495457319.59710693 300536804.13088989 0 300536804.13088989 1466150992.4788742 0 0 0 0 -422074140.12948608 1261240834.4626274 0 1261240834.4626274 -905816134.71177673 0 0 0 0 -217976.89005765319 1795600.4787378348 0 1795600.4787378348 672414.37351839989 0 0 0 0 -49649367.785118103 679045262.36355591 0 679045262.36355591 -102888581.57188797 0 0 0 0 -355202855.29484558 674007521.39820862 0 674007521.39820862 574424870.41098022 0 0 0 0 -326398355.2951355 1097548432.5614319 0 1097548432.5614319 459225885.60604858 0 0 0 0 -14130814.051803589 370158623.17635345 0 370158623.17635345 6302163.1081008911 0 0 0 0 -18373325.276367188 564646943.12607574 0 564646943.12607574 -432524061.12169647 0 0 0 0 120304721.06373978 90985651.063728333 0 90985651.063728333 186731133.27377319 0 0 0 0 170210782.21496201 501296674.09173965 0 501296674.09173965 -401827799.37481689 0 0 0 0 -17237037.868881226 668898236.53569412 0 668898236.53569412 -462822439.41908264 0 0 0 0 369457.78094393015 892515.80585226789 0 892515.80585226789 -827513.61253430694 0 0 0 0 -272011382.72997284 817469679.40305328 0 817469679.40305328 -310880955.27201843 0 0 0 0 -276779689.20533752 815354176.10411835 0 815354176.10411835 -352266679.28460693 0 0 0 0 -286967922.31040192 882518845.99206161 0 882518845.99206161 462897467.46676826 0 0 0 0 -99021057.86428833 999614471.80464172 0 999614471.80464172 -130773979.31047058 0 0 0 0 -665180360.33648682 731092007.18536377 0 731092007.18536377 -155974356.12258911 0 0 0 0 -359891694.82522583 992445083.32785034 0 992445083.32785034 -471902157.77299023 0 0 0 0 -437508263.46313477 949321822.07580566 0 949321822.07580566 -194978522.16199684 0 0 0 0 -637117927.2475481 1095892846.1569309 0 1095892846.1569309 -186442779.22167969 0 0 0 0 -485572227.2169075 818379484.12607384 0 818379484.12607384 -107631542.42315674 0 0 0 0 -501332365.07150269 867618184.76787567 0 867618184.76787567 -58918204.837890625 0 0 0 0 -429344640.10415649 1001119788.0150146 0 1001119788.0150146 64512215.545837402 0 0 0 0 -443040458.20959473 800616865.03627014 0 800616865.03627014 156600661.33158875 0 0 0 0 -471056671.53190613 885844698.30265808 0 885844698.30265808 -68777681.959411621 0 0 0 0 -302230798.95864868 781640113.27472687 0 781640113.27472687 9406843.8509521484 0 0 0 0 -424784046.94795227 755938390.30108643 0 755938390.30108643 43337763.091400146 0 0 0 0 -432679356.32414246 693788343.29904175 0 693788343.29904175 -29994001.119428635 0 0 0 0 -461399870.85736084 804628783.28852844 0 804628783.28852844 -324608484.15153503 0 0 0 0 -565522672.60705566 766433250.63689423 0 766433250.63689423 -106827545.53425598 0 0 0 0 -381687355.59436798 551390588.90973854 0 551390588.90973854 -508282631.78034973 0 0 0 0 -279944978.67415023 515435633.09270942 0 515435633.09270942 -104609204.48779297 0 0 0 0 -256087999.87660217 730678615.90467072 0 730678615.90467072 -257756266.46475983 0 0 0 0 -488330607.45713425 1088779863.7367878 0 1088779863.7367878 -1608713377.1836548 0 0 0 0 -1001873456.6557159 868834488.08475113 0 868834488.08475113 -403474194.73225975 0 0 0 0 -374770060.31356812 611876327.44958496 0 611876327.44958496 -359917515.45205593 0 0 0 0 -283578884.6335907 797596795.59453201 0 797596795.59453201 -519334704.24188232 0 0 0 0 -66524068.719520569 -15459623.400177002 0 -15459623.400177002 75200487.08564949 0 0 0 0 -2060263.02355057 2246342.9458467811 0 2246342.9458467811 337477.18464112654 0 0 0 0 58213873.98249054 277780679.62667084 0 277780679.62667084 -2482410343.3473587 0 0 0 0 17066147.008115768 69986894.898136139 0 69986894.898136139 -808532245.681427 0 0 0 0 23926140.597659349 465827070.69294786 0 465827070.69294786 -451424711.25792694 0 0 0 0 -323548367.4019165 395390248.05937958 0 395390248.05937958 -322282474.24431992 0 0 0 0 18936238.302146912 402249179.00358582 0 402249179.00358582 -1014786300.8538437 0 0 0 0 -37105087.804161072 214166362.89758682 0 214166362.89758682 -620774349.90695953 0 0 0 0 -5042051.4203922153 8572401.728115879 0 8572401.728115879 1133168.912689954 0 0 0 0 -48524900.778160095 2486113.5871448517 0 2486113.5871448517 3477928.0297775269 0 0 0 0 2170651.6210043356 7335968.9133779267 0 7335968.9133779267 5020813.0633210167 0 0 0 0 -100601845.466362 242140872.76006699 0 242140872.76006699 -551061634.49031067 0 0 0 0 9759128.422870636 6961643.8726482391 0 6961643.8726482391 -16791771.728096008 0 0 0 0 1203684.2808223441 4726441.6547677852 0 4726441.6547677852 597163.70584241301 0 0 0 0 11538587.25702858 15439221.406384468 0 15439221.406384468 -10188193.322502136 0 0 0 0 17446903.037784576 11661953.220531464 0 11661953.220531464 -27315284.823951721 0 0 0 0 5754480.8235301971 13459371.016839981 0 13459371.016839981 710579.07563018799 0 0 0 0 9182474.1354276221 9327551.0948824883 0 9327551.0948824883 794781.66846483201 0 0 0 0 -9737776.4112243652 66155669.800331116 0 66155669.800331116 14339443.07942009 0 0 0 0 1704880.3418434262 8372584.84305989 0 8372584.84305989 981310.81017116085 0 0 0 0 538448836.35781097 977419702.88210297 0 977419702.88210297 1325798794.2814713 0 0 0 0 7666584.1175003052 22044249.818840027 0 22044249.818840027 7022338.0746498108 0 0 0 0 306271477.90737152 684578490.98072624 0 684578490.98072624 1242496545.3343658 0 0 0 0 627615.38218466192 220560.83910094015 0 220560.83910094015 -558446.47956366837 0 0 0 0 -212631880.20907593 735039897.49682617 0 735039897.49682617 2654770797.6032104 0 0 0 0 -190904164.546875 86368388.315639019 0 86368388.315639019 5260323.4427490234 0 0 0 0 11066888.330749512 23370896.302047729 0 23370896.302047729 -45070373.131111145 0 0 0 0 10244035.693083286 3516499.149324134 0 3516499.149324134 -1943585.378360223 0 0 0 0 525907978.49449921 865910608.97797012 0 865910608.97797012 1999782394.1308784 0 0 0 0 438604773.1854248 1067995292.4669189 0 1067995292.4669189 2612342500.9571533 0 0 0 0 497091164.95700073 1350447360.9060898 0 1350447360.9060898 2373550595.121994 0 0 0 0 824603148.67899895 1122242501.2799244 0 1122242501.2799244 1842630698.9030609 0 0 0 0 -326653887.45544481 772754839.66634703 0 772754839.66634703 -1154133718.9744644 0 0 0 0 581532791.92768478 1918504938.5340786 0 1918504938.5340786 3957931196.4026222 0 0 0 0 2875158.0182453431 1176872.1391874962 0 1176872.1391874962 -210102.53129630163 0 0 0 0 931232132.88769531 1110875747.1750298 0 1110875747.1750298 837775442.79547119 0 0 0 0 568853750.5437088 644299349.76891327 0 644299349.76891327 776058238.72237015 0 0 0 0 1440464311.750515 1737973312.7091732 0 1737973312.7091732 1304226219.5111389 0 0 0 0 501859776.45558929 1146154893.582222 0 1146154893.582222 1795938094.0088043 0 0 0 0 586557800.32232666 1066902242.3213654 0 1066902242.3213654 1118931126.7514076 0 0 0 0 483252524.81539536 706087053.03728485 0 706087053.03728485 477359277.73587799 0 0 0 0 461103695.29706573 642316749.4610672 0 642316749.4610672 578346459.87186432 0 0 0 0 882166587.04017639 1097525680.7212906 0 1097525680.7212906 611759439.69701195 0 0 0 0 719277086.06946564 1244289866.5414581 0 1244289866.5414581 898584499.41782761 0 0 0 0 714376621.89766979 1195073667.428091 0 1195073667.428091 570148565.30957031 0 0 0 0 1026501706.4002647 813415744.82978058 0 813415744.82978058 762976521.79883194 0 0 0 0 1038751682.2149467 1021284213.6492996 0 1021284213.6492996 427252015.36492157 0 0 0 0 1046888056.2681427 1236946258.6246529 0 1236946258.6246529 -39587246.307846069 0 0 0 0 871321859.60168076 540370071.79320145 0 540370071.79320145 106378661.51525879 0 0 0 0 721622487.66375542 401698958.85065651 0 401698958.85065651 -501087196.34246826 0 0 0 0 -705312791.80045414 -99413037.776279449 0 -99413037.776279449 -966752425.46311951 0 0 0 0 253543630.584198 401700449.6501236 0 401700449.6501236 -275433736.41959381 0 0 0 0 248599303.67733765 639776263.92710114 0 639776263.92710114 -489972852.94251919 0 0 0 0 913889624.0718689 935286635.22988892 0 935286635.22988892 -1605579386.7719345 0 0 0 0 915182108.93535995 1477014534.6558037 0 1477014534.6558037 563045176.47606659 0 0 0 0 1148954678.2298527 1415276034.2998581 0 1415276034.2998581 -904953483.87013245 0 0 0 0 84433849.414863586 1024093504.3712101 0 1024093504.3712101 -298764.60989761353 0 0 0 0 103099.4874420166 1192510838.9735975 0 1192510838.9735975 1038799171.7205315 0 0 0 0 89584695.11054039 675989448.652215 0 675989448.652215 490858499.70421982 0 0 0 0 177550002.81068838 240075731.30100071 0 240075731.30100071 -1211562577.6994019 0 0 0 0 758325544.3531456 2412494408.4089947 0 2412494408.4089947 1256766045.1472244 0 0 0 0 -483292174.01915741 97331939.372066498 0 97331939.372066498 1183762473.9341164 0 0 0 0 1159008.2622337267 1605501.8955850881 0 1605501.8955850881 889814.10919399559 0 0 0 0 -916994686.57474518 691235761.2598896 0 691235761.2598896 214609742.05583954 0 0 0 0 3095609.943800129 3647969.2628238536 0 3647969.2628238536 1793393.0507046208 0 0 0 0 -450441852.43512726 923712823.04048729 0 923712823.04048729 -635007235.92751312 0 0 0 0 206100534.24099827 1211041762.9749205 0 1211041762.9749205 -978665436.44709778 0 0 0 0 -478669342.81659698 382027743.78551102 0 382027743.78551102 406146651.9287529 0 0 0 0 -528117107.79728699 1208630850.5361519 0 1208630850.5361519 1485615456.5966187 0 0 0 0 1847427.8630979434 2098457.2433452401 0 2098457.2433452401 1012084.0494859219 0 0 0 0 59057709.694030762 1759151314.3142014 0 1759151314.3142014 1799060887.4735641 0 0 0 0 1518273389.1495438 1605289389.3594856 0 1605289389.3594856 -1594928363.0770454 0 0 0 0 1495452029.9571457 1774887966.523201 0 1774887966.523201 109143595.91164398 0 0 0 0 1361420753.4028015 1375438038.1779785 0 1375438038.1779785 710800018.36053467 0 0 0 0 1035192728.5067444 288708585.56038666 0 288708585.56038666 590773263.35626888 0 0 0 0 1543150167.4086151 1269158915.1710892 0 1269158915.1710892 -518445895.04876709 0 0 0 0 1705487509.6701698 1123025417.7940636 0 1123025417.7940636 -470536475.58128357 0 0 0 0 1359996161.0731354 1314487335.3449936 0 1314487335.3449936 70654287.458999634 0 0 0 0 757518363.37001038 462291693.71458435 0 462291693.71458435 -1120481961.0896301 0 0 0 0 1162347774.4154279 1450474279.0308106 0 1450474279.0308106 947820659.44469452 0 0 0 0 595530651.20148849 743773407.63515472 0 743773407.63515472 150480741.62577915 0 0 0 0 1249205475.731926 116102414.96112061 0 116102414.96112061 330958117.59046936 0 0 0 0 176118408.10995483 443511093.06524658 0 443511093.06524658 878826.50007527729 0 0 0 0 809045.5371247232 1820216.5381121039 0 1820216.5381121039 505479.3694165349 0 0 0 0 -556366344.22173309 636219672.30906296 0 636219672.30906296 -174556922.20201874 0 0 0 0 -848068030.68332672 514412275.91703796 0 514412275.91703796 -39346995.182037354 0 0 0 0 644298.23938507587 3493504.497267399 0 3493504.497267399 1175629.1198258176 0 0 0 0 2981177955.2816467 1119888224.3112946 0 1119888224.3112946 -1762598757.4847527 0 0 0 0 -837077379.14165497 -201875633.56485367 0 -201875633.56485367 -357120785.25812531 0 0 0 0 619705.62968045846 1612507.2376669599 0 1612507.2376669599 1580201.200195305 0 0 0 0 762264148.88245773 463143310.34181404 0 463143310.34181404 -59180826.93674469 0 0 0 0 1996383621.6619415 676206527.58999252 0 676206527.58999252 -78568800.872665405 0 0 0 0 -454543014.8404541 631981209.33069229 0 631981209.33069229 -140602203.86957788 0 0 0 0 -555085751.65486908 415398745.40552521 0 415398745.40552521 -138865258.86501312 0 0 0 0 -150322067.27096558 87692365.342605591 0 87692365.342605591 22314051.083900452 0 0 0 0 1500727.2881971002 4554716.6897218609 0 4554716.6897218609 4047639.1327302605 0 0 0 0 -64327279.958122253 -90759451.495056152 0 -90759451.495056152 159295472.46556091 0 0 0 0 117938586.67140198 -14314264.328239441 0 -14314264.328239441 2622956.8762283325 0 0 0 0 -11221402.672149658 -85525924.918582916 0 -85525924.918582916 49479179.672805786 0 0 0 0 -19925613.044645309 14630351.509636402 0 14630351.509636402 61487752.63735199 0 0 0 0 -35836503.053291321 -21165950.516994476 0 -21165950.516994476 24834549.034103394 0 0 0 0 -26697783.187103271 -18925762.773048401 0 -18925762.773048401 16849530.762963772 0 0 0 0 68595516.990722656 179578754.63415527 0 179578754.63415527 486007633.93203735 0 0 0 0 5616494.6997375488 37959073.059326172 0 37959073.059326172 25491548.30979538 0 0 0 0 3684124.7062293813 4842727.9588393569 0 4842727.9588393569 309585.30008715391 0 0 0 0 -7381492.6073684692 9652031.001159668 0 9652031.001159668 7974556.5133972168 0 0 0 0 1536570.7733253762 1859439.9818697162 0 1859439.9818697162 67410.49641026929 0 0 0 0 -100954817.00474548 100888209.68001556 0 100888209.68001556 62545416.181297302 0 0 0 0 635406.3736448288 1805537.7255988121 0 1805537.7255988121 -19002.121978759766 0 0 0 0 -20756355.289176941 -34663073.100791931 0 -34663073.100791931 100031750.20691872 0 0 0 0 34838704.968162537 8253067.7458305359 0 8253067.7458305359 -86589389.230751038 0 0 0 0 1115395.2668304443 -49875987.309062958 0 -49875987.309062958 -75990890.187858582 0 0 0 0 71543.663367450237 887809.39148060232 0 887809.39148060232 414332.72650507651 0 0 0 0 1863839.1113927122 1525338.463742815 0 1525338.463742815 -1385976.8752639666 0 0 0 0 67405517.926628113 61493822.82208252 0 61493822.82208252 -195784722.58069611 0 0 0 0 -57050395.145893097 8519940.3379917145 0 8519940.3379917145 122485058.50856781 0 0 0 0 1984998.7171453061 2555851.2843266614 0 2555851.2843266614 888676.30187960714 0 0 0 0 13137620.77620697 6565579.1774673462 0 6565579.1774673462 -11889907.956764221 0 0 0 0 -204443804.32203674 40616067.741691589 0 40616067.741691589 -2899086.5949897766 0 0 0 0 -154093768.52516556 174826628.40534973 0 174826628.40534973 172514729.83557129 0 0 0 0 3106669.8121717125 3214154.9557894971 0 3214154.9557894971 1011054.4376203418 0 0 0 0 88622757.127361298 93693050.121080399 0 93693050.121080399 -69349385.955947876 0 0 0 0 284970643.04862976 -25142121.836830139 0 -25142121.836830139 -15613254.442169189 0 0 0 0 -89619652.654808044 173347619.87429619 0 173347619.87429619 693953909.28491211 0 0 0 0 352968361.07149029 937584734.61038637 0 937584734.61038637 1158718442.246994 0 0 0 0 12273533.088813782 -65924685.391147614 0 -65924685.391147614 202428336.77680969 0 0 0 0 405419136.86305237 327406968.12832642 0 327406968.12832642 28306753.453018188 0 0 0 0 474701633.33665466 471187556.46193695 0 471187556.46193695 674464957.52841187 0 0 0 0 563036.57231070101 440186.31433874741 0 440186.31433874741 -227654.18242201209 0 0 0 0 940764714.08687592 800347917.89614868 0 800347917.89614868 351031153.47355652 0 0 0 0 678905789.08312225 1560641661.2174778 0 1560641661.2174778 1274985040.995079 0 0 0 0 2011977322.324585 1475003717.1581554 0 1475003717.1581554 781601261.5774231 0 0 0 0 255191540.19094849 948104248.93770599 0 948104248.93770599 637093204.19219208 0 0 0 0 -20769412.14616394 1144079066.9124222 0 1144079066.9124222 1046179670.4615402 0 0 0 0 365230022.84817505 1506420624.6818199 0 1506420624.6818199 1389954857.7325974 0 0 0 0 373813359.54559326 1387782512.5442963 0 1387782512.5442963 1074590293.2943802 0 0 0 0 -27299694.904403687 1068704642.2757263 0 1068704642.2757263 1321109315.0388412 0 0 0 0 -118990085.44851685 661761679.37895203 0 661761679.37895203 2528346938.1945343 0 0 0 0 123788551.93989563 1444579602.0658569 0 1444579602.0658569 2070605924.7227173 0 0 0 0 -1460059905.7548904 -82274363.572418213 0 -82274363.572418213 2328965376.4459839 0 0 0 0 -178061656.4132309 1047375153.2405624 0 1047375153.2405624 1701775484.5296402 0 0 0 0 -113023909.81631279 767119095.78483772 0 767119095.78483772 1431421306.3431549 0 0 0 0 -100176906.81004333 359946991.76081848 0 359946991.76081848 1731066230.7593307 0 0 0 0 -39729787.878967285 213900548.15271759 0 213900548.15271759 -282172923.6481514 0 0 0 0 331563847.69488525 76288799.729042053 0 76288799.729042053 -237859875.08970642 0 0 0 0 1122707.7013161555 1266257.899447443 0 1266257.899447443 662888.86850262806 0 0 0 0 486251881.96473694 713377741.52888489 0 713377741.52888489 182686177.13562012 0 0 0 0 -452347342.73234558 412519781.91674805 0 412519781.91674805 400767343.09139252 0 0 0 0 -431422369.32128906 32763857.494781494 0 32763857.494781494 99851071.707122803 0 0 0 0 -822696857.44829559 409761273.52362442 0 409761273.52362442 784373438.54082489 0 0 0 0 702849156.34575272 266941554.2101841 0 266941554.2101841 -700486755.61006927 0 0 0 0 -104027.95852507511 3390463.8569375165 0 3390463.8569375165 4199303.0959766135 0 0 0 0 127873429.57687759 -262858903.05821037 0 -262858903.05821037 -750866572.25061035 0 0 0 0 -66491.759196013096 1355392.591606006 0 1355392.591606006 2298165.2257099822 0 0 0 0 1187645469.485091 1189098682.0632501 0 1189098682.0632501 634912812.33929062 0 0 0 0 152870692.10479736 508106378.72696304 0 508106378.72696304 425809404.98915577 0 0 0 0 -10772468.461649895 179074529.86312056 0 179074529.86312056 1966621002.5318947 0 0 0 0 702602.43942642212 381231750.63326454 0 381231750.63326454 -75363377.743888855 0 0 0 0 -194051826.47902679 286831551.37218857 0 286831551.37218857 342632068.37792969 0 0 0 0 -202330859.44546127 712497857.7660141 0 712497857.7660141 -27051806.28729248 0 0 0 0 -982754795.78705597 141958178.99199486 0 141958178.99199486 104583109.77885818 0 0 0 0 -129883337.88556671 251452083.65675259 0 251452083.65675259 193277844.10031128 0 0 0 0 -152244658.68425751 319253692.57126617 0 319253692.57126617 17645799.176708221 0 0 0 0 688392234.58453703 373216534.63438135 0 373216534.63438135 -133860315.65090942 0 0 0 0 286443560.61627197 -214852695.92220688 0 -214852695.92220688 214607375.04532623 0 0 0 0 1045854864.3492432 468937533.38754463 0 468937533.38754463 -336341140.68409729 0 0 0 0 32885.168222799723 3751595.8000221997 0 3751595.8000221997 2543951.7692605332 0 0 0 0 -650203441.13347244 -192181596.30063248 0 -192181596.30063248 -72672832.614364624 0 0 0 0 208894.28043386899 2079106.2519142069 0 2079106.2519142069 2236845.9408378229 0 0 0 0 -510391294.48972321 53737182.198806763 0 53737182.198806763 100102335.61979675 0 0 0 0 -922317917.66208649 101725820.36221313 0 101725820.36221313 238963814.64076996 0 0 0 0 -449056838.8453064 -87842201.835418701 0 -87842201.835418701 -307745113.93774033 0 0 0 0 -410835518.81745148 -319987931.54813385 0 -319987931.54813385 58234098.935523987 0 0 0 0 -637019921.129879 603528582.19358444 0 603528582.19358444 487856773.99874878 0 0 0 0 -1140855688.6375818 153419164.78620768 0 153419164.78620768 326550017.24885559 0 0 0 0 201283.25560241472 3768793.9581572153 0 3768793.9581572153 5563794.4327263795 0 0 0 0 65830.069566448219 1787197.7651291192 0 1787197.7651291192 643839.37380335853 0 0 0 0 1815818583.785614 354211481.74236298 0 354211481.74236298 -450953864.0903244 0 0 0 0 603529958.77141571 1064165860.4327927 0 1064165860.4327927 -250692561.63354111 0 0 0 0 14293918.929550171 321882173.51721382 0 321882173.51721382 649319913.94643021 0 0 0 0 -171418871.26272583 -130667811.79314041 0 -130667811.79314041 -375629828.10143757 0 0 0 0 876701743.01663208 1072909307.5478592 0 1072909307.5478592 185944511.85990906 0 0 0 0 750674446.64321899 588978880.06626129 0 588978880.06626129 -323871512.67285919 0 0 0 0 392931199.33062744 1292895377.0699577 0 1292895377.0699577 1116346623.9398193 0 0 0 0 248044773.62225342 991206132.28450203 0 991206132.28450203 645241231.21704102 0 0 0 0 720258555.30725098 1724946265.200592 0 1724946265.200592 1384549633.5252304 0 0 0 0 302440699.31210709 1191573174.6942825 0 1191573174.6942825 1461107098.7936859 0 0 0 0 317541028.4276123 1285412576.1613617 0 1285412576.1613617 1954356170.9894104 0 0 0 0 451856735.2321167 1411999017.9910841 0 1411999017.9910841 1638038604.53302 0 0 0 0 1066528687.0805283 500755652.37877274 0 500755652.37877274 1448749012.9024658 0 0 0 0 260289663.08091736 433244547.2879982 0 433244547.2879982 629907570.77054214 0 0 0 0 364930984.13354492 1036435464.5560722 0 1036435464.5560722 1107214073.84021 0 0 0 0 877835081.36602783 356292771.59357834 0 356292771.59357834 281315095.45185852 0 0 0 0 -26290477.604438782 558587821.50267029 0 558587821.50267029 608479328.33351135 0 0 0 0 -139689642.38587952 -91743791.748336792 0 -91743791.748336792 220957246.31097031 0 0 0 0 -382184633.80023193 98941178.686473846 0 98941178.686473846 95939418.285522461 0 0 0 0 -309412974.2393837 -126285039.77517319 0 -126285039.77517319 -46241358.467086792 0 0 0 0 -71068542.079826355 83546248.344875336 0 83546248.344875336 -60938062.261486053 0 0 0 0 264570.85097649693 852531.83646203578 0 852531.83646203578 128574.46646777913 0 0 0 0 52886438.394622803 -7519820.8417606354 0 -7519820.8417606354 -27795493.738609314 0 0 0 0 43494508.114667892 211519128.32339096 0 211519128.32339096 780417289.39523315 0 0 0 0 812905.80209652986 1058022.1393016577 0 1058022.1393016577 -312698.35699597746 0 0 0 0 370464354.91851044 488296627.86600876 0 488296627.86600876 368661980.24491882 0 0 0 0 318441500.48564148 305286633.97251892 0 305286633.97251892 938807708.06958485 0 0 0 0 839957827.29327393 986912948.21147156 0 986912948.21147156 1116634012.2142735 0 0 0 0 428907920.00730133 729642161.52787876 0 729642161.52787876 1192521868.5283508 0 0 0 0 525273413.41322327 161007365.43517303 0 161007365.43517303 -168161850.85018921 0 0 0 0 2739280.8168607056 2665767.2470258325 0 2665767.2470258325 216225.38931500167 0 0 0 0 192365822.08462524 -213887711.18218994 0 -213887711.18218994 -184375271.14341402 0 0 0 0 29114496.577323914 427283534.08459473 0 427283534.08459473 782878784.23216248 0 0 0 0 424263463.92089081 387091730.31388092 0 387091730.31388092 294088185.67850494 0 0 0 0 149515986.14611816 648354290.66648865 0 648354290.66648865 566899622.00432587 0 0 0 0 -260635482.90498352 182447795.28190613 0 182447795.28190613 439699303.52110291 0 0 0 0 -237051257.56530762 461952371.51374817 0 461952371.51374817 -445858997.91564941 0 0 0 0 146950.32251168042 -157432.07050350029 0 -157432.07050350029 -286497.64874572493 0 0 0 0 330188435.1739502 498459335.16615295 0 498459335.16615295 512512020.42375183 0 0 0 0 210628063.73152161 711470733.99503326 0 711470733.99503326 786837845.19033813 0 0 0 0 443025538.72018433 679860061.6058197 0 679860061.6058197 524469417.31546783 0 0 0 0 483390403.03713989 597909525.38158417 0 597909525.38158417 677262966.99038696 0 0 0 0 327430723.57304382 569728473.52049255 0 569728473.52049255 896572610.44025421 0 0 0 0 431546029.46633148 915354772.78686619 0 915354772.78686619 1129825813.0699921 0 0 0 0 538794720.4432373 442167322.29127502 0 442167322.29127502 729134505.95671082 0 0 0 0 450461511.40354919 736929454.29685974 0 736929454.29685974 1347960291.9414749 0 0 0 0 1022549910.2254715 1000922473.8025856 0 1000922473.8025856 1430728735.2685394 0 0 0 0 508563035.96870422 768879765.72343826 0 768879765.72343826 2055323816.1936111 0 0 0 0 873334014.98086548 1871777021.2899437 0 1871777021.2899437 2496594657.5568829 0 0 0 0 1637197552.1284027 1288653398.8503609 0 1288653398.8503609 957213076.20936203 0 0 0 0 637390484.36035156 768368283.59723282 0 768368283.59723282 1468675205.1646423 0 0 0 0 827490912.96577454 585898285.73162079 0 585898285.73162079 892782150.12336063 0 0 0 0 2854346241.3009338 1259839743.3911896 0 1259839743.3911896 1223039227.0061493 0 0 0 0 483267447.81028748 1592071270.9460831 0 1592071270.9460831 2282557335.104538 0 0 0 0 1595629.0562609136 1100124.3126034029 0 1100124.3126034029 285967.7254229337 0 0 0 0 589920669.96923828 -132281916.17456055 0 -132281916.17456055 -1553875336.3901215 0 0 0 0 -254026974.54407501 1696412990.4460526 0 1696412990.4460526 4709637876.9378738 0 0 0 0 4225690.7677679434 837462.44447196275 0 837462.44447196275 90551.074157569557 0 0 0 0 5148765.4770355225 84264809.877380371 0 84264809.877380371 245866533.5447197 0 0 0 0 1559295251.3825836 968675684.24489975 0 968675684.24489975 -668609571.22124481 0 0 0 0 1394389056.331604 1994814979.7383881 0 1994814979.7383881 1457884039.2866669 0 0 0 0 974421515.82073212 1445980511.435215 0 1445980511.435215 743504556.38996124 0 0 0 0 -2187359.0812744498 -165916.12304371223 0 -165916.12304371223 1331736.3002801053 0 0 0 0 409887916.58229065 678116844.92414474 0 678116844.92414474 784802391.42517853 0 0 0 0 735826196.75246811 551373465.13372421 0 551373465.13372421 496911272.43302155 0 0 0 0 85015106.615701675 204082509.48320794 0 204082509.48320794 250252910.5822525 0 0 0 0 50223050.717510223 7167070.5905604362 0 7167070.5905604362 280242622.94859314 0 0 0 0 -126366104.37833405 -17588867.41765213 0 -17588867.41765213 250963117.2474556 0 0 0 0 -568895132.72100067 379487725.81668091 0 379487725.81668091 212089801.87515736 0 0 0 0 -177903679.44615173 326461273.82159805 0 326461273.82159805 538538517.38051224 0 0 0 0 104022666.90497589 476233032.44697571 0 476233032.44697571 -355179286.14232254 0 0 0 0 219771642.62377167 391074859.477211 0 391074859.477211 -321071126.08312988 0 0 0 0 -40685815.315429688 687114845.19870377 0 687114845.19870377 -324471849.45835495 0 0 0 0 42846706.828018188 824885802.82603455 0 824885802.82603455 1415541318.9471169 0 0 0 0 -1047055.2354873195 -112887.42009794712 0 -112887.42009794712 723053.47567838803 0 0 0 0 254287660.64076996 473258189.74624443 0 473258189.74624443 -760998729.58683395 0 0 0 0 -142701787.72621155 1030402651.1989899 0 1030402651.1989899 1209184670.9649658 0 0 0 0 -84029219.900566101 695295050.16276169 0 695295050.16276169 1445077789.288681 0 0 0 0 -632664387.43962097 1193525406.1520348 0 1193525406.1520348 1837153354.0450153 0 0 0 0 -42586873.26701355 1078747043.2945557 0 1078747043.2945557 2513400396.2249451 0 0 0 0 437800543.70022583 1251651397.3186646 0 1251651397.3186646 1838188030.2648773 0 0 0 0 97538064.591903687 1032532606.8844757 0 1032532606.8844757 1698615459.4875908 0 0 0 0 5652651.6171035767 869623945.4225502 0 869623945.4225502 1777483072.867691 0 0 0 0 220047970.8860321 795358619.35958862 0 795358619.35958862 1400917415.6415176 0 0 0 0 381296410.59468842 920449809.44545746 0 920449809.44545746 1476954019.6309814 0 0 0 0 254227187.39990044 1138761448.6808281 0 1138761448.6808281 1256187036.8202438 0 0 0 0 436038243.65356445 1445168147.3525925 0 1445168147.3525925 1474256429.8699951 0 0 0 0 471015328.11220551 1531846192.3991776 0 1531846192.3991776 1688392266.6404266 0 0 0 0 295025360.97972107 1496618992.9497681 0 1496618992.9497681 1517581636.773735 0 0 0 0 280921486.59761047 1500053988.4782944 0 1500053988.4782944 1559787209.7997131 0 0 0 0 283371955.45144653 1477259652.0939064 0 1477259652.0939064 1744162343.8840027 0 0 0 0 374577890.68169832 1622224346.9785438 0 1622224346.9785438 1959474952.2537994 0 0 0 0 238290203.89595985 1227472180.930985 0 1227472180.930985 1947687000.8871613 0 0 0 0 -1358439146.6512566 117743936.0015831 0 117743936.0015831 1292171769.8763733 0 0 0 0 164552.30629128963 2130902.3119878359 0 2130902.3119878359 3231525.044129014 0 0 0 0 1265796167.6857986 1664072038.3803387 0 1664072038.3803387 1078247924.5584717 0 0 0 0 -398257148.52405167 981549177.29153442 0 981549177.29153442 2068873109.7822113 0 0 0 0 377585831.74914289 1732656969.5502453 0 1732656969.5502453 2867520854.3941193 0 0 0 0 -152040430.78517914 174015055.46927834 0 174015055.46927834 687213847.35617828 0 0 0 0 -721366496.82362366 301114082.1328125 0 301114082.1328125 1770160263.3686066 0 0 0 0 768720989.62887955 1124234547.7070675 0 1124234547.7070675 1356837710.9836349 0 0 0 0 -276135761.44485474 856098998.954422 0 856098998.954422 1845384472.0991707 0 0 0 0 3131766.986038208 780805805.41065979 0 780805805.41065979 1621416082.2480068 0 0 0 0 567905348.48658752 1727989787.3352089 0 1727989787.3352089 2057033237.5805466 0 0 0 0 321810114.74157333 1625141511.1895552 0 1625141511.1895552 2316558988.4482727 0 0 0 0 1643649771.1056824 1327857892.4250183 0 1327857892.4250183 2074651110.4535751 0 0 0 0 1094558424.2667236 574104908.51054382 0 574104908.51054382 2535459203.183773 0 0 0 0 -559429.53965464421 1988233.1005705558 0 1988233.1005705558 1248506.0091795102 0 0 0 0 -210260984.60511494 358273106.24838686 0 358273106.24838686 -371478880.3184433 0 0 0 0 1994176964.5455513 1678642541.8354778 0 1678642541.8354778 1010381080.2482605 0 0 0 0 -1027571425.7127495 483086538.80975246 0 483086538.80975246 1120051343.4384766 0 0 0 0 55733716.330322266 57309829.210494995 0 57309829.210494995 -132466859.41235733 0 0 0 0 -67111390.493125916 236083356.35626984 0 236083356.35626984 286008187.80990219 0 0 0 0 1274001103.7681885 738102688.80021667 0 738102688.80021667 395332523.48188877 0 0 0 0 434232884.74933624 1205469642.3814201 0 1205469642.3814201 1400661186.1944809 0 0 0 0 90994939.621502876 867356097.04995656 0 867356097.04995656 931364473.03491974 0 0 0 0 132173081.74570465 717867570.4499979 0 717867570.4499979 671975256.27331924 0 0 0 0 -786016.07629112771 578797687.08213842 0 578797687.08213842 731995291.04401398 0 0 0 0 -122741075.52480316 573999566.27617073 0 573999566.27617073 1181638038.0231285 0 0 0 0 -54368797.953147888 681595985.56982708 0 681595985.56982708 1249575873.3343658 0 0 0 0 -98906980.979385376 168865719.32428741 0 168865719.32428741 -281316497.26361084 0 0 0 0 1271255.4380014353 3287246.3098706156 0 3287246.3098706156 -264148.76060112566 0 0 0 0 30136500.258044749 1368767.5518619604 0 1368767.5518619604 -3975328.8945768345 0 0 0 0 565098213.69213867 361117696.52843475 0 361117696.52843475 364663030.43409729 0 0 0 0 46022419.799682617 -47102.46509552002 0 -47102.46509552002 2705756.4860744476 0 0 0 0 63529817.250030518 -7946002.0321464539 0 -7946002.0321464539 -9170901.7707366943 0 0 0 0 54001209.49772644 7428274.4601230621 0 7428274.4601230621 -33972491.760177612 0 0 0 0 49568880.522026062 3418988.5067005157 0 3418988.5067005157 -2314587.7349090576 0 0 0 0 42961505.014122009 3193584.812046051 0 3193584.812046051 -553097.22734069824 0 0 0 0 8821460.351017708 17158895.132198647 0 17158895.132198647 7081078.6155884266 0 0 0 0 -76567055.929794312 36537975.831466675 0 36537975.831466675 10912538.683563232 0 0 0 0 46571731.576248169 -7452396.2621002197 0 -7452396.2621002197 -11588368.141464233 0 0 0 0 62445517.90284729 91075343.106967926 0 91075343.106967926 44807176.611465454 0 0 0 0 101371695.52176666 83848587.730453491 0 83848587.730453491 -21425335.442718506 0 0 0 0 19944456.872039795 59329725.415504456 0 59329725.415504456 -25190399.880218506 0 0 0 0 78844257.660385132 88550164.31022644 0 88550164.31022644 -39478750.37449646 0 0 0 0 7915342.6237106323 75889075.92930603 0 75889075.92930603 -16511961.343139648 0 0 0 0 -61592817.024841309 10942915.747917175 0 10942915.747917175 10857803.812744141 0 0 0 0 70081270.413894653 38251905.217277527 0 38251905.217277527 -11132749.075180054 0 0 0 0 48711154.580749512 63815865.721565247 0 63815865.721565247 -8442218.1227035522 0 0 0 0 90232158.332000732 65179014.596313477 0 65179014.596313477 -11576177.852993011 0 0 0 0 136779904.45635986 54543100.194881439 0 54543100.194881439 -56101623.614349365 0 0 0 0 119339503.66905212 55268811.753295898 0 55268811.753295898 -43443963.992141724 0 0 0 0 202851535.28761292 23746155.84185791 0 23746155.84185791 -43971436.752721786 0 0 0 0 -127696714.79701233 156456201.48041534 0 156456201.48041534 -34070352.572631836 0 0 0 0 -160549534.43153381 -5066127.5105895996 0 -5066127.5105895996 30190355.113311768 0 0 0 0 5522488.5546112061 77723946.187805176 0 77723946.187805176 -14734616.523925781 0 0 0 0 10746941.654205322 104057436.08781433 0 104057436.08781433 -42712959.793762207 0 0 0 0 135360476.40731812 90179117.307647705 0 90179117.307647705 -104589195.5569458 0 0 0 0 121381409.4805603 94303217.209632874 0 94303217.209632874 16613641.333312988 0 0 0 0 66995278.595168114 39428475.962292671 0 39428475.962292671 -38743164.484008789 0 0 0 0 58844816.668568611 111915391.10793114 0 111915391.10793114 -241761896.52682495 0 0 0 0 -157702917.64866638 -8664517.503074646 0 -8664517.503074646 35177309.505355835 0 0 0 0 165133961.7195816 181102665.05875397 0 181102665.05875397 141057551.58402252 0 0 0 0 128706417.05750561 -11407041.092817307 0 -11407041.092817307 68551880.303237915 0 0 0 0 -141111261.26767731 308234978.53039169 0 308234978.53039169 475441767.10142517 0 0 0 0 140890153.53202057 11688360.846611023 0 11688360.846611023 37571530.740325928 0 0 0 0 152131030.55432129 150233042.06595612 0 150233042.06595612 347376889.89610291 0 0 0 0 222464335.20153809 40878836.305160522 0 40878836.305160522 14150322.873916626 0 0 0 0 239298719.01576233 290309835.53268433 0 290309835.53268433 479574908.10639954 0 0 0 0 353238015.93008041 233080204.54639816 0 233080204.54639816 84577116.235443115 0 0 0 0 319880281.39854431 273255775.49813747 0 273255775.49813747 269709305.3302002 0 0 0 0 189595405.76323891 552954381.7139883 0 552954381.7139883 945645042.14859772 0 0 0 0 325854387.19862008 836251449.18862081 0 836251449.18862081 1019479192.2505646 0 0 0 0 293290765.8550415 280446301.46575165 0 280446301.46575165 463442807.55601501 0 0 0 0 5200832.117029178 3070026.6141641848 0 3070026.6141641848 -1454303.7830337882 0 0 0 0 -194476947.37522888 121302849.24510193 0 121302849.24510193 209024351.46017456 0 0 0 0 202142308.89687347 389862886.64229584 0 389862886.64229584 435100555.21422195 0 0 0 0 478796459.596138 809919747.46723938 0 809919747.46723938 1186398704.4215622 0 0 0 0 403346175.06260681 302751648.31612396 0 302751648.31612396 440128088.78897858 0 0 0 0 665047594.84941864 609239981.74808121 0 609239981.74808121 1168845117.6469345 0 0 0 0 985341348.85064697 1200584367.994092 0 1200584367.994092 1169355335.3323975 0 0 0 0 566956385.32534027 1044070070.9720993 0 1044070070.9720993 1842866277.3223093 0 0 0 0 621485945.37489128 1344301711.0121398 0 1344301711.0121398 1285210026.35215 0 0 0 0 1892709.5147699863 1826821.6578026973 0 1826821.6578026973 -803056.59208689258 0 0 0 0 305388632.78365326 1277941508.4048538 0 1277941508.4048538 2111918832.3136749 0 0 0 0 727805856.73802948 963687541.68750381 0 963687541.68750381 910289235.53039551 0 0 0 0 136178310.3646965 374020391.70070648 0 374020391.70070648 752648446.64284134 0 0 0 0 642827074.87973785 1069261598.6213093 0 1069261598.6213093 1450200041.8770676 0 0 0 0 398181340.41444397 818723731.64047241 0 818723731.64047241 1309958057.5467529 0 0 0 0 505932642.17694092 998321469.50405884 0 998321469.50405884 1075961572.1448212 0 0 0 0 129719440.59339905 430009572.96022797 0 430009572.96022797 893508511.12782288 0 0 0 0 673351288.75533295 970383378.35096359 0 970383378.35096359 1173511320.6788836 0 0 0 0 416185643.28150177 855031170.58703995 0 855031170.58703995 1203492495.4561462 0 0 0 0 471575466.1555748 796539280.27877808 0 796539280.27877808 1394278392.7868271 0 0 0 0 555761141.89987183 1275530132.132988 0 1275530132.132988 1744872505.6747713 0 0 0 0 842708166.70500183 1204913860.0939331 0 1204913860.0939331 2057738433.4550943 0 0 0 0 3296989.9288995788 2719004.6880740821 0 2719004.6880740821 -616491.38366720825 0 0 0 0 728703551.69033813 1408747778.1826019 0 1408747778.1826019 1726863078.728157 0 0 0 0 667813575.53082275 1080989518.3077545 0 1080989518.3077545 2042273391.1125946 0 0 0 0 697784976.22496033 998239578.67847443 0 998239578.67847443 1943880461.7789764 0 0 0 0 542736400.92193604 1178686455.0660591 0 1178686455.0660591 2393757941.2267761 0 0 0 0 13101812.093063056 2078724.1501832344 0 2078724.1501832344 -695654.71778829023 0 0 0 0 41515151.524841309 129940317.09289551 0 129940317.09289551 -635851004.62213516 0 0 0 0 21734780.955412772 1440898.5095719919 0 1440898.5095719919 -1749124.8412872059 0 0 0 0 468674246.75881195 468833820.93049622 0 468833820.93049622 909454952.83903503 0 0 0 0 108728500.35115814 887134881.39676666 0 887134881.39676666 2231982520.3305435 0 0 0 0 226175776.35499573 142474736.82123756 0 142474736.82123756 -814253040.70819473 0 0 0 0 -248864385.48965454 101747345.39300156 0 101747345.39300156 -5955272.243478775 0 0 0 0 65064021.362167358 -37609261.289842606 0 -37609261.289842606 -190541537.05295944 0 0 0 0 32193832.887626648 179308330.66105652 0 179308330.66105652 -174614820.77062988 0 0 0 0 -102709804.93327713 236179964.8082962 0 236179964.8082962 129254628.43262482 0 0 0 0 -171548511.66959381 367520117.15902853 0 367520117.15902853 706691754.73695374 0 0 0 0 -1702176.8140198961 -596414.55161510035 0 -596414.55161510035 953202.192711059 0 0 0 0 -393995958.37440491 305680771.71679688 0 305680771.71679688 223511903.19381714 0 0 0 0 -44677072.032150269 47592728.001888275 0 47592728.001888275 230964586.84441185 0 0 0 0 -238087178.06933594 -80970475.166553497 0 -80970475.166553497 146480604.61281967 0 0 0 0 -311941.91406440735 153648694.75553226 0 153648694.75553226 -157202306.29053497 0 0 0 0 -240066212.36132812 -103548588.47676659 0 -103548588.47676659 -285603337.53329849 0 0 0 0 55879903.124725342 69152212.232513428 0 69152212.232513428 -677595679.23192024 0 0 0 0 110743496.05296326 -3021730.3872337341 0 -3021730.3872337341 -867926617.10930824 0 0 0 0 226663540.28395844 199855816.84401512 0 199855816.84401512 81895521.619499207 0 0 0 0 -39607114.27772522 15340306.430877686 0 15340306.430877686 444828186.97118187 0 0 0 0 118570745.64927673 273750460.2217865 0 273750460.2217865 609914151.53373718 0 0 0 0 -2727143.8163310438 -522508.82910561934 0 -522508.82910561934 1474750.1000445317 0 0 0 0 142532871.10112 29889671.775276184 0 29889671.775276184 229128855.34159088 0 0 0 0 130166842.91697311 125373048.18687153 0 125373048.18687153 -420468993.27631378 0 0 0 0 -38332244.802246094 -120396595.60550117 0 -120396595.60550117 537031025.24102402 0 0 0 0 -6778468.8810536861 1507674.3412479796 0 1507674.3412479796 349839.48096636403 0 0 0 0 117671749.11192322 59362294.158496857 0 59362294.158496857 178565589.52886963 0 0 0 0 131557386.77768707 -42301626.463533401 0 -42301626.463533401 139711825.54760551 0 0 0 0 -1296921.2628853694 684802.14483386278 0 684802.14483386278 1446315.9521036893 0 0 0 0 66892876.32800293 -128152287.46164322 0 -128152287.46164322 -258282436.53645897 0 0 0 0 -74395757.358901978 -371492295.74058914 0 -371492295.74058914 14261136.314876556 0 0 0 0 -378037567.35658646 402996560.372262 0 402996560.372262 540485111.14377975 0 0 0 0 -53511810.879714966 60736866.504476547 0 60736866.504476547 -42775164.232284546 0 0 0 0 -9785610.4072612002 3090233.8900424596 0 3090233.8900424596 807375.16449760413 0 0 0 0 -53975123.078964233 146703597.83310699 0 146703597.83310699 350519103.00690079 0 0 0 0 -28668848.924026489 28882417.405544281 0 28882417.405544281 38251287.500230789 0 0 0 0 -10887930.315881729 4998085.3775150143 0 4998085.3775150143 1753390.2880654419 0 0 0 0 5732959.3487319946 9543530.5304012299 0 9543530.5304012299 -660913.23865890503 0 0 0 0 22525599.442672729 108189132.03757668 0 108189132.03757668 65591355.805641174 0 0 0 0 60297320.621917725 45639038.338041306 0 45639038.338041306 61200575.934364319 0 0 0 0 49244423.585678101 108420868.65206528 0 108420868.65206528 -12359691.746299744 0 0 0 0 2913637.5286026001 66241827.927442551 0 66241827.927442551 64924229.254966736 0 0 0 0 21520620.906387329 75816608.409809113 0 75816608.409809113 -2919446.3316955566 0 0 0 0 185795544.67885017 232303136.08284235 0 232303136.08284235 -30546401.08000946 0 0 0 0 52358522.863586426 -61613156.967777252 0 -61613156.967777252 -202222861.40331268 0 0 0 0 -2517279.3495078161 3963524.1752846576 0 3963524.1752846576 3441494.5059648827 0 0 0 0 -50242594.06960535 112267514.45594156 0 112267514.45594156 124023097.01065063 0 0 0 0 30257809.042373657 64219840.650653839 0 64219840.650653839 47735994.146141052 0 0 0 0 31193957.977172852 31528522.42754364 0 31528522.42754364 -99405474.637638092 0 0 0 0 -159769.86052370071 12075841.403179452 0 12075841.403179452 3579349.5074254163 0 0 0 0 -25668981.369934082 42259322.48443985 0 42259322.48443985 -10350428.353820801 0 0 0 0 33307587.061012268 35597051.378919601 0 35597051.378919601 4855247.5551528931 0 0 0 0 51757434.317565918 28820986.934806824 0 28820986.934806824 -14435635.118621826 0 0 0 0 56340175.569328308 32155244.849161148 0 32155244.849161148 -48896256.44960022 0 0 0 0 37373694.004753113 68162621.568321228 0 68162621.568321228 -11765918.625267029 0 0 0 0 35146099.132461548 78664670.256523132 0 78664670.256523132 71106622.204490662 0 0 0 0 39951607.171951294 12106941.198432922 0 12106941.198432922 -26550857.610412598 0 0 0 0 14875820.343684129 8818765.7702894472 0 8818765.7702894472 -252683.08437786624 0 0 0 0 76626615.861934662 1548001.4592533112 0 1548001.4592533112 -20894394.88053894 0 0 0 0 5429627.3073766818 3856671.4556783438 0 3856671.4556783438 -2259142.0208153203 0 0 0 0 3219070.1316375732 36938028.845230103 0 36938028.845230103 24230882.01190567 0 0 0 0 8279364.0627832301 20422144.530318677 0 20422144.530318677 9723882.3679993153 0 0 0 0 25291283.334888458 70830815.200702667 0 70830815.200702667 36696645.617801666 0 0 0 0 4928328.0728755295 12692550.262359494 0 12692550.262359494 7188674.4301411659 0 0 0 0 32486541.480949804 12620559.092582606 0 12620559.092582606 -3866883.3108941093 0 0 0 0 -38070303.900184631 69919342.33435154 0 69919342.33435154 20910575.954162598 0 0 0 0 94226886.641204834 17908708.750289917 0 17908708.750289917 9943809.2560157776 0 0 0 0 32595641.890274048 11919330.497810364 0 11919330.497810364 25325663.974765778 0 0 0 0 5170998.7461363561 4905895.3237808533 0 4905895.3237808533 -1669968.2578793205 0 0 0 0 3979867.9396505132 1733474.2348221503 0 1733474.2348221503 -381061.2277530916 0 0 0 0 5092537.4918818548 8325826.6060809046 0 8325826.6060809046 4295260.6043111682 0 0 0 0 8236155.7718353271 8752257.2338790894 0 8752257.2338790894 2767106.5823669434 0 0 0 0 -13593329.807706833 13322716.314727783 0 13322716.314727783 14453191.846588135 0 0 0 0 6816403.3725679759 18995880.189651933 0 18995880.189651933 6717374.6614284851 0 0 0 0 7367161.0369644165 22799654.694374084 0 22799654.694374084 12896376.438941002 0 0 0 0 52501978.08883667 72167029.139129639 0 72167029.139129639 101411654.1056366 0 0 0 0 25192075.180305481 38847447.31694603 0 38847447.31694603 -28780589.106956482 0 0 0 0 -9910053.8531677499 9933294.8594251499 0 9933294.8594251499 3286902.4880362228 0 0 0 0 115166095.90283203 34633499.935600281 0 34633499.935600281 -176382634.20715332 0 0 0 0 -14177174.016410828 102936252.20849609 0 102936252.20849609 65269743.790054321 0 0 0 0 39356361.198303223 216740057.45770264 0 216740057.45770264 184787202.18994141 0 0 0 0 -12348321.195541382 3778136.588552475 0 3778136.588552475 32450590.292728424 0 0 0 0 2203890.2137696669 4660854.6261295639 0 4660854.6261295639 -2147467.5525708348 0 0 0 0 10283241.225120544 -1131991.1120605469 0 -1131991.1120605469 10984496.111606598 0 0 0 0 -3279271.5774688721 1664524.5362586975 0 1664524.5362586975 -14747414.878347397 0 0 0 0 -17072310.802940369 1959746.527715683 0 1959746.527715683 14914450.118766785 0 0 0 0 -26552842.649353027 32211405.725986481 0 32211405.725986481 -8771931.12474823 0 0 0 0 -34095265.40738678 28179347.042490005 0 28179347.042490005 -3771506.6180591583 0 0 0 0 19246695.235427856 -30703754.18810463 0 -30703754.18810463 41623296.947284698 0 0 0 0 -110136313.3855381 64911902.944085598 0 64911902.944085598 76353009.736930847 0 0 0 0 -78189679.108596802 119502238.10418129 0 119502238.10418129 -37918928.131523132 0 0 0 0 -68674111.222671509 102732321.37008667 0 102732321.37008667 -11268291.67250061 0 0 0 0 -66308453.620887756 136509096.72427559 0 136509096.72427559 -24238897.678874969 0 0 0 0 -26745405.139778137 27379951.701780319 0 27379951.701780319 59260834.891677856 0 0 0 0 -171987062.41321564 131765068.17490387 0 131765068.17490387 48678684.79065156 0 0 0 0 -100281052.12887573 121459833.44297028 0 121459833.44297028 -81418791.940933228 0 0 0 0 -69515153.771026611 150463558.68418884 0 150463558.68418884 -74909982.92506218 0 0 0 0 -65545047.174163818 140930351.24190903 0 140930351.24190903 -133339061.86909866 0 0 0 0 -75052008.573085785 133103313.39320278 0 133103313.39320278 -85375259.388942719 0 0 0 0 -52613220.777160645 96947974.092632294 0 96947974.092632294 -63095466.894076347 0 0 0 0 -105783684.92218542 180368879.93649638 0 180368879.93649638 -122040161.13770676 0 0 0 0 -48335770.626708984 76241857.067861557 0 76241857.067861557 -60253425.791908264 0 0 0 0 -29408258.112722397 108878185.92747974 0 108878185.92747974 -163913517.64990616 0 0 0 0 -35227355.710166931 73311059.881446838 0 73311059.881446838 -76306932.258982658 0 0 0 0 -48796881.485366821 52768835.512033463 0 52768835.512033463 -22509930.440952301 0 0 0 0 -25776040.5001297 19788545.021762848 0 19788545.021762848 -244764.69895553589 0 0 0 0 -15029491.995276928 28257130.976885676 0 28257130.976885676 -29675454.51638031 0 0 0 0 -7338273.5659599304 41429137.215701103 0 41429137.215701103 -76289727.390460968 0 0 0 0 -14105954.04927063 -264755.34107017517 0 -264755.34107017517 -3703175.998632431 0 0 0 0 4439177.5717334747 45543777.471432686 0 45543777.471432686 -107566841.67538834 0 0 0 0 248060.02205657959 30816691.322870255 0 30816691.322870255 -166171703.27920914 0 0 0 0 -27535988.855005264 147788770.12023163 0 147788770.12023163 -272961651.08338165 0 0 0 0 -171042435.23731995 226149517.21850204 0 226149517.21850204 -204718222.85825729 0 0 0 0 -52813073.61190033 81505143.551130295 0 81505143.551130295 -88625208.615621567 0 0 0 0 -9598871.0099105835 165752000.95060349 0 165752000.95060349 -357868047.02517319 0 0 0 0 -58549731.06199646 148002290.33909416 0 148002290.33909416 -342648174.76067734 0 0 0 0 -277145136.44476318 259948765.48110771 0 259948765.48110771 -89538268.272735596 0 0 0 0 -234630976.35260773 341664432.96037483 0 341664432.96037483 -381797946.47454929 0 0 0 0 -109419533.93672943 249209137.7794857 0 249209137.7794857 -346371052.28310776 0 0 0 0 -253825041.21453094 478882879.98970032 0 478882879.98970032 -430359435.0058794 0 0 0 0 -102798029.48013306 97371169.474313736 0 97371169.474313736 360944349.02718925 0 0 0 0 -297982.34456717968 463168.42224610038 0 463168.42224610038 408964.86802264303 0 0 0 0 -142821745.53831482 -22232925.300373077 0 -22232925.300373077 378786992.27238083 0 0 0 0 -84353396.49742794 210879327.89025843 0 210879327.89025843 -228149029.72116852 0 0 0 0 -89332146.840385437 165241869.29642487 0 165241869.29642487 -109422886.20384598 0 0 0 0 -183432554.90847778 299748996.74167633 0 299748996.74167633 -88658011.81810379 0 0 0 0 -180685318.48374176 198919043.29821014 0 198919043.29821014 7716814.6816635132 0 0 0 0 -180149529.23138428 159142670.19216347 0 159142670.19216347 -114214221.34271622 0 0 0 0 -61114069.004714966 175144294.0263443 0 175144294.0263443 -252973689.44129753 0 0 0 0 -314076635.34338379 68824446.492595673 0 68824446.492595673 -91723275.737190247 0 0 0 0 -1968536.1250906587 -855974.48378687352 0 -855974.48378687352 -151835.00874731876 0 0 0 0 -365688424.05029678 -101676583.24845695 0 -101676583.24845695 248282024.59783173 0 0 0 0 -89444537.704885483 221734545.46970987 0 221734545.46970987 -126530085.614048 0 0 0 0 46917027.75402832 -72215905.230934143 0 -72215905.230934143 110407571.80835152 0 0 0 0 -78791970.171279907 -157339394.36267185 0 -157339394.36267185 187416101.87340164 0 0 0 0 -2623333.2749604657 -759111.67669073399 0 -759111.67669073399 781114.25354136014 0 0 0 0 -165752922.9057312 61755271.329301834 0 61755271.329301834 555062164.1536026 0 0 0 0 211161978.19042969 -281781.06097412109 0 -281781.06097412109 -159410457.83194447 0 0 0 0 -850862.87681373954 -179435.69165876415 0 -179435.69165876415 236672.71645662375 0 0 0 0 -171215521.71507072 312716026.57624483 0 312716026.57624483 79933583.223934174 0 0 0 0 -16282332.807159424 128039590.90579605 0 128039590.90579605 97977264.891796112 0 0 0 0 -1600732.3057596833 -802110.42662716657 0 -802110.42662716657 -170387.77449971344 0 0 0 0 -45081916.299293518 30630831.13961792 0 30630831.13961792 170885122.03033638 0 0 0 0 11932780.739120483 84728137.325005531 0 84728137.325005531 -57967678.812103271 0 0 0 0 -6525759.8536834717 148555592.457201 0 148555592.457201 -42485874.101516724 0 0 0 0 26275538.350486755 14261306.07431221 0 14261306.07431221 -139413933.07497787 0 0 0 0 -444645.6870354414 940464.28678169101 0 940464.28678169101 489425.522662431 0 0 0 0 -226500548.80809021 -28843228.435996056 0 -28843228.435996056 16020632.234920502 0 0 0 0 -3971572.5417068005 18199513.177191436 0 18199513.177191436 158599.15001678467 0 0 0 0 19926359.801292419 29181882.378368378 0 29181882.378368378 -34982141.435237885 0 0 0 0 6494064.2964668274 19538599.768468857 0 19538599.768468857 -1773913.5287628174 0 0 0 0 93596266.268875122 -175607387.17170668 0 -175607387.17170668 -13598382.054595947 0 0 0 0 -873103.77246893942 -385051.55655721854 0 -385051.55655721854 -102847.81433670409 0 0 0 0 65417683.953292847 7003002.5501880646 0 7003002.5501880646 -108357870.3992691 0 0 0 0 -230971864.46865082 -176846607.29195595 0 -176846607.29195595 281479014.26866913 0 0 0 0 -74688881.941162109 -49614612.328006744 0 -49614612.328006744 97002713.72756958 0 0 0 0 -200470177.02907562 96661656.670669556 0 96661656.670669556 -30071204.721808434 0 0 0 0 -74820456.605186462 -90699580.849834442 0 -90699580.849834442 -51931782.874166489 0 0 0 0 -156144229.16639709 289851164.87023163 0 289851164.87023163 163930348.03031921 0 0 0 0 -175735083.66542006 -92841293.713525236 0 -92841293.713525236 136570699.99055099 0 0 0 0 108581234.3039856 -82089998.443881989 0 -82089998.443881989 -196915362.26623821 0 0 0 0 183244486.51690674 242709772.2298317 0 242709772.2298317 -220239468.54103851 0 0 0 0 171055996.12854004 146231806.25223541 0 146231806.25223541 64487941.820798397 0 0 0 0 458433621.46775055 439496672.57406235 0 439496672.57406235 83041322.696217895 0 0 0 0 -83029860.09079361 -113138083.78716373 0 -113138083.78716373 -192309171.52913857 0 0 0 0 402282273.18067169 563339222.75834656 0 563339222.75834656 213990431.5905571 0 0 0 0 -2829993.7079758234 2539496.8604590222 0 2539496.8604590222 -747699.26765957102 0 0 0 0 218267.34546460956 -185859.9206298003 0 -185859.9206298003 -573624.60625165328 0 0 0 0 -126215241.12038422 -295518786.66462135 0 -295518786.66462135 154088291.66035843 0 0 0 0 -950071840.75146866 -130593833.27157211 0 -130593833.27157211 121843227.17453766 0 0 0 0 -627588609.61192703 -331767781.95969772 0 -331767781.95969772 -118140162.85293579 0 0 0 0 -1171165.4306001663 1016973.7845619395 0 1016973.7845619395 -350069.31044841185 0 0 0 0 557706480.42935181 191292701.09503078 0 191292701.09503078 -169012931.96069717 0 0 0 0 149351256.37283325 318040877.42292786 0 318040877.42292786 393322630.40881538 0 0 0 0 236041371.87242126 356613457.08397675 0 356613457.08397675 -251863365.4166317 0 0 0 0 -183413863.17598343 362803804.30094051 0 362803804.30094051 -238008390.46918869 0 0 0 0 -511413788.1224823 210142866.03674889 0 210142866.03674889 -20922925.494903564 0 0 0 0 -134926728.03530121 122078799.83658266 0 122078799.83658266 -6254678.8331184387 0 0 0 0 -185391754.91092682 250562358.89792347 0 250562358.89792347 -97981694.625358582 0 0 0 0 41141739.915016174 231866538.36224937 0 231866538.36224937 -164835206.29163361 0 0 0 0 19980987.883926392 95121654.090848923 0 95121654.090848923 -141495106.93990326 0 0 0 0 -136317852.84861755 188498585.20743179 0 188498585.20743179 -150010811.9907589 0 0 0 0 -140109972.99318695 145256611.07236099 0 145256611.07236099 -127115576.79533577 0 0 0 0 -263193807.9500159 41013063.449448854 0 41013063.449448854 -149780286.01401901 0 0 0 0 -258625651.0613327 250942671.45083237 0 250942671.45083237 -99519423.71035099 0 0 0 0 501176.82560544839 561285338.38753474 0 561285338.38753474 593329358.50878143 0 0 0 0 637909.7224598676 -280729.97596832924 0 -280729.97596832924 1198267.837585655 0 0 0 0 104398053.19308472 64660094.957736969 0 64660094.957736969 -392467781.81525612 0 0 0 0 -163906678.68313229 534859660.96720785 0 534859660.96720785 902039443.52558899 0 0 0 0 -157483906.80980682 174488023.11454296 0 174488023.11454296 1806247031.84692 0 0 0 0 92636287.3647995 673073281.85807419 0 673073281.85807419 669522980.15251923 0 0 0 0 147015947.73472404 467320320.31482816 0 467320320.31482816 35178749.769432068 0 0 0 0 -910653428.28533173 -85787892.925605774 0 -85787892.925605774 476912671.7923193 0 0 0 0 -416535.966185214 1408702.8779510893 0 1408702.8779510893 1057814.2893123254 0 0 0 0 222721044.19308853 761152160.07594013 0 761152160.07594013 531101819.54002762 0 0 0 0 794084687.81328964 364986137.36310863 0 364986137.36310863 -234096353.87044144 0 0 0 0 -911261.29007677361 3049416.0343378782 0 3049416.0343378782 2149510.5560563654 0 0 0 0 360222040.29142761 496762275.07075119 0 496762275.07075119 49075873.056869507 0 0 0 0 849957411.29956436 208124387.11225224 0 208124387.11225224 170104006.55310059 0 0 0 0 354155534.317276 232494675.68836594 0 232494675.68836594 238178530.99247551 0 0 0 0 270762509.5184021 56273025.001953125 0 56273025.001953125 621685057.29188538 0 0 0 0 224355728.55256653 151528950.85931015 0 151528950.85931015 724440598.97969055 0 0 0 0 436229890.7744751 134873482.36842728 0 134873482.36842728 620511834.91417694 0 0 0 0 440280858.45958185 365020266.40758705 0 365020266.40758705 792441735.12602234 0 0 0 0 147749956.25692749 465071067.96126556 0 465071067.96126556 1239559547.7765961 0 0 0 0 1328455584.5182419 842378148.23900414 0 842378148.23900414 532768395.12746048 0 0 0 0 -142940233.27197266 43223602.799106598 0 43223602.799106598 1411784501.1501007 0 0 0 0 1668696.9496740699 681310.43091151211 0 681310.43091151211 1418416.7493389742 0 0 0 0 -50991692.59588623 56218070.453842163 0 56218070.453842163 -240841794.03582001 0 0 0 0 -52539734.185523987 133816267.31816483 0 133816267.31816483 1032638899.6000671 0 0 0 0 57456032.959716797 72989217.769622803 0 72989217.769622803 -288621749.62845612 0 0 0 0 58679247.022289276 24630008.994859636 0 24630008.994859636 -96214746.692977905 0 0 0 0 154377952.90290833 45373000.752307892 0 45373000.752307892 637375783.75623512 0 0 0 0 2622596.8982541859 2216179.3114540484 0 2216179.3114540484 1866243.3306593806 0 0 0 0 75768.987243652344 37759891.323091507 0 37759891.323091507 -46654832.474365234 0 0 0 0 -14614192.676452637 12943437.61088562 0 12943437.61088562 646130666.98746872 0 0 0 0 -129824148.78015137 -92602542.020599365 0 -92602542.020599365 573279725.10305786 0 0 0 0 120929429.21801758 61910840.275588989 0 61910840.275588989 655122616.76707458 0 0 0 0 231846572.92764282 51716932.477844238 0 51716932.477844238 636910247.79862976 0 0 0 0 110010433.89823914 2080137.1815261841 0 2080137.1815261841 675593216.5378952 0 0 0 0 -33868177.168914795 -38720879.091545105 0 -38720879.091545105 651041134.78009033 0 0 0 0 230486032.00497437 156603840.20974731 0 156603840.20974731 862633098.8776722 0 0 0 0 165707442.34192657 13364846.98225975 0 13364846.98225975 654655228.99873352 0 0 0 0 -9741215.4107055664 -152486367.96210861 0 -152486367.96210861 623664374.41457367 0 0 0 0 -4451995.2131215036 -255942.22324323654 0 -255942.22324323654 3153517.739285246 0 0 0 0 737283.7438659668 -150467413.62200928 0 -150467413.62200928 544708720.88832092 0 0 0 0 15635440.083709717 -94807796.609069824 0 -94807796.609069824 525782828.82379913 0 0 0 0 14884963.939880371 -96130215.541275024 0 -96130215.541275024 585858010.45028687 0 0 0 0 20681755.243927002 -108854920.28222275 0 -108854920.28222275 608437908.52576447 0 0 0 0 67815171.481384277 15265007.328414917 0 15265007.328414917 675873035.54356384 0 0 0 0 41028595.173057556 -115360932.63855839 0 -115360932.63855839 588176282.33039856 0 0 0 0 26596129.852996826 -124002107.97316742 0 -124002107.97316742 600784349.73195648 0 0 0 0 27846218.988647461 -128891599.83210754 0 -128891599.83210754 572848160.61713791 0 0 0 0 43240650.907104492 -93011882.638187408 0 -93011882.638187408 584899657.61252594 0 0 0 0 -19087279.696716309 -46754989.613494873 0 -46754989.613494873 654810845.50512695 0 0 0 0 -199203099.16040039 -130643677.12995911 0 -130643677.12995911 615949446.29850769 0 0 0 0 -28312378.138793945 -180016496.42823792 0 -180016496.42823792 543675970.18286133 0 0 0 0 119526220.20965576 -85067243.470794678 0 -85067243.470794678 488346922.99382019 0 0 0 0 -47673838.094696045 -273604164.62560272 0 -273604164.62560272 452506779.394104 0 0 0 0 23649142.0390625 -162586270.15145874 0 -162586270.15145874 549290426.77407837 0 0 0 0 65458.72716037184 54084.356680741534 0 54084.356680741534 -131187.57664413005 0 0 0 0 161316254.89245605 -179769385.2739563 0 -179769385.2739563 386694642.46429443 0 0 0 0 8095519.7133483887 -128594908.21559143 0 -128594908.21559143 587289343.77689362 0 0 0 0 26304772.998199463 -186613086.92235947 0 -186613086.92235947 580640097.63517284 0 0 0 0 -26191224.563415527 -135022171.81692505 0 -135022171.81692505 571096613.91978264 0 0 0 0 114989859.52770996 -5424914.9914550781 0 -5424914.9914550781 494393230.09429169 0 0 0 0 78029295.457138062 -175879319.25161362 0 -175879319.25161362 527601641.60889816 0 0 0 0 29147093.018241882 -40522307.296382904 0 -40522307.296382904 245142355.24784088 0 0 0 0 12914378.593231201 -131729222.28921509 0 -131729222.28921509 476407944.48293304 0 0 0 0 46479779.117980957 -134147789.22319794 0 -134147789.22319794 488211177.10918427 0 0 0 0 -76935688.496826172 -91599725.995956421 0 -91599725.995956421 507749684.33961868 0 0 0 0 -112465040.87259769 -2499560.6156518459 0 -2499560.6156518459 447890110.66523743 0 0 0 0 -86129451.544181824 148427403.13619709 0 148427403.13619709 240783597.82453918 0 0 0 0 42052844.88923645 -69844273.646816254 0 -69844273.646816254 398418690.28444672 0 0 0 0 217466566.91073608 232560862.04503632 0 232560862.04503632 243317478.98260498 0 0 0 0 91657991.627792358 48524132.8166008 0 48524132.8166008 717122348.89408875 0 0 0 0 115245147.16427612 34863302.847808838 0 34863302.847808838 540345874.14884377 0 0 0 0 211438999.31736755 285692478.2830162 0 285692478.2830162 637093399.02548456 0 0 0 0 318670378.81683826 441730281.8837657 0 441730281.8837657 -186972755.09449768 0 0 0 0 308788821.93215942 373301996.82381058 0 373301996.82381058 -189081219.15525436 0 0 0 0 88274346.756523132 509571905.89950848 0 509571905.89950848 -76977421.754608154 0 0 0 0 -32136392.325775146 73551053.052240372 0 73551053.052240372 142146763.57701492 0 0 0 0 -509761367.26311493 -180864901.33791733 0 -180864901.33791733 231566693.73598099 0 0 0 0 -208849361.47182274 523099088.66067457 0 523099088.66067457 -274038907.02867126 0 0 0 0 -78954.527297280729 155993.2662799824 0 155993.2662799824 12427.00012563169 0 0 0 0 26746790.960990906 684952968.78800964 0 684952968.78800964 -898910428.37762451 0 0 0 0 -2408026.9391255453 311709.78459521197 0 311709.78459521197 77184.813772133552 0 0 0 0 -20983255.612455368 294641638.66739988 0 294641638.66739988 -1258968920.2534256 0 0 0 0 -330962470.29688263 703140924.10163307 0 703140924.10163307 -490192486.58346558 0 0 0 0 -136858681.4577713 317428735.841856 0 317428735.841856 -135535834.91796684 0 0 0 0 -418170.90827097744 639918.20525095053 0 639918.20525095053 479101.15347899869 0 0 0 0 16798711.876449585 -31911943.136566162 0 -31911943.136566162 -113229684.52884483 0 0 0 0 -265035626.01203156 -10352145.549898148 0 -10352145.549898148 244671881.67780304 0 0 0 0 -27952259.361022949 25782699.756308556 0 25782699.756308556 243276595.81201172 0 0 0 0 -39369227.240905762 -120107146.96352768 0 -120107146.96352768 425315491.92756653 0 0 0 0 -106551466.4444046 -32225488.396259308 0 -32225488.396259308 558970392.57389832 0 0 0 0 -12588938.073425293 48658410.12820816 0 48658410.12820816 601792742.50473022 0 0 0 0 -36549785.568161011 -33843519.644195557 0 -33843519.644195557 125260713.44252777 0 0 0 0 -2055355.9446105957 135701466.88387108 0 135701466.88387108 327243009.36989212 0 0 0 0 16465913.473007202 -196258774.08023453 0 -196258774.08023453 519583108.532341 0 0 0 0 -503349.55274984241 -336391.52126352116 0 -336391.52126352116 -107565.68057347741 0 0 0 0 120877085.04540253 2732901.0650310516 0 2732901.0650310516 186064782.89338684 0 0 0 0 -121131218.84759521 129222900.34018326 0 129222900.34018326 -83731854.527313232 0 0 0 0 -146050563.30671692 -103260148.46765518 0 -103260148.46765518 734170215.64070511 0 0 0 0 -4039477.8435269222 -1173790.30259455 0 -1173790.30259455 1554205.7529729744 0 0 0 0 -472434108.57400513 -73348237.169586182 0 -73348237.169586182 190177541.80571461 0 0 0 0 -314889238.21630859 43929619.670711517 0 43929619.670711517 41761445.974334717 0 0 0 0 -157126679.51499176 -305364367.30298233 0 -305364367.30298233 -26427070.846755981 0 0 0 0 -74242585.892471313 -6494413.5985183716 0 -6494413.5985183716 31023962.652611732 0 0 0 0 -37136048.616371155 13134917.325162888 0 13134917.325162888 22401865.575748444 0 0 0 0 -113055600.44527054 50540197.249054909 0 50540197.249054909 33399179.564544678 0 0 0 0 -26122323.876342773 61922180.096477509 0 61922180.096477509 -51579843.089244843 0 0 0 0 -7045111.257019043 20155451.958673477 0 20155451.958673477 35123430.85068512 0 0 0 0 -1131470.8589057922 87162558.971038818 0 87162558.971038818 28841687.162567139 0 0 0 0 -34461707.29989624 54453469.220773697 0 54453469.220773697 1814131.4989318848 0 0 0 0 -4757199.5178222656 29785561.535842896 0 29785561.535842896 4365367.9946165085 0 0 0 0 -35189306.991012573 47115441.008796692 0 47115441.008796692 33138161.03447175 0 0 0 0 -21907389.478233337 19522547.117588043 0 19522547.117588043 8102822.771446228 0 0 0 0 -4077462.8185272217 16105376.562427521 0 16105376.562427521 5926584.0032119751 0 0 0 0 -16439115.723014832 5295492.4239597321 0 5295492.4239597321 26861965.410159588 0 0 0 0 -9040124.3004226685 14378753.878326654 0 14378753.878326654 7375472.1710281372 0 0 0 0 -121379.04269222543 4605993.5436273236 0 4605993.5436273236 9702870.5969899334 0 0 0 0 -55554478.245983124 20245613.447104454 0 20245613.447104454 27740701.817985535 0 0 0 0 -7412069.3365936279 4454658.8704051971 0 4454658.8704051971 18697202.857870102 0 0 0 0 8419667.0903205872 21058790.009632587 0 21058790.009632587 26015014.033777237 0 0 0 0 187570.9235458374 7149964.5476613045 0 7149964.5476613045 5523848.5388946533 0 0 0 0 -3350241.7822723389 16522160.981171608 0 16522160.981171608 9746439.0146512985 0 0 0 0 -1540032.5306455418 5701822.8112896942 0 5701822.8112896942 1446573.3816057909 0 0 0 0 -61027695.788414001 10941357.155187607 0 10941357.155187607 13192336.622436523 0 0 0 0 -39055894.457138062 15665284.121496201 0 15665284.121496201 10939990.633878708 0 0 0 0 -5605372.7560119629 -81842540.428805351 0 -81842540.428805351 -6674389.700958252 0 0 0 0 -129145.73716371134 5319210.0309989117 0 5319210.0309989117 9944033.3278871048 0 0 0 0 18161223.955322266 -18892375.250061035 0 -18892375.250061035 18351606.144523621 0 0 0 0 -101972.93367329612 945641.62248244882 0 945641.62248244882 1593956.5198760927 0 0 0 0 138095699.29786682 99753900.808380127 0 99753900.808380127 69208668.017089844 0 0 0 0 144511673.86923218 49585689.647029877 0 49585689.647029877 1911931.2183799744 0 0 0 0 141419881.28509521 -16550566.938682556 0 -16550566.938682556 -32231262.776954651 0 0 0 0 -44016864.780426025 -119574668.43206787 0 -119574668.43206787 -56095515.526702881 0 0 0 0 137785894.20010376 -260826727.25080109 0 -260826727.25080109 -76321438.845516205 0 0 0 0 326544514.22283936 -93565178.110954285 0 -93565178.110954285 -107157322.42763138 0 0 0 0 2663984.0791345425 6718247.2176317312 0 6718247.2176317312 4612991.7079008296 0 0 0 0 4625177.9632492065 8264679.8751869202 0 8264679.8751869202 12598951.324363708 0 0 0 0 -11650302.008789062 9520064.4595985413 0 9520064.4595985413 -5164908.5451965332 0 0 0 0 -14894364.183864594 30189675.634535789 0 30189675.634535789 -25918047.305511475 0 0 0 0 -28673209.420227051 55793693.735912323 0 55793693.735912323 -4319936.0011329651 0 0 0 0 -66176633.528015137 75985562.315467834 0 75985562.315467834 11059398.825852394 0 0 0 0 -64587760.769866943 62094528.313716888 0 62094528.313716888 3743935.5965614319 0 0 0 0 -50367805.589065552 36884547.6289711 0 36884547.6289711 5278845.9106936455 0 0 0 0 -27135367.273345947 34114812.510215759 0 34114812.510215759 5547756.5963478088 0 0 0 0 -13890868.823974609 32316171.948631287 0 32316171.948631287 -34634658.6407547 0 0 0 0 -14577096.170349121 45243081.419799805 0 45243081.419799805 -48495216.218322754 0 0 0 0 -32163755.975280762 46777972.972061157 0 46777972.972061157 -22572361.654685974 0 0 0 0 6274902.5009155273 60800968.678592682 0 60800968.678592682 -37675887.829444885 0 0 0 0 -41343210.856277466 78224030.087177277 0 78224030.087177277 -38289766.235481262 0 0 0 0 -60000608.668045044 171237525.68544006 0 171237525.68544006 -104414781.48101807 0 0 0 0 -19798024.233459473 108198722.21102142 0 108198722.21102142 -99003829.594483614 0 0 0 0 -52184334.580339432 133189747.41525149 0 133189747.41525149 32046908.028755188 0 0 0 0 -32176516.137084961 120869889.09383011 0 120869889.09383011 -21706610.321304321 0 0 0 0 -44118754.673706055 96887670.268363953 0 96887670.268363953 -279442.77353668213 0 0 0 0 -42025282.886856079 92771715.930850983 0 92771715.930850983 5780083.8143539429 0 0 0 0 -64745649.115081787 111565166.5646553 0 111565166.5646553 20707236.926704407 0 0 0 0 -69621277.540618896 91811440.317855835 0 91811440.317855835 54867340.178073883 0 0 0 0 -51852173.754432678 67367373.534330368 0 67367373.534330368 32129927.219591141 0 0 0 0 -87623411.193023682 59041057.738668442 0 59041057.738668442 53556339.747505188 0 0 0 0 -60774985.434448242 15326508.585521698 0 15326508.585521698 40387161.998998642 0 0 0 0 -87984256.104183197 34179329.567001238 0 34179329.567001238 27330697.037231445 0 0 0 0 -50834157.07749939 40909042.552927017 0 40909042.552927017 25841428.699378967 0 0 0 0 -193256968.35710907 -52299571.471734047 0 -52299571.471734047 9701394.4006080627 0 0 0 0 -833190.19149323925 2940178.4499929771 0 2940178.4499929771 225114.44718857855 0 0 0 0 41774477.378700256 45669092.265694618 0 45669092.265694618 2834506.4994392395 0 0 0 0 -13707731.467987061 6644603.7545471191 0 6644603.7545471191 19841155.26200676 0 0 0 0 -312508.51208718866 892912.35296535492 0 892912.35296535492 40455.993817323819 0 0 0 0 -402950616.7015686 -312340675.7539978 0 -312340675.7539978 25947141.815628886 0 0 0 0 -168998783.58740234 3533126.4548187256 0 3533126.4548187256 -9649899.2475070953 0 0 0 0 -164702661.09862709 62385675.746446848 0 62385675.746446848 81424755.851947784 0 0 0 0 108429663.03138733 151930628.33718491 0 151930628.33718491 57918523.21660614 0 0 0 0 -152248326.38102913 141280676.24133003 0 141280676.24133003 205064448.69050598 0 0 0 0 283849539.53208923 -50497132.212108612 0 -50497132.212108612 78243015.678835869 0 0 0 0 318619356.30127716 -375324025.26602173 0 -375324025.26602173 486643767.78376889 0 0 0 0 1539773.1681598425 -134836.88724686019 0 -134836.88724686019 -674801.62444909848 0 0 0 0 53545004.168182373 35617258.524927616 0 35617258.524927616 375451650.86861801 0 0 0 0 1811331.699760437 218149742.50589943 0 218149742.50589943 23822748.764450073 0 0 0 0 91671759.605308533 21250115.040510178 0 21250115.040510178 30449155.190933466 0 0 0 0 124936.03628540039 111647421.88012505 0 111647421.88012505 99978971.733613968 0 0 0 0 -1700407.232853923 -22276.433841127902 0 -22276.433841127902 1623385.2151908726 0 0 0 0 85026145.248458862 46128063.860492706 0 46128063.860492706 49927878.062747955 0 0 0 0 -53844382.938510418 107346882.66089651 0 107346882.66089651 47596543.280719757 0 0 0 0 -958415.88538438082 29124.228093769401 0 29124.228093769401 815229.70567473397 0 0 0 0 -61764277.155719757 100443438.3631978 0 100443438.3631978 61509438.111030579 0 0 0 0 36061073.132789612 135578442.76220703 0 135578442.76220703 -201856426.09624004 0 0 0 0 68031069.434915543 -34130436.396270514 0 -34130436.396270514 -185131007.02455139 0 0 0 0 -132022.38314056396 98452271.693681717 0 98452271.693681717 -166842342.44064713 0 0 0 0 -25461579.314628601 -21806155.05916214 0 -21806155.05916214 46880392.99376297 0 0 0 0 -9763361.7662506104 -120398116.36768866 0 -120398116.36768866 141175445.28883243 0 0 0 0 1739589.726838097 -982875.41462985054 0 -982875.41462985054 -1458790.1173846065 0 0 0 0 46867558.898483276 -41765978.230113983 0 -41765978.230113983 117431340.63482094 0 0 0 0 -17309.756729125977 -9745235.8349227905 0 -9745235.8349227905 23557575.328364611 0 0 0 0 -20529389.474090576 1267995.5106201172 0 1267995.5106201172 27973353.000380516 0 0 0 0 888052.96180617809 103954.81087920256 0 103954.81087920256 -819044.78704354074 0 0 0 0 -15001321.989990234 15483507.452475548 0 15483507.452475548 3386022.0212249756 0 0 0 0 -19771672.487400055 6186394.4335432053 0 6186394.4335432053 -14568882.561008453 0 0 0 0 2499523.6821594238 -35939533.001970291 0 -35939533.001970291 53503694.788412094 0 0 0 0 1683526.1309503466 179670.47757028416 0 179670.47757028416 -1606505.1732803229 0 0 0 0 166977.53057098389 61924192.808636665 0 61924192.808636665 51565635.431056499 0 0 0 0 -25322149.597000122 22083102.420908928 0 22083102.420908928 -46456032.132601976 0 0 0 0 52903.466255520172 66611857.89151755 0 66611857.89151755 17119873.04224205 0 0 0 0 -69118.24909058855 51372627.592372902 0 51372627.592372902 -60975660.222146988 0 0 0 0 -27802143.035741806 78206530.282513857 0 78206530.282513857 -53082448.386692047 0 0 0 0 1429961.5840619653 763895.97558315285 0 763895.97558315285 791789.06212267559 0 0 0 0 108013814.06944358 159860551.73678297 0 159860551.73678297 38744858.867408752 0 0 0 0 90565372.563217163 -712652269.92164516 0 -712652269.92164516 316027939.96029091 0 0 0 0 -246944269.77555847 153984676.63596058 0 153984676.63596058 211532763.92260933 0 0 0 0 -59300292.261459351 73319956.548261642 0 73319956.548261642 -2685752.5494370461 0 0 0 0 -40954885.077003479 -229434291.04965019 0 -229434291.04965019 455252570.31929207 0 0 0 0 1878082.9532622918 2506608.0600050706 0 2506608.0600050706 2900129.338664786 0 0 0 0 -46811401.729263306 18574615.864499092 0 18574615.864499092 711099.41395950317 0 0 0 0 -45568083.877784729 63596139.377853394 0 63596139.377853394 -33702632.1916399 0 0 0 0 -3806162.1583480835 9175156.1838960648 0 9175156.1838960648 -5238377.7985248566 0 0 0 0 -29689172.221061707 5799381.6780004501 0 5799381.6780004501 28211752.175653458 0 0 0 0 -4740948.3753051758 22996877.510027885 0 22996877.510027885 38568980.041217804 0 0 0 0 -3344092.4713897705 17179687.341880798 0 17179687.341880798 -22221566.858862877 0 0 0 0 -41065746.690818787 37134380.399909496 0 37134380.399909496 7698043.4980392456 0 0 0 0 -2463461.1103668213 -56779140.881484032 0 -56779140.881484032 177202565.65307045 0 0 0 0 3002614.0375181511 4746421.3790329844 0 4746421.3790329844 4842771.7421820192 0 0 0 0 -13836255.848388672 -26596925.027961731 0 -26596925.027961731 98606629.285297394 0 0 0 0 -13558142.704055786 -4326130.7177419662 0 -4326130.7177419662 165382012.12649965 0 0 0 0 -475855.26822859049 464129.47924685385 0 464129.47924685385 747877.24297670089 0 0 0 0 17497523.263457298 4213946.7067676783 0 4213946.7067676783 90099162.125335693 0 0 0 0 -13787827.314098358 2784304.9017262459 0 2784304.9017262459 42404701.361789703 0 0 0 0 800826.89067840576 664638.9868183136 0 664638.9868183136 22159013.680644989 0 0 0 0 1259264.9504699707 4833680.5525733232 0 4833680.5525733232 14323718.407764435 0 0 0 0 -1343278.7997608632 1003208.5630490701 0 1003208.5630490701 2345682.1340948399 0 0 0 0 -5436788.4206619263 382877.93288612366 0 382877.93288612366 29593459.774744034 0 0 0 0 -8559570.3365974426 -16203855.363340855 0 -16203855.363340855 80350417.965433121 0 0 0 0 -8217154.8969726562 4930224.9322185516 0 4930224.9322185516 14104601.564744949 0 0 0 0 33767370.343727112 -15693780.346904755 0 -15693780.346904755 21630978.645310283 0 0 0 0 -2019488.675081335 1869193.7100034654 0 1869193.7100034654 4634500.9715826232 0 0 0 0 -52361.466979980469 2204457.2034387589 0 2204457.2034387589 14648024.867835999 0 0 0 0 -9997920.8603820801 1522415.6679515839 0 1522415.6679515839 16405255.986097336 0 0 0 0 -1851001.0012817383 12440574.101974487 0 12440574.101974487 4208441.3745126724 0 0 0 0 -8107794.9044494629 6186718.1134576797 0 6186718.1134576797 15800018.170417786 0 0 0 0 -662129.60885116458 4365161.3135464862 0 4365161.3135464862 9095594.7994570136 0 0 0 0 -2095891.4784498215 14314368.7221632 0 14314368.7221632 1321776.2414779663 0 0 0 0 13878452.40297699 -3212050.7149066925 0 -3212050.7149066925 6598991.654460907 0 0 0 0 -7995050.7670898438 24156478.962743759 0 24156478.962743759 -196649413.82329559 0 0 0 0 -4905534.9111194126 1743315.2939634416 0 1743315.2939634416 9970405.4739421401 0 0 0 0 -12269605.508350372 -820149.14074468613 0 -820149.14074468613 146553663.65196991 0 0 0 0 -653129.83299783617 741933.64497582242 0 741933.64497582242 1746375.4325312898 0 0 0 0 -3559797.2414054871 -24366272.53465414 0 -24366272.53465414 137099610.6836853 0 0 0 0 48185484.962117195 -15441890.748015642 0 -15441890.748015642 119003716.24277496 0 0 0 0 10710903.881217718 4688156.7187664509 0 4688156.7187664509 136337833.84316254 0 0 0 0 482510.70700645447 -22200231.733033657 0 -22200231.733033657 276623925.43985367 0 0 0 0 58940927.281799316 -85342484.43378067 0 -85342484.43378067 168938025.28126717 0 0 0 0 8624429.0879554749 -58942203.912747651 0 -58942203.912747651 173907881.78489685 0 0 0 0 -16306020.486282349 -39686513.207749367 0 -39686513.207749367 163918687.47698975 0 0 0 0 -20782513.345947266 -8645997.1990680695 0 -8645997.1990680695 165693151.37380099 0 0 0 0 1719312.4132328033 -21632998.090428114 0 -21632998.090428114 162551603.57727051 0 0 0 0 22258639.735916138 75518052.855812073 0 75518052.855812073 124304265.50286388 0 0 0 0 665737.17357371375 684579.74988731742 0 684579.74988731742 851615.73041018471 0 0 0 0 -62052069.781410217 -178550687.2455225 0 -178550687.2455225 97807695.059391022 0 0 0 0 20773584.673416138 74358974.227594376 0 74358974.227594376 227087646.10537434 0 0 0 0 21429326.42906189 97100542.628166199 0 97100542.628166199 -9442622.4290733337 0 0 0 0 -64211788.070266724 49289841.030223846 0 49289841.030223846 77368673.017051697 0 0 0 0 -30495689.373092651 70873756.645053864 0 70873756.645053864 91183238.751296997 0 0 0 0 6389273.4435882568 3211009.9143409729 0 3211009.9143409729 26957723.203300476 0 0 0 0 -91246875.849067688 3303421.531329155 0 3303421.531329155 8993264.3443946838 0 0 0 0 583167.69237932935 2904211.9387397207 0 2904211.9387397207 4172559.0781909488 0 0 0 0 -1539467.8053854108 6387537.4455554197 0 6387537.4455554197 8513622.2084128093 0 0 0 0 -912357.88163757324 8678889.1049861908 0 8678889.1049861908 -408557.66954994202 0 0 0 0 -22959956.710256577 45070426.676056385 0 45070426.676056385 -21739025.653636932 0 0 0 0 -23288663.379310608 46979405.03112793 0 46979405.03112793 13866390.294978142 0 0 0 0 -3108893.5667629242 9290122.1049079895 0 9290122.1049079895 897834.20462417603 0 0 0 0 -3165025.313457489 8439196.1491794586 0 8439196.1491794586 1012823.2732715607 0 0 0 0 4313991.8832702488 8984116.7727729697 0 8984116.7727729697 2253399.2976626493 0 0 0 0 7037292.7864227295 18594487.879127979 0 18594487.879127979 4300531.6256623268 0 0 0 0 -5116907.6368255615 29972237.489787459 0 29972237.489787459 -22333344.504969835 0 0 0 0 10077433.635040283 22869494.977236032 0 22869494.977236032 -26902314.516070604 0 0 0 0 -322423.97981643677 5898964.3334407806 0 5898964.3334407806 1765776.1646747589 0 0 0 0 715102.87520599365 7036879.9573922157 0 7036879.9573922157 -380166.70149040222 0 0 0 0 5202871.0792381391 5091820.2473361567 0 5091820.2473361567 -116450.54788960703 0 0 0 0 3026696.227355957 1304376.5918484926 0 1304376.5918484926 -13778644.877514482 0 0 0 0 11957596.548171997 15935440.489688039 0 15935440.489688039 -48055037.703183889 0 0 0 0 -21039882.462043762 37331625.034904778 0 37331625.034904778 -40531015.463123083 0 0 0 0 -411302.44385650009 833143.0848177392 0 833143.0848177392 1807086.6989462685 0 0 0 0 -21379704.343856812 20658457.942822218 0 20658457.942822218 -5417171.4140062332 0 0 0 0 -44806478.708686829 32901564.6563133 0 32901564.6563133 -9069256.9184751511 0 0 0 0 201935.37682531029 922704.91154351458 0 922704.91154351458 1104583.4046605353 0 0 0 0 -9620994.2796382904 -2659987.1684567928 0 -2659987.1684567928 21631246.691944122 0 0 0 0 -1437007.0670623779 896643.2902173996 0 896643.2902173996 16255095.272447586 0 0 0 0 618743.3747218959 6542992.6517888717 0 6542992.6517888717 6804534.6005912693 0 0 0 0 -1232929.5449666977 7349337.1477299929 0 7349337.1477299929 1208272.9360637665 0 0 0 0 -5731655.2126693726 4771539.8548707962 0 4771539.8548707962 11751288.169108391 0 0 0 0 11416870.576324463 26655990.981561661 0 26655990.981561661 51888907.473080635 0 0 0 0 3759343.3390128314 7245699.6157294167 0 7245699.6157294167 6613912.3347648373 0 0 0 0 -19835139.257400513 18259341.921181202 0 18259341.921181202 8171916.6548137665 0 0 0 0 -19037201.690730572 2484651.8643320054 0 2484651.8643320054 21453185.961043358 0 0 0 0 -1694376.7992553711 4596557.2852487564 0 4596557.2852487564 6985668.736174494 0 0 0 0 -20311548.318618774 10988202.832181454 0 10988202.832181454 37055200.224617958 0 0 0 0 11485360.614952087 -41881442.200493574 0 -41881442.200493574 89355163.707065582 0 0 0 0 -21220809.238781929 22548599.730227858 0 22548599.730227858 -15758063.165626049 0 0 0 0 1378123.3626630679 -378610.29856482148 0 -378610.29856482148 -483088.16114541958 0 0 0 0 -1714881.2695159912 -20667774.208030224 0 -20667774.208030224 47510066.071655273 0 0 0 0 -16748297.506195068 41151561.172832489 0 41151561.172832489 -38205335.120158195 0 0 0 0 -22745151.581975937 30144562.348007679 0 30144562.348007679 -19613337.380119324 0 0 0 0 -9068943.6797027588 31343526.336120844 0 31343526.336120844 -40028313.139925957 0 0 0 0 -2922216.9550628662 20650104.20275104 0 20650104.20275104 -23733928.034706116 0 0 0 0 1140785.6924033538 -1360697.0738742156 0 -1360697.0738742156 -1066897.2784146122 0 0 0 0 -11774308.479974747 10452750.798958734 0 10452750.798958734 14709842.871103644 0 0 0 0 -2543843.2287902832 22901688.241963387 0 22901688.241963387 -18346882.040816307 0 0 0 0 -10772469.459327698 1948103.3893144131 0 1948103.3893144131 51245804.465886593 0 0 0 0 14261.465644836426 18841469.763915122 0 18841469.763915122 -33831960.574404716 0 0 0 0 11772223.460388184 24297767.889999151 0 24297767.889999151 -60337145.679413199 0 0 0 0 639757.81925308704 -783161.29222373664 0 -783161.29222373664 -609133.04854425089 0 0 0 0 -14388857.364135742 29359318.038358688 0 29359318.038358688 1809426.936296463 0 0 0 0 16801.024398803711 5395621.9423635006 0 5395621.9423635006 32309903.927161694 0 0 0 0 4384484.712720871 37184769.198138908 0 37184769.198138908 -17623414.563327789 0 0 0 0 -10115483.763221741 17161779.055945873 0 17161779.055945873 -33031603.000715256 0 0 0 0 -6559223.3040313721 42327818.435084343 0 42327818.435084343 -60262820.263736725 0 0 0 0 3047635.2638549805 -29265439.162332535 0 -29265439.162332535 121903794.09211349 0 0 0 0 1727187.5442760438 -776212.27442524955 0 -776212.27442524955 -1183743.7278984678 0 0 0 0 -14013.901136065726 31226288.868364755 0 31226288.868364755 -63875663.655062675 0 0 0 0 21191220.484382629 12996057.562469482 0 12996057.562469482 -35269707.733587265 0 0 0 0 -43608361.616638184 -6116884.4119882584 0 -6116884.4119882584 3172015.755027771 0 0 0 0 21651039.601881742 26762465.22420004 0 26762465.22420004 116237.74839401245 0 0 0 0 -4145988.898871813 3149045.6039193198 0 3149045.6039193198 265865.46416412666 0 0 0 0 4053672.0517425537 -1522886.5487155914 0 -1522886.5487155914 3732646.2734875679 0 0 0 0 8091172.0460281372 -4694788.4388036728 0 -4694788.4388036728 -1860432.7358436584 0 0 0 0 -9760308.7201919556 -6762764.5066928864 0 -6762764.5066928864 12407631.214431763 0 0 0 0 -4941101.8971710205 -20129428.439868927 0 -20129428.439868927 -19866175.477779388 0 0 0 0 -24880410.736320496 -20852799.197828293 0 -20852799.197828293 2414435.4679756165 0 0 0 0 -551162.64297447354 -320484.35195489042 0 -320484.35195489042 287757.74322585668 0 0 0 0 -14002918.305540562 47526943.212106705 0 47526943.212106705 -87909723.017292023 0 0 0 0 -243437267.66482544 50760492.168984413 0 50760492.168984413 48782083.353725433 0 0 0 0 -156964504.46463776 101420020.85769844 0 101420020.85769844 -34194396.993675232 0 0 0 0 -142292915.6975708 -54965831.353163719 0 -54965831.353163719 14376124.501178741 0 0 0 0 -265500395.47373199 61692735.813861847 0 61692735.813861847 48048536.418206692 0 0 0 0 -406169158.8407011 234393112.21734214 0 234393112.21734214 -92805888.930000305 0 0 0 0 -170098558.83615112 93676352.519019127 0 93676352.519019127 -31139908.592708588 0 0 0 0 -447435748.56792355 -4289199.9894554615 0 -4289199.9894554615 36242615.685012817 0 0 0 0 225189330.19101715 66842217.248364449 0 66842217.248364449 180105692.73878098 0 0 0 0 270989257.82197571 334527525.25390625 0 334527525.25390625 282899477.28280258 0 0 0 0 -3706983.6626388952 3151972.964787636 0 3151972.964787636 -477985.78466011398 0 0 0 0 -48209669.749263763 45306276.867021561 0 45306276.867021561 3926709.3793945312 0 0 0 0 209160902.54491043 38037303.352936983 0 38037303.352936983 67988141.07043457 0 0 0 0 -40257258.270584106 97214528.837543488 0 97214528.837543488 208006246.9702301 0 0 0 0 -58961633.712164879 3690424.2715983391 0 3690424.2715983391 49641264.125442505 0 0 0 0 -270449313.49729156 22038913.943660736 0 22038913.943660736 109784324.47273827 0 0 0 0 94740196.383605957 142688702.38850784 0 142688702.38850784 -184165379.61168289 0 0 0 0 32734078.565887451 142718608.99493599 0 142718608.99493599 206004165.93137741 0 0 0 0 -1846509.9535160065 3283721.8084425814 0 3283721.8084425814 2717112.0807830282 0 0 0 0 -38818332.154769897 9652752.971862793 0 9652752.971862793 7378075.0558929443 0 0 0 0 -40976822.726364136 11915503.738742828 0 11915503.738742828 20454142.827127457 0 0 0 0 -35457201.276031494 20971127.31385994 0 20971127.31385994 14801671.066379547 0 0 0 0 -159872211.04172897 134821155.6938715 0 134821155.6938715 -72714810.784202576 0 0 0 0 -544330.97911246866 -415456.3042959692 0 -415456.3042959692 645446.99533898011 0 0 0 0 -2002251.5125523061 569582.72565558925 0 569582.72565558925 2743820.8799833171 0 0 0 0 -35118413.925094604 16189256.703845978 0 16189256.703845978 3314754.7266979218 0 0 0 0 -29355234.261009216 -146644.24255180359 0 -146644.24255180359 11515077.592060566 0 0 0 0 325704.43585057929 3400763.9976316709 0 3400763.9976316709 4894439.8308177702 0 0 0 0 -1406540.8452911377 -26680862.720039368 0 -26680862.720039368 -30919364.034650803 0 0 0 0 67059025.834640503 1377910.9728050232 0 1377910.9728050232 -27731221.065263748 0 0 0 0 -4508970.7606811523 -19355103.464084625 0 -19355103.464084625 -10149915.402393341 0 0 0 0 128041856.46105194 109243963.89487839 0 109243963.89487839 60887796.669252396 0 0 0 0 -105843663.00819397 99203683.187292099 0 99203683.187292099 160195112.53241348 0 0 0 0 68468998.166282654 197117389.57903099 0 197117389.57903099 152885872.59153748 0 0 0 0 116406885.85762787 279090403.74706078 0 279090403.74706078 292958027.74634552 0 0 0 0 310272.5251592882 1164957.5222040229 0 1164957.5222040229 1619817.4673087373 0 0 0 0 30339700.374221802 -94531026.14402771 0 -94531026.14402771 145799349.97564554 0 0 0 0 147053370.23159027 -339749058.51003599 0 -339749058.51003599 455310487.12930679 0 0 0 0 308712766.15047455 294693433.02776337 0 294693433.02776337 58039915.075073242 0 0 0 0 -430278031.32498169 69349355.182214737 0 69349355.182214737 135589395.65407944 0 0 0 0 -57405001.614746094 122726457.19903564 0 122726457.19903564 124690854.21167612 0 0 0 0 -75538681.249549866 147796623.13210297 0 147796623.13210297 218466806.81173849 0 0 0 0 -140794806.46202087 126476552.7699585 0 126476552.7699585 417679909.51108551 0 0 0 0 -4407567.5644201636 2766457.8630608581 0 2766457.8630608581 1465292.729605183 0 0 0 0 -123933545.23653412 114668533.50334167 0 114668533.50334167 221761335.70223618 0 0 0 0 -440896.19984577596 1127518.547396088 0 1127518.547396088 273742.91726197209 0 0 0 0 4724829.0168609619 12322315.571376801 0 12322315.571376801 10824183.496383667 0 0 0 0 12108476.225463867 4962432.7075080872 0 4962432.7075080872 -877046.69166946411 0 0 0 0 -1601721.1070997566 853305.1276264172 0 853305.1276264172 769290.88939653011 0 0 0 0 -105159851.76919937 101521379.34207535 0 101521379.34207535 205466408.99713135 0 0 0 0 -46622068.010665894 17216135.831682205 0 17216135.831682205 34991935.884140015 0 0 0 0 -265928.9748840332 903773.31657981873 0 903773.31657981873 1009327.9987220764 0 0 0 0 -1615671.6651992798 3542146.7803564072 0 3542146.7803564072 3179575.2029647827 0 0 0 0 -624710.12942624837 1612462.1414457397 0 1612462.1414457397 209207.89200805873 0 0 0 0 -5818353.7589874268 1098487.7258872986 0 1098487.7258872986 8726425.6046867371 0 0 0 0 -1785381.9457695 2333086.6974383742 0 2333086.6974383742 1529841.7030310817 0 0 0 0 -1120037.2296829224 10127588.360771179 0 10127588.360771179 908346.01261425018 0 0 0 0 7057488.5836906433 -980697.12427043915 0 -980697.12427043915 -5881974.3552627563 0 0 0 0 -236304020.97398376 146099607.39272118 0 146099607.39272118 704744175.96057892 0 0 0 0 -4046061.9207611084 144619294.61459732 0 144619294.61459732 110536535.14087486 0 0 0 0 7569462.1537895203 9646195.6140651703 0 9646195.6140651703 151730255.95389557 0 0 0 0 227918808.01113892 38260959.744438171 0 38260959.744438171 -468005928.71824646 0 0 0 0 214506450.21676636 -479396173.17559052 0 -479396173.17559052 -63271357.607168198 0 0 0 0 434798781.60079956 706161613.40318298 0 706161613.40318298 109196701.43489605 0 0 0 0 -759088049.98132324 21868713.556419373 0 21868713.556419373 161250086.93379974 0 0 0 0 -246957739.48814392 347774225.44451141 0 347774225.44451141 -1291305858.4021187 0 0 0 0 -121010.81070744991 -25915.648647098802 0 -25915.648647098802 -35452.851776608266 0 0 0 0 58208641.312866211 726332092.95789337 0 726332092.95789337 109301668.31682631 0 0 0 0 1475832779.6430511 -128371460.3819809 0 -128371460.3819809 167030907.47158051 0 0 0 0 -140850324.23487854 43948498.575939178 0 43948498.575939178 1363622496.0270309 0 0 0 0 -126519618.20326233 -39505632.905673981 0 -39505632.905673981 219617458.21844864 0 0 0 0 -42748506.193359375 -114477396.01146889 0 -114477396.01146889 -322957294.35932159 0 0 0 0 -455891.3538107723 817000.48844360793 0 817000.48844360793 -1817618.0945142172 0 0 0 0 -117609.96304321289 369350.97575759888 0 369350.97575759888 -2299271.2252960205 0 0 0 0 -202469.9259185791 720890.19416809082 0 720890.19416809082 -2355135.6396179199 0 0 0 0 530808.24835205078 5949706.5948677063 0 5949706.5948677063 -9262511.2706718445 0 0 0 0 228433.86784801632 5355773.2782750875 0 5355773.2782750875 1900829.1285590027 0 0 0 0 -323597.49398040771 964080.69708061218 0 964080.69708061218 -2798008.6179046631 0 0 0 0 -76627.206398010254 489696.18932723999 0 489696.18932723999 -2688963.2676925659 0 0 0 0 37056244.748199463 16314479.62594986 0 16314479.62594986 -29000798.832363129 0 0 0 0 3161752.1698226929 -2637998.779127121 0 -2637998.779127121 -679611.62281417847 0 0 0 0 190154.98436387628 491660.86755752377 0 491660.86755752377 -456206.87781408988 0 0 0 0 22730758.098297119 -7714296.8460884094 0 -7714296.8460884094 -8706865.6830062866 0 0 0 0 7341142.2501678467 4262263.0278911591 0 4262263.0278911591 -17977174.358589172 0 0 0 0 923517.62305222452 7390145.5677765571 0 7390145.5677765571 4653808.9820913784 0 0 0 0 1652988.4841156006 30656241.015609741 0 30656241.015609741 -27718775.460708618 0 0 0 0 15826192.616470337 24579690.124614716 0 24579690.124614716 -32023940.135643005 0 0 0 0 -3067879.6785087585 9273891.8492860794 0 9273891.8492860794 120908.15826034546 0 0 0 0 14288641.388671875 872083.92393875122 0 872083.92393875122 -18834936.234508514 0 0 0 0 -5527825.8007659912 13927071.938091278 0 13927071.938091278 -14669657.808454514 0 0 0 0 -1523957.2451289296 4643554.7604143731 0 4643554.7604143731 3218170.5561459064 0 0 0 0 -8590902.3999443054 6969978.0602378845 0 6969978.0602378845 4708968.389541626 0 0 0 0 2964403.1214840077 9385882.57515423 0 9385882.57515423 4881.4870200194418 0 0 0 0 5389761.8852233887 -1029682.368888855 0 -1029682.368888855 -11114135.827766418 0 0 0 0 644193.29883941822 979861.05262951739 0 979861.05262951739 -894060.55799662136 0 0 0 0 -2838437.2808803879 3698622.2006103825 0 3698622.2006103825 3695775.1553988871 0 0 0 0 -4987641.1678676605 4605032.4383218288 0 4605032.4383218288 1601411.1238193512 0 0 0 0 -4510842.1321258545 6416496.6715564728 0 6416496.6715564728 2058731.37474823 0 0 0 0 -3086140.1954269409 8214117.4835700989 0 8214117.4835700989 -191085.79264068604 0 0 0 0 -3322182.7202911377 10728564.596243382 0 10728564.596243382 -2409838.6055264473 0 0 0 0 2659597.7438708842 11088554.042193621 0 11088554.042193621 7815150.7128202412 0 0 0 0 457253.37150539458 452297.92269420996 0 452297.92269420996 -524917.35960108787 0 0 0 0 -4501207.2473945618 -3944850.2094526291 0 -3944850.2094526291 26267260.310050964 0 0 0 0 -1732508.4647865295 -2690018.8424530029 0 -2690018.8424530029 15750107.966156006 0 0 0 0 -6169170.8522338867 4196654.7996044159 0 4196654.7996044159 7114535.2253284454 0 0 0 0 -7002533.9477348328 4131953.0962991714 0 4131953.0962991714 9070077.8994941711 0 0 0 0 -5178167.3492507935 1869912.0577316284 0 1869912.0577316284 5340955.2599372864 0 0 0 0 -7230052.7788696289 11214503.443946838 0 11214503.443946838 2552870.6534538269 0 0 0 0 -8426922.0157775879 11914136.405218124 0 11914136.405218124 3247098.7295913696 0 0 0 0 -6621961.1994514465 10238383.425836563 0 10238383.425836563 3374815.2915916443 0 0 0 0 -3281855.0574684143 1070427.1933269501 0 1070427.1933269501 20276517.232175827 0 0 0 0 -10629624.480064392 10291360.025917053 0 10291360.025917053 15242766.593711853 0 0 0 0 -3793734.3261642456 -6004950.3100585938 0 -6004950.3100585938 80827048.735719681 0 0 0 0 3907982.2301635742 3215558.5835838318 0 3215558.5835838318 19084268.413963318 0 0 0 0 108379605.42198181 41438963.011821747 0 41438963.011821747 3940218.2931919098 0 0 0 0 341884.277312316 34973.109648003709 0 34973.109648003709 -334299.4559240276 0 0 0 0 37893947.256065369 -21419981.694123268 0 -21419981.694123268 -7787903.778459549 0 0 0 0 17012666.672286987 2485857.426651001 0 2485857.426651001 -8983125.2415237427 0 0 0 0 18965947.529712677 6297004.071023941 0 6297004.071023941 -6978955.7648086548 0 0 0 0 13698866.168228149 4323957.9227724075 0 4323957.9227724075 -2283129.0874404907 0 0 0 0 26535060.479297638 1377158.2745013237 0 1377158.2745013237 -28428231.616737366 0 0 0 0 20475751.171901703 19507978.984535217 0 19507978.984535217 -7174387.2433280945 0 0 0 0 -977551.07898684591 -235260.24782606214 0 -235260.24782606214 530910.24325055536 0 0 0 0 417193.7019404266 531447.9845438078 0 531447.9845438078 -576025.40037670918 0 0 0 0 -95466213.566680908 55310602.489612579 0 55310602.489612579 27203110.071182251 0 0 0 0 13111013.688144684 20588919.725554943 0 20588919.725554943 36271157.766239166 0 0 0 0 18959430.51927948 6655282.8313674927 0 6655282.8313674927 -2032684.5261182785 0 0 0 0 -250655560.7844162 44713948.681263924 0 44713948.681263924 45353973.560993195 0 0 0 0 -176718404.60160065 -33047705.645692825 0 -33047705.645692825 58048181.270360947 0 0 0 0 -107590014.23945618 4953428.6751317978 0 4953428.6751317978 -1616466.4263362885 0 0 0 0 148389576.02907562 40669220.918739319 0 40669220.918739319 -43937517.499036789 0 0 0 0 -137852986.17480469 38852139.481819153 0 38852139.481819153 -393313.09537887573 0 0 0 0 -147890689.79918289 39871166.897485733 0 39871166.897485733 36812587.309680939 0 0 0 0 -158216036.1986084 56955665.606348038 0 56955665.606348038 12014431.439165115 0 0 0 0 -137205577.23004913 62771850.993562222 0 62771850.993562222 6725588.3983268738 0 0 0 0 -31565406.683750153 61574805.692349911 0 61574805.692349911 47105500.846897125 0 0 0 0 -134600143.95191956 58403609.21586132 0 58403609.21586132 -1336254.6810524464 0 0 0 0 669321.43305351585 855812.04462671094 0 855812.04462671094 -1213385.8778114878 0 0 0 0 15592166.873104095 -46871240.487699509 0 -46871240.487699509 7654871.9005393982 0 0 0 0 -132193442.39221191 74679923.15958786 0 74679923.15958786 -17413094.968510196 0 0 0 0 -70223902.647476196 79469909.562055588 0 79469909.562055588 -17400379.592073441 0 0 0 0 -163548030.25051117 108500283.49873352 0 108500283.49873352 14778951.057565212 0 0 0 0 -171567123.48994446 113177947.05383015 0 113177947.05383015 16658588.427120209 0 0 0 0 -241783501.07178497 94047924.461684227 0 94047924.461684227 42604901.192081451 0 0 0 0 -166991273.03967428 71725027.58233273 0 71725027.58233273 39492508.514785767 0 0 0 0 -147381486.42367554 66000963.010309219 0 66000963.010309219 28419830.985040665 0 0 0 0 -136310005.75233459 58143664.460870743 0 58143664.460870743 33929233.162996292 0 0 0 0 -128781784.05992889 87522077.08795166 0 87522077.08795166 18947335.216690063 0 0 0 0 -138097562.48097992 75170742.599754333 0 75170742.599754333 13604823.633673668 0 0 0 0 -218624261.24923706 -9009489.6094551086 0 -9009489.6094551086 27359790.762224197 0 0 0 0 -100448758.76367188 13848215.079618454 0 13848215.079618454 21612864.815811157 0 0 0 0 -156114534.11190605 35777399.268155813 0 35777399.268155813 27799488.837154388 0 0 0 0 -57577359.03490448 13002050.214891434 0 13002050.214891434 16632525.170297623 0 0 0 0 -100827724.01763535 12389654.920048952 0 12389654.920048952 20728290.928424835 0 0 0 0 -70190616.85093689 23597732.280487061 0 23597732.280487061 30374566.13448751 0 0 0 0 -90436599.723459244 12480210.526284218 0 12480210.526284218 25435386.230773926 0 0 0 0 -84230603.602165222 30689228.177049637 0 30689228.177049637 23213131.237406254 0 0 0 0 -120636825.6339035 60908789.520838737 0 60908789.520838737 17623489.7876091 0 0 0 0 -43833517.033607483 53278558.319639206 0 53278558.319639206 12943750.610963821 0 0 0 0 -105804619.96191406 38133225.56133461 0 38133225.56133461 29101159.477108002 0 0 0 0 -80957188.172653198 -2044492.0272455215 0 -2044492.0272455215 83287467.036838531 0 0 0 0 -179314423.19934845 102835673.97349167 0 102835673.97349167 -1708172.4503078461 0 0 0 0 -154399660.93927574 81385528.653028488 0 81385528.653028488 19335390.818843842 0 0 0 0 -111809774.29933929 48378240.316637039 0 48378240.316637039 24723576.722792625 0 0 0 0 -114163805.8049469 71735440.485946655 0 71735440.485946655 10530437.00885582 0 0 0 0 -98342089.509162903 47163167.270154953 0 47163167.270154953 -45799841.764333725 0 0 0 0 -210746129.52526855 4754372.5447068214 0 4754372.5447068214 8744149.8220024109 0 0 0 0 -81917110.051498413 52325659.206056595 0 52325659.206056595 -3210110.0280265808 0 0 0 0 -37024357.492012024 -31595367.988098145 0 -31595367.988098145 35549683.122404575 0 0 0 0 -110912111.93306351 29023739.306026459 0 29023739.306026459 42470553.657337189 0 0 0 0 -27862314.278640747 35436413.806707382 0 35436413.806707382 15843271.41749382 0 0 0 0 388059.71542443335 -88674.711987461895 0 -88674.711987461895 -550290.63847815618 0 0 0 0 21720161.569004059 -79460631.365647316 0 -79460631.365647316 86795041.804206848 0 0 0 0 -151825313.30841064 191005660.18586063 0 191005660.18586063 -170665675.65656376 0 0 0 0 434899.92035272717 -197755.41329686809 0 -197755.41329686809 -878902.81874812022 0 0 0 0 -138330381.12578678 153173349.46675467 0 153173349.46675467 -84752270.756904602 0 0 0 0 -107113537.34109497 101213873.38458824 0 101213873.38458824 -60873022.242414474 0 0 0 0 -125063099.65042114 81051760.758966446 0 81051760.758966446 -81779779.136024475 0 0 0 0 -49674615.652732849 42320885.544874191 0 42320885.544874191 -30418385.859799385 0 0 0 0 -103701416.99723053 138315222.55624962 0 138315222.55624962 -71673553.186798096 0 0 0 0 -131011411.03475189 120095783.79294014 0 120095783.79294014 -74869595.373023033 0 0 0 0 -126007032.04349518 91755901.714180946 0 91755901.714180946 79038718.984352112 0 0 0 0 248458.75608786196 -291571.49578806665 0 -291571.49578806665 -888081.13178813271 0 0 0 0 -150924445.07389164 38040012.092720509 0 38040012.092720509 7580726.3261680603 0 0 0 0 90586888.915405273 43363990.638471603 0 43363990.638471603 -20116547.816932678 0 0 0 0 126460908.7409668 -34614362.002733231 0 -34614362.002733231 -8954472.3204258084 0 0 0 0 -5998902.398564171 2168702.6135917772 0 2168702.6135917772 485579.95950678363 0 0 0 0 -52594585.155181885 21602857.946685791 0 21602857.946685791 -36275642.111419678 0 0 0 0 4781161.0956573486 10758386.848093033 0 10758386.848093033 2202879.2637138367 0 0 0 0 -17932964.310140342 15817604.885555459 0 15817604.885555459 -2079584.1257253084 0 0 0 0 -10391441.322723389 -1920493.588924408 0 -1920493.588924408 8279746.9557647705 0 0 0 0 7542980.1982642412 13634907.046346024 0 13634907.046346024 -405710.56542205811 0 0 0 0 -12212392.0597229 62747085.301383972 0 62747085.301383972 -49102367.611999512 0 0 0 0 -7590671.0900424933 20388016.19026643 0 20388016.19026643 -2805634.8823659811 0 0 0 0 2119545.9699019752 -399501.84424841031 0 -399501.84424841031 -1140588.7308262661 0 0 0 0 -21897446.031967163 49127695.502775192 0 49127695.502775192 14220961.764463425 0 0 0 0 -1699463.2448196411 8778525.6487827301 0 8778525.6487827301 5186981.7515716553 0 0 0 0 -92634148.041603088 16946981.616648674 0 16946981.616648674 461241.10447692871 0 0 0 0 11781785.791442871 18756666.422870636 0 18756666.422870636 2808348.0176715851 0 0 0 0 -403227.28255241364 7739482.8747751899 0 7739482.8747751899 349384.36619357951 0 0 0 0 -6518119.7624405846 9327330.6153147835 0 9327330.6153147835 -714702.1441167295 0 0 0 0 30652425.337661743 -232039.3138923645 0 -232039.3138923645 32167606.56977272 0 0 0 0 34042494.470649719 -646104.25979995728 0 -646104.25979995728 -30895308.96210289 0 0 0 0 -22270084.879470825 17695131.841949463 0 17695131.841949463 -57173530.522312164 0 0 0 0 -5954207.8425979614 46304835.239929199 0 46304835.239929199 -10548646.070406914 0 0 0 0 25580552.299118042 5173244.4988708496 0 5173244.4988708496 -15793233.227378845 0 0 0 0 59228971.381492615 43589759.603702545 0 43589759.603702545 -69313540.389762878 0 0 0 0 -25692292.929561615 56403108.355196953 0 56403108.355196953 -19089740.286308289 0 0 0 0 -165314612.14897919 109749371.06026173 0 109749371.06026173 -42838838.953840494 0 0 0 0 -30839349.813400269 28048140.185705185 0 28048140.185705185 -44048346.741851807 0 0 0 0 23059857.19229126 41096228.301670074 0 41096228.301670074 -39271606.788925171 0 0 0 0 22572341.091796875 31835948.909730911 0 31835948.909730911 4189336.9710178375 0 0 0 0 56525633.234542847 17181896.015752792 0 17181896.015752792 -7147915.2021807432 0 0 0 0 80205489.719108582 16877955.412163734 0 16877955.412163734 -41925759.700084686 0 0 0 0 -3181442.4357185364 8377652.4046931267 0 8377652.4046931267 -10343666.109661102 0 0 0 0 826653.20740515261 11432811.182323666 0 11432811.182323666 -8773395.881359525 0 0 0 0 -4140079.2814612389 15123628.372313082 0 15123628.372313082 -11990006.722793579 0 0 0 0 -8117293.7207489014 13548936.654634476 0 13548936.654634476 -11256321.087417126 0 0 0 0 -17819.72109477967 -29417.117656030692 0 -29417.117656030692 137222.29754357459 0 0 0 0 2647246.1677017212 6440860.4477682114 0 6440860.4477682114 -6485960.7003383636 0 0 0 0 8327954.2166764736 10305467.968640283 0 10305467.968640283 -5923821.1610965729 0 0 0 0 39146590.459312439 40738732.793901443 0 40738732.793901443 -23712165.732862473 0 0 0 0 -5997610.4216865432 14742107.556818433 0 14742107.556818433 -9863784.687465556 0 0 0 0 8881392.4899330139 47667663.198640823 0 47667663.198640823 -12233562.083580017 0 0 0 0 13226702.603553772 37698882.527270317 0 37698882.527270317 -101614.61128997803 0 0 0 0 9737535.5918960571 50463426.744903564 0 50463426.744903564 -951245.39739775658 0 0 0 0 754759834.77675414 19146591.199598327 0 19146591.199598327 866547618.0353775 0 0 0 0 -1081494.5583019464 2713912.5109401839 0 2713912.5109401839 153303.74820902944 0 0 0 0 -138596992.34775543 -197089092.64023399 0 -197089092.64023399 773008296.87212944 0 0 0 0 81019592.953738213 480917282.2108559 0 480917282.2108559 380634186.15212631 0 0 0 0 2440658.9812055603 11880592.976819972 0 11880592.976819972 -16666615.511113599 0 0 0 0 57087772.998199463 -4696125.7531204224 0 -4696125.7531204224 231948575.09842491 0 0 0 0 -61544413.848838806 77691612.456342697 0 77691612.456342697 -35591613.538352489 0 0 0 0 -22170005.249786377 43086748.111255646 0 43086748.111255646 -6371610.5528755188 0 0 0 0 -19383662.360206604 54234884.905677795 0 54234884.905677795 -7865420.1030502319 0 0 0 0 -34198849.029632568 52905795.146772385 0 52905795.146772385 -3189628.7356872559 0 0 0 0 -22365905.673423767 38295804.474756241 0 38295804.474756241 1381680.2851905823 0 0 0 0 -70471360.637161255 26698609.766921043 0 26698609.766921043 16889203.615200043 0 0 0 0 -45821941.377120972 30559576.665319443 0 30559576.665319443 17309933.123958349 0 0 0 0 -29225975.085090637 24073010.894212723 0 24073010.894212723 11564786.329030991 0 0 0 0 11484967.309204102 35104962.372545242 0 35104962.372545242 -2776032.0265827179 0 0 0 0 -9665107.6880912781 43361115.727025986 0 43361115.727025986 10866062.786592484 0 0 0 0 -11832706.595478544 15881379.320673896 0 15881379.320673896 -14503630.497239962 0 0 0 0 879852958.69314575 862952196.47436905 0 862952196.47436905 -95711668.959898949 0 0 0 0 -31747403.081230164 -2880077.1796779633 0 -2880077.1796779633 -3228685.8259634972 0 0 0 0 -1426754445.4535484 -142807068.91892815 0 -142807068.91892815 460330524.54941511 0 0 0 0 115429000.99793243 311670884.54949093 0 311670884.54949093 563932169.99315643 0 0 0 0 366920831.45049286 -132648174.55765152 0 -132648174.55765152 593032357.47359085 0 0 0 0 -433554078.87036705 -50473689.932518959 0 -50473689.932518959 672813990.43167114 0 0 0 0 524460949.74144936 332490931.02493787 0 332490931.02493787 452661895.12086105 0 0 0 0 -15810696.072698668 20994496.470773079 0 20994496.470773079 -15441572.649975942 0 0 0 0 -1008120578.6724701 917594983.70732212 0 917594983.70732212 1003937706.7646303 0 0 0 0 -215289910.48468018 1085242476.7124023 0 1085242476.7124023 874583974.38578415 0 0 0 0 810806449.73895478 -48909373.803806961 0 -48909373.803806961 -938922161.78099442 0 0 0 0 40741562.569477081 -258720230.39122534 0 -258720230.39122534 -924933937.9221735 0 0 0 0 -51563720.7076931 -51831763.969397545 0 -51831763.969397545 -9968631.4602680206 0 0 0 0 219206670.66790009 -72229944.116879463 0 -72229944.116879463 -43206837.331043243 0 0 0 0 -286211822.95468426 -431509923.2483809 0 -431509923.2483809 449705033.7381382 0 0 0 0 -25688543.981266022 -113034054.87129211 0 -113034054.87129211 104122948.2196424 0 0 0 0 -19541624.551080704 -192416416.42885351 0 -192416416.42885351 427956946.88830757 0 0 0 0 -25296848.609384537 -85665119.573413849 0 -85665119.573413849 221813581.3758316 0 0 0 0 51361839.717727661 -57582397.821936607 0 -57582397.821936607 84757355.906534195 0 0 0 0 143155311.87751198 -121484071.09095001 0 -121484071.09095001 -219358137.66949654 0 0 0 0 45274061.69626236 -29079071.985043526 0 -29079071.985043526 -36906290.899448395 0 0 0 0 -14664305.601390839 43245499.721094131 0 43245499.721094131 281675574.46417236 0 0 0 0 -7102876.0863037109 51390771.200801849 0 51390771.200801849 147266071.2399559 0 0 0 0 153543303.44913673 119369491.76391792 0 119369491.76391792 -112000890.12514973 0 0 0 0 -281224611.83922195 -59772512.797390938 0 -59772512.797390938 569858644.99772072 0 0 0 0 317262845.42907333 -28542247.560437202 0 -28542247.560437202 -274664169.02181625 0 0 0 0 -153615.59896527976 1585054.1605833415 0 1585054.1605833415 -455625.79451580998 0 0 0 0 35965288.717048645 -136632192.18917561 0 -136632192.18917561 229751399.1407156 0 0 0 0 -28019931.058971405 -78439352.352272034 0 -78439352.352272034 305693957.75426865 0 0 0 0 -8505852.6867141724 -93126242.423498154 0 -93126242.423498154 164488417.56928062 0 0 0 0 -94140503.379055023 -425077930.88673878 0 -425077930.88673878 -131676593.05265808 0 0 0 0 22964542.008841515 -71037908.593992472 0 -71037908.593992472 88180242.853042603 0 0 0 0 -202587180.08509445 339335911.63373709 0 339335911.63373709 353589914.07222843 0 0 0 0 1742201.2737264764 4712712.689907412 0 4712712.689907412 5106439.4519398222 0 0 0 0 -23050689.92748642 75392681.683800697 0 75392681.683800697 -128171169.42446518 0 0 0 0 -695226.86503627524 1990463.039318013 0 1990463.039318013 2242726.6426906823 0 0 0 0 -22400593.256439209 11950709.35792923 0 11950709.35792923 -16210290.023554802 0 0 0 0 -247983152.95582199 -60353641.625990868 0 -60353641.625990868 83851568.5372715 0 0 0 0 161715798.94768333 125319422.04928923 0 125319422.04928923 -14830343.140711784 0 0 0 0 -19712201.30435133 35624572.27712065 0 35624572.27712065 200996.17000961304 0 0 0 0 -25195592.041032791 -3323698.9895038605 0 -3323698.9895038605 11151905.123371124 0 0 0 0 -4890216.610078902 5743175.3141804133 0 5743175.3141804133 5715050.9100709762 0 0 0 0 125143120.76527309 -10061199.985260963 0 -10061199.985260963 -7049398.6487493515 0 0 0 0 -67790732.568248749 25357471.428760529 0 25357471.428760529 26210755.758190155 0 0 0 0 -608205.33683702163 5795332.9136567945 0 5795332.9136567945 -1816505.9659188446 0 0 0 0 -3329504.1798477173 36648949.395219803 0 36648949.395219803 466862.64302825928 0 0 0 0 13026490.501953125 -131294.95335769653 0 -131294.95335769653 6570079.756313324 0 0 0 0 2091292.8341286182 14275322.218133867 0 14275322.218133867 -9178263.9157104492 0 0 0 0 -3812644.7890617661 13974998.939450957 0 13974998.939450957 -10891759.865657462 0 0 0 0 -22531200.033443451 58969461.158098221 0 58969461.158098221 22118927.191661835 0 0 0 0 -56767906.8179245 51965104.890851974 0 51965104.890851974 24055480.970586777 0 0 0 0 -1748993.7347831726 -217420140.43648529 0 -217420140.43648529 263656685.59946823 0 0 0 0 -1094382.4090447519 1189256.5650668247 0 1189256.5650668247 1467776.3770708125 0 0 0 0 36038513.834114075 78370858.739635468 0 78370858.739635468 13256949.046701431 0 0 0 0 -116262299.93553162 -174316061.57292366 0 -174316061.57292366 529217963.57976913 0 0 0 0 21751658.457355499 111728930.12909412 0 111728930.12909412 234461539.73902559 0 0 0 0 7662395.9147796631 32913497.346729279 0 32913497.346729279 99067975.311973572 0 0 0 0 -18315095.755683899 -55603723.534509659 0 -55603723.534509659 243205896.14431381 0 0 0 0 60222891.747955322 24509047.60786438 0 24509047.60786438 -9647396.5466899872 0 0 0 0 10894040.423779488 25094967.648150444 0 25094967.648150444 18801307.652145386 0 0 0 0 134010317.36238861 26904427.182514429 0 26904427.182514429 34288739.944566309 0 0 0 0 224569232.72418022 261902383.31776416 0 261902383.31776416 229487277.60998344 0 0 0 0 488619162.22001266 199341498.68200207 0 199341498.68200207 55398740.459512234 0 0 0 0 298935484.2195015 294084885.65105534 0 294084885.65105534 162862903.06269777 0 0 0 0 314295269.53820419 78672374.289761186 0 78672374.289761186 -12650552.356505632 0 0 0 0 39281764.822853088 -41152359.474312305 0 -41152359.474312305 -61708038.000836849 0 0 0 0 36347709.163605332 36939895.431055218 0 36939895.431055218 -20298738.29382515 0 0 0 0 60521.506161538884 -306112.43080854416 0 -306112.43080854416 776484.77414254821 0 0 0 0 254977712.94193459 256761892.62962914 0 256761892.62962914 226901567.18373489 0 0 0 0 372494194.68759584 474635045.45031852 0 474635045.45031852 402834279.3863554 0 0 0 0 -769830.79664993286 10820098.008612156 0 10820098.008612156 -38338034.270740986 0 0 0 0 -27921856.376590729 26533693.094420195 0 26533693.094420195 -1423566.10272789 0 0 0 0 774229.88640830666 -457078.22708037519 0 -457078.22708037519 1686710.0836289572 0 0 0 0 1345104.3143214046 2653028.9082569266 0 2653028.9082569266 3906998.9415455549 0 0 0 0 -5060484.8855781555 47459684.21420455 0 47459684.21420455 15017112.470193386 0 0 0 0 -4795278.8225440979 -15415526.878753543 0 -15415526.878753543 9346391.3756160736 0 0 0 0 -61835743.775153995 2655553.2232491523 0 2655553.2232491523 44244339.828116059 0 0 0 0 -2981820.9620933533 7990471.0146467686 0 7990471.0146467686 -8761831.2613323927 0 0 0 0 56243244.688023567 25482857.905749708 0 25482857.905749708 32331244.107803702 0 0 0 0 21879592.223842621 -28034728.111066461 0 -28034728.111066461 41987429.552516758 0 0 0 0 31562335.765352249 31942605.876297206 0 31942605.876297206 32381581.84985441 0 0 0 0 48727967.867977142 -83690.045895516872 0 -83690.045895516872 89154558.396000385 0 0 0 0 153386945.44675064 6721569.0323637724 0 6721569.0323637724 20152950.518883586 0 0 0 0 124409059.91947174 104943473.92176513 0 104943473.92176513 234869906.98869872 0 0 0 0 194395774.51358795 211636827.31862563 0 211636827.31862563 105942845.31074625 0 0 0 0 57263516.024608612 -12788167.175483465 0 -12788167.175483465 2418538.2917604446 0 0 0 0 200997186.9031601 64554149.861574531 0 64554149.861574531 2879058.4657942355 0 0 0 0 1724898.323223114 83591196.118428826 0 83591196.118428826 19455006.903358221 0 0 0 0 175777198.26403809 -55773133.430310249 0 -55773133.430310249 402995921.37646341 0 0 0 0 528201146.64652252 243667571.19650996 0 243667571.19650996 82095924.5257653 0 0 0 0 714804043.22123718 364974911.16523904 0 364974911.16523904 89821572.295661867 0 0 0 0 239082552.01497269 347551624.16042668 0 347551624.16042668 480452560.57654256 0 0 0 0 23176609.48267746 15159121.814898491 0 15159121.814898491 -1148290.2544283867 0 0 0 0 71669.245461242273 825082.90622718539 0 825082.90622718539 198434.92498932953 0 0 0 0 -33983752.442949295 23251476.069142699 0 23251476.069142699 19261640.815567017 0 0 0 0 19372650.071239471 22451449.071564555 0 22451449.071564555 4951041.4184753895 0 0 0 0 19133047.662201047 27949305.844873898 0 27949305.844873898 -15829274.352247238 0 0 0 0 82591266.047542572 41883597.647239923 0 41883597.647239923 -16257158.685290337 0 0 0 0 21458520.609169006 17757072.175789833 0 17757072.175789833 -3050185.038795948 0 0 0 0 23741053.824985504 17460581.252803326 0 17460581.252803326 -5184591.9205739498 0 0 0 0 18063415.844321489 18982189.794461489 0 18982189.794461489 6292189.2920455933 0 0 0 0 15412697.563777924 -8053273.8317980766 0 -8053273.8317980766 -21490682.905085564 0 0 0 0 1256390.6103934981 2620406.8212173413 0 2620406.8212173413 -1046947.6314544454 0 0 0 0 21687705.370483398 12121166.434715271 0 12121166.434715271 -11958781.421298981 0 0 0 0 2197988.7775295228 2838535.2144069257 0 2838535.2144069257 790436.45555413328 0 0 0 0 -18046924.317430496 -37408324.424046516 0 -37408324.424046516 -2470144.1346559525 0 0 0 0 10344942.984248161 16191840.561585903 0 16191840.561585903 9873332.8152637482 0 0 0 0 8761694.7145757675 6980201.8904824257 0 6980201.8904824257 5737866.0925483704 0 0 0 0 18686098.035335541 15850084.793215752 0 15850084.793215752 5058820.7719535828 0 0 0 0 -2095310.6727695465 13223659.453712463 0 13223659.453712463 11738835.523714066 0 0 0 0 5036111.3852353096 14704460.088309288 0 14704460.088309288 7493610.2927970886 0 0 0 0 4582751.7511105537 16258259.575749636 0 16258259.575749636 6995069.2651443481 0 0 0 0 272380.63534688391 1844347.5564149432 0 1844347.5564149432 87363.860925618908 0 0 0 0 16141112.93184185 22962753.3689785 0 22962753.3689785 10933575.162151337 0 0 0 0 1847780.0742261335 2294271.4682817971 0 2294271.4682817971 2117873.9912854452 0 0 0 0 24001059.025880814 13558343.861885071 0 13558343.861885071 8162092.1525230408 0 0 0 0 9259330.8658237457 21655015.669088364 0 21655015.669088364 -27496492.868354797 0 0 0 0 16982324.202037811 13376241.689157486 0 13376241.689157486 23404252.810863495 0 0 0 0 20215795.661523819 14580084.942935944 0 14580084.942935944 6277099.1767463684 0 0 0 0 15741382.699337006 19836523.877323151 0 19836523.877323151 5670133.6689786911 0 0 0 0 1098620.7376080081 3261707.5371574163 0 3261707.5371574163 -2073545.0361032635 0 0 0 0 17899382.563327789 11049202.881570339 0 11049202.881570339 -2958126.4573960304 0 0 0 0 16693171.902393341 12655862.006848335 0 12655862.006848335 8873421.9402484894 0 0 0 0 19668171.754516602 16915936.205733299 0 16915936.205733299 6335073.7525882721 0 0 0 0 13734404.766452789 18183120.120470047 0 18183120.120470047 8686384.9395713806 0 0 0 0 21564939.592391968 16505399.053638458 0 16505399.053638458 3788371.2776176333 0 0 0 0 17313230.266241074 14701035.164619684 0 14701035.164619684 4006651.0805234909 0 0 0 0 -1320074.7181547796 2305613.2411618289 0 2305613.2411618289 1436345.5108657274 0 0 0 0 7283874.9028511047 9210658.3109893799 0 9210658.3109893799 -4807920.1669902802 0 0 0 0 7258801.6816368103 8816035.9868745804 0 8816035.9868745804 -9726765.3904438019 0 0 0 0 4518814.5456695557 6840364.4698791504 0 6840364.4698791504 -2983630.9377670288 0 0 0 0 -4667474.1883907318 15498516.656298161 0 15498516.656298161 -7324920.1434106827 0 0 0 0 4654692.0737266541 7024780.9572944641 0 7024780.9572944641 -6733541.6925663948 0 0 0 0 -4190876.7523915712 10502029.025362071 0 10502029.025362071 -8563106.6693906803 0 0 0 0 -3657736.7172135673 12356148.784069803 0 12356148.784069803 -7410411.516334963 0 0 0 0 831723.5544128418 13950545.098758698 0 13950545.098758698 -10825661.014686584 0 0 0 0 -7623884.974571228 18058723.593552351 0 18058723.593552351 -8190959.6099700928 0 0 0 0 -5475361.8427810669 9729686.3888587952 0 9729686.3888587952 -4716163.0983104706 0 0 0 0 -7011381.5841108169 14418504.172368485 0 14418504.172368485 -3601835.3408969967 0 0 0 0 -938423.70670096576 9794784.3044080809 0 9794784.3044080809 -2003467.8245214014 0 0 0 0 1876746.8547271844 5167164.1947935121 0 5167164.1947935121 -3051092.6044154209 0 0 0 0 1673767.3707323074 7219808.7901637554 0 7219808.7901637554 -2791264.412021637 0 0 0 0 4215437.1428337097 6253104.2346999645 0 6253104.2346999645 532856.97677230835 0 0 0 0 15491585.327266693 11117948.29103446 0 11117948.29103446 -9207094.5806419253 0 0 0 0 30502347.970373154 24564467.190933824 0 24564467.190933824 -572147.5144405365 0 0 0 0 -537054.059715271 49982913.172853947 0 49982913.172853947 2020700.286608696 0 0 0 0 -399741.09858881682 8607852.6554760635 0 8607852.6554760635 8619986.6251174938 0 0 0 0 -35241762.60308075 25671248.702011168 0 25671248.702011168 5849698.7598121166 0 0 0 0 -3668467.045173645 26577516.245642662 0 26577516.245642662 -13416907.502906621 0 0 0 0 12695230.66450882 15859490.329872295 0 15859490.329872295 5806787.5150697567 0 0 0 0 -1126832.8808307648 26042644.291050673 0 26042644.291050673 15572247.485903859 0 0 0 0 13358649.17483902 35700649.731076762 0 35700649.731076762 -1949630.9793640659 0 0 0 0 -360892.78195643239 9191862.9255059697 0 9191862.9255059697 -2882655.9235951304 0 0 0 0 -42556144.480487823 21895195.8923769 0 21895195.8923769 20707887.051609039 0 0 0 0 26420130.400256157 9876634.2265105247 0 9876634.2265105247 15610673.262822151 0 0 0 0 112252563.9455719 100208573.60756493 0 100208573.60756493 -91460839.186073303 0 0 0 0 10684507.827148438 9304291.8546657562 0 9304291.8546657562 -5432513.8280220032 0 0 0 0 220269.96677551232 7957383.0895947227 0 7957383.0895947227 2013337.4744394096 0 0 0 0 -4344748.4742584229 10258276.266952991 0 10258276.266952991 14617682.368057251 0 0 0 0 -1089362.7051714943 10157909.976383887 0 10157909.976383887 8581490.0778337494 0 0 0 0 6360141.4597589932 7277289.1062024292 0 7277289.1062024292 -8946783.9596660174 0 0 0 0 1820080.9102478027 5222394.5013122559 0 5222394.5013122559 -7012162.3901481628 0 0 0 0 11351423.18953187 9916189.2693166845 0 9916189.2693166845 -6392705.3360038064 0 0 0 0 2803742.1304446999 8858376.9287779443 0 8858376.9287779443 -2180069.0860165767 0 0 0 0 8981281.5363044739 10254246.219121933 0 10254246.219121933 -5806511.3920512199 0 0 0 0 4537962.7493267059 8161525.4316263199 0 8161525.4316263199 -1298684.0417671204 0 0 0 0 13551886.767196655 8739278.061290741 0 8739278.061290741 -5994502.9701347351 0 0 0 0 867664.88400240894 10607538.530223448 0 10607538.530223448 -3434322.4633280113 0 0 0 0 10150733.888335705 6741217.3828520775 0 6741217.3828520775 -2514254.0915756226 0 0 0 0 -13263020.72580719 8989644.0206356049 0 8989644.0206356049 664541.9347743988 0 0 0 0 -994080.01572036743 9275946.5710067749 0 9275946.5710067749 -6372691.5273036957 0 0 0 0 -4083270.7451904938 9299215.6145585217 0 9299215.6145585217 206095.41950389021 0 0 0 0 4742198.5358772278 8324255.0173025131 0 8324255.0173025131 253467.45497894287 0 0 0 0 -117182840.38249207 44083335.389736176 0 44083335.389736176 -8458686.4904823303 0 0 0 0 6647719.2389678955 10796106.885665894 0 10796106.885665894 -1679975.669424057 0 0 0 0 -758726.64469610527 9762758.4698981754 0 9762758.4698981754 -673504.69408157794 0 0 0 0 -2051652.6797389984 11714162.935135841 0 11714162.935135841 1448714.299079895 0 0 0 0 10704715.817321777 10475000.523168564 0 10475000.523168564 -2733710.2014446259 0 0 0 0 17802273.133457184 21947927.695165634 0 21947927.695165634 -698047.12316894531 0 0 0 0 -2646176.2161703259 6924148.9615562391 0 6924148.9615562391 1491513.8984930329 0 0 0 0 1462655.6609611511 15086162.098503113 0 15086162.098503113 7658180.4546928406 0 0 0 0 3754709.835483551 12660365.526130676 0 12660365.526130676 3588832.5663146973 0 0 0 0 1046393.0627632141 5340727.1691703796 0 5340727.1691703796 2094546.7947769165 0 0 0 0 12922638.410942078 3820087.7589950562 0 3820087.7589950562 -21828103.127845764 0 0 0 0 -2121314.034576416 14604825.820724487 0 14604825.820724487 16857475.498514175 0 0 0 0 2852531.0956497192 20487787.695110321 0 20487787.695110321 12630338.835287094 0 0 0 0 2916266.4071884155 10103539.403047323 0 10103539.403047323 -8313925.0079040527 0 0 0 0 15333009.447216034 10353256.414896011 0 10353256.414896011 -4148101.8796844482 0 0 0 0 1267132.2568187313 10196077.797171848 0 10196077.797171848 -1892478.4728759415 0 0 0 0 -19154257.053508759 12203558.615642548 0 12203558.615642548 3346392.061340332 0 0 0 0 11218373.674530029 10845476.458101273 0 10845476.458101273 -115343.72868919373 0 0 0 0 9389787.0919885635 6549841.0016975403 0 6549841.0016975403 -5368774.3276977539 0 0 0 0 2292872.1678421726 7514576.3907111473 0 7514576.3907111473 -3099365.650889542 0 0 0 0 11923561.084978104 11086452.629657745 0 11086452.629657745 -1718072.0509376526 0 0 0 0 -103725778.89489365 314333714.85962343 0 314333714.85962343 405411834.73947144 0 0 0 0 12357872.149154663 10681218.823802948 0 10681218.823802948 -3865199.7842607498 0 0 0 0 12637483.130486488 9580429.6257567406 0 9580429.6257567406 -927123.44093322754 0 0 0 0 123158944.19158936 130689406.34924316 0 130689406.34924316 -58655516.698165894 0 0 0 0 76771444.502483368 57772631.424894333 0 57772631.424894333 69418627.363815308 0 0 0 0 2058295.1303996022 10307674.929709986 0 10307674.929709986 -556182.01227094233 0 0 0 0 76794139.442352295 69975810.615032196 0 69975810.615032196 -54573247.749908447 0 0 0 0 8197063.0564441681 12362630.172115326 0 12362630.172115326 -1506125.6304244995 0 0 0 0 10788192.179672241 10373073.457771301 0 10373073.457771301 -759889.39585924149 0 0 0 0 11264335.493785858 11354658.951688766 0 11354658.951688766 -1338720.159576416 0 0 0 0 14110871.110015869 8850532.9869880676 0 8850532.9869880676 -1802558.8344445229 0 0 0 0 -177784541.68951988 -128402409.9413662 0 -128402409.9413662 -9787159.2810058594 0 0 0 0 3422940.7979482645 9780776.4275024161 0 9780776.4275024161 -5501836.4434603043 0 0 0 0 17428218.038812637 9776613.9058799744 0 9776613.9058799744 -5020587.134979248 0 0 0 0 15935682.529840469 8913536.6548051834 0 8913536.6548051834 885373.10269927979 0 0 0 0 26336679.774032593 158916429.66874695 0 158916429.66874695 -77542265.766052246 0 0 0 0 -45711857.589981079 196218640.89557648 0 196218640.89557648 -53157283.498907566 0 0 0 0 12900254.525485516 12869427.580662251 0 12869427.580662251 -7741476.0043029785 0 0 0 0 17622337.577991486 12366626.206699371 0 12366626.206699371 -4875451.2095184326 0 0 0 0 10626064.161552429 7190882.7910690308 0 7190882.7910690308 -7822521.3597444296 0 0 0 0 32946254.942962646 71982988.903274536 0 71982988.903274536 4172839.73853302 0 0 0 0 7863387.1213302612 20506420.750953674 0 20506420.750953674 -114640872.69305801 0 0 0 0 9959298.7992591858 34542032.659994125 0 34542032.659994125 -42157516.046455383 0 0 0 0 -65959275.911643982 67826893.212958336 0 67826893.212958336 4800774.6986999512 0 0 0 0 52383949.526733398 -67587806.53276062 0 -67587806.53276062 -26994445.020095825 0 0 0 0 -147902822.22116089 -155167543.0345459 0 -155167543.0345459 -30379902.953933716 0 0 0 0 -146361123.36706161 50292101.114456177 0 50292101.114456177 6500654.0406036377 0 0 0 0 637721.06205074489 447895.61801065132 0 447895.61801065132 -52044.753067165613 0 0 0 0 5485303.7763671875 25310587.752250671 0 25310587.752250671 -35421527.330562592 0 0 0 0 3903480.2199923024 6629598.7382778209 0 6629598.7382778209 -991747.69729353487 0 0 0 0 -200283.28043270111 8116719.1810375452 0 8116719.1810375452 1069262.1465072632 0 0 0 0 5857762.8247718811 11034277.585962296 0 11034277.585962296 -1516143.768447876 0 0 0 0 -311040.83366584778 5457475.622200191 0 5457475.622200191 -2198203.8235321045 0 0 0 0 -2553938.1420116611 6235014.6163244434 0 6235014.6163244434 2081227.9993699454 0 0 0 0 40706045.077611923 -3169257.8740139008 0 -3169257.8740139008 -3427946.4313278198 0 0 0 0 -2153184.0509796143 19878160.889419556 0 19878160.889419556 71248281.845640182 0 0 0 0 -1070817.3738882244 481630.53775684536 0 481630.53775684536 669013.87023402378 0 0 0 0 -39256398.953220367 12033992.36793232 0 12033992.36793232 -6014847.0420761108 0 0 0 0 4920352.2774626343 941937.28178420197 0 941937.28178420197 -4339426.6699496349 0 0 0 0 1882562.407787323 3190834.2876434326 0 3190834.2876434326 24187660.96207428 0 0 0 0 3198170.3504437339 1108381.0627484322 0 1108381.0627484322 -4703260.6825660411 0 0 0 0 12589769.299964905 -5902959.659740448 0 -5902959.659740448 -21063490.796641827 0 0 0 0 3517594.0270051956 6529496.752289772 0 6529496.752289772 -18195877.230657578 0 0 0 0 2597394.824852502 4603006.1025049118 0 4603006.1025049118 -3073285.8648498449 0 0 0 0 9350241.5685691833 8651144.9745140076 0 8651144.9745140076 -8833305.1948471069 0 0 0 0 25243361.427436829 8411674.4000091553 0 8411674.4000091553 -9909498.5860013962 0 0 0 0 25432840.043533325 12572267.234716415 0 12572267.234716415 -41706004.920543671 0 0 0 0 26177479.272644043 31365713.222429276 0 31365713.222429276 -13781627.900375366 0 0 0 0 2452621.3853912354 21443047.863950729 0 21443047.863950729 -28814181.49051857 0 0 0 0 -34875514.626708984 -23401963.253143311 0 -23401963.253143311 6555519.9493770599 0 0 0 0 3365582.7345023751 60469.454198459163 0 60469.454198459163 -2442593.140880296 0 0 0 0 23491863.963249207 327755.64683246613 0 327755.64683246613 -2149966.6368560791 0 0 0 0 42129707.049425125 -14773617.78424263 0 -14773617.78424263 -86773615.299182892 0 0 0 0 23745511.764560699 -51459200.660800934 0 -51459200.660800934 -77047368.226509094 0 0 0 0 26194390.4112854 38482675.406835556 0 38482675.406835556 19574251.597775459 0 0 0 0 -384602.05436906591 639002.36948621459 0 639002.36948621459 1494016.3348620739 0 0 0 0 12740404.018817902 -12530479.241483688 0 -12530479.241483688 -75030689.121831894 0 0 0 0 42967391.573467255 -25477048.591175079 0 -25477048.591175079 -72359514.959774017 0 0 0 0 23588155.865951538 -45708379.639389038 0 -45708379.639389038 -18688858.803127289 0 0 0 0 6980300.5926895142 -43153568.173370361 0 -43153568.173370361 42309000.218856812 0 0 0 0 52282487.108108521 157612520.49581909 0 157612520.49581909 187656743.95521927 0 0 0 0 91246800.167098999 150864757.55941391 0 150864757.55941391 81992985.010803223 0 0 0 0 1329636.7381732371 -205993.49323307164 0 -205993.49323307164 -910744.67919080146 0 0 0 0 473417143.70453453 -33409525.764778137 0 -33409525.764778137 -594097226.18267822 0 0 0 0 130635470.20493317 201015577.87456131 0 201015577.87456131 145846125.15422249 0 0 0 0 6414269.5435714722 -70655787.43927002 0 -70655787.43927002 71780638.25434494 0 0 0 0 -25021496.809898376 -7135120.8547172546 0 -7135120.8547172546 -56253713.56892395 0 0 0 0 2445641.645526886 134068225.37948608 0 134068225.37948608 139598480.01277542 0 0 0 0 179787665.18791199 -37007820.723901749 0 -37007820.723901749 -87408209.978965759 0 0 0 0 123396735.28742981 127489194.06430435 0 127489194.06430435 22272560.549209595 0 0 0 0 66202576.668937683 50680430.987728119 0 50680430.987728119 -75652997.151313782 0 0 0 0 43242682.876925588 -20275124.132232428 0 -20275124.132232428 -13376767.214260101 0 0 0 0 30700725.429792404 131087949.42759132 0 131087949.42759132 155333743.98299789 0 0 0 0 747850.89348559361 420017.19498790242 0 420017.19498790242 -1049676.7162796222 0 0 0 0 -26213852.587398529 10745075.067955017 0 10745075.067955017 192116596.52940178 0 0 0 0 5520419.2615509033 -57822569.25680542 0 -57822569.25680542 152936471.65412903 0 0 0 0 2609288.2228307724 27819962.927285194 0 27819962.927285194 41894127.254837036 0 0 0 0 12648902.714382172 46909122.021232605 0 46909122.021232605 46691442.663101196 0 0 0 0 -6121210.1743564606 137635967.61174965 0 137635967.61174965 -12625684.987113953 0 0 0 0 1048736.7293019295 86178056.07707262 0 86178056.07707262 -844469.34387969971 0 0 0 0 -18405477.616401672 16240391.820228577 0 16240391.820228577 35618647.273752213 0 0 0 0 -10301884.41047287 35286242.216651917 0 35286242.216651917 5738583.1700935364 0 0 0 0 16188605.620851517 21069624.297384262 0 21069624.297384262 -80735401.989730835 0 0 0 0 -19392403.264247894 6978438.8522319794 0 6978438.8522319794 -15010699.316404343 0 0 0 0 -16278448.694396019 14803542.67875576 0 14803542.67875576 35499366.630081177 0 0 0 0 -18479013.076332092 -2053948.5156517029 0 -2053948.5156517029 62108661.943836212 0 0 0 0 30026071.773361206 -14982949.707405567 0 -14982949.707405567 27732536.100105286 0 0 0 0 -5420358.0637779236 10598725.932510376 0 10598725.932510376 26286799.957489014 0 0 0 0 -3103223.6617965698 8499821.6834468842 0 8499821.6834468842 27922852.532821655 0 0 0 0 76704954.689266205 55910831.866020203 0 55910831.866020203 -151523819.03380585 0 0 0 0 98506711.873211861 -9905171.846321106 0 -9905171.846321106 -49224018.195266724 0 0 0 0 14370847.804506183 38239404.701921463 0 38239404.701921463 2715693.9557418823 0 0 0 0 -5341022.8923339844 11888167.831344604 0 11888167.831344604 33712813.621116638 0 0 0 0 12093015.383965505 10941881.842056597 0 10941881.842056597 -1369689.9272160623 0 0 0 0 3360079.2496245317 3363323.0762004182 0 3363323.0762004182 4651919.0325618647 0 0 0 0 37091579.408588409 95315109.502040863 0 95315109.502040863 -114329143.74398994 0 0 0 0 -41290011.058162689 104184289.99097824 0 104184289.99097824 -24533196.447383881 0 0 0 0 26744767.862390518 -4311348.028503418 0 -4311348.028503418 14505418.956205368 0 0 0 0 7204390.0306596775 10696250.536522791 0 10696250.536522791 1809693.7611837275 0 0 0 0 13138517.216689587 12412600.963653564 0 12412600.963653564 -3101181.6143951416 0 0 0 0 -5063200.536948204 13359779.472160339 0 13359779.472160339 1098424.2232646942 0 0 0 0 4543589.5309309438 10622933.113467734 0 10622933.113467734 4274595.6014797715 0 0 0 0 90307758.638874054 -3150991.5231838226 0 -3150991.5231838226 -240336226.84549713 0 0 0 0 1420842.7277526855 6809577.3117847443 0 6809577.3117847443 -3845585.9270401001 0 0 0 0 7511720.4002250955 8997113.6466245931 0 8997113.6466245931 328619.99963338673 0 0 0 0 -66249021.770572662 58203.574413299561 0 58203.574413299561 -83101916.043411255 0 0 0 0 -3915487.9356117249 33406042.69178772 0 33406042.69178772 -107631054.6935339 0 0 0 0 -719346.93142838543 8936228.6249423176 0 8936228.6249423176 8920975.7310090326 0 0 0 0 -101598.97412109375 5741860.5553894043 0 5741860.5553894043 3758845.3796005249 0 0 0 0 -1584141.7148094177 9513168.4089069366 0 9513168.4089069366 6706846.7593688965 0 0 0 0 1245831.4399997741 6105652.1958517805 0 6105652.1958517805 3375175.5361754484 0 0 0 0 1848953.7256745845 10277594.624762554 0 10277594.624762554 5146303.5591950798 0 0 0 0 6618666.0343631506 -47875872.474765897 0 -47875872.474765897 -104164024.67134476 0 0 0 0 -2910654.4911546707 7305047.5620594025 0 7305047.5620594025 3039659.6832504272 0 0 0 0 -11572389.275804996 12530303.157850266 0 12530303.157850266 3211605.0632095337 0 0 0 0 1289217.7939739227 8667471.4651737213 0 8667471.4651737213 -967135.34487915039 0 0 0 0 4244794.719599722 9969736.9029187653 0 9969736.9029187653 3831302.0717761368 0 0 0 0 6992807.4391174316 25251434.713241577 0 25251434.713241577 229026.58518981934 0 0 0 0 6611212.8445987701 27121688.889404297 0 27121688.889404297 -8900020.7599182129 0 0 0 0 11032405.041345596 15454556.569179535 0 15454556.569179535 -2930498.0171661377 0 0 0 0 1004815.2593050003 23814238.071205139 0 23814238.071205139 -2942.3082580566406 0 0 0 0 31575067.703321457 30596413.826924324 0 30596413.826924324 -27777669.089286804 0 0 0 0 30617261.429634094 22125963.057975769 0 22125963.057975769 -7927240.1608734131 0 0 0 0 18580979.532461166 36987879.033164978 0 36987879.033164978 -3335323.8211975098 0 0 0 0 19244533.212839127 37032755.467727661 0 37032755.467727661 -5963974.8147850037 0 0 0 0 23535967.152244568 42619113.639755249 0 42619113.639755249 -16969028.71395874 0 0 0 0 34786033.561061859 39853309.234046936 0 39853309.234046936 -41396436.904517174 0 0 0 0 41044753.358558655 52037754.406105042 0 52037754.406105042 -30491862.281959534 0 0 0 0 7464053.6218277961 8695974.52715596 0 8695974.52715596 -981441.48733130377 0 0 0 0 5779441.8814815246 8832991.1689492352 0 8832991.1689492352 2699601.6768991798 0 0 0 0 5912621.2653617859 9208851.9321784973 0 9208851.9321784973 1884477.5113310814 0 0 0 0 2932315.9151954651 9958012.0320510864 0 9958012.0320510864 6110142.0539398193 0 0 0 0 -12611442.919458389 12434711.001947641 0 12434711.001947641 19823348.992401123 0 0 0 0 -4223833.5604839623 7237250.8893269403 0 7237250.8893269403 4488223.2601130232 0 0 0 0 -7078377.7876358032 12373671.005104065 0 12373671.005104065 4024409.6912689209 0 0 0 0 -661334.44800977409 1285195.0970731694 0 1285195.0970731694 1243761.9504325055 0 0 0 0 -15644165.368168712 49761969.805270493 0 49761969.805270493 -9404450.9382095337 0 0 0 0 358520.58977624401 588911.84768576175 0 588911.84768576175 746214.91091606766 0 0 0 0 -16394921.712527752 18348017.569067061 0 18348017.569067061 24246397.374069214 0 0 0 0 8642274.0237960815 20183910.29970932 0 20183910.29970932 19089374.719963074 0 0 0 0 52773279.040939331 -1701809.1318817139 0 -1701809.1318817139 -31586111.464073181 0 0 0 0 -13736251.336830139 54932675.468845367 0 54932675.468845367 73147161.816589355 0 0 0 0 2054298.6361780167 -11222508.784034014 0 -11222508.784034014 74565516.255699158 0 0 0 0 3193223.0919498876 -151399.20382539555 0 -151399.20382539555 -2981948.1790805534 0 0 0 0 -3287632.9927883148 16965686.431081772 0 16965686.431081772 15126406.972640991 0 0 0 0 62349792.249206543 -35199240.856853485 0 -35199240.856853485 69994257.480567932 0 0 0 0 3670911.4137011091 11096499.27149317 0 11096499.27149317 901785.99360952526 0 0 0 0 -7616399.7322254181 10191301.247098923 0 10191301.247098923 10318601.57466507 0 0 0 0 483772.75885045528 8433818.9142570235 0 8433818.9142570235 3210459.6469696239 0 0 0 0 7485491.0435504913 16772355.730276108 0 16772355.730276108 -2353695.9496421814 0 0 0 0 -7844770.1166305542 11575133.011734009 0 11575133.011734009 15704072.373817444 0 0 0 0 819649.0744972229 1908193.596980473 0 1908193.596980473 -121180.43002569769 0 0 0 0 -726446.3998620261 8881057.9693893213 0 8881057.9693893213 2701750.2205888219 0 0 0 0 1798129.0930234764 6926066.58065145 0 6926066.58065145 2602548.7300715446 0 0 0 0 2307090.7061538696 9397017.4344902039 0 9397017.4344902039 2084331.8908157349 0 0 0 0 2032700.5797762871 9911364.4316616058 0 9911364.4316616058 1102787.3814811707 0 0 0 0 4375990.7606163025 10532873.139122009 0 10532873.139122009 1489039.8983688354 0 0 0 0 6396920.7328615189 9395167.2675457001 0 9395167.2675457001 550532.33337402344 0 0 0 0 3446495.5536011914 8230380.6843253793 0 8230380.6843253793 1283473.5083703212 0 0 0 0 4797839.7870521545 8691688.4838542938 0 8691688.4838542938 1346685.7182922363 0 0 0 0 -3929376.9388504028 10618715.453262329 0 10618715.453262329 51275.575721740723 0 0 0 0 1594299.5692986494 6764829.6237164065 0 6764829.6237164065 1733466.5918429568 0 0 0 0 9715304.4898792505 9230314.5935747623 0 9230314.5935747623 2966968.2733917236 0 0 0 0 1384924.1678659162 9997548.8969171159 0 9997548.8969171159 5729096.6249668971 0 0 0 0 10017578.636976242 8793303.3824806213 0 8793303.3824806213 1324925.0153045654 0 0 0 0 6328394.4579057693 19444200.628664494 0 19444200.628664494 11054130.303375244 0 0 0 0 8800974.2316070534 7249519.5846803915 0 7249519.5846803915 -428542.84450921416 0 0 0 0 7399036.8147991896 13872597.256033778 0 13872597.256033778 4987635.6566390991 0 0 0 0 2876564.7688217163 10728489.334159851 0 10728489.334159851 5012170.9649200439 0 0 0 0 2742541.8252754211 11662138.24786377 0 11662138.24786377 4044902.5170249939 0 0 0 0 2378048.0077056885 11129461.621173859 0 11129461.621173859 5754630.1125640869 0 0 0 0 -805010.49326705933 13867337.291248322 0 13867337.291248322 9765808.467010498 0 0 0 0 3622372.3741798401 14779499.221237183 0 14779499.221237183 4840261.0556049347 0 0 0 0 -8186006.6980514526 8907430.2375965118 0 8907430.2375965118 2349313.8063130379 0 0 0 0 1616545.8423652649 16073175.940021515 0 16073175.940021515 7293950.6081047058 0 0 0 0 6196532.0090366695 10685670.329843529 0 10685670.329843529 5569634.6981099956 0 0 0 0 -7715029.219493866 7696409.1953392029 0 7696409.1953392029 2172808.7586364746 0 0 0 0 3810872.5399168436 8780963.7670356054 0 8780963.7670356054 2971768.1407353356 0 0 0 0 -5756206.5986542702 3057276.3089489797 0 3057276.3089489797 5110514.8677421324 0 0 0 0 -16957524.227279663 39327435.456771851 0 39327435.456771851 -12177938.09519577 0 0 0 0 -27185293.286766052 -2762959.6211433411 0 -2762959.6211433411 18201738.91586113 0 0 0 0 -18328833.943855286 21522507.214897156 0 21522507.214897156 15662238.547569275 0 0 0 0 -10680347.172683716 18313966.158226013 0 18313966.158226013 -13807032.21446228 0 0 0 0 -26755935.992637634 9223600.4954013824 0 9223600.4954013824 -1583145.5721054077 0 0 0 0 3671741.6980237253 1766873.771071922 0 1766873.771071922 -504080.94573523849 0 0 0 0 6125251.676210762 11943451.682594243 0 11943451.682594243 3895564.1878479198 0 0 0 0 79573157.517082214 -1757027.3564739227 0 -1757027.3564739227 11592460.513778687 0 0 0 0 -32148477.760669708 4935104.4890823364 0 4935104.4890823364 1564805.9727592468 0 0 0 0 -45055725.685340881 19389942.359189987 0 19389942.359189987 26287721.961738586 0 0 0 0 -12399144.145463169 11537616.114112204 0 11537616.114112204 12285028.231726851 0 0 0 0 -8927374.1469034702 7968341.4267569929 0 7968341.4267569929 7949872.3392152786 0 0 0 0 70040225.259979248 -49252192.607620239 0 -49252192.607620239 -221722993.8458252 0 0 0 0 -36223683.909889221 23070046.66192627 0 23070046.66192627 14089283.996242523 0 0 0 0 -11218925.824563026 -3433875.585744381 0 -3433875.585744381 4093394.904083252 0 0 0 0 -10447191.28049469 102859080.5474987 0 102859080.5474987 350197876.83609009 0 0 0 0 349049.37776947021 22181503.218215942 0 22181503.218215942 15683351.351589203 0 0 0 0 -34485478.813926697 29812567.888677597 0 29812567.888677597 36475638.538692474 0 0 0 0 -14718429.910682678 31456075.307823181 0 31456075.307823181 36602945.587890625 0 0 0 0 1292912.1678493023 20487723.260545969 0 20487723.260545969 -2672322.9210662842 0 0 0 0 -4182702.5387220457 1474393.5593953542 0 1474393.5593953542 2438019.1332571041 0 0 0 0 -11251634.565151215 7864627.0360021591 0 7864627.0360021591 6347210.9287643433 0 0 0 0 6268666.7647769712 11171604.910553353 0 11171604.910553353 2634435.890957091 0 0 0 0 4535434.6510314941 34355113.628725052 0 34355113.628725052 59443433.035701752 0 0 0 0 826035.89748573303 29444970.985441089 0 29444970.985441089 34324578.0117836 0 0 0 0 1285464.2256622314 18134238.389116287 0 18134238.389116287 16445983.977478027 0 0 0 0 -2296562.8070678711 26507886.342662811 0 26507886.342662811 35649410.07752037 0 0 0 0 19351195.434316635 27659711.541401386 0 27659711.541401386 12423340.644714355 0 0 0 0 19051700.896673203 29951064.892371655 0 29951064.892371655 14061211.6248703 0 0 0 0 43820105.101608276 40352211.657047272 0 40352211.657047272 4925514.085308075 0 0 0 0 3865202.3814086914 17918222.302387238 0 17918222.302387238 7128355.7786045074 0 0 0 0 24337496.623916626 25741879.221691132 0 25741879.221691132 -2732509.2997570038 0 0 0 0 -2563094.9427032471 29612513.454936981 0 29612513.454936981 768758.25710296631 0 0 0 0 -24667106.148363113 15225449.62530899 0 15225449.62530899 1959603.0054855347 0 0 0 0 35896027.15826416 -10166550.537181854 0 -10166550.537181854 -18451466.512334824 0 0 0 0 25729759.789951324 24040407.568835258 0 24040407.568835258 -9777617.3660812378 0 0 0 0 60440583.338401794 30603267.045347214 0 30603267.045347214 -24516641.203285217 0 0 0 0 57879271.451370239 33082986.690631866 0 33082986.690631866 -19684277.660915375 0 0 0 0 53333228.955566406 47184453.708816528 0 47184453.708816528 -11348016.827507019 0 0 0 0 41074755.210479736 44123414.661548615 0 44123414.661548615 -7692082.346660614 0 0 0 0 42409370.040084839 37577374.421123505 0 37577374.421123505 -1421576.3917198181 0 0 0 0 8190147.8458404541 42253493.66053009 0 42253493.66053009 2366698.0752487183 0 0 0 0 9707938.0265874863 5062981.3392803073 0 5062981.3392803073 -10185107.442081451 0 0 0 0 67305734.990783691 15211406.362628937 0 15211406.362628937 6812680.8956489563 0 0 0 0 44504664.583438873 38051242.864509583 0 38051242.864509583 -1499329.6963348389 0 0 0 0 33118424.915344238 13077004.982797623 0 13077004.982797623 9011323.0446357727 0 0 0 0 42130902.799240112 36625697.654823303 0 36625697.654823303 5177587.2686886191 0 0 0 0 47205698.840629578 36582810.537451744 0 36582810.537451744 -3702411.1182632446 0 0 0 0 20611747.498008728 -7796350.1682071686 0 -7796350.1682071686 -4542733.1065311432 0 0 0 0 -1931672.6525917053 -1983328.2608394623 0 -1983328.2608394623 -5946647.2537078857 0 0 0 0 28613177.887893677 20250897.994106293 0 20250897.994106293 594106.403465271 0 0 0 0 -5458002.3501663208 13756049.631950378 0 13756049.631950378 24468554.182327271 0 0 0 0 184452.97954745963 521668.59019736946 0 521668.59019736946 -139811.47817013413 0 0 0 0 -53510400.765472412 -46654193.269947052 0 -46654193.269947052 156087379.13302994 0 0 0 0 25852638.382286072 -22985578.446966171 0 -22985578.446966171 61484910.488903046 0 0 0 0 84455245.084564209 -67037546.914035797 0 -67037546.914035797 53047286.389659882 0 0 0 0 64939779.392929077 78770818.659011841 0 78770818.659011841 115746830.54996872 0 0 0 0 69793044.122550964 -28293547.535825729 0 -28293547.535825729 -39398787.416885376 0 0 0 0 36356262.149475098 47162372.342931747 0 47162372.342931747 31145764.41588974 0 0 0 0 65805393.84564209 34815652.364555359 0 34815652.364555359 5137863.4999498725 0 0 0 0 50429831.447570801 21096387.03269577 0 21096387.03269577 9289467.0039024353 0 0 0 0 131444322.44294739 37638087.574192047 0 37638087.574192047 12648073.720409393 0 0 0 0 133094683.87142944 120082555.5606842 0 120082555.5606842 77679614.116357803 0 0 0 0 192041098.63088989 46396790.604438782 0 46396790.604438782 -29197369.186315536 0 0 0 0 45026852.06098175 49593829.556810379 0 49593829.556810379 43467725.612884521 0 0 0 0 40645591.787826538 41749940.574771881 0 41749940.574771881 30859033.732601643 0 0 0 0 43976091.082427979 -157516624.05030823 0 -157516624.05030823 178401929.2797718 0 0 0 0 16570396.438491821 46640386.089408398 0 46640386.089408398 156381233.94221497 0 0 0 0 857751.50719089806 188229.33319883607 0 188229.33319883607 -202325.01459581312 0 0 0 0 147525955.3250618 -323067378.68305826 0 -323067378.68305826 -370703619.25582886 0 0 0 0 62029544.313858032 30322885.576822281 0 30322885.576822281 -22272871.208786011 0 0 0 0 564964.56129058078 600154.31881830469 0 600154.31881830469 -426601.24739563465 0 0 0 0 176653959.84524155 23189488.452872276 0 23189488.452872276 -155296543.16014862 0 0 0 0 80669699.346622467 -3142415.3405871391 0 -3142415.3405871391 -20214356.143157959 0 0 0 0 50280868.532463074 -13242928.724407196 0 -13242928.724407196 -18327235.669851303 0 0 0 0 -107059627.18766403 -64481535.143572807 0 -64481535.143572807 20635922.487564087 0 0 0 0 29620987.451004028 68323170.79360199 0 68323170.79360199 -79170615.87871933 0 0 0 0 230200.32296067849 225831.0557472948 0 225831.0557472948 -85686.533064257354 0 0 0 0 243270333.62036514 -107387131.89513969 0 -107387131.89513969 -34924729.132904053 0 0 0 0 62403476.490463257 161488568.018116 0 161488568.018116 618052650.47665405 0 0 0 0 -22080655.173370361 -92028828.149089813 0 -92028828.149089813 83705460.213531494 0 0 0 0 -33744380.986701965 42727544.827217102 0 42727544.827217102 -83118237.933761597 0 0 0 0 107276102.58380127 110676077.39864254 0 110676077.39864254 -75856720.813903809 0 0 0 0 -228215233.59199524 -97581867.757696152 0 -97581867.757696152 -185921355.41199112 0 0 0 0 -35736980.774688721 182278242.12544441 0 182278242.12544441 -440023640.53632164 0 0 0 0 -480497217.58787155 421368420.80209923 0 421368420.80209923 -230974113.13802338 0 0 0 0 -107676777.74865723 185231396.86277294 0 185231396.86277294 -88822745.066595078 0 0 0 0 -108904924.32171822 183231286.24689579 0 183231286.24689579 -88050614.580162048 0 0 0 0 104474238.90133667 1494183.1272907257 0 1494183.1272907257 -137935661.98799515 0 0 0 0 -184520833.69342613 231973272.29383409 0 231973272.29383409 -12257205.844642639 0 0 0 0 117512677.51501465 -27998749.819749832 0 -27998749.819749832 -13139801.53302002 0 0 0 0 360083.89422108047 400921.17378403246 0 400921.17378403246 -364208.23205872625 0 0 0 0 -114066970.28310776 178383014.37990761 0 178383014.37990761 -63281300.856277466 0 0 0 0 -7257694.2969512939 49539337.84677124 0 49539337.84677124 -35598834.690984726 0 0 0 0 70768305.344558716 20006336.344449997 0 20006336.344449997 -24463882.330774307 0 0 0 0 23683345.246452332 -11723268.685747147 0 -11723268.685747147 -910674.83098983765 0 0 0 0 15246072.439985275 -9963256.7967886925 0 -9963256.7967886925 -6726634.5837097168 0 0 0 0 24961891.94670105 -8653968.0623207092 0 -8653968.0623207092 -6883574.7651252747 0 0 0 0 27689532.965788364 8751040.5519968271 0 8751040.5519968271 -16676827.494434357 0 0 0 0 48221100.584072113 2640046.1971149445 0 2640046.1971149445 -14862275.34916687 0 0 0 0 627550.63956451416 2568653.3112812042 0 2568653.3112812042 -5698637.0550003052 0 0 0 0 -2594485.7618839098 7919511.3213872351 0 7919511.3213872351 -748481.36643430591 0 0 0 0 -8529921.2759437561 6560211.068649292 0 6560211.068649292 5696338.9346237183 0 0 0 0 8959245.2861251831 11360954.590967178 0 11360954.590967178 -6639022.4640655518 0 0 0 0 2163969.0310842842 4854770.8898119787 0 4854770.8898119787 -293915.68357953243 0 0 0 0 13972498.204673767 8751003.3286705017 0 8751003.3286705017 -5351949.7283191681 0 0 0 0 -2791581.1464538574 7269227.3015365601 0 7269227.3015365601 -1912445.8747406006 0 0 0 0 -5363314.3421630859 10702746.338344574 0 10702746.338344574 -578877.9489364624 0 0 0 0 -7256325.5375976562 5661564.6084785461 0 5661564.6084785461 -3016592.9434204102 0 0 0 0 -436621.5373672694 822583.14829431288 0 822583.14829431288 294758.14701819606 0 0 0 0 5758708.137631759 5596278.8733489625 0 5596278.8733489625 -1099378.9923970476 0 0 0 0 1337182.5468369946 7821153.3717022389 0 7821153.3717022389 1066267.4952607583 0 0 0 0 -3036266.8639411926 6776156.8617687225 0 6776156.8617687225 -680071.04426956177 0 0 0 0 -2002875.9685668945 6191115.0923213959 0 6191115.0923213959 -3151169.3493881226 0 0 0 0 -7729495.8280258179 5091676.4396152496 0 5091676.4396152496 3552699.9731030464 0 0 0 0 -6121168.1169662476 7754963.5096359253 0 7754963.5096359253 21703242.559069633 0 0 0 0 6521019.937461853 11779390.934322357 0 11779390.934322357 10791112.582262039 0 0 0 0 2274760.5760190859 1124942.6765350159 0 1124942.6765350159 -614508.24786352366 0 0 0 0 -4595697.8669624329 -5470955.570022583 0 -5470955.570022583 32274397.032844543 0 0 0 0 49451641.198577881 -13401174.781965733 0 -13401174.781965733 -2029870.3705101013 0 0 0 0 8431652.2169418335 -1462450.8032112122 0 -1462450.8032112122 2892724.0208311081 0 0 0 0 
</DataArray>
<DataArray type="Float64" Name="cross_section_updated" format="ascii">
1 1 0.05049562171484747 1 1 1 1 0.050495891446040268 1 1 1 1 1 1 1 1 1 1 1 1 0.048731390522924092 1 1 1 1 0.048730395595767577 1 1 1 1 1 1 1 0.04994947903976079 1 1 1 1 1 1 1 1 0.04992665762833693 1 1 1 1 1 1 1 1 1 1 1 0.049868454027466071 0.049941481122697411 1 1 1 1 1 1 1 1 0.04488673912462951 1 1 1 1 1 1 1 1 1 1 1 1 1 1 1 1 1 1 1 1 1 1 0.045718182650318601 1 1 1 1 1 1 1 1 1 1 1 0.044876702530781805 1 1 1 0.047974926660293793 1 1 1 1 1 1 1 1 1 1 1 1 1 1 1 1 1 1 1 1 1 1 1 1 1 1 1 1 1 1 1 1 1 1 1 1 1 1 1 1 1 1 1 1 1 0.0500204872032931 1 0.048676258534914106 1 1 1 1 1 1 1 1 1 1 1 1 1 1 1 1 1 1 1 1 1 1 1 1 1 1 0.042923304867111808 1 1 0.049218643106707038 1 0.048584950339940869 1 1 1 1 1 1 1 1 1 1 1 1 1 1 0.054298113205463849 1 0.054307965062582002 1 1 1 1 1 1 1 0.038593530369509299 1 0.046742693303740666 1 1 1 1 1 1 0.050121634694295147 1 1 0.036078794053825372 1 1 1 1 1 1 0.033497636879550222 0.064809153450706439 1 1 0.050443822835571979 1 0.058461879455348913 1 0.050378853922706322 0.051407611761394509 1 1 1 0.061757797066372196 1 1 1 1 1 1 1 1 1 1 1 1 1 0.067484803629682136 1 1 1 1 1 1 1 0.070046337017618865 1 1 1 1 1 1 1 0.072431554569567846 1 1 1 1 0.050367627206572729 1 1 1 1 1 1 0.050533404959610916 1 1 1 0.051354530393099049 1 1 1 1 1 1 1 0.052739913256076749 1 1 1 1 1 1 0.052286870264012152 1 1 1 1 1 1 0.04754587949302571 1 1 1 1 1 1 1 0.050590384538066933 1 1 1 1 1 1 1 1 1 1 1 1 1 1 1 1 1 1 1 1 1 0.052077877364790803 0.050158632446248297 1 1 1 1 1 0.04058888361402048 1 1 1 1 1 1 1 0.053018374391451809 1 0.040202406951018052 1 1 1 0.055464133302129737 1 1 1 0.048214764248636084 1 0.050030210761379479 1 1 1 1 1 1 1 0.028869426287021098 1 1 1 1 1 1 1 0.074392534789810449 1 1 1 0.049994364910381124 1 1 1 1 1 1 1 1 1 1 1 1 1 1 1 1 1 1 1 1 1 1 1 1 1 1 1 1 1 1 1 1 0.030034821805669784 1 1 1 1 1 1 1 1 1 1 1 1 1 1 1 1 1 1 1 1 1 1 1 1 1 1 1 1 1 1 1 1 0.049356591699290825 1 1 1 1 1 1 1 1 1 1 1 1 1 1 1 1 1 1 1 1 0.049661600395472051 1 1 1 1 1 1 1 0.050280784105347462 1 1 1 1 1 0.050903791253934794 1 1 0.049996899237056421 1 0.044946841571644872 1 1 1 1 0.043310886388608055 1 1 0.041678930404751201 1 1 1 1 1 1 0.048446748857532501 1 1 1 1 1 1 1 1 1 1 1 1 1 1 1 1 1 1 1 0.043896126342426976 1 1 1 1 1 1 1 1 1 1 1 0.050101372992998688 0.04289216215152912 1 1 1 1 1 1 1 1 1 1 1 1 1 1 1 1 1 1 1 1 1 0.048703957029185618 1 0.049561160070639834 0.047059436311223835 1 1 0.050702968367909801 1 1 1 1 1 1 1 1 1 1 1 1 1 0.045673448856611204 1 1 1 1 1 1 1 0.049943337413999415 0.050543901725419976 1 1 1 1 1 1 1 1 0.049111170177755015 0.050931814611266515 1 1 1 0.051118999229463336 1 1 1 1 1 1 1 1 1 1 1 1 1 1 1 1 1 1 1 1 1 1 1 1 1 1 1 1 1 1 1 1 1 1 1 0.050441985885306642 1 1 0.049821092731978246 1 1 1 1 0.049661157684643353 1 1 1 0.049853590003976003 1 1 1 0.049964503209328749 1 1 0.049888919803191809 1 1 1 1 1 1 1 1 1 1 1 1 1 1 1 1 1 1 1 1 1 0.049778540550971626 1 1 1 0.049729405040548506 1 1 1 1 1 0.049243289773101419 1 1 1 1 1 1 0.049911024571324375 1 1 1 1 1 1 1 1 1 1 1 1 1 1 1 1 1 1 0.049960145332079167 1 1 1 1 1 1 1 1 1 1 1 1 1 1 1 1 1 1 1 1 1 0.049840064952665103 1 1 1 1 1 1 1 1 1 1 1 1 1 1 1 0.050377367192681946 1 1 1 1 1 1 1 1 1 1 1 1 1 1 1 1 1 1 0.052229142682744423 1 1 1 1 1 1 1 0.04941291627968987 1 1 1 1 1 1 1 1 1 1 1 1 1 1 1 1 1 1 1 1 1 0.050430276610430598 1 1 1 1 1 1 1 1 1 0.051326311833894273 1 1 1 1 1 1 1 1 0.031985607694004256 1 1 1 1 1 1 1 1 1 1 1 1 1 1 1 1 1 1 1 0.07502133199119404 1 1 1 1 1 0.034562255478594144 1 1 1 0.049908446245134845 1 1 1 1 1 1 0.046075129902209563 1 1 1 1 1 1 1 1 1 1 0.051231797969347431 1 1 1 1 1 1 1 1 1 1 1 1 0.042466281684063717 1 0.053916255550059383 1 1 1 1 1 1 1 0.07279393167053308 1 0.021478344179134232 1 1 1 1 1 1 1 1 1 1 1 1 1 1 1 1 1 1 1 1 1 1 1 1 1 1 1 1 1 1 1 1 1 1 1 1 1 1 1 1 1 1 1 1 1 0.046587628050828514 0.050666804189892792 1 1 0.049993056657440207 1 1 1 1 1 1 1 1 1 1 1 1 1 1 1 1 0.049679185601853484 1 1 1 1 0.069441361484399791 1 1 0.050278016143555752 1 1 1 1 1 1 0.066078137779908536 1 0.063784060555233682 1 1 0.049849955912116439 1 1 1 1 1 1 1 1 1 1 0.054302281611226196 1 1 1 1 1 0.050263764557835044 0.050047548844890474 1 1 1 1 0.057932923102162609 1 1 0.05994622007343587 1 0.039657488079244962 1 1 1 1 1 0.051416527584450061 1 1 0.050010149964602492 1 1 1 1 1 1 1 1 1 1 1 1 0.05008939327889661 1 1 1 1 1 1 1 1 1 1 1 1 1 1 1 0.052792027634077136 1 0.050000665949692616 1 0.048915120737635348 0.048223670167971383 1 0.052784738975440691 1 1 0.050018408734108732 1 1 1 1 1 1 0.042642483660955147 1 0.050139776446683521 1 1 0.040162005368497733 1 1 1 0.053482953744339513 1 1 0.04999760862514159 1 1 1 1 1 0.038479987994159158 1 1 0.050057423241907699 1 1 1 1 1 0.05002829976600319 1 0.054482548370891309 1 1 0.054024585257659158 1 1 0.047934031819703606 1 1 1 1 1 1 1 1 0.049198847510608018 1 1 1 1 1 1 1 1 1 1 0.050387197203854039 1 1 1 1 0.051251323538295424 1 1 0.050828578643821808 1 1 1 1 1 0.049212791989509348 1 1 1 1 1 0.050006649572913134 1 0.050161079391448385 1 1 1 1 1 1 0.050057387398078204 1 1 1 1 1 1 1 1 0.049941223462725941 0.053954564457319019 0.051509213314251567 1 1 1 1 0.049117914788371159 1 0.051843899135649532 1 1 1 0.054016398691011221 0.050013990560859638 1 1 1 0.051603474224843335 1 1 1 0.054288119233545866 1 0.04882425511295365 1 0.052165407163468944 0.05219358179960077 1 0.049993959686222472 1 1 1 1 0.055818044068329423 1 1 1 0.049878529751055597 1 0.056166605901869102 1 0.040786545789556081 1 1 1 1 1 1 1 0.049997119036722465 1 1 1 1 0.044432333578837663 1 1 1 1 1 1 1 1 0.049992946170720094 1 0.049989258863929242 0.049629871162971149 1 1 1 0.048898076318234722 1 1 1 1 0.047517890996413577 0.049152534538225837 1 1 0.046391475369218935 0.050165409604129046 1 1 1 1 1 0.050067845330727598 1 1 1 1 1 1 1 1 0.050042264131727798 1 0.050085469489193436 1 1 1 1 1 1 1 1 1 1 1 1 1 1 1 1 1 0.050069327147536202 1 1 1 1 1 1 1 1 1 1 1 1 1 1 1 1 1 1 1 1 1 1 1 1 1 0.049987723274034751 1 0.05019461497610779 1 1 1 1 1 0.04999776853518962 0.050002292298195833 1 1 1 1 0.049907427494563394 0.0499907162075744 1 0.050345061841491075 1 1 0.049465618656604711 1 1 0.051058424072556445 1 1 1 1 0.049832246926548182 0.049823823410960887 1 1 1 1 1 1 1 1 0.049995668220552431 1 1 0.049980835839949542 1 1 1 0.049838777531282727 1 1 0.04996406818183162 1 1 1 1 1 1 0.050197344985408975 1 1 1 1 1 1 0.047906901723220582 1 1 1 1 1 0.050615603087246198 1 1 0.053444846313175996 0.046851304999553547 1 1 0.047881319210448629 1 1 0.049990427471996682 1 1 1 1 1 1 1 1 1 1 1 1 0.053385771824288185 1 0.049458227910688157 1 1 0.049773179297558062 1 1 1 1 1 1 0.050004279138272087 1 1 1 0.049449566373143641 0.05286812789114631 0.050000329150708886 1 1 1 0.048560283550053707 0.050285043182140679 1 0.049291451548134191 0.053634656155503092 1 1 0.051021473382398631 1 1 0.049631042353563845 1 0.04920746964325258 1 0.050773955663471704 1 1 1 0.049920705074605276 0.049518762521378351 1 1 0.049860693135829651 0.049604062224862355 0.050928559100592907 0.050803504474368218 1 1 1 0.050064481636726062 0.050033293499026535 1 1 0.04896781968369416 0.053160662988625047 0.050722752273859265 1 0.048898606892415264 0.050212224536738508 1 1 0.051247340096627438 1 0.050763009922331667 0.048798325336069141 1 0.052513237697126555 1 1 0.049995713819921767 1 0.05235700957628963 0.050248256239382789 1 1 1 1 0.050144222129294772 0.05206028279697248 1 1 0.049992374863277206 1 1 1 0.049966908058520769 1 1 1 1 1 1 1 1 1 1 1 1 1 1 1 1 1 1 1 1 1 1 1 1 1 1 1 1 1 1 1 1 1 1 1 1 1 1 1 1 1 1 1 1 1 1 1 1 1 1 1 1 1 1 1 1 1 1 0.046047829318227762 1 0.048696097704228621 1 1 1 1 1 1 1 1 1 1 1 1 1 1 0.045296305987173838 1 1 1 1 1 1 1 1 1 1 0.048542788283325984 1 1 1 1 1 1 1 1 1 1 1 1 1 1 1 1 1 1 1 1 1 1 1 1 1 1 1 1 1 1 1 1 1 1 1 1 1 1 1 1 1 1 1 1 1 1 0.049914600517142582 1 1 1 0.049586020936997544 1 0.050611442371996926 1 1 1 1 1 0.051672958442939988 1 0.050217137428706905 1 1 1 1 1 1 1 1 1 1 1 1 1 1 1 1 1 1 1 1 1 1 1 1 1 0.050121237874512295 1 1 1 1 1 1 0.041125436087481676 1 0.047116356209565759 1 1 1 0.035681059919384348 1 1 0.034878965386749526 1 1 1 1 1 1 1 1 1 1 1 1 1 1 1 1 1 1 1 1 1 1 1 1 1 1 1 1 1 1 1 1 1 1 1 1 1 0.052343773094696677 1 0.045154686350021664 1 1 1 1 1 1 1 1 1 1 0.050316147360423821 1 1 1 1 1 1 1 1 1 1 1 1 1 1 1 1 1 0.046678101975571262 1 1 1 0.050021104243638863 0.031985779987230498 1 0.03997201842431293 1 1 1 1 1 1 1 1 0.050517658345919925 1 1 1 1 0.050229903578561864 1 1 1 1 1 1 1 0.049785922039491171 1 1 0.042644875143825242 1 0.036688735533033617 1 1 0.050495508762116503 1 1 0.040992512091114916 0.050034550433006302 1 1 1 1 1 1 1 1 1 1 1 1 1 1 1 0.028584817105901737 1 0.045736756454308802 1 1 1 0.051326819264146006 1 0.049886947520508998 1 1 1 1 1 1 1 1 1 1 1 1 0.050149062600349972 1 0.050333004804418387 1 1 1 1 1 1 1 1 0.050392052829828657 1 1 0.049214010916038935 1 1 1 0.049437903363063654 0.0487712740712406 1 1 1 1 1 1 1 1 1 1 1 1 1 1 1 1 1 1 1 1 1 0.049278408402262747 1 1 1 1 1 0.049999958166641129 1 0.050074607858797526 1 1 1 1 0.050161065834133323 1 1 0.049767876791889161 1 1 1 1 1 0.048923789974428269 1 1 1 1 0.052323739672240369 1 1 1 1 1 1 1 0.049073806195430891 1 1 1 0.050406256508729409 1 1 1 1 1 1 1 1 1 1 1 0.050337418764300874 1 1 1 1 1 1 1 1 0.049925536055374919 1 1 1 1 1 1 0.049879234064553468 1 1 1 1 1 1 0.050042134301029453 1 1 1 1 1 1 1 1 1 1 1 0.048750493359378602 1 1 1 0.049926351453304797 1 1 1 0.050398908073818721 1 0.049816998373770502 1 1 1 1 1 1 0.050088436291850905 1 1 1 1 1 1 1 1 1 1 1 1 1 1 1 0.050505632018348873 1 1 1 1 1 0.053027696548360641 1 1 1 1 1 1 1 1 0.051057117775848419 1 1 1 1 1 1 1 1 1 1 1 1 1 1 1 1 0.049723808318924791 1 1 1 1 0.050585074324122389 1 1 1 1 1 1 1 1 1 1 1 1 1 1 1 1 1 1 1 1 1 1 1 1 1 1 0.045980586536238467 1 1 1 0.049979830870148435 1 0.05041045440740622 1 1 1 1 0.048307093310638718 1 0.050210301295129947 1 1 1 1 1 0.0497491974296385 1 1 1 1 1 1 1 1 1 0.045173743148621208 1 1 1 1 1 1 1 1 1 1 1 1 1 1 1 1 1 1 1 1 1 1 1 1 0.049523462252410437 0.049661317264024125 1 1 1 1 1 0.049579056895742303 1 1 1 0.048649746782371349 1 1 1 0.049184174673131659 1 1 0.05159123532315802 1 0.049535599413603706 1 1 1 1 0.050256385696139355 1 1 1 1 0.050864128533929139 0.050150393539227872 1 1 1 1 1 1 1 1 1 1 1 1 0.049508640140545609 1 1 1 1 0.050040813449209826 1 1 1 1 1 0.050052164714746473 1 1 0.049982444103711755 1 1 1 1 1 1 1 1 1 1 1 1 1 1 1 1 0.050099527330217254 1 1 0.050214335369076588 1 1 1 0.050379170237847298 1 1 1 1 1 1 1 1 1 1 1 0.050164834868770727 1 1 1 1 1 1 1 1 1 1 1 1 1 1 1 1 0.050240316566702789 1 1 0.054571410803580071 1 0.056110303269371768 1 1 0.054226064286264558 1 0.050743097863738817 1 0.055466175585765436 1 1 1 1 1 1 1 1 1 1 1 1 1 0.054898653588424252 1 0.054257366968218236 0.049033990971113287 1 1 0.056024323942665363 0.050076514396509945 1 1 0.049995336212597982 0.04704507795490466 1 1 1 0.056884524096485548 1 0.043472716447132749 1 1 0.055533107349718801 1 1 1 1 0.066771234703798032 0.062212094541717361 1 0.057359509345752957 1 1 0.047090501037992651 0.049997489780198592 1 1 0.04653621847627526 1 1 1 0.043137373615246291 1 1 1 0.053723366952201743 0.051859009548318374 0.043739758878858864 1 1 0.045855589160063923 1 0.044719924550445225 0.049997925975536449 1 1 1 1 1 1 1 1 1 1 1 0.049583443943852133 0.050124306202397571 1 0.041330763856591839 1 0.059309452046408896 1 0.046221892485754229 1 1 1 0.049802942238981039 1 1 1 1 1 0.050079622429587967 1 1 1 1 1 1 1 1 1 1 1 1 1 1 1 1 1 1 1 1 1 1 1 1 0.051026428358271141 1 1 1 1 1 1 1 1 1 1 1 1 1 1 1 1 1 1 0.045748092047555193 1 1 1 1 1 1 1 1 1 1 1 0.065195084828516311 1 1 1 1 1 0.043736364514402139 1 1 1 1 1 1 1 1 1 1 1 1 1 1 0.051589090210402908 1 1 1 1 1 1 1 1 1 1 1 1 1 1 0.045557331870078925 1 0.057304219318388666 1 1 1 1 0.054580291424490404 1 1 1 1 1 1 1 1 1 1 1 1 0.039872593315347718 1 0.050107143766511653 1 1 1 1 0.050015033101813516 1 1 1 1 1 1 1 0.055516271332636348 1 1 1 1 1 1 1 0.050005522971670421 1 1 1 0.039385258419528633 1 0.049994904480197944 1 1 1 1 1 1 1 1 1 0.044054635903548744 1 1 1 1 1 1 1 1 1 1 1 1 1 1 1 1 1 1 1 1 1 1 1 1 1 1 1 1 1 1 1 1 1 1 1 1 1 1 1 1 1 1 1 0.048978341275566224 1 1 0.050287947640053579 1 1 1 1 1 1 1 1 1 1 0.04967174498456009 1 1 1 1 1 0.051088511967550765 1 1 0.050028665924904361 1 1 1 1 1 1 0.041451965379090634 1 1 1 1 0.050043662790307489 1 1 0.043467110707339579 1 0.046972959748530392 1 1 1 1 1 1 1 1 1 1 1 0.0482674434709945 1 0.043792393478882669 1 1 1 1 0.049434454433735703 1 1 1 1 1 1 1 1 1 1 1 1 1 1 1 1 1 1 1 1 1 0.052900117975670076 1 1 1 1 0.050951068870114365 1 1 1 1 1 1 1 0.04753112640157274 1 1 1 1 1 0.055404192770792102 1 1 1 0.045434496167074262 1 1 1 0.053681385736476392 1 1 0.051170074028954043 1 1 1 0.044587713944005236 1 1 0.048012425852064389 1 1 1 1 1 1 1 1 1 1 1 1 1 1 1 1 1 1 1 1 1 1 1 1 1 1 1 1 1 1 1 0.050788551796882311 1 1 1 1 1 1 1 1 1 1 1 0.049393687013366092 1 1 1 1 1 1 1 1 1 1 1 1 1 1 1 0.048185876948888991 0.04855980819695823 1 1 1 0.052321814165523076 1 1 1 1 0.049566444984831079 1 1 0.05220558307177782 1 1 1 1 1 1 1 1 1 1 1 1 1 0.052650847312372052 0.051021398846861916 1 1 1 1 1 1 1 1 1 1 1 0.057432262681875172 1 1 0.053196168894191279 1 1 1 1 1 1 1 1 1 1 1 1 1 1 1 1 1 1 1 0.055474842599165262 1 1 1 0.050030621694727322 1 1 1 1 1 0.048682474983178695 1 1 1 1 1 1 1 1 1 1 1 1 1 1 1 1 1 1 1 1 0.051875917513417788 1 1 0.050956749173225166 1 1 1 1 1 1 1 1 1 1 1 1 1 1 1 1 1 1 1 0.052126283622917352 1 1 1 1 1 1 1 1 1 1 1 1 1 1 1 1 1 1 1 1 1 1 1 1 1 1 1 1 1 1 1 1 0.04985173746896579 1 1 1 1 1 1 0.045865519026715859 1 1 1 1 1 0.04746007931153489 1 1 1 1 0.049034392554701038 1 1 1 1 1 1 1 1 1 1 1 1 1 1 1 1 1 1 1 1 1 1 0.049779224789751275 1 1 1 1 1 1 1 0.049949151407723408 1 1 0.048454228183085132 1 1 0.049835736420828183 1 1 1 1 1 1 0.04949216811569615 1 1 1 1 1 1 1 1 1 1 0.041744425866377839 1 0.057345122682355518 1 1 1 1 1 1 1 1 0.049946174584386174 1 1 0.041457473673806096 1 1 1 0.054927365628655876 1 1 1 0.053294432608576157 1 1 1 0.050000076337141555 0.049953855886261646 1 1 0.048698383594730062 1 1 0.047088655861766027 1 1 0.049988742184355034 1 1 1 1 1 1 1 1 1 0.049988755533599327 1 1 1 0.045490205550040304 1 1 1 0.043901455535081776 1 1 1 0.049985674325713395 1 0.049958836808603815 1 1 0.0522826025821823 1 1 1 1 1 1 1 1 0.044535078428791119 1 1 0.048989179444654078 1 1 1 1 1 1 1 1 1 1 1 1 1 0.04538061414885447 1 0.049987001312992274 1 1 1 0.050723423433547479 0.052677579320220866 1 0.047663240028531124 1 1 1 1 0.049999298296934211 1 0.050540432919154152 1 1 1 1 1 1 1 1 1 0.050107122963490069 1 1 1 1 1 1 1 1 1 1 1 1 1 1 1 1 1 1 1 1 1 1 1 1 1 1 1 1 0.049616183166198112 1 1 1 1 1 1 0.050251149426581612 1 1 1 1 1 1 0.050200178259233653 1 1 1 1 1 1 0.050076998162559831 1 1 1 0.050067663927999072 1 1 1 0.049896879458264973 1 1 0.04037176135437251 1 1 1 1 1 1 0.053785203027062418 1 1 1 0.040590086846313225 0.050008219949984042 1 1 1 1 1 1 1 1 1 1 1 1 1 1 1 1 1 0.050043042505029091 1 1 1 1 1 1 1 0.049962397425227553 1 1 1 1 1 0.046736261166764374 1 1 1 1 1 0.050002769176098354 1 1 0.050362048232987594 1 1 1 1 0.050077574103286948 1 1 1 1 1 1 0.054047068976207806 1 0.040182628768529724 1 0.054337518990358463 0.046555358198971587 1 0.050094954643617795 1 1 1 0.050045042266354811 1 1 1 1 1 0.050092735782960161 1 1 1 0.050019229174242515 1 1 1 1 0.05006619997135639 0.049371666218903675 0.05117819470678979 1 1 1 1 0.050058300683948773 0.046929933539392454 1 0.047442583641890468 1 1 1 1 1 1 0.049999697989756745 1 0.050031502787040792 1 1 0.049751773980698522 1 1 1 0.050251080579791475 1 1 0.048021925318419867 1 1 1 1 1 1 1 1 1 1 1 1 0.049854622401574636 1 1 1 1 0.048301672807571444 1 1 1 1 0.046830788690707087 1 1 1 1 1 1 1 1 1 0.049553309163420822 0.051174974880984429 0.052554162727636619 1 1 1 0.050002828216032816 0.050031412788375369 1 1 0.049215358357714227 1 0.050333853813843532 1 1 1 1 1 1 1 0.04560578960536462 1 1 1 1 1 1 1 1 1 1 1 1 1 1 1 1 0.049893637414978327 1 1 1 1 1 1 1 1 1 0.049673291629177267 1 1 0.047306253823104244 1 0.047389936565655877 1 0.048977044704589023 1 1 0.044719642750528019 1 1 1 0.049999961161432738 0.053575344216851881 1 1 0.050219609777266902 1 1 1 0.045088927408870431 1 1 1 1 0.050083587579014446 1 1 1 1 1 1 1 1 1 1 1 0.047065797510273406 0.049997604548606002 1 1 1 1 1 1 1 1 1 1 1 1 1 1 1 1 1 1 1 1 1 1 1 1 1 1 1 1 1 1 1 1 0.050007483718006278 1 1 1 1 1 1 1 1 1 1 1 1 1 1 1 1 1 1 1 0.05217692221609635 1 1 1 1 1 1 0.049988563822195874 0.047367115781165793 1 1 0.048220834761030201 0.048549029739575401 1 1 1 0.048595821214630991 1 1 1 1 1 1 1 1 1 1 1 1 1 1 1 1 1 1 1 1 1 1 1 0.052255697565880638 1 0.044030651067430593 1 0.050756426076813202 1 1 1 1 1 1 0.049979181052055816 1 0.05127125522846749 0.050329246716546608 1 1 0.064478607265937418 1 1 1 1 1 1 0.049925847901560558 0.062179176372160062 1 1 0.054669846208547729 0.04640016199861597 1 1 0.048697166208912623 0.049977249035739468 1 1 1 1 1 1 1 1 0.049991199810635982 1 1 1 1 1 0.05226415662188217 1 1 0.062419842005976285 1 1 1 0.049963077837103687 1 1 1 1 1 1 1 1 1 1 1 1 1 1 1 1 1 1 1 1 1 1 1 1 1 1 1 1 1 1 1 1 1 1 0.050437968928952012 1 1 0.046080189719737298 1 0.042619499045156994 0.051288968307410657 1 1 1 1 1 1 1 1 1 0.041185442025133821 1 1 1 1 1 0.03995265845164106 1 1 1 1 1 1 1 0.049119370448273032 1 1 1 1 1 1 1 1 0.047390298397157513 1 1 1 1 1 0.045765340193951405 1 1 1 1 1 1 1 1 1 1 1 1 1 1 1 1 1 1 1 1 1 1 1 1 1 1 1 1 1 1 0.049629263380252996 0.049761509697685898 1 1 1 1 1 1 1 0.050225667542006344 1 1 1 0.048792652246393439 1 0.049338764588103864 1 1 1 1 1 1 1 1 1 1 1 1 1 1 1 1 1 1 1 1 1 0.050074014956784006 1 1 1 1 1 1 0.046256542618523987 1 1 1 1 1 1 1 0.050042545345931291 1 1 0.050028263965012594 1 1 1 1 1 1 0.044137949192940257 1 1 1 0.051619903291560874 1 1 0.047315362826317126 0.049453293854895823 1 1 1 1 1 1 1 1 1 1 1 1 1 1 1 1 1 1 1 1 1 1 1 1 1 1 1 1 0.05012796932990779 1 1 1 1 1 1 1 1 1 1 1 1 1 1 1 1 1 1 1 0.049445530683179653 1 1 1 0.048458541682512332 0.050026359418092206 1 1 1 1 1 0.050017483881407546 1 1 1 0.049923776128954905 1 1 1 1 1 0.049770742809463996 1 1 1 1 1 1 1 1 1 1 1 1 1 1 1 1 1 1 1 1 1 0.050424502618662784 1 1 1 1 1 1 0.051741149641762914 1 1 1 1 1 1 1 1 1 1 1 1 0.049558764599268924 1 1 1 1 0.051792039164305206 1 0.049560474941746244 1 1 1 1 1 1 1 1 1 1 1 1 1 0.05404613522461249 1 1 1 1 1 0.056369070173156476 1 1 1 1 1 1 0.051787811082723491 1 1 1 1 1 1 1 1 1 1 1 1 0.050520167699184951 1 1 0.051895132247933629 1 1 0.048673700109862675 1 1 0.049576834314989354 1 1 1 1 1 1 1 1 1 1 0.052928787282212793 1 1 1 1 1 1 1 1 0.050001495209790615 1 1 1 0.050031346008371134 1 1 1 0.052825822958473712 1 1 0.054356711067849617 1 1 1 0.048147382335363531 1 1 1 1 1 0.053973201576484567 1 0.050000288455060951 1 1 1 1 0.04996006011736355 0.054282453547268857 1 1 1 0.064129270101387831 1 1 1 1 0.050085569375056413 1 1 1 1 1 1 1 1 1 1 1 1 1 1 1 0.050138691164304305 1 1 0.05253251588815766 0.04682210221950777 1 1 1 1 0.047042778146935853 1 1 1 1 1 1 0.050063945042005335 1 1 1 1 1 1 0.050020376523721793 1 1 1 1 1 1 1 1 0.049213718930597034 1 1 1 1 1 1 1 1 1 1 0.050098493055591387 1 1 0.048196778277390079 1 1 0.048973075246196242 1 1 1 1 1 0.056605500447120052 0.049995587475776281 1 1 0.0499865815282165 0.05020828632303604 1 0.050875204061254543 1 0.047677149530555969 1 0.047305353934030694 0.051802770378337484 1 1 0.05287138818580038 1 0.049590925019232179 1 0.048978761611475567 1 0.050073829510037977 1 0.049743671344567399 1 1 0.05000666776149551 1 0.053940488255836985 1 0.048781773840248593 1 1 1 1 1 1 0.050930793292291582 1 1 1 0.050008405891565272 1 1 1 1 1 1 1 1 1 0.050109345123821286 1 1 0.049859498609133676 1 0.050001933133372679 1 0.050497534027282923 1 1 1 0.076417834370165222 0.050070595789777038 1 1 1 1 1 1 1 1 1 1 1 0.05014566310650781 1 1 1 1 1 0.050372720077311813 1 1 1 1 1 1 1 1 1 1 1 1 1 1 1 1 1 0.049923198651418969 1 1 1 1 1 1 0.048655061951491968 1 1 1 0.049104174480293639 1 1 0.050234392120955908 1 1 1 0.04686498676740599 1 0.04432936691815819 0.050745294632320803 1 1 1 1 1 1 1 1 1 0.048606498946412752 1 1 1 1 1 1 1 0.049988241744881062 1 0.0494995113109125 1 0.049829885511507688 1 1 1 1 1 1 1 1 1 1 1 1 1 1 1 1 1 1 1 1 1 1 1 1 1 1 1 1 1 1 1 1 1 1 1 1 1 0.058223004139686792 1 1 0.057976365357678271 0.043920237418633622 1 1 1 1 0.043972262313734953 1 1 1 1 1 0.046129186143749758 1 1 0.050017853684396082 0.062312564272662532 1 1 1 1 1 1 0.055127338664334911 1 0.050005696531418925 1 1 0.047808674346025287 0.050464130460865786 1 0.051362548548434153 1 1 1 0.050988109855020843 1 1 1 1 0.051481412436421667 1 1 1 0.047437015796990001 1 1 0.055488072941540095 0.04994204895184369 1 1 1 0.041686109125803832 1 1 1 1 0.050102157697247192 1 1 0.048440157284174098 1 1 1 0.05147295031496079 1 1 0.04874025012671479 1 1 1 0.055439865072679756 1 0.04701716716627078 1 1 0.04613144513991202 1 1 0.047039563243053431 0.050001824012983906 1 1 0.058494936757168541 1 0.050041785554635079 0.044151959734683409 1 1 1 1 0.054976232299404258 1 1 1 1 0.056844474850837122 1 1 1 1 1 1 1 1 1 1 1 1 0.039193156381353039 1 1 1 1 0.050002031714697623 1 0.055069496014709854 1 1 1 1 1 0.046361087828375842 0.049995052256226594 0.050056014192097271 1 1 1 1 1 1 1 1 0.044846172691456451 1 1 1 1 1 1 0.047343750042166725 1 1 1 1 0.045079745039246083 1 1 1 1 1 1 1 1 1 1 1 1 1 1 1 1 1 1 0.047955906715404284 1 0.058673877626229089 1 1 0.054315933002654998 0.054477705185494919 1 0.046785325564347779 1 1 0.050422216682492055 1 0.049483479947801882 1 0.047890379638420924 1 0.049340691720545976 1 1 1 1 0.04975423022419867 1 1 1 0.048701057744008666 1 1 1 1 1 1 1 1 1 1 1 1 1 1 1 1 1 1 1 1 1 1 1 1 1 0.049854040029579806 1 1 1 1 1 0.033447314754043098 1 1 1 1 1 1 1 1 1 1 1 0.049708344946192681 1 1 1 1 1 0.049861164953939004 1 1 0.050212550970941038 0.034876449268540326 1 1 1 0.045300821013279167 1 1 0.052183642705070754 0.044582633088238954 1 0.037045996459919253 1 1 1 1 1 1 1 1 1 1 1 1 1 1 1 1 0.049538049403573287 1 1 1 1 0.050477206133687787 1 1 1 1 1 1 1 1 0.052295440221646429 0.051081968022889862 1 1 0.049975375091286432 1 1 1 1 1 1 1 1 1 0.049881869812655438 0.051431226027556128 1 1 0.049997750691620595 1 1 1 0.050198736568999376 1 1 1 1 1 1 1 1 1 1 1 1 1 1 1 1 1 1 1 1 1 1 1 1 1 1 0.049846733449295369 1 1 1 1 1 1 1 1 1 1 1 1 1 1 1 1 1 1 1 1 0.056651253291024009 1 1 1 0.048665426332415405 0.049965282365499207 1 1 1 0.056383227955423457 1 1 0.050050924183728099 1 1 1 1 1 0.050545312607813919 1 0.049315970975136597 1 1 1 1 1 1 1 1 0.050208984889446244 1 1 1 0.052943111638800569 1 1 0.050744758957308428 1 0.049989047880382484 1 1 1 0.047596610382782401 1 1 1 0.04287569709796174 1 1 1 1 1 1 1 1 1 1 1 1 1 1 1 1 1 0.038580675117168589 1 1 1 1 1 1 1 1 1 0.049484121842443884 1 1 1 1 1 1 1 1 0.034806707073414295 1 1 1 1 1 1 1 1 1 1 1 1 1 0.050039694071992727 1 1 1 0.050077752994072022 1 1 1 1 1 1 1 1 1 1 1 1 1 1 1 1 1 1 1 0.048584168904161382 1 1 1 0.052372425717551657 1 0.050045155092621627 1 1 1 0.058400614814920183 1 1 1 0.050037856774847907 0.05114597075983901 1 1 1 1 1 1 1 1 1 1 1 1 1 1 1 1 1 1 1 1 1 1 0.04991520268937271 1 1 1 1 0.049781127406391429 1 1 1 1 0.049865924717018714 1 1 1 1 1 1 1 0.051046607554326912 1 1 1 1 0.050662525135119624 1 1 1 1 1 1 0.050240656241867659 1 1 1 1 1 1 0.050364206165354919 1 1 1 0.04999341942662066 1 1 1 1 1 1 1 1 1 0.049556801685914878 1 1 1 1 1 1 0.04875822208040017 1 1 1 1 1 1 1 1 1 1 1 0.049996170765138986 1 1 0.050821682938326965 1 1 1 1 1 0.049788864701089112 1 1 0.047775441493123891 1 1 1 1 1 1 1 0.059424215440314392 0.049625879980204804 1 1 1 1 0.050249944708620618 1 1 1 1 1 1 0.050002943464764429 1 1 1 1 1 1 1 1 1 1 0.050549110297557057 1 1 1 1 1 1 1 1 1 1 1 1 0.049564559416235249 1 0.049885158776034194 1 1 1 0.044223339371215711 1 1 0.06483142256650852 1 1 1 1 0.046828033490281917 1 1 1 1 1 0.065109476601888289 1 1 1 1 1 1 1 1 0.065010793398951452 1 1 1 1 0.049163589819990139 1 1 1 1 1 1 1 0.049700649251002746 1 1 1 1 1 1 1 1 1 1 0.049210532489239213 1 1 1 0.050218882894522254 1 0.050670685666315385 1 1 1 1 1 1 0.049945942208148304 1 0.052213477608308662 1 0.050076601850924191 1 1 1 1 0.049226528318971945 1 1 1 1 1 1 1 1 1 1 1 1 1 1 0.050140796102459327 1 0.055394631643718065 1 1 1 1 1 1 1 0.049761014708972498 1 1 1 1 1 1 1 1 1 1 1 1 1 0.056592899890790339 1 1 1 1 0.058029176991410886 1 1 1 1 1 1 1 1 1 1 1 1 1 1 1 1 1 1 1 1 1 1 1 1 0.050156926214250358 1 1 1 1 0.056129309631696205 1 1 1 0.050092129927199899 1 1 0.05000101886129088 1 1 0.05012979855288225 1 1 1 1 1 1 1 1 1 1 1 1 1 1 1 0.050044721351574659 1 1 0.05001083224159359 1 1 1 1 1 1 1 0.044060238584355461 1 1 1 1 1 0.04189789069838748 1 1 1 0.066691690480411528 1 1 1 0.069026018710450734 1 1 1 1 1 1 1 0.052104096202341632 1 1 1 0.051221835850089936 1 0.049829251882550246 0.047199732996545216 1 1 1 1 1 0.049207874653271685 1 1 1 1 1 1 1 1 1 1 0.049234721625832201 1 1 1 1 1 1 1 1 1 1 1 1 1 1 1 1 1 1 1 1 1 1 1 1 1 1 1 1 1 1 1 1 1 1 1 1 1 0.049976750090260411 1 1 1 1 1 1 1 1 1 1 1 1 1 1 1 1 0.050216623399634855 1 1 1 1 1 1 1 1 1 0.049976781810490221 1 1 1 1 1 1 1 0.050086824846752608 1 1 1 1 1 1 1 1 1 1 1 1 1 1 1 1 1 1 1 1 1 0.049316373676685447 1 1 1 1 1 1 1 1 1 1 1 1 1 1 1 1 1 0.049517589943471829 1 1 1 1 1 1 1 1 1 1 1 1 1 1 1 1 1 1 1 1 1 1 1 1 1 1 1 1 1 1 1 1 1 1 1 1 1 1 1 1 1 1 1 1 1 1 0.050678133893077959 1 1 1 1 1 1 1 1 1 1 1 1 1 0.0513608012902887 1 0.049993408199251896 1 1 1 1 1 0.049930810048056364 1 1 1 1 1 0.049404908973122233 0.047936838989137004 1 1 1 1 1 1 1 1 1 1 1 1 1 1 1 1 1 0.049459706122810761 0.051028002443842042 1 1 1 1 1 1 0.050301145672746364 1 0.051073642738054023 1 1 1 1 1 1 1 1 1 0.05072063868648017 1 1 1 1 1 1 1 1 1 1 1 1 1 1 1 1 1 1 1 0.049666308999679505 1 1 1 1 1 0.050430183461419406 1 0.050857728680731823 1 1 1 1 1 1 1 0.050812906789857552 1 1 1 0.05042754521931242 1 1 1 0.053000987127130007 1 1 0.052502107973946624 1 1 1 0.046839823990407189 1 1 0.047777894004985423 1 0.054547248921514663 1 0.048522187650351406 1 1 0.051147074267048169 1 1 1 1 1 1 1 1 1 1 1 1 1 1 1 1 1 1 1 1 1 0.049904514590574989 1 0.055816197858443148 1 1 1 1 1 1 1 0.055151811753105129 1 1 1 1 1 1 1 1 1 1 1 1 1 1 1 1 1 1 1 0.049897934017195639 1 1 1 0.049794121907437858 1 1 1 1 1 1 1 1 1 1 0.049160949358477923 1 1 1 1 0.048466970064111069 1 1 0.049600722791971266 1 1 1 1 1 0.050586176051067119 1 1 1 1 0.050373559076579949 1 0.049158684761060653 1 1 0.056971033970526559 1 1 1 1 1 1 1 0.056827850847665055 1 1 0.050168796692214142 1 0.055959410477936282 1 1 1 1 1 1 1 1 1 1 1 1 1 1 1 1 1 1 0.049845573836589996 1 1 1 1 1 1 1 0.049446029750096418 1 1 1 1 0.052075311205676808 1 1 1 1 1 1 1 1 1 0.049806600884533404 1 1 1 1 0.049151594542223134 1 1 1 1 1 1 1 1 1 1 1 1 0.050214358474585372 1 1 1 1 1 1 1 1 1 0.054556747439943612 1 1 1 1 1 1 1 1 1 1 1 1 0.052264742142504511 1 1 0.050545063590736752 1 1 1 1 1 1 1 1 1 0.049721492879977403 0.073454117575885991 0.044187189672555152 1 1 1 0.050002251898461025 1 1 1 1 1 1 0.037538302523975921 1 1 1 0.04799866729218491 0.050061030776461825 1 1 1 1 1 1 1 1 1 1 1 1 0.056623336636958538 1 1 1 0.049946871839636225 0.034953893585522103 1 1 1 1 1 0.033282834454929321 1 1 1 1 0.034375206567520619 1 1 1 1 0.05011103306996325 1 1 1 1 1 0.067468127174487649 0.057798696834806533 0.046756242015263967 1 1 1 0.05287257881129781 0.053887582186386764 1 1 1 1 1 1 1 1 1 0.046469214829756265 0.049848931728696678 1 1 1 0.050287662453535636 0.049965840493318474 1 1 1 1 1 1 1 1 1 1 1 1 1 1 1 1 1 0.04561857921284046 1 0.044702686964724341 1 1 1 1 0.038250779051480652 1 1 1 1 1 1 1 0.03911601014905447 1 1 1 1 1 1 1 0.043657217380249788 1 1 0.058051471414688936 1 0.042779053792758585 0.038474876758294654 1 1 1 0.05609479622064141 0.049993783813011138 1 1 1 0.049983064794265189 0.050386975622792277 1 1 1 1 1 1 1 1 1 1 0.049867525266465887 1 1 1 1 1 1 1 0.052588061392718106 1 1 1 1 0.056728412977430649 1 1 1 1 1 1 0.037394421838169642 1 1 1 1 0.050163325705433096 1 0.040506203249849333 1 1 1 1 1 1 1 1 1 1 1 1 1 1 0.035832065868401666 1 1 1 1 1 1 1 0.035573357191690087 1 1 1 1 0.049975444674583182 1 1 1 0.052857623066859427 1 1 1 1 1 1 1 1 1 1 1 1 1 1 1 1 1 1 1 1 1 1 0.051940621516384095 1 0.050715265569934741 1 1 0.050448153632588366 1 1 1 0.051070235068664024 1 1 0.051310802024817533 1 1 1 1 1 1 1 1 1 1 1 1 1 1 1 1 1 1 1 1 0.051759508230399424 0.048857649011383598 0.049250874965652128 1 1 1 1 1 1 1 1 1 1 1 1 1 0.053424891763780645 1 1 1 0.048091004716133257 1 1 0.057713220294600166 1 1 1 1 0.054661477878174165 1 1 0.053859891160473759 0.049542429596740128 1 1 1 1 0.050784670426170797 1 1 0.048847201639038045 1 0.049632213033050716 1 1 1 1 1 1 1 1 1 1 1 1 0.04801693305060617 1 1 1 1 1 1 1 0.051588683140786434 1 0.04985162116457667 1 1 1 1 0.051503902255734965 1 1 1 1 1 1 1 1 1 1 1 1 1 1 1 1 1 1 1 1 1 1 1 0.052525383195806005 1 1 1 0.049775090691919183 1 0.04418022042654049 1 1 1 0.060138664490483038 1 1 1 1 1 0.049961909874482305 1 1 0.044656245041380105 1 1 1 1 1 1 1 1 0.05052928050398714 1 1 1 1 1 0.050977055285347919 1 1 1 1 1 1 1 1 1 1 1 1 1 1 0.051065122228621022 1 1 1 1 0.051235098931502535 1 1 1 1 1 1 1 1 1 1 1 1 0.049720856394565756 1 1 1 1 0.050195212391819156 1 1 1 1 1 1 1 1 1 1 1 1 1 0.048278574232227547 1 1 0.049820857220083857 1 1 1 0.050359303801105627 1 1 1 1 1 1 1 1 1 1 1 1 1 0.049531859418808333 0.056592472007020597 1 0.05093020078958288 0.052418246385603856 1 1 1 0.048765818798101934 0.068004126737267689 1 0.052063530176726672 1 0.050215860243127755 1 0.058380006490347365 1 1 1 0.045895609656041364 1 0.050003806339843644 1 1 1 1 0.056318790311635454 1 1 1 1 1 1 0.046776549657919074 1 1 1 1 1 0.069613485496667654 1 1 0.050007484710068544 1 1 0.043216855597525645 1 1 0.050122956515651636 1 1 1 1 1 0.038314071820645688 1 0.042290892787346664 1 1 1 1 1 1 1 1 1 1 1 1 1 0.049412685720248067 1 1 0.049500305620752631 1 1 1 1 1 1 1 1 1 0.04795031981652885 1 1 1 1 1 1 1 1 1 0.032721418014657937 1 1 0.049333711152161987 1 0.032531451425497543 1 1 1 1 1 1 1 0.046269961098565841 1 1 1 1 1 1 1 0.033451597418750978 1 0.053665597433728084 1 1 0.050144559624661314 1 1 1 0.050022150857466141 1 1 1 1 0.049942191608153982 1 1 1 1 1 0.050027094626998392 1 1 1 1 1 1 1 1 1 1 1 1 1 1 1 1 1 1 1 1 1 0.050680129186066972 1 1 0.050731932861282039 1 1 1 0.049611870076370156 1 1 1 1 0.050247016067034231 1 1 1 1 1 1 1 1 1 1 1 1 1 1 1 1 1 1 1 1 1 1 1 0.05151656955420942 1 1 1 1 1 1 0.054238433721587362 1 1 1 1 1 1 1 1 1 1 1 1 1 0.049959900759015227 1 0.065539966216416806 1 1 0.048557638164924116 1 1 1 1 0.067847750864928211 0.051858229070692194 1 0.050668203322723267 1 0.05634460099208452 1 1 1 1 1 0.070819917073948524 1 1 0.075965681374173408 0.075655488468420656 1 1 1 1 1 0.043986981919542478 1 1 0.050001341177041102 1 1 1 1 1 1 1 1 0.062679298343372908 0.045197862272008012 1 1 1 0.056684942340997378 1 0.050001371016835605 1 1 1 1 1 0.052140988086721018 1 0.04431511886366668 1 1 1 1 1 0.051264177833208163 0.050130268457661387 1 1 1 1 0.050022668183502601 1 1 1 1 0.05040104939392609 1 1 1 1 1 1 1 1 1 1 1 1 1 1 1 1 1 0.05038261064128894 1 1 0.050118142343722145 1 1 1 0.050092250264591714 1 1 1 1 1 1 1 1 1 1 1 1 1 1 1 1 1 1 1 0.050919112440211717 1 1 1 1 1 1 1 1 1 1 1 1 1 1 0.051608333011394995 0.049497820176952395 1 1 1 0.050039182976191088 1 1 1 1 1 0.050631153334420489 1 1 1 1 1 1 1 1 1 1 1 0.050142078430679263 1 1 0.050049828166087537 1 1 1 1 1 1 1 1 1 1 0.053277767531096691 1 1 1 0.056293087002527158 1 0.051985753560709433 1 0.048105531615347294 1 1 1 0.050006018745356026 0.047652242368048416 1 0.054399687356916929 1 1 0.049506911906819301 1 1 0.048429749914327851 0.056672335674603294 1 1 1 0.05652451968965394 1 1 0.04594775765423674 1 0.056097143345746774 1 1 1 0.044715689142992468 1 1 0.046822870194103111 0.045246159983970913 1 0.045020217723780141 1 1 0.04303244675803973 1 0.048891618366856099 1 1 1 1 1 1 1 1 1 0.049674431830228044 1 1 1 1 1 0.05048492680797044 1 1 1 1 1 1 1 1 1 1 0.043066162352484061 1 1 1 1 0.045493315794681216 0.043095780057948604 1 1 0.060678366440312007 1 0.062356708165934881 1 1 1 1 1 0.061629288506090014 1 1 0.043138792725859069 1 0.049998442598288756 1 1 1 1 1 1 1 0.042999864598001009 1 1 1 1 1 1 1 1 1 0.059176852165373342 1 0.049968433074488672 1 0.050021312403634305 1 0.046737254375006546 1 1 1 1 0.050097913137812713 1 1 1 1 1 0.050310221503365372 0.042837057649089474 1 1 1 1 1 1 0.049484366982426461 1 1 1 1 1 0.0563214201904325 1 1 1 1 0.060206813672279973 1 1 0.054425688141871403 1 0.059082876995124878 1 1 1 0.046492001022767293 1 0.062207197091245191 1 1 0.061446616956521323 0.049998577378333825 0.060278896074513685 1 1 1 1 1 1 0.050000444080897294 0.040672485072080072 0.048422118505954584 1 1 1 1 0.048514053003798907 1 0.051796561873216296 1 0.04568455050796829 1 1 1 1 1 1 0.050413327094931661 1 1 1 1 1 1 1 1 1 1 1 1 1 1 1 1 1 1 1 1 1 1 1 1 1 1 1 1 1 1 1 1 1 1 1 1 1 1 1 1 1 1 1 1 1 1 1 1 1 0.052963513610797604 1 1 1 0.058035075347411397 0.049970547159949245 1 1 1 1 1 1 1 1 1 1 1 1 1 1 1 1 1 1 1 0.045104192003000088 1 1 1 1 1 1 1 0.051089370655279812 1 1 0.042834407223189215 1 1 0.04860532361687888 1 1 0.054526718093895588 1 0.046346135198930841 1 1 0.046059809431164209 1 1 1 0.050073934649356416 1 0.055620813663867681 1 0.046771058604291052 0.047391868755555094 1 1 1 0.054135765170406941 0.05005804516638937 1 1 0.046063648905216109 1 1 0.05560976571872752 1 1 1 1 1 1 1 1 1 1 1 1 0.054402600805612544 1 1 1 1 0.053488637713841991 1 1 1 1 0.039797038484483731 1 1 1 1 1 1 1 1 1 0.048540245136838744 1 0.050006027978240074 1 1 1 1 0.046615690371513044 1 1 1 0.04643265079976254 1 1 1 1 1 1 0.041604667482007592 1 1 0.050258316117057888 1 1 1 0.061893538458213139 1 1 1 1 1 1 1 0.045448912344743173 1 1 1 1 1 0.047514261193991374 1 1 1 1 1 1 1 1 1 1 1 1 1 1 1 0.042239398540301822 1 1 1 1 1 0.048786664889172451 1 1 0.053156737478606872 1 0.04677207835833358 1 1 1 1 0.049479424669933422 0.04974365165516148 1 1 0.05253987437542855 1 1 1 1 1 1 1 1 1 1 1 0.050368210362184446 1 0.05102758232488773 1 1 1 1 1 0.050319617016976688 1 1 1 0.048989598039662345 1 1 1 0.049863081565373849 1 1 1 1 1 1 1 1 1 1 1 1 1 0.058564888561418782 1 1 1 1 1 1 1 0.046415142925772125 1 0.049314465659700296 1 1 1 1 1 1 1 0.049928446361360262 0.034625652439819056 1 1 1 1 1 1 1 1 1 0.050510365790557094 1 1 1 1 1 1 0.04258534739488791 0.049987811583322307 0.049997794246527533 1 0.038737471406175304 1 1 1 1 1 1 0.041319916928847671 1 0.049579324633672768 1 0.051259225424024155 1 0.034890318340407823 1 1 1 1 1 1 0.033537687771909797 1 1 0.049879436214452177 1 1 1 1 0.050474071874711271 1 1 1 1 1 1 1 1 1 1 1 1 1 1 1 1 1 1 1 1 1 0.074935367593725238 1 0.049101138660808584 1 1 1 1 1 1 1 1 1 1 1 1 1 1 1 1 1 1 1 1 1 1 1 1 1 1 1 1 1 1 1 1 1 1 1 1 1 1 1 1 1 1 1 1 1 1 1 1 1 1 1 1 1 1 1 1 1 1 0.050142031933147285 1 1 1 1 1 1 1 1 1 1 1 1 1 1 1 1 1 1 1 1 1 1 1 0.050433145646612679 1 1 1 0.050801483570958622 1 0.049843928038166431 1 1 1 1 1 1 1 1 1 1 1 1 1 1 1 1 1 1 1 1 1 1 1 1 1 1 1 1 1 1 1 1 1 1 1 1 1 1 1 0.049360087365917987 1 0.051131906033259546 1 1 1 1 1 1 1 1 1 1 1 1 1 1 1 1 1 1 1 1 1 1 1 1 1 0.046077421423913988 1 1 1 1 1 1 1 1 1 1 1 1 1 1 1 1 1 1 1 1 1 1 1 1 1 1 1 1 1 1 1 1 1 1 1 1 1 1 1 1 1 1 1 1 1 1 1 1 1 1 1 1 1 1 1 1 1 1 1 1 1 1 1 1 1 1 1 1 1 0.030596094466992553 1 1 1 1 1 1 1 0.036778580207669713 1 1 0.049344251037383061 1 1 1 1 1 1 1 1 1 1 1 1 1 1 1 1 1 1 1 1 0.040542350753466211 1 1 1 1 1 1 1 1 1 1 1 1 1 1 1 1 1 1 1 1 1 1 1 1 1 1 1 1 1 1 1 1 0.049958379409549419 1 1 1 1 0.047875197067210197 1 0.050203834808700269 1 1 1 1 1 1 0.049970351585452884 1 1 0.04980425568801685 1 1 0.049927805970494482 0.049962349748050749 1 0.050031383388185573 1 1 1 0.049935455797359973 1 1 1 1 1 1 1 1 1 1 1 1 1 1 1 0.049144949204312657 1 1 1 1 1 1 1 1 0.049960070487958801 1 1 1 1 1 1 1 1 1 1 1 1 1 1 1 1 1 1 1 1 1 1 1 1 1 1 1 1 1 1 1 1 1 1 1 1 0.039632869618183048 1 1 1 1 1 1 1 0.052398646550668303 1 1 0.05327015039381159 1 0.037207277969944268 1 1 1 1 1 1 1 1 1 1 1 0.050001771915734725 0.050013572131865851 1 1 0.051237730681103641 1 1 0.050039976899130229 0.049804111958125979 1 1 1 1 0.048842109926632765 1 0.053214560056942528 1 1 0.048510686156828492 1 0.049750266818409147 0.051734020772676213 1 0.039629616176460991 1 0.050579911228768135 1 1 1 1 1 1 1 0.050113963420498196 1 0.049953505056943716 1 1 1 1 1 0.050011800907000768 1 1 1 0.041036380080510318 1 1 0.051114273298454901 1 0.04960629083789924 1 0.043131264502445282 0.049769956672549166 1 1 0.060513093352435793 1 1 1 1 1 1 0.044711544063469152 1 1 1 1 1 1 1 1 0.05563195391537399 0.050042170953396671 1 1 1 0.058669793895519462 1 1 1 1 0.049085899279406778 0.062703339568158434 1 0.058373373362684035 1 1 1 0.05302580836499405 1 1 1 1 1 1 1 1 1 1 1 1 1 1 1 1 0.051725185579272873 1 1 1 1 1 1 0.046608054955749816 1 0.04453247349174163 1 1 1 0.046695275622045569 0.042583629934822211 1 1 0.050041047652629463 1 0.049990704384507277 1 1 1 1 1 1 1 1 1 1 1 1 0.049988692938856535 0.050011608886364863 1 1 1 1 1 0.052370073544736204 1 1 1 1 1 1 1 0.052860326602960125 1 1 1 0.050000378488358123 1 0.042379528322061155 1 1 0.050054178695408041 1 1 1 1 1 1 1 1 1 0.051333106665490569 1 1 0.050545474870361422 1 1 1 1 1 1 1 1 1 1 1 0.047168598660907911 1 1 1 1 1 1 1 1 1 1 1 1 1 1 1 1 1 1 1 1 1 1 0.050281143617418103 1 1 1 1 1 1 1 1 1 1 1 0.050094899487728786 1 1 1 1 0.048134898155724158 1 1 1 1 1 1 1 1 1 1 1 0.04973840357084594 1 1 1 1 1 0.04880954577579899 1 0.049986547383166879 1 1 1 1 1 1 1 1 1 0.044499060247132557 1 1 0.040377936077548734 1 1 0.053129482435339492 1 1 1 1 0.050887214568652223 1 1 1 1 1 1 1 1 1 1 1 1 1 1 1 1 1 1 1 1 1 0.053502141539342518 1 1 0.043653035909488262 1 0.052471093298661703 1 1 1 1 1 1 1 1 1 0.045603158305791189 1 1 0.052881580004831355 0.04999222207259077 0.047993771623515813 1 1 1 0.050000856328848049 1 1 1 1 1 1 0.052220682879371441 0.049999194914156456 1 0.056544270862798576 1 1 0.057689873554145323 1 1 0.044896269605908562 1 1 1 1 0.045235419612564158 1 1 1 1 0.044483717609428 1 1 1 1 1 1 1 1 1 1 1 0.048729274640299212 1 1 0.05094238783004823 1 0.044789013836541991 0.050131689531276037 1 1 0.050007859119104221 0.047501447357301413 0.050941366717918331 1 1 1 1 1 1 1 1 1 1 0.049418069029636733 1 1 1 1 1 1 1 1 1 0.048747199473967037 1 1 1 1 1 0.049804715912995408 1 1 1 1 1 1 1 1 1 1 0.048066499579827796 1 1 1 1 1 1 1 1 1 1 1 1 1 1 1 1 1 1 1 1 1 1 1 1 0.039841929065351465 0.052312443142189989 1 1 1 1 1 1 1 1 0.04635098825466008 1 1 1 1 1 1 1 1 1 1 1 1 1 1 1 1 0.048953645188553344 1 1 1 1 0.041609075438080984 1 1 1 0.057850963011645294 0.049986774787827877 1 1 1 1 1 1 0.049985529881773044 1 0.05250948385573373 1 1 1 0.048438986711725925 1 1 1 1 1 1 1 1 0.049423121073916748 1 0.041162325542099337 0.055995669283460274 1 1 1 1 1 1 1 1 1 1 1 1 0.051749557267865322 1 1 0.051929274455246185 1 0.050614781755120519 1 1 1 1 1 1 1 1 1 1 1 1 1 1 1 1 1 1 1 1 1 1 1 0.05113597535904775 1 1 1 1 1 0.038200065459431713 1 1 1 1 1 1 1 1 1 1 0.049584110737238292 1 1 1 0.049854607080626993 1 1 1 1 1 1 1 1 1 1 1 0.050089406442954121 0.040324288371914374 1 1 1 1 1 0.04325541611869315 1 1 1 0.045638085630203377 1 1 1 1 1 1 1 1 1 1 0.04990235400515549 1 1 1 1 1 1 1 0.050046108391402729 0.045177974565322979 1 0.054388249769050573 1 1 1 1 0.048722124679570093 1 1 1 1 1 0.046381396827240934 1 1 1 1 1 1 1 1 1 1 0.050011205103648496 1 1 1 1 1 1 1 1 1 1 0.046970988554015679 1 1 1 1 1 1 1 0.049069308495926549 1 1 1 1 1 1 1 1 1 1 1 1 1 1 1 1 1 1 1 1 0.050305821855076246 1 1 1 0.050948920836811518 1 1 1 1 1 1 1 1 1 1 1 1 1 0.051984220571273866 1 0.054546518893802666 0.047235530330683735 1 0.051895191494835055 0.043039543350183306 1 1 1 1 1 0.050082508652314353 1 1 1 1 1 1 1 0.047951782086330524 1 1 0.04309439400863288 1 1 0.054891923660225259 1 1 0.05347792849739666 1 1 0.047330149085160984 0.048346019744965066 0.051299717863345744 0.050467042343886867 1 1 0.049248944132472786 0.050055918901433648 1 1 0.054420734167337309 1 1 0.051796307940518649 1 1 1 1 0.047182545931896851 0.04300034017729186 0.048679763014532459 0.042331598521203412 1 1 1 0.050403141774121016 1 0.049946583494811153 1 0.054680297898731606 1 0.048781290986819055 0.053344283753248435 1 1 1 1 1 1 1 0.049250726110981642 1 1 0.036290428269493566 1 0.050189412466361216 1 1 0.047424286639702891 0.051671309280627437 1 1 1 1 1 1 1 1 1 1 1 1 1 1 1 1 1 0.049847756318274025 1 1 1 1 1 1 1 1 1 1 1 1 1 1 1 1 1 0.050282570891832606 1 1 1 1 1 1 1 1 1 1 1 1 1 1 0.058980566359984998 0.051128858312583743 1 1 1 1 0.050002490003731581 1 0.059213149553096173 1 1 1 0.047759332496026569 0.051286683207827768 1 0.049753059745204366 1 1 1 1 1 1 1 1 1 1 1 1 1 1 1 1 1 1 1 0.060081660233012563 1 0.050032691812835137 1 1 1 1 0.049846933566457391 1 1 1 1 1 1 1 1 1 1 1 1 1 1 1 1 1 1 1 1 0.049894015495292855 1 1 1 1 1 1 1 1 1 1 1 1 1 1 0.050344126489402174 1 1 1 1 1 1 1 1 1 1 1 1 1 1 1 1 1 1 1 1 1 1 1 1 1 1 1 1 1 1 1 1 1 1 1 1 1 1 1 1 1 1 1 1 1 1 1 1 1 1 1 1 1 1 1 1 1 1 1 1 1 1 0.045349538996144897 1 1 1 0.045986983234784895 1 1 0.04785617721731153 1 1 1 1 1 1 1 1 1 1 1 0.048130806017473368 1 1 1 1 0.050612373724348014 1 1 1 1 1 1 1 1 1 1 1 1 1 1 1 1 1 1 1 1 1 1 1 1 1 1 1 1 1 0.050113017541651983 1 1 1 1 0.050113120849171328 1 1 1 1 1 1 1 1 1 1 0.049682845546239654 1 1 0.049331426256463126 1 1 1 1 1 1 1 1 1 1 1 1 0.050467281597489769 1 1 1 1 1 1 1 1 0.049529465750644167 1 1 1 1 1 1 1 1 1 1 0.046157014347232052 1 0.05151106938043843 1 1 1 0.042754744173164626 1 1 1 0.051398216393922599 1 0.037548575168491208 1 0.04434237763093047 0.050113835922529382 1 1 1 1 1 0.050109535437871 1 1 1 1 1 1 1 1 1 1 1 1 1 1 1 1 1 1 1 1 1 1 1 0.050124433764282349 1 1 0.051952561223021589 1 1 1 0.050542195714333431 1 0.050040766775493725 1 1 1 1 1 1 1 1 1 1 1 1 0.050129814941975499 1 1 1 1 1 1 1 1 1 1 1 1 1 1 1 1 1 1 1 0.05023435302154225 1 1 1 1 1 1 1 1 1 1 1 1 1 1 1 1 1 1 1 1 1 1 1 1 1 1 1 0.050136988651720962 1 1 1 1 1 1 1 1 1 1 1 1 1 1 1 1 1 1 0.050201525808381067 1 1 1 0.050311228103525923 1 1 1 0.049884626006378469 0.05004760830234891 1 1 1 1 1 0.049872805268142008 1 1 1 1 1 1 1 0.049562145292269467 0.049693613917752448 1 1 1 0.050133407571086419 1 0.050179879663174845 1 1 1 1 1 1 0.058511511092500267 0.053082519198981944 1 1 0.052937156702141538 0.051476192669053594 1 1 1 1 1 1 1 1 1 1 0.049984413396558576 1 1 1 1 1 1 0.050281897003534887 1 1 1 1 1 1 1 1 1 1 1 1 1 1 1 1 1 0.049952448847633377 1 1 1 1 0.046900997988555626 1 1 0.04985192156082164 1 1 1 1 1 1 1 1 1 1 1 0.051351197612900176 1 0.053349145055671038 1 0.054224949197688575 1 1 1 1 1 1 1 1 1 1 1 1 1 1 1 1 1 1 1 0.049554210067616802 1 1 0.04872510659168771 1 1 1 0.050013390185949413 1 1 0.050904957885029634 1 1 1 1 0.047396313838154132 1 1 1 1 1 1 1 0.047095608915823997 1 1 1 1 1 1 1 1 1 1 1 1 1 1 1 1 1 1 1 1 1 1 1 1 1 1 1 1 1 0.04422611187602745 1 1 1 1 1 1 1 1 1 1 1 1 1 1 1 1 1 1 1 1 1 1 1 1 1 1 1 1 1 1 1 1 1 1 1 1 1 0.051339209355972616 0.053526587426713512 0.046632625530923649 1 1 0.057504144458994266 1 1 1 0.050278696097466019 1 0.050030623290085258 1 1 1 1 1 0.050058351387764995 1 1 1 1 1 1 1 0.059360016951294892 1 1 1 1 1 1 1 1 1 1 1 1 1 1 0.051739658006109968 1 1 1 0.050025249213582673 1 0.061052617598330146 1 1 1 1 1 1 1 1 0.049122713340091037 1 1 1 1 1 1 1 0.049998543937564741 1 0.050056410863281067 1 0.054077524115093395 1 1 1 1 1 1 1 1 0.048222208361105127 1 1 0.049193996861342307 0.050591207262654758 0.047670319165277614 1 0.059876304853808016 1 0.044741226801507092 1 1 1 1 1 1 1 1 1 1 1 1 1 1 1 1 1 1 1 1 1 0.041963545210234918 1 1 0.052383118560119291 0.046213072832402655 1 1 1 0.04995994774650328 1 1 1 1 1 1 1 0.05059430965714188 1 0.050208958881554244 1 1 1 1 0.049991085863253973 1 1 0.051412043111103339 1 1 1 1 1 1 1 0.056149730995769698 1 1 0.056361207302926958 1 1 1 0.05631094450616618 1 1 1 1 1 1 1 1 1 0.050629179416939049 1 1 1 1 1 1 0.051438437299908546 1 1 0.058870422544956419 1 1 1 1 0.063387457544889322 1 1 1 1 1 1 0.048817815086976524 0.048323920669443368 0.05305130056531876 1 1 1 0.049952986008626223 1 0.049993216768323363 1 0.051325209386072171 1 1 1 1 1 1 0.053817179052087473 1 1 1 0.055648104037249478 1 1 1 0.050936890508977928 1 1 1 1 1 1 1 1 1 1 1 1 0.049900165788538384 1 1 1 0.050076617377907612 1 1 1 1 1 0.049702326536189473 0.05470498378289327 1 1 0.050130970366219212 1 0.054700241093116858 0.052705867562517106 0.046500118130504253 1 1 1 0.049925671408130715 1 1 1 1 1 0.059709593030408008 1 1 1 1 1 1 1 1 1 1 1 1 0.050032722369324774 1 1 1 1 1 1 0.045985272115805775 1 1 0.046417361302372007 1 1 0.050047863730351097 1 1 1 1 1 0.049839923113143628 1 1 0.051038954325724861 1 0.049943185278311833 1 0.050060152727216999 1 1 1 1 1 1 0.05009287509654177 1 1 1 1 0.049811251765849059 1 1 1 1 1 1 1 1 1 1 0.049431928579686486 1 1 1 1 1 0.0494491551755901 1 1 1 1 1 1 1 1 1 1 1 1 1 1 1 0.049587651799381814 1 1 1 1 1 0.048705546546280107 1 0.048842898395966707 1 1 1 1 1 0.05066348669366931 1 1 1 1 1 0.05169232392862487 1 1 1 1 1 0.049605964103925052 1 1 1 1 1 1 1 1 1 1 0.048112986631897232 1 0.049996067483741718 1 0.060644392030187615 1 1 0.045571340305956297 1 1 1 1 1 1 1 1 0.051419697491585606 1 0.048197596361398559 1 1 1 1 1 1 1 1 1 1 0.04764892394071242 1 1 1 1 1 1 1 1 1 1 0.049620821128206385 1 1 1 0.056827581217447284 1 0.048482870330599448 0.061395483342254482 1 1 1 0.051193020941653934 1 1 1 0.055043731855213864 0.049973343171538259 1 1 1 1 1 1 1 1 1 1 0.049998812279044673 0.049961235459128298 1 1 1 1 1 0.050029203473202347 1 1 1 1 1 1 1 1 1 1 0.055114194822872664 1 0.048236233264247912 0.051121990075039932 0.051834433818933587 1 1 1 1 1 1 1 1 0.050635054919606411 1 1 1 1 1 1 1 1 1 1 1 1 1 1 1 1 1 1 1 1 1 1 1 1 1 1 1 1 1 0.048971271270116648 1 1 1 1 0.049620853604695675 1 1 1 1 1 1 1 1 0.050449893760534152 1 1 1 1 1 1 1 1 0.049350142852972387 1 1 1 1 1 1 1 1 1 1 1 1 1 1 1 1 1 1 1 1 1 1 1 1 1 1 0.047654517587021328 1 1 1 1 1 1 0.043156698417365594 1 0.058776975720729374 1 1 0.049212095966281705 1 1 1 0.060342613768868333 1 0.047841280254596497 1 1 1 0.050083999405206171 1 1 1 0.055961356584546623 1 1 1 1 1 1 0.051614039522522616 1 1 1 1 1 1 1 1 1 1 1 1 1 1 1 1 1 1 1 1 1 1 1 1 1 1 1 0.051924616132820164 1 0.054620667053264974 1 1 1 1 0.052696050920444826 1 1 1 1 1 1 1 1 1 1 1 1 1 0.051230419668938251 1 1 0.051680313429472373 1 1 0.052206871152591081 1 1 1 1 1 0.055953593311242118 1 1 1 1 1 1 1 1 0.050720076337944599 1 0.052163261760180858 1 1 1 1 1 0.049749427123943479 0.048656159888495497 1 1 0.050250423519074022 1 1 1 0.054166222482628194 1 1 1 1 1 1 1 0.049747383305772268 1 1 1 1 1 1 1 1 1 1 1 1 1 1 1 1 0.051618086635628314 1 1 1 1 1 0.053293567422100147 1 0.051808237798768836 1 1 1 1 1 1 1 1 1 1 1 1 0.051975713782788639 1 0.05210317157160084 1 1 1 1 1 1 0.054995231406081882 0.050490384159457315 1 1 1 1 1 1 1 1 1 1 1 1 1 1 1 1 1 1 1 1 1 0.049848751945694172 1 1 0.049570672771876483 1 1 1 1 1 0.050922036968841372 1 1 1 1 1 1 0.049949684901068325 1 1 1 1 1 1 1 1 1 1 1 1 1 1 1 1 0.050321206356993171 1 1 0.052936040531880592 1 1 1 1 0.048739187483721157 1 1 1 1 1 1 1 1 1 1 1 0.049424118648305225 1 1 1 1 1 1 1 1 1 1 1 1 1 1 1 1 1 1 1 0.052892059834481045 1 1 1 1 1 1 1 1 1 1 1 1 0.050258870763598494 1 1 1 1 1 1 1 1 1 1 1 1 1 0.049883831377887558 0.072277743591421126 1 1 1 1 1 1 0.060244679217511365 1 1 1 1 1 1 1 1 1 1 1 1 1 1 1 1 1 1 1 1 1 1 1 1 1 1 1 1 1 1 1 1 1 1 1 0.049820176615447451 1 1 1 1 1 1 1 1 0.049842953866560728 1 1 1 1 1 1 1 1 1 1 1 1 0.050164160223553911 1 1 1 1 0.059237827592053496 1 0.065958212405372779 1 1 1 1 1 1 1 1 0.049265324748488153 1 1 1 1 1 1 1 1 1 1 0.048580393583904043 1 1 1 0.04438100751389204 1 1 0.048877116389313024 1 1 1 1 0.041644931766341632 1 1 0.040296702992243465 1 1 1 1 1 1 1 1 0.046530016272572521 1 1 1 0.044035553070891235 1 1 1 1 1 1 1 0.055867639236945932 1 0.050088663858815649 1 0.063140240264852973 1 0.060507031404411639 0.065904918487801945 1 1 1 0.050143820737877931 0.049906046627125868 0.04711520061875403 1 1 0.062693292693188393 1 1 1 0.03973221769109142 1 1 1 1 0.05032035436509498 1 1 1 1 1 1 1 1 1 1 1 1 1 1 1 1 1 1 1 1 1 1 1 1 1 1 1 1 1 1 1 1 1 1 1 1 1 1 0.050210182589768983 1 1 1 1 1 1 1 1 0.04817088546524495 1 1 1 1 0.047808438766327017 1 1 0.049302597795665232 1 1 0.048455599109157983 1 1 1 1 0.049367321017994174 1 1 1 1 1 0.049182909593971903 1 1 1 1 1 1 1 1 1 1 1 1 1 0.04692770374894905 0.049755512163518867 1 1 1 0.048732941874008881 1 1 1 1 1 1 1 1 1 1 1 1 1 1 0.050456423654580987 1 1 1 1 1 1 0.050313742347533899 1 1 0.050572613111132377 1 1 1 1 1 1 1 1 1 1 0.051460189831046915 1 1 1 1 1 0.052524019524514631 1 1 1 1 1 1 1 1 1 1 0.046516069155226034 1 1 1 1 1 1 1 1 1 1 1 1 1 1 1 0.04997627359287396 1 1 1 1 1 1 1 1 1 1 1 1 1 1 1 1 1 1 1 1 1 1 1 0.050060057233852484 1 0.048064152716043376 1 1 1 0.050270239823621464 1 1 1 1 1 1 1 1 1 0.049467623237884922 1 1 1 0.046629075559930372 1 1 1 1 1 1 1 1 1 1 1 1 1 1 1 1 0.058838539593531816 1 1 1 1 1 0.045819830743751726 1 1 1 0.05947946760445267 1 0.050012016463173714 1 1 1 1 1 1 0.057980545471970409 1 1 1 1 1 1 1 1 1 1 1 1 1 1 1 1 1 1 1 1 1 1 1 1 1 1 1 0.047579326041415168 1 1 0.049232996794722428 1 1 1 1 1 1 1 0.050311609846411955 1 1 1 1 0.049842664881492187 1 1 0.049843179273873106 1 1 1 1 1 1 0.050086127905629912 1 1 1 0.050041685822443047 1 1 1 0.050041798103520455 1 1 1 1 1 0.051507312272794828 1 1 1 1 1 0.053843622597627927 1 1 1 1 1 1 1 1 0.05680419768662022 1 1 0.049728083797412739 1 1 1 1 0.049175249738686068 1 1 1 1 0.04857303858025866 1 1 1 1 0.05820101566760761 1 1 1 0.055946628583250294 1 0.050061059813723427 1 1 1 1 1 1 1 1 1 1 0.050117303851751782 1 1 1 1 1 1 1 0.050212616439044656 0.057478085804813769 1 1 1 1 1 0.059159546968094667 1 1 1 1 1 0.056571285888431064 1 1 1 0.050674870051129424 1 1 0.049953983621251467 1 1 0.048913653303120169 1 1 1 0.05974928970832933 1 1 1 1 1 1 0.05047252821250766 1 1 1 1 1 0.050074458138439998 1 1 1 1 1 0.050031252780974353 1 1 1 1 1 1 0.050273457784095574 1 1 1 1 0.046639749792909982 1 1 1 1 1 0.04971525114190431 1 1 1 1 1 1 1 1 1 1 0.046368715285579919 1 1 1 1 1 1 1 0.048184317154587798 1 1 1 1 0.049501298352306496 0.048580385635067648 1 1 0.055301392081869183 1 1 1 1 1 1 1 0.051825837636761345 1 1 1 1 1 1 1 0.047482722701413849 1 0.049273103611260374 1 1 0.048523460708863174 1 1 1 1 0.05078546950076275 1 0.048555614038331779 1 1 1 1 1 1 1 1 1 1 0.049903280292465386 1 1 1 1 1 0.049928338561651034 1 1 1 0.047019780848683163 1 1 1 1 0.049944676032791145 1 1 0.057930710917283551 1 1 1 1 1 0.054578256093497285 1 0.043738461016899599 1 0.049996321424444962 0.053043658604854257 1 1 1 1 0.046448685163285874 0.050477591582256343 1 1 1 1 1 1 1 1 1 1 1 1 1 0.050159422241329257 1 1 1 1 1 1 0.049375247383289793 0.04991162671996506 1 1 1 1 1 1 1 1 1 1 1 1 1 0.049657860845609074 1 1 1 1 1 1 1 1 1 1 1 1 1 1 1 1 1 1 1 1 1 1 1 1 1 1 1 1 1 1 1 1 1 0.049916457847543907 1 1 0.04973910347514611 1 1 1 1 1 1 1 0.049578157791121111 1 1 1 0.050110363821356557 1 1 0.055769438604056351 1 1 1 0.047948998670045116 0.049991176942409316 1 1 1 1 0.044874805374744087 0.049513069366856198 1 1 1 1 1 1 1 1 1 1 1 1 1 1 0.043135796956809372 1 1 0.049998224166985517 1 1 1 0.042298810651408378 1 1 1 1 0.050145042685020028 1 1 0.035193454374731523 1 1 1 1 1 1 1 1 1 1 1 0.026988970509611507 1 1 1 1 1 1 1 0.020940900937177962 1 1 1 1 1 1 1 1 1 1 1 1 1 1 1 1 1 1 0.050948716334205925 1 1 1 1 1 1 0.054310375040445745 1 0.049308446578913957 1 1 1 1 1 0.051011473144638816 1 1 0.053380385087672774 1 1 1 0.033177377387341563 1 1 1 0.050406797369250168 1 1 1 1 1 1 1 1 1 1 1 1 1 1 0.050365412704791626 1 1 1 1 0.051062254902280543 0.053245188975655444 1 1 1 1 1 1 1 1 1 1 1 1 1 1 1 1 1 1 1 0.049640616190611997 1 1 1 1 1 1 1 1 0.047859726831680008 1 0.048866331220967799 1 1 1 1 1 1 1 0.049995246140981407 1 0.04975020522772057 1 1 1 1 1 0.046820657217047673 1 1 1 1 1 1 0.049841248577480443 1 1 1 1 1 0.052596499696119764 0.054752450202474531 1 1 1 0.057215096513411952 0.043880997808219205 0.045503108536281894 1 1 1 1 1 0.05730907413102778 1 1 1 1 1 0.041456696950857304 1 1 1 1 0.044550148151384888 1 0.057363703566343911 0.052859470270603622 1 0.044345841893264834 0.048765005936528452 1 1 1 0.047796741831632503 1 1 1 0.044012343636449847 1 1 1 0.046637623683143864 1 1 1 0.045686258283745382 1 1 1 1 1 1 1 1 0.048999427412346912 1 1 1 0.047961407084886366 1 1 1 1 1 1 0.050065030160621582 1 1 1 1 1 1 0.046183556181644429 1 1 1 1 1 1 1 1 1 1 1 1 1 1 0.049786626027554959 1 0.056663959283597812 1 1 1 0.046527114480002491 1 1 0.050104690485289212 1 0.053535282765535777 1 0.051402940312881881 1 1 0.045772729409618747 1 1 1 1 1 1 0.052170308719763463 1 1 1 1 0.049907634207786204 1 1 1 1 1 1 0.050745848662750205 1 1 1 1 1 1 1 1 1 1 0.050458592612808342 1 1 1 1 1 1 1 1 1 1 1 1 1 1 1 1 1 1 1 0.062199096382154956 0.051637017541834397 1 1 1 0.0593379189411187 1 1 0.056425449694795682 1 1 0.057359450931944181 1 1 0.046900956039847223 1 1 0.052661669740629385 0.04829908153551931 1 1 1 1 0.059616832514587201 1 1 1 1 1 1 1 1 1 1 1 0.057591353132007778 0.046253549846964573 1 1 1 0.05561558500631314 1 0.050014271464066132 1 0.050013262364133046 1 1 1 1 1 0.050120851943009317 1 1 0.051260870426710833 1 0.052689840732285415 1 1 0.050010285145831203 0.052632590480053677 0.052448166342652265 1 1 1 1 0.051423068009514059 1 1 0.051750135508029066 1 0.05503291329218158 1 1 0.04693242803059515 1 1 1 1 1 1 1 1 0.054512501816836846 1 0.054363095541091831 0.051889056142702339 1 1 1 1 1 0.050069534197374518 0.053194757770829826 1 1 1 0.05846548200921331 0.055494315804366798 1 1 1 1 1 1 1 1 0.050032197693379084 1 0.052187239589473161 1 1 1 1 1 1 1 1 1 1 1 1 1 1 1 1 1 1 1 1 1 1 1 1 1 1 1 1 1 0.050107440755529351 1 1 1 1 1 1 1 1 1 1 1 1 1 1 1 0.050701176205627238 1 1 0.050068402244080337 1 1 1 1 1 0.050079613122496695 1 1 1 1 1 1 1 1 1 1 1 1 1 0.049988789121583665 1 1 1 1 1 1 1 1 1 0.049474213580432413 1 1 0.053432798347434363 1 1 1 1 0.049998954475547301 0.049175894127824242 0.057094959466659503 1 1 1 1 1 0.052092035235259293 1 1 1 
</DataArray>
</CellData>
</Piece>
</UnstructuredGrid>
</VTKFile>
